<?xml version="1.0"?> 
<VTKFile type="UnstructuredGrid"> 
   <UnstructuredGrid> 
      <Piece NumberOfPoints="6000"  NumberOfCells="1500">  
          <Points>  
             <DataArray type="Float64" NumberOfComponents="3" format="ascii">   
-500.0   0.0   0.0
-450.0   0.0   0.0
-500.0   30.0   0.0
-500.0   0.0   16.666666666666668
-450.0   0.0   0.0
-450.0   30.0   0.0
-500.0   30.0   0.0
-450.0   30.0   16.666666666666668
-500.0   0.0   16.666666666666668
-500.0   30.0   16.666666666666668
-450.0   30.0   16.666666666666668
-500.0   30.0   0.0
-500.0   0.0   16.666666666666668
-450.0   30.0   16.666666666666668
-450.0   0.0   16.666666666666668
-450.0   0.0   0.0
-500.0   0.0   16.666666666666668
-450.0   30.0   16.666666666666668
-450.0   0.0   0.0
-500.0   30.0   0.0
-500.0   0.0   16.666666666666668
-450.0   0.0   16.666666666666668
-500.0   30.0   16.666666666666668
-500.0   0.0   33.333333333333336
-450.0   0.0   16.666666666666668
-450.0   30.0   16.666666666666668
-500.0   30.0   16.666666666666668
-450.0   30.0   33.333333333333336
-500.0   0.0   33.333333333333336
-500.0   30.0   33.333333333333336
-450.0   30.0   33.333333333333336
-500.0   30.0   16.666666666666668
-500.0   0.0   33.333333333333336
-450.0   30.0   33.333333333333336
-450.0   0.0   33.333333333333336
-450.0   0.0   16.666666666666668
-500.0   0.0   33.333333333333336
-450.0   30.0   33.333333333333336
-450.0   0.0   16.666666666666668
-500.0   30.0   16.666666666666668
-500.0   0.0   33.333333333333336
-450.0   0.0   33.333333333333336
-500.0   30.0   33.333333333333336
-500.0   0.0   50.0
-450.0   0.0   33.333333333333336
-450.0   30.0   33.333333333333336
-500.0   30.0   33.333333333333336
-450.0   30.0   50.0
-500.0   0.0   50.0
-500.0   30.0   50.0
-450.0   30.0   50.0
-500.0   30.0   33.333333333333336
-500.0   0.0   50.0
-450.0   30.0   50.0
-450.0   0.0   50.0
-450.0   0.0   33.333333333333336
-500.0   0.0   50.0
-450.0   30.0   50.0
-450.0   0.0   33.333333333333336
-500.0   30.0   33.333333333333336
-500.0   30.0   0.0
-450.0   30.0   0.0
-500.0   60.0   0.0
-500.0   30.0   16.666666666666668
-450.0   30.0   0.0
-450.0   60.0   0.0
-500.0   60.0   0.0
-450.0   60.0   16.666666666666668
-500.0   30.0   16.666666666666668
-500.0   60.0   16.666666666666668
-450.0   60.0   16.666666666666668
-500.0   60.0   0.0
-500.0   30.0   16.666666666666668
-450.0   60.0   16.666666666666668
-450.0   30.0   16.666666666666668
-450.0   30.0   0.0
-500.0   30.0   16.666666666666668
-450.0   60.0   16.666666666666668
-450.0   30.0   0.0
-500.0   60.0   0.0
-500.0   30.0   16.666666666666668
-450.0   30.0   16.666666666666668
-500.0   60.0   16.666666666666668
-500.0   30.0   33.333333333333336
-450.0   30.0   16.666666666666668
-450.0   60.0   16.666666666666668
-500.0   60.0   16.666666666666668
-450.0   60.0   33.333333333333336
-500.0   30.0   33.333333333333336
-500.0   60.0   33.333333333333336
-450.0   60.0   33.333333333333336
-500.0   60.0   16.666666666666668
-500.0   30.0   33.333333333333336
-450.0   60.0   33.333333333333336
-450.0   30.0   33.333333333333336
-450.0   30.0   16.666666666666668
-500.0   30.0   33.333333333333336
-450.0   60.0   33.333333333333336
-450.0   30.0   16.666666666666668
-500.0   60.0   16.666666666666668
-500.0   30.0   33.333333333333336
-450.0   30.0   33.333333333333336
-500.0   60.0   33.333333333333336
-500.0   30.0   50.0
-450.0   30.0   33.333333333333336
-450.0   60.0   33.333333333333336
-500.0   60.0   33.333333333333336
-450.0   60.0   50.0
-500.0   30.0   50.0
-500.0   60.0   50.0
-450.0   60.0   50.0
-500.0   60.0   33.333333333333336
-500.0   30.0   50.0
-450.0   60.0   50.0
-450.0   30.0   50.0
-450.0   30.0   33.333333333333336
-500.0   30.0   50.0
-450.0   60.0   50.0
-450.0   30.0   33.333333333333336
-500.0   60.0   33.333333333333336
-500.0   60.0   0.0
-450.0   60.0   0.0
-500.0   90.0   0.0
-500.0   60.0   16.666666666666668
-450.0   60.0   0.0
-450.0   90.0   0.0
-500.0   90.0   0.0
-450.0   90.0   16.666666666666668
-500.0   60.0   16.666666666666668
-500.0   90.0   16.666666666666668
-450.0   90.0   16.666666666666668
-500.0   90.0   0.0
-500.0   60.0   16.666666666666668
-450.0   90.0   16.666666666666668
-450.0   60.0   16.666666666666668
-450.0   60.0   0.0
-500.0   60.0   16.666666666666668
-450.0   90.0   16.666666666666668
-450.0   60.0   0.0
-500.0   90.0   0.0
-500.0   60.0   16.666666666666668
-450.0   60.0   16.666666666666668
-500.0   90.0   16.666666666666668
-500.0   60.0   33.333333333333336
-450.0   60.0   16.666666666666668
-450.0   90.0   16.666666666666668
-500.0   90.0   16.666666666666668
-450.0   90.0   33.333333333333336
-500.0   60.0   33.333333333333336
-500.0   90.0   33.333333333333336
-450.0   90.0   33.333333333333336
-500.0   90.0   16.666666666666668
-500.0   60.0   33.333333333333336
-450.0   90.0   33.333333333333336
-450.0   60.0   33.333333333333336
-450.0   60.0   16.666666666666668
-500.0   60.0   33.333333333333336
-450.0   90.0   33.333333333333336
-450.0   60.0   16.666666666666668
-500.0   90.0   16.666666666666668
-500.0   60.0   33.333333333333336
-450.0   60.0   33.333333333333336
-500.0   90.0   33.333333333333336
-500.0   60.0   50.0
-450.0   60.0   33.333333333333336
-450.0   90.0   33.333333333333336
-500.0   90.0   33.333333333333336
-450.0   90.0   50.0
-500.0   60.0   50.0
-500.0   90.0   50.0
-450.0   90.0   50.0
-500.0   90.0   33.333333333333336
-500.0   60.0   50.0
-450.0   90.0   50.0
-450.0   60.0   50.0
-450.0   60.0   33.333333333333336
-500.0   60.0   50.0
-450.0   90.0   50.0
-450.0   60.0   33.333333333333336
-500.0   90.0   33.333333333333336
-500.0   90.0   0.0
-450.0   90.0   0.0
-500.0   120.0   0.0
-500.0   90.0   16.666666666666668
-450.0   90.0   0.0
-450.0   120.0   0.0
-500.0   120.0   0.0
-450.0   120.0   16.666666666666668
-500.0   90.0   16.666666666666668
-500.0   120.0   16.666666666666668
-450.0   120.0   16.666666666666668
-500.0   120.0   0.0
-500.0   90.0   16.666666666666668
-450.0   120.0   16.666666666666668
-450.0   90.0   16.666666666666668
-450.0   90.0   0.0
-500.0   90.0   16.666666666666668
-450.0   120.0   16.666666666666668
-450.0   90.0   0.0
-500.0   120.0   0.0
-500.0   90.0   16.666666666666668
-450.0   90.0   16.666666666666668
-500.0   120.0   16.666666666666668
-500.0   90.0   33.333333333333336
-450.0   90.0   16.666666666666668
-450.0   120.0   16.666666666666668
-500.0   120.0   16.666666666666668
-450.0   120.0   33.333333333333336
-500.0   90.0   33.333333333333336
-500.0   120.0   33.333333333333336
-450.0   120.0   33.333333333333336
-500.0   120.0   16.666666666666668
-500.0   90.0   33.333333333333336
-450.0   120.0   33.333333333333336
-450.0   90.0   33.333333333333336
-450.0   90.0   16.666666666666668
-500.0   90.0   33.333333333333336
-450.0   120.0   33.333333333333336
-450.0   90.0   16.666666666666668
-500.0   120.0   16.666666666666668
-500.0   90.0   33.333333333333336
-450.0   90.0   33.333333333333336
-500.0   120.0   33.333333333333336
-500.0   90.0   50.0
-450.0   90.0   33.333333333333336
-450.0   120.0   33.333333333333336
-500.0   120.0   33.333333333333336
-450.0   120.0   50.0
-500.0   90.0   50.0
-500.0   120.0   50.0
-450.0   120.0   50.0
-500.0   120.0   33.333333333333336
-500.0   90.0   50.0
-450.0   120.0   50.0
-450.0   90.0   50.0
-450.0   90.0   33.333333333333336
-500.0   90.0   50.0
-450.0   120.0   50.0
-450.0   90.0   33.333333333333336
-500.0   120.0   33.333333333333336
-500.0   120.0   0.0
-450.0   120.0   0.0
-500.0   150.0   0.0
-500.0   120.0   16.666666666666668
-450.0   120.0   0.0
-450.0   150.0   0.0
-500.0   150.0   0.0
-450.0   150.0   16.666666666666668
-500.0   120.0   16.666666666666668
-500.0   150.0   16.666666666666668
-450.0   150.0   16.666666666666668
-500.0   150.0   0.0
-500.0   120.0   16.666666666666668
-450.0   150.0   16.666666666666668
-450.0   120.0   16.666666666666668
-450.0   120.0   0.0
-500.0   120.0   16.666666666666668
-450.0   150.0   16.666666666666668
-450.0   120.0   0.0
-500.0   150.0   0.0
-500.0   120.0   16.666666666666668
-450.0   120.0   16.666666666666668
-500.0   150.0   16.666666666666668
-500.0   120.0   33.333333333333336
-450.0   120.0   16.666666666666668
-450.0   150.0   16.666666666666668
-500.0   150.0   16.666666666666668
-450.0   150.0   33.333333333333336
-500.0   120.0   33.333333333333336
-500.0   150.0   33.333333333333336
-450.0   150.0   33.333333333333336
-500.0   150.0   16.666666666666668
-500.0   120.0   33.333333333333336
-450.0   150.0   33.333333333333336
-450.0   120.0   33.333333333333336
-450.0   120.0   16.666666666666668
-500.0   120.0   33.333333333333336
-450.0   150.0   33.333333333333336
-450.0   120.0   16.666666666666668
-500.0   150.0   16.666666666666668
-500.0   120.0   33.333333333333336
-450.0   120.0   33.333333333333336
-500.0   150.0   33.333333333333336
-500.0   120.0   50.0
-450.0   120.0   33.333333333333336
-450.0   150.0   33.333333333333336
-500.0   150.0   33.333333333333336
-450.0   150.0   50.0
-500.0   120.0   50.0
-500.0   150.0   50.0
-450.0   150.0   50.0
-500.0   150.0   33.333333333333336
-500.0   120.0   50.0
-450.0   150.0   50.0
-450.0   120.0   50.0
-450.0   120.0   33.333333333333336
-500.0   120.0   50.0
-450.0   150.0   50.0
-450.0   120.0   33.333333333333336
-500.0   150.0   33.333333333333336
-450.0   0.0   0.0
-400.0   0.0   0.0
-450.0   30.0   0.0
-450.0   0.0   16.666666666666668
-400.0   0.0   0.0
-400.0   30.0   0.0
-450.0   30.0   0.0
-400.0   30.0   16.666666666666668
-450.0   0.0   16.666666666666668
-450.0   30.0   16.666666666666668
-400.0   30.0   16.666666666666668
-450.0   30.0   0.0
-450.0   0.0   16.666666666666668
-400.0   30.0   16.666666666666668
-400.0   0.0   16.666666666666668
-400.0   0.0   0.0
-450.0   0.0   16.666666666666668
-400.0   30.0   16.666666666666668
-400.0   0.0   0.0
-450.0   30.0   0.0
-450.0   0.0   16.666666666666668
-400.0   0.0   16.666666666666668
-450.0   30.0   16.666666666666668
-450.0   0.0   33.333333333333336
-400.0   0.0   16.666666666666668
-400.0   30.0   16.666666666666668
-450.0   30.0   16.666666666666668
-400.0   30.0   33.333333333333336
-450.0   0.0   33.333333333333336
-450.0   30.0   33.333333333333336
-400.0   30.0   33.333333333333336
-450.0   30.0   16.666666666666668
-450.0   0.0   33.333333333333336
-400.0   30.0   33.333333333333336
-400.0   0.0   33.333333333333336
-400.0   0.0   16.666666666666668
-450.0   0.0   33.333333333333336
-400.0   30.0   33.333333333333336
-400.0   0.0   16.666666666666668
-450.0   30.0   16.666666666666668
-450.0   0.0   33.333333333333336
-400.0   0.0   33.333333333333336
-450.0   30.0   33.333333333333336
-450.0   0.0   50.0
-400.0   0.0   33.333333333333336
-400.0   30.0   33.333333333333336
-450.0   30.0   33.333333333333336
-400.0   30.0   50.0
-450.0   0.0   50.0
-450.0   30.0   50.0
-400.0   30.0   50.0
-450.0   30.0   33.333333333333336
-450.0   0.0   50.0
-400.0   30.0   50.0
-400.0   0.0   50.0
-400.0   0.0   33.333333333333336
-450.0   0.0   50.0
-400.0   30.0   50.0
-400.0   0.0   33.333333333333336
-450.0   30.0   33.333333333333336
-450.0   30.0   0.0
-400.0   30.0   0.0
-450.0   60.0   0.0
-450.0   30.0   16.666666666666668
-400.0   30.0   0.0
-400.0   60.0   0.0
-450.0   60.0   0.0
-400.0   60.0   16.666666666666668
-450.0   30.0   16.666666666666668
-450.0   60.0   16.666666666666668
-400.0   60.0   16.666666666666668
-450.0   60.0   0.0
-450.0   30.0   16.666666666666668
-400.0   60.0   16.666666666666668
-400.0   30.0   16.666666666666668
-400.0   30.0   0.0
-450.0   30.0   16.666666666666668
-400.0   60.0   16.666666666666668
-400.0   30.0   0.0
-450.0   60.0   0.0
-450.0   30.0   16.666666666666668
-400.0   30.0   16.666666666666668
-450.0   60.0   16.666666666666668
-450.0   30.0   33.333333333333336
-400.0   30.0   16.666666666666668
-400.0   60.0   16.666666666666668
-450.0   60.0   16.666666666666668
-400.0   60.0   33.333333333333336
-450.0   30.0   33.333333333333336
-450.0   60.0   33.333333333333336
-400.0   60.0   33.333333333333336
-450.0   60.0   16.666666666666668
-450.0   30.0   33.333333333333336
-400.0   60.0   33.333333333333336
-400.0   30.0   33.333333333333336
-400.0   30.0   16.666666666666668
-450.0   30.0   33.333333333333336
-400.0   60.0   33.333333333333336
-400.0   30.0   16.666666666666668
-450.0   60.0   16.666666666666668
-450.0   30.0   33.333333333333336
-400.0   30.0   33.333333333333336
-450.0   60.0   33.333333333333336
-450.0   30.0   50.0
-400.0   30.0   33.333333333333336
-400.0   60.0   33.333333333333336
-450.0   60.0   33.333333333333336
-400.0   60.0   50.0
-450.0   30.0   50.0
-450.0   60.0   50.0
-400.0   60.0   50.0
-450.0   60.0   33.333333333333336
-450.0   30.0   50.0
-400.0   60.0   50.0
-400.0   30.0   50.0
-400.0   30.0   33.333333333333336
-450.0   30.0   50.0
-400.0   60.0   50.0
-400.0   30.0   33.333333333333336
-450.0   60.0   33.333333333333336
-450.0   60.0   0.0
-400.0   60.0   0.0
-450.0   90.0   0.0
-450.0   60.0   16.666666666666668
-400.0   60.0   0.0
-400.0   90.0   0.0
-450.0   90.0   0.0
-400.0   90.0   16.666666666666668
-450.0   60.0   16.666666666666668
-450.0   90.0   16.666666666666668
-400.0   90.0   16.666666666666668
-450.0   90.0   0.0
-450.0   60.0   16.666666666666668
-400.0   90.0   16.666666666666668
-400.0   60.0   16.666666666666668
-400.0   60.0   0.0
-450.0   60.0   16.666666666666668
-400.0   90.0   16.666666666666668
-400.0   60.0   0.0
-450.0   90.0   0.0
-450.0   60.0   16.666666666666668
-400.0   60.0   16.666666666666668
-450.0   90.0   16.666666666666668
-450.0   60.0   33.333333333333336
-400.0   60.0   16.666666666666668
-400.0   90.0   16.666666666666668
-450.0   90.0   16.666666666666668
-400.0   90.0   33.333333333333336
-450.0   60.0   33.333333333333336
-450.0   90.0   33.333333333333336
-400.0   90.0   33.333333333333336
-450.0   90.0   16.666666666666668
-450.0   60.0   33.333333333333336
-400.0   90.0   33.333333333333336
-400.0   60.0   33.333333333333336
-400.0   60.0   16.666666666666668
-450.0   60.0   33.333333333333336
-400.0   90.0   33.333333333333336
-400.0   60.0   16.666666666666668
-450.0   90.0   16.666666666666668
-450.0   60.0   33.333333333333336
-400.0   60.0   33.333333333333336
-450.0   90.0   33.333333333333336
-450.0   60.0   50.0
-400.0   60.0   33.333333333333336
-400.0   90.0   33.333333333333336
-450.0   90.0   33.333333333333336
-400.0   90.0   50.0
-450.0   60.0   50.0
-450.0   90.0   50.0
-400.0   90.0   50.0
-450.0   90.0   33.333333333333336
-450.0   60.0   50.0
-400.0   90.0   50.0
-400.0   60.0   50.0
-400.0   60.0   33.333333333333336
-450.0   60.0   50.0
-400.0   90.0   50.0
-400.0   60.0   33.333333333333336
-450.0   90.0   33.333333333333336
-450.0   90.0   0.0
-400.0   90.0   0.0
-450.0   120.0   0.0
-450.0   90.0   16.666666666666668
-400.0   90.0   0.0
-400.0   120.0   0.0
-450.0   120.0   0.0
-400.0   120.0   16.666666666666668
-450.0   90.0   16.666666666666668
-450.0   120.0   16.666666666666668
-400.0   120.0   16.666666666666668
-450.0   120.0   0.0
-450.0   90.0   16.666666666666668
-400.0   120.0   16.666666666666668
-400.0   90.0   16.666666666666668
-400.0   90.0   0.0
-450.0   90.0   16.666666666666668
-400.0   120.0   16.666666666666668
-400.0   90.0   0.0
-450.0   120.0   0.0
-450.0   90.0   16.666666666666668
-400.0   90.0   16.666666666666668
-450.0   120.0   16.666666666666668
-450.0   90.0   33.333333333333336
-400.0   90.0   16.666666666666668
-400.0   120.0   16.666666666666668
-450.0   120.0   16.666666666666668
-400.0   120.0   33.333333333333336
-450.0   90.0   33.333333333333336
-450.0   120.0   33.333333333333336
-400.0   120.0   33.333333333333336
-450.0   120.0   16.666666666666668
-450.0   90.0   33.333333333333336
-400.0   120.0   33.333333333333336
-400.0   90.0   33.333333333333336
-400.0   90.0   16.666666666666668
-450.0   90.0   33.333333333333336
-400.0   120.0   33.333333333333336
-400.0   90.0   16.666666666666668
-450.0   120.0   16.666666666666668
-450.0   90.0   33.333333333333336
-400.0   90.0   33.333333333333336
-450.0   120.0   33.333333333333336
-450.0   90.0   50.0
-400.0   90.0   33.333333333333336
-400.0   120.0   33.333333333333336
-450.0   120.0   33.333333333333336
-400.0   120.0   50.0
-450.0   90.0   50.0
-450.0   120.0   50.0
-400.0   120.0   50.0
-450.0   120.0   33.333333333333336
-450.0   90.0   50.0
-400.0   120.0   50.0
-400.0   90.0   50.0
-400.0   90.0   33.333333333333336
-450.0   90.0   50.0
-400.0   120.0   50.0
-400.0   90.0   33.333333333333336
-450.0   120.0   33.333333333333336
-450.0   120.0   0.0
-400.0   120.0   0.0
-450.0   150.0   0.0
-450.0   120.0   16.666666666666668
-400.0   120.0   0.0
-400.0   150.0   0.0
-450.0   150.0   0.0
-400.0   150.0   16.666666666666668
-450.0   120.0   16.666666666666668
-450.0   150.0   16.666666666666668
-400.0   150.0   16.666666666666668
-450.0   150.0   0.0
-450.0   120.0   16.666666666666668
-400.0   150.0   16.666666666666668
-400.0   120.0   16.666666666666668
-400.0   120.0   0.0
-450.0   120.0   16.666666666666668
-400.0   150.0   16.666666666666668
-400.0   120.0   0.0
-450.0   150.0   0.0
-450.0   120.0   16.666666666666668
-400.0   120.0   16.666666666666668
-450.0   150.0   16.666666666666668
-450.0   120.0   33.333333333333336
-400.0   120.0   16.666666666666668
-400.0   150.0   16.666666666666668
-450.0   150.0   16.666666666666668
-400.0   150.0   33.333333333333336
-450.0   120.0   33.333333333333336
-450.0   150.0   33.333333333333336
-400.0   150.0   33.333333333333336
-450.0   150.0   16.666666666666668
-450.0   120.0   33.333333333333336
-400.0   150.0   33.333333333333336
-400.0   120.0   33.333333333333336
-400.0   120.0   16.666666666666668
-450.0   120.0   33.333333333333336
-400.0   150.0   33.333333333333336
-400.0   120.0   16.666666666666668
-450.0   150.0   16.666666666666668
-450.0   120.0   33.333333333333336
-400.0   120.0   33.333333333333336
-450.0   150.0   33.333333333333336
-450.0   120.0   50.0
-400.0   120.0   33.333333333333336
-400.0   150.0   33.333333333333336
-450.0   150.0   33.333333333333336
-400.0   150.0   50.0
-450.0   120.0   50.0
-450.0   150.0   50.0
-400.0   150.0   50.0
-450.0   150.0   33.333333333333336
-450.0   120.0   50.0
-400.0   150.0   50.0
-400.0   120.0   50.0
-400.0   120.0   33.333333333333336
-450.0   120.0   50.0
-400.0   150.0   50.0
-400.0   120.0   33.333333333333336
-450.0   150.0   33.333333333333336
-400.0   0.0   0.0
-350.0   0.0   0.0
-400.0   30.0   0.0
-400.0   0.0   16.666666666666668
-350.0   0.0   0.0
-350.0   30.0   0.0
-400.0   30.0   0.0
-350.0   30.0   16.666666666666668
-400.0   0.0   16.666666666666668
-400.0   30.0   16.666666666666668
-350.0   30.0   16.666666666666668
-400.0   30.0   0.0
-400.0   0.0   16.666666666666668
-350.0   30.0   16.666666666666668
-350.0   0.0   16.666666666666668
-350.0   0.0   0.0
-400.0   0.0   16.666666666666668
-350.0   30.0   16.666666666666668
-350.0   0.0   0.0
-400.0   30.0   0.0
-400.0   0.0   16.666666666666668
-350.0   0.0   16.666666666666668
-400.0   30.0   16.666666666666668
-400.0   0.0   33.333333333333336
-350.0   0.0   16.666666666666668
-350.0   30.0   16.666666666666668
-400.0   30.0   16.666666666666668
-350.0   30.0   33.333333333333336
-400.0   0.0   33.333333333333336
-400.0   30.0   33.333333333333336
-350.0   30.0   33.333333333333336
-400.0   30.0   16.666666666666668
-400.0   0.0   33.333333333333336
-350.0   30.0   33.333333333333336
-350.0   0.0   33.333333333333336
-350.0   0.0   16.666666666666668
-400.0   0.0   33.333333333333336
-350.0   30.0   33.333333333333336
-350.0   0.0   16.666666666666668
-400.0   30.0   16.666666666666668
-400.0   0.0   33.333333333333336
-350.0   0.0   33.333333333333336
-400.0   30.0   33.333333333333336
-400.0   0.0   50.0
-350.0   0.0   33.333333333333336
-350.0   30.0   33.333333333333336
-400.0   30.0   33.333333333333336
-350.0   30.0   50.0
-400.0   0.0   50.0
-400.0   30.0   50.0
-350.0   30.0   50.0
-400.0   30.0   33.333333333333336
-400.0   0.0   50.0
-350.0   30.0   50.0
-350.0   0.0   50.0
-350.0   0.0   33.333333333333336
-400.0   0.0   50.0
-350.0   30.0   50.0
-350.0   0.0   33.333333333333336
-400.0   30.0   33.333333333333336
-400.0   30.0   0.0
-350.0   30.0   0.0
-400.0   60.0   0.0
-400.0   30.0   16.666666666666668
-350.0   30.0   0.0
-350.0   60.0   0.0
-400.0   60.0   0.0
-350.0   60.0   16.666666666666668
-400.0   30.0   16.666666666666668
-400.0   60.0   16.666666666666668
-350.0   60.0   16.666666666666668
-400.0   60.0   0.0
-400.0   30.0   16.666666666666668
-350.0   60.0   16.666666666666668
-350.0   30.0   16.666666666666668
-350.0   30.0   0.0
-400.0   30.0   16.666666666666668
-350.0   60.0   16.666666666666668
-350.0   30.0   0.0
-400.0   60.0   0.0
-400.0   30.0   16.666666666666668
-350.0   30.0   16.666666666666668
-400.0   60.0   16.666666666666668
-400.0   30.0   33.333333333333336
-350.0   30.0   16.666666666666668
-350.0   60.0   16.666666666666668
-400.0   60.0   16.666666666666668
-350.0   60.0   33.333333333333336
-400.0   30.0   33.333333333333336
-400.0   60.0   33.333333333333336
-350.0   60.0   33.333333333333336
-400.0   60.0   16.666666666666668
-400.0   30.0   33.333333333333336
-350.0   60.0   33.333333333333336
-350.0   30.0   33.333333333333336
-350.0   30.0   16.666666666666668
-400.0   30.0   33.333333333333336
-350.0   60.0   33.333333333333336
-350.0   30.0   16.666666666666668
-400.0   60.0   16.666666666666668
-400.0   30.0   33.333333333333336
-350.0   30.0   33.333333333333336
-400.0   60.0   33.333333333333336
-400.0   30.0   50.0
-350.0   30.0   33.333333333333336
-350.0   60.0   33.333333333333336
-400.0   60.0   33.333333333333336
-350.0   60.0   50.0
-400.0   30.0   50.0
-400.0   60.0   50.0
-350.0   60.0   50.0
-400.0   60.0   33.333333333333336
-400.0   30.0   50.0
-350.0   60.0   50.0
-350.0   30.0   50.0
-350.0   30.0   33.333333333333336
-400.0   30.0   50.0
-350.0   60.0   50.0
-350.0   30.0   33.333333333333336
-400.0   60.0   33.333333333333336
-400.0   60.0   0.0
-350.0   60.0   0.0
-400.0   90.0   0.0
-400.0   60.0   16.666666666666668
-350.0   60.0   0.0
-350.0   90.0   0.0
-400.0   90.0   0.0
-350.0   90.0   16.666666666666668
-400.0   60.0   16.666666666666668
-400.0   90.0   16.666666666666668
-350.0   90.0   16.666666666666668
-400.0   90.0   0.0
-400.0   60.0   16.666666666666668
-350.0   90.0   16.666666666666668
-350.0   60.0   16.666666666666668
-350.0   60.0   0.0
-400.0   60.0   16.666666666666668
-350.0   90.0   16.666666666666668
-350.0   60.0   0.0
-400.0   90.0   0.0
-400.0   60.0   16.666666666666668
-350.0   60.0   16.666666666666668
-400.0   90.0   16.666666666666668
-400.0   60.0   33.333333333333336
-350.0   60.0   16.666666666666668
-350.0   90.0   16.666666666666668
-400.0   90.0   16.666666666666668
-350.0   90.0   33.333333333333336
-400.0   60.0   33.333333333333336
-400.0   90.0   33.333333333333336
-350.0   90.0   33.333333333333336
-400.0   90.0   16.666666666666668
-400.0   60.0   33.333333333333336
-350.0   90.0   33.333333333333336
-350.0   60.0   33.333333333333336
-350.0   60.0   16.666666666666668
-400.0   60.0   33.333333333333336
-350.0   90.0   33.333333333333336
-350.0   60.0   16.666666666666668
-400.0   90.0   16.666666666666668
-400.0   60.0   33.333333333333336
-350.0   60.0   33.333333333333336
-400.0   90.0   33.333333333333336
-400.0   60.0   50.0
-350.0   60.0   33.333333333333336
-350.0   90.0   33.333333333333336
-400.0   90.0   33.333333333333336
-350.0   90.0   50.0
-400.0   60.0   50.0
-400.0   90.0   50.0
-350.0   90.0   50.0
-400.0   90.0   33.333333333333336
-400.0   60.0   50.0
-350.0   90.0   50.0
-350.0   60.0   50.0
-350.0   60.0   33.333333333333336
-400.0   60.0   50.0
-350.0   90.0   50.0
-350.0   60.0   33.333333333333336
-400.0   90.0   33.333333333333336
-400.0   90.0   0.0
-350.0   90.0   0.0
-400.0   120.0   0.0
-400.0   90.0   16.666666666666668
-350.0   90.0   0.0
-350.0   120.0   0.0
-400.0   120.0   0.0
-350.0   120.0   16.666666666666668
-400.0   90.0   16.666666666666668
-400.0   120.0   16.666666666666668
-350.0   120.0   16.666666666666668
-400.0   120.0   0.0
-400.0   90.0   16.666666666666668
-350.0   120.0   16.666666666666668
-350.0   90.0   16.666666666666668
-350.0   90.0   0.0
-400.0   90.0   16.666666666666668
-350.0   120.0   16.666666666666668
-350.0   90.0   0.0
-400.0   120.0   0.0
-400.0   90.0   16.666666666666668
-350.0   90.0   16.666666666666668
-400.0   120.0   16.666666666666668
-400.0   90.0   33.333333333333336
-350.0   90.0   16.666666666666668
-350.0   120.0   16.666666666666668
-400.0   120.0   16.666666666666668
-350.0   120.0   33.333333333333336
-400.0   90.0   33.333333333333336
-400.0   120.0   33.333333333333336
-350.0   120.0   33.333333333333336
-400.0   120.0   16.666666666666668
-400.0   90.0   33.333333333333336
-350.0   120.0   33.333333333333336
-350.0   90.0   33.333333333333336
-350.0   90.0   16.666666666666668
-400.0   90.0   33.333333333333336
-350.0   120.0   33.333333333333336
-350.0   90.0   16.666666666666668
-400.0   120.0   16.666666666666668
-400.0   90.0   33.333333333333336
-350.0   90.0   33.333333333333336
-400.0   120.0   33.333333333333336
-400.0   90.0   50.0
-350.0   90.0   33.333333333333336
-350.0   120.0   33.333333333333336
-400.0   120.0   33.333333333333336
-350.0   120.0   50.0
-400.0   90.0   50.0
-400.0   120.0   50.0
-350.0   120.0   50.0
-400.0   120.0   33.333333333333336
-400.0   90.0   50.0
-350.0   120.0   50.0
-350.0   90.0   50.0
-350.0   90.0   33.333333333333336
-400.0   90.0   50.0
-350.0   120.0   50.0
-350.0   90.0   33.333333333333336
-400.0   120.0   33.333333333333336
-400.0   120.0   0.0
-350.0   120.0   0.0
-400.0   150.0   0.0
-400.0   120.0   16.666666666666668
-350.0   120.0   0.0
-350.0   150.0   0.0
-400.0   150.0   0.0
-350.0   150.0   16.666666666666668
-400.0   120.0   16.666666666666668
-400.0   150.0   16.666666666666668
-350.0   150.0   16.666666666666668
-400.0   150.0   0.0
-400.0   120.0   16.666666666666668
-350.0   150.0   16.666666666666668
-350.0   120.0   16.666666666666668
-350.0   120.0   0.0
-400.0   120.0   16.666666666666668
-350.0   150.0   16.666666666666668
-350.0   120.0   0.0
-400.0   150.0   0.0
-400.0   120.0   16.666666666666668
-350.0   120.0   16.666666666666668
-400.0   150.0   16.666666666666668
-400.0   120.0   33.333333333333336
-350.0   120.0   16.666666666666668
-350.0   150.0   16.666666666666668
-400.0   150.0   16.666666666666668
-350.0   150.0   33.333333333333336
-400.0   120.0   33.333333333333336
-400.0   150.0   33.333333333333336
-350.0   150.0   33.333333333333336
-400.0   150.0   16.666666666666668
-400.0   120.0   33.333333333333336
-350.0   150.0   33.333333333333336
-350.0   120.0   33.333333333333336
-350.0   120.0   16.666666666666668
-400.0   120.0   33.333333333333336
-350.0   150.0   33.333333333333336
-350.0   120.0   16.666666666666668
-400.0   150.0   16.666666666666668
-400.0   120.0   33.333333333333336
-350.0   120.0   33.333333333333336
-400.0   150.0   33.333333333333336
-400.0   120.0   50.0
-350.0   120.0   33.333333333333336
-350.0   150.0   33.333333333333336
-400.0   150.0   33.333333333333336
-350.0   150.0   50.0
-400.0   120.0   50.0
-400.0   150.0   50.0
-350.0   150.0   50.0
-400.0   150.0   33.333333333333336
-400.0   120.0   50.0
-350.0   150.0   50.0
-350.0   120.0   50.0
-350.0   120.0   33.333333333333336
-400.0   120.0   50.0
-350.0   150.0   50.0
-350.0   120.0   33.333333333333336
-400.0   150.0   33.333333333333336
-350.0   0.0   0.0
-300.0   0.0   0.0
-350.0   30.0   0.0
-350.0   0.0   16.666666666666668
-300.0   0.0   0.0
-300.0   30.0   0.0
-350.0   30.0   0.0
-300.0   30.0   16.666666666666668
-350.0   0.0   16.666666666666668
-350.0   30.0   16.666666666666668
-300.0   30.0   16.666666666666668
-350.0   30.0   0.0
-350.0   0.0   16.666666666666668
-300.0   30.0   16.666666666666668
-300.0   0.0   16.666666666666668
-300.0   0.0   0.0
-350.0   0.0   16.666666666666668
-300.0   30.0   16.666666666666668
-300.0   0.0   0.0
-350.0   30.0   0.0
-350.0   0.0   16.666666666666668
-300.0   0.0   16.666666666666668
-350.0   30.0   16.666666666666668
-350.0   0.0   33.333333333333336
-300.0   0.0   16.666666666666668
-300.0   30.0   16.666666666666668
-350.0   30.0   16.666666666666668
-300.0   30.0   33.333333333333336
-350.0   0.0   33.333333333333336
-350.0   30.0   33.333333333333336
-300.0   30.0   33.333333333333336
-350.0   30.0   16.666666666666668
-350.0   0.0   33.333333333333336
-300.0   30.0   33.333333333333336
-300.0   0.0   33.333333333333336
-300.0   0.0   16.666666666666668
-350.0   0.0   33.333333333333336
-300.0   30.0   33.333333333333336
-300.0   0.0   16.666666666666668
-350.0   30.0   16.666666666666668
-350.0   0.0   33.333333333333336
-300.0   0.0   33.333333333333336
-350.0   30.0   33.333333333333336
-350.0   0.0   50.0
-300.0   0.0   33.333333333333336
-300.0   30.0   33.333333333333336
-350.0   30.0   33.333333333333336
-300.0   30.0   50.0
-350.0   0.0   50.0
-350.0   30.0   50.0
-300.0   30.0   50.0
-350.0   30.0   33.333333333333336
-350.0   0.0   50.0
-300.0   30.0   50.0
-300.0   0.0   50.0
-300.0   0.0   33.333333333333336
-350.0   0.0   50.0
-300.0   30.0   50.0
-300.0   0.0   33.333333333333336
-350.0   30.0   33.333333333333336
-350.0   30.0   0.0
-300.0   30.0   0.0
-350.0   60.0   0.0
-350.0   30.0   16.666666666666668
-300.0   30.0   0.0
-300.0   60.0   0.0
-350.0   60.0   0.0
-300.0   60.0   16.666666666666668
-350.0   30.0   16.666666666666668
-350.0   60.0   16.666666666666668
-300.0   60.0   16.666666666666668
-350.0   60.0   0.0
-350.0   30.0   16.666666666666668
-300.0   60.0   16.666666666666668
-300.0   30.0   16.666666666666668
-300.0   30.0   0.0
-350.0   30.0   16.666666666666668
-300.0   60.0   16.666666666666668
-300.0   30.0   0.0
-350.0   60.0   0.0
-350.0   30.0   16.666666666666668
-300.0   30.0   16.666666666666668
-350.0   60.0   16.666666666666668
-350.0   30.0   33.333333333333336
-300.0   30.0   16.666666666666668
-300.0   60.0   16.666666666666668
-350.0   60.0   16.666666666666668
-300.0   60.0   33.333333333333336
-350.0   30.0   33.333333333333336
-350.0   60.0   33.333333333333336
-300.0   60.0   33.333333333333336
-350.0   60.0   16.666666666666668
-350.0   30.0   33.333333333333336
-300.0   60.0   33.333333333333336
-300.0   30.0   33.333333333333336
-300.0   30.0   16.666666666666668
-350.0   30.0   33.333333333333336
-300.0   60.0   33.333333333333336
-300.0   30.0   16.666666666666668
-350.0   60.0   16.666666666666668
-350.0   30.0   33.333333333333336
-300.0   30.0   33.333333333333336
-350.0   60.0   33.333333333333336
-350.0   30.0   50.0
-300.0   30.0   33.333333333333336
-300.0   60.0   33.333333333333336
-350.0   60.0   33.333333333333336
-300.0   60.0   50.0
-350.0   30.0   50.0
-350.0   60.0   50.0
-300.0   60.0   50.0
-350.0   60.0   33.333333333333336
-350.0   30.0   50.0
-300.0   60.0   50.0
-300.0   30.0   50.0
-300.0   30.0   33.333333333333336
-350.0   30.0   50.0
-300.0   60.0   50.0
-300.0   30.0   33.333333333333336
-350.0   60.0   33.333333333333336
-350.0   60.0   0.0
-300.0   60.0   0.0
-350.0   90.0   0.0
-350.0   60.0   16.666666666666668
-300.0   60.0   0.0
-300.0   90.0   0.0
-350.0   90.0   0.0
-300.0   90.0   16.666666666666668
-350.0   60.0   16.666666666666668
-350.0   90.0   16.666666666666668
-300.0   90.0   16.666666666666668
-350.0   90.0   0.0
-350.0   60.0   16.666666666666668
-300.0   90.0   16.666666666666668
-300.0   60.0   16.666666666666668
-300.0   60.0   0.0
-350.0   60.0   16.666666666666668
-300.0   90.0   16.666666666666668
-300.0   60.0   0.0
-350.0   90.0   0.0
-350.0   60.0   16.666666666666668
-300.0   60.0   16.666666666666668
-350.0   90.0   16.666666666666668
-350.0   60.0   33.333333333333336
-300.0   60.0   16.666666666666668
-300.0   90.0   16.666666666666668
-350.0   90.0   16.666666666666668
-300.0   90.0   33.333333333333336
-350.0   60.0   33.333333333333336
-350.0   90.0   33.333333333333336
-300.0   90.0   33.333333333333336
-350.0   90.0   16.666666666666668
-350.0   60.0   33.333333333333336
-300.0   90.0   33.333333333333336
-300.0   60.0   33.333333333333336
-300.0   60.0   16.666666666666668
-350.0   60.0   33.333333333333336
-300.0   90.0   33.333333333333336
-300.0   60.0   16.666666666666668
-350.0   90.0   16.666666666666668
-350.0   60.0   33.333333333333336
-300.0   60.0   33.333333333333336
-350.0   90.0   33.333333333333336
-350.0   60.0   50.0
-300.0   60.0   33.333333333333336
-300.0   90.0   33.333333333333336
-350.0   90.0   33.333333333333336
-300.0   90.0   50.0
-350.0   60.0   50.0
-350.0   90.0   50.0
-300.0   90.0   50.0
-350.0   90.0   33.333333333333336
-350.0   60.0   50.0
-300.0   90.0   50.0
-300.0   60.0   50.0
-300.0   60.0   33.333333333333336
-350.0   60.0   50.0
-300.0   90.0   50.0
-300.0   60.0   33.333333333333336
-350.0   90.0   33.333333333333336
-350.0   90.0   0.0
-300.0   90.0   0.0
-350.0   120.0   0.0
-350.0   90.0   16.666666666666668
-300.0   90.0   0.0
-300.0   120.0   0.0
-350.0   120.0   0.0
-300.0   120.0   16.666666666666668
-350.0   90.0   16.666666666666668
-350.0   120.0   16.666666666666668
-300.0   120.0   16.666666666666668
-350.0   120.0   0.0
-350.0   90.0   16.666666666666668
-300.0   120.0   16.666666666666668
-300.0   90.0   16.666666666666668
-300.0   90.0   0.0
-350.0   90.0   16.666666666666668
-300.0   120.0   16.666666666666668
-300.0   90.0   0.0
-350.0   120.0   0.0
-350.0   90.0   16.666666666666668
-300.0   90.0   16.666666666666668
-350.0   120.0   16.666666666666668
-350.0   90.0   33.333333333333336
-300.0   90.0   16.666666666666668
-300.0   120.0   16.666666666666668
-350.0   120.0   16.666666666666668
-300.0   120.0   33.333333333333336
-350.0   90.0   33.333333333333336
-350.0   120.0   33.333333333333336
-300.0   120.0   33.333333333333336
-350.0   120.0   16.666666666666668
-350.0   90.0   33.333333333333336
-300.0   120.0   33.333333333333336
-300.0   90.0   33.333333333333336
-300.0   90.0   16.666666666666668
-350.0   90.0   33.333333333333336
-300.0   120.0   33.333333333333336
-300.0   90.0   16.666666666666668
-350.0   120.0   16.666666666666668
-350.0   90.0   33.333333333333336
-300.0   90.0   33.333333333333336
-350.0   120.0   33.333333333333336
-350.0   90.0   50.0
-300.0   90.0   33.333333333333336
-300.0   120.0   33.333333333333336
-350.0   120.0   33.333333333333336
-300.0   120.0   50.0
-350.0   90.0   50.0
-350.0   120.0   50.0
-300.0   120.0   50.0
-350.0   120.0   33.333333333333336
-350.0   90.0   50.0
-300.0   120.0   50.0
-300.0   90.0   50.0
-300.0   90.0   33.333333333333336
-350.0   90.0   50.0
-300.0   120.0   50.0
-300.0   90.0   33.333333333333336
-350.0   120.0   33.333333333333336
-350.0   120.0   0.0
-300.0   120.0   0.0
-350.0   150.0   0.0
-350.0   120.0   16.666666666666668
-300.0   120.0   0.0
-300.0   150.0   0.0
-350.0   150.0   0.0
-300.0   150.0   16.666666666666668
-350.0   120.0   16.666666666666668
-350.0   150.0   16.666666666666668
-300.0   150.0   16.666666666666668
-350.0   150.0   0.0
-350.0   120.0   16.666666666666668
-300.0   150.0   16.666666666666668
-300.0   120.0   16.666666666666668
-300.0   120.0   0.0
-350.0   120.0   16.666666666666668
-300.0   150.0   16.666666666666668
-300.0   120.0   0.0
-350.0   150.0   0.0
-350.0   120.0   16.666666666666668
-300.0   120.0   16.666666666666668
-350.0   150.0   16.666666666666668
-350.0   120.0   33.333333333333336
-300.0   120.0   16.666666666666668
-300.0   150.0   16.666666666666668
-350.0   150.0   16.666666666666668
-300.0   150.0   33.333333333333336
-350.0   120.0   33.333333333333336
-350.0   150.0   33.333333333333336
-300.0   150.0   33.333333333333336
-350.0   150.0   16.666666666666668
-350.0   120.0   33.333333333333336
-300.0   150.0   33.333333333333336
-300.0   120.0   33.333333333333336
-300.0   120.0   16.666666666666668
-350.0   120.0   33.333333333333336
-300.0   150.0   33.333333333333336
-300.0   120.0   16.666666666666668
-350.0   150.0   16.666666666666668
-350.0   120.0   33.333333333333336
-300.0   120.0   33.333333333333336
-350.0   150.0   33.333333333333336
-350.0   120.0   50.0
-300.0   120.0   33.333333333333336
-300.0   150.0   33.333333333333336
-350.0   150.0   33.333333333333336
-300.0   150.0   50.0
-350.0   120.0   50.0
-350.0   150.0   50.0
-300.0   150.0   50.0
-350.0   150.0   33.333333333333336
-350.0   120.0   50.0
-300.0   150.0   50.0
-300.0   120.0   50.0
-300.0   120.0   33.333333333333336
-350.0   120.0   50.0
-300.0   150.0   50.0
-300.0   120.0   33.333333333333336
-350.0   150.0   33.333333333333336
-300.0   0.0   0.0
-250.0   0.0   0.0
-300.0   30.0   0.0
-300.0   0.0   16.666666666666668
-250.0   0.0   0.0
-250.0   30.0   0.0
-300.0   30.0   0.0
-250.0   30.0   16.666666666666668
-300.0   0.0   16.666666666666668
-300.0   30.0   16.666666666666668
-250.0   30.0   16.666666666666668
-300.0   30.0   0.0
-300.0   0.0   16.666666666666668
-250.0   30.0   16.666666666666668
-250.0   0.0   16.666666666666668
-250.0   0.0   0.0
-300.0   0.0   16.666666666666668
-250.0   30.0   16.666666666666668
-250.0   0.0   0.0
-300.0   30.0   0.0
-300.0   0.0   16.666666666666668
-250.0   0.0   16.666666666666668
-300.0   30.0   16.666666666666668
-300.0   0.0   33.333333333333336
-250.0   0.0   16.666666666666668
-250.0   30.0   16.666666666666668
-300.0   30.0   16.666666666666668
-250.0   30.0   33.333333333333336
-300.0   0.0   33.333333333333336
-300.0   30.0   33.333333333333336
-250.0   30.0   33.333333333333336
-300.0   30.0   16.666666666666668
-300.0   0.0   33.333333333333336
-250.0   30.0   33.333333333333336
-250.0   0.0   33.333333333333336
-250.0   0.0   16.666666666666668
-300.0   0.0   33.333333333333336
-250.0   30.0   33.333333333333336
-250.0   0.0   16.666666666666668
-300.0   30.0   16.666666666666668
-300.0   0.0   33.333333333333336
-250.0   0.0   33.333333333333336
-300.0   30.0   33.333333333333336
-300.0   0.0   50.0
-250.0   0.0   33.333333333333336
-250.0   30.0   33.333333333333336
-300.0   30.0   33.333333333333336
-250.0   30.0   50.0
-300.0   0.0   50.0
-300.0   30.0   50.0
-250.0   30.0   50.0
-300.0   30.0   33.333333333333336
-300.0   0.0   50.0
-250.0   30.0   50.0
-250.0   0.0   50.0
-250.0   0.0   33.333333333333336
-300.0   0.0   50.0
-250.0   30.0   50.0
-250.0   0.0   33.333333333333336
-300.0   30.0   33.333333333333336
-300.0   30.0   0.0
-250.0   30.0   0.0
-300.0   60.0   0.0
-300.0   30.0   16.666666666666668
-250.0   30.0   0.0
-250.0   60.0   0.0
-300.0   60.0   0.0
-250.0   60.0   16.666666666666668
-300.0   30.0   16.666666666666668
-300.0   60.0   16.666666666666668
-250.0   60.0   16.666666666666668
-300.0   60.0   0.0
-300.0   30.0   16.666666666666668
-250.0   60.0   16.666666666666668
-250.0   30.0   16.666666666666668
-250.0   30.0   0.0
-300.0   30.0   16.666666666666668
-250.0   60.0   16.666666666666668
-250.0   30.0   0.0
-300.0   60.0   0.0
-300.0   30.0   16.666666666666668
-250.0   30.0   16.666666666666668
-300.0   60.0   16.666666666666668
-300.0   30.0   33.333333333333336
-250.0   30.0   16.666666666666668
-250.0   60.0   16.666666666666668
-300.0   60.0   16.666666666666668
-250.0   60.0   33.333333333333336
-300.0   30.0   33.333333333333336
-300.0   60.0   33.333333333333336
-250.0   60.0   33.333333333333336
-300.0   60.0   16.666666666666668
-300.0   30.0   33.333333333333336
-250.0   60.0   33.333333333333336
-250.0   30.0   33.333333333333336
-250.0   30.0   16.666666666666668
-300.0   30.0   33.333333333333336
-250.0   60.0   33.333333333333336
-250.0   30.0   16.666666666666668
-300.0   60.0   16.666666666666668
-300.0   30.0   33.333333333333336
-250.0   30.0   33.333333333333336
-300.0   60.0   33.333333333333336
-300.0   30.0   50.0
-250.0   30.0   33.333333333333336
-250.0   60.0   33.333333333333336
-300.0   60.0   33.333333333333336
-250.0   60.0   50.0
-300.0   30.0   50.0
-300.0   60.0   50.0
-250.0   60.0   50.0
-300.0   60.0   33.333333333333336
-300.0   30.0   50.0
-250.0   60.0   50.0
-250.0   30.0   50.0
-250.0   30.0   33.333333333333336
-300.0   30.0   50.0
-250.0   60.0   50.0
-250.0   30.0   33.333333333333336
-300.0   60.0   33.333333333333336
-300.0   60.0   0.0
-250.0   60.0   0.0
-300.0   90.0   0.0
-300.0   60.0   16.666666666666668
-250.0   60.0   0.0
-250.0   90.0   0.0
-300.0   90.0   0.0
-250.0   90.0   16.666666666666668
-300.0   60.0   16.666666666666668
-300.0   90.0   16.666666666666668
-250.0   90.0   16.666666666666668
-300.0   90.0   0.0
-300.0   60.0   16.666666666666668
-250.0   90.0   16.666666666666668
-250.0   60.0   16.666666666666668
-250.0   60.0   0.0
-300.0   60.0   16.666666666666668
-250.0   90.0   16.666666666666668
-250.0   60.0   0.0
-300.0   90.0   0.0
-300.0   60.0   16.666666666666668
-250.0   60.0   16.666666666666668
-300.0   90.0   16.666666666666668
-300.0   60.0   33.333333333333336
-250.0   60.0   16.666666666666668
-250.0   90.0   16.666666666666668
-300.0   90.0   16.666666666666668
-250.0   90.0   33.333333333333336
-300.0   60.0   33.333333333333336
-300.0   90.0   33.333333333333336
-250.0   90.0   33.333333333333336
-300.0   90.0   16.666666666666668
-300.0   60.0   33.333333333333336
-250.0   90.0   33.333333333333336
-250.0   60.0   33.333333333333336
-250.0   60.0   16.666666666666668
-300.0   60.0   33.333333333333336
-250.0   90.0   33.333333333333336
-250.0   60.0   16.666666666666668
-300.0   90.0   16.666666666666668
-300.0   60.0   33.333333333333336
-250.0   60.0   33.333333333333336
-300.0   90.0   33.333333333333336
-300.0   60.0   50.0
-250.0   60.0   33.333333333333336
-250.0   90.0   33.333333333333336
-300.0   90.0   33.333333333333336
-250.0   90.0   50.0
-300.0   60.0   50.0
-300.0   90.0   50.0
-250.0   90.0   50.0
-300.0   90.0   33.333333333333336
-300.0   60.0   50.0
-250.0   90.0   50.0
-250.0   60.0   50.0
-250.0   60.0   33.333333333333336
-300.0   60.0   50.0
-250.0   90.0   50.0
-250.0   60.0   33.333333333333336
-300.0   90.0   33.333333333333336
-300.0   90.0   0.0
-250.0   90.0   0.0
-300.0   120.0   0.0
-300.0   90.0   16.666666666666668
-250.0   90.0   0.0
-250.0   120.0   0.0
-300.0   120.0   0.0
-250.0   120.0   16.666666666666668
-300.0   90.0   16.666666666666668
-300.0   120.0   16.666666666666668
-250.0   120.0   16.666666666666668
-300.0   120.0   0.0
-300.0   90.0   16.666666666666668
-250.0   120.0   16.666666666666668
-250.0   90.0   16.666666666666668
-250.0   90.0   0.0
-300.0   90.0   16.666666666666668
-250.0   120.0   16.666666666666668
-250.0   90.0   0.0
-300.0   120.0   0.0
-300.0   90.0   16.666666666666668
-250.0   90.0   16.666666666666668
-300.0   120.0   16.666666666666668
-300.0   90.0   33.333333333333336
-250.0   90.0   16.666666666666668
-250.0   120.0   16.666666666666668
-300.0   120.0   16.666666666666668
-250.0   120.0   33.333333333333336
-300.0   90.0   33.333333333333336
-300.0   120.0   33.333333333333336
-250.0   120.0   33.333333333333336
-300.0   120.0   16.666666666666668
-300.0   90.0   33.333333333333336
-250.0   120.0   33.333333333333336
-250.0   90.0   33.333333333333336
-250.0   90.0   16.666666666666668
-300.0   90.0   33.333333333333336
-250.0   120.0   33.333333333333336
-250.0   90.0   16.666666666666668
-300.0   120.0   16.666666666666668
-300.0   90.0   33.333333333333336
-250.0   90.0   33.333333333333336
-300.0   120.0   33.333333333333336
-300.0   90.0   50.0
-250.0   90.0   33.333333333333336
-250.0   120.0   33.333333333333336
-300.0   120.0   33.333333333333336
-250.0   120.0   50.0
-300.0   90.0   50.0
-300.0   120.0   50.0
-250.0   120.0   50.0
-300.0   120.0   33.333333333333336
-300.0   90.0   50.0
-250.0   120.0   50.0
-250.0   90.0   50.0
-250.0   90.0   33.333333333333336
-300.0   90.0   50.0
-250.0   120.0   50.0
-250.0   90.0   33.333333333333336
-300.0   120.0   33.333333333333336
-300.0   120.0   0.0
-250.0   120.0   0.0
-300.0   150.0   0.0
-300.0   120.0   16.666666666666668
-250.0   120.0   0.0
-250.0   150.0   0.0
-300.0   150.0   0.0
-250.0   150.0   16.666666666666668
-300.0   120.0   16.666666666666668
-300.0   150.0   16.666666666666668
-250.0   150.0   16.666666666666668
-300.0   150.0   0.0
-300.0   120.0   16.666666666666668
-250.0   150.0   16.666666666666668
-250.0   120.0   16.666666666666668
-250.0   120.0   0.0
-300.0   120.0   16.666666666666668
-250.0   150.0   16.666666666666668
-250.0   120.0   0.0
-300.0   150.0   0.0
-300.0   120.0   16.666666666666668
-250.0   120.0   16.666666666666668
-300.0   150.0   16.666666666666668
-300.0   120.0   33.333333333333336
-250.0   120.0   16.666666666666668
-250.0   150.0   16.666666666666668
-300.0   150.0   16.666666666666668
-250.0   150.0   33.333333333333336
-300.0   120.0   33.333333333333336
-300.0   150.0   33.333333333333336
-250.0   150.0   33.333333333333336
-300.0   150.0   16.666666666666668
-300.0   120.0   33.333333333333336
-250.0   150.0   33.333333333333336
-250.0   120.0   33.333333333333336
-250.0   120.0   16.666666666666668
-300.0   120.0   33.333333333333336
-250.0   150.0   33.333333333333336
-250.0   120.0   16.666666666666668
-300.0   150.0   16.666666666666668
-300.0   120.0   33.333333333333336
-250.0   120.0   33.333333333333336
-300.0   150.0   33.333333333333336
-300.0   120.0   50.0
-250.0   120.0   33.333333333333336
-250.0   150.0   33.333333333333336
-300.0   150.0   33.333333333333336
-250.0   150.0   50.0
-300.0   120.0   50.0
-300.0   150.0   50.0
-250.0   150.0   50.0
-300.0   150.0   33.333333333333336
-300.0   120.0   50.0
-250.0   150.0   50.0
-250.0   120.0   50.0
-250.0   120.0   33.333333333333336
-300.0   120.0   50.0
-250.0   150.0   50.0
-250.0   120.0   33.333333333333336
-300.0   150.0   33.333333333333336
-250.0   0.0   0.0
-200.0   0.0   0.0
-250.0   30.0   0.0
-250.0   0.0   16.666666666666668
-200.0   0.0   0.0
-200.0   30.0   0.0
-250.0   30.0   0.0
-200.0   30.0   16.666666666666668
-250.0   0.0   16.666666666666668
-250.0   30.0   16.666666666666668
-200.0   30.0   16.666666666666668
-250.0   30.0   0.0
-250.0   0.0   16.666666666666668
-200.0   30.0   16.666666666666668
-200.0   0.0   16.666666666666668
-200.0   0.0   0.0
-250.0   0.0   16.666666666666668
-200.0   30.0   16.666666666666668
-200.0   0.0   0.0
-250.0   30.0   0.0
-250.0   0.0   16.666666666666668
-200.0   0.0   16.666666666666668
-250.0   30.0   16.666666666666668
-250.0   0.0   33.333333333333336
-200.0   0.0   16.666666666666668
-200.0   30.0   16.666666666666668
-250.0   30.0   16.666666666666668
-200.0   30.0   33.333333333333336
-250.0   0.0   33.333333333333336
-250.0   30.0   33.333333333333336
-200.0   30.0   33.333333333333336
-250.0   30.0   16.666666666666668
-250.0   0.0   33.333333333333336
-200.0   30.0   33.333333333333336
-200.0   0.0   33.333333333333336
-200.0   0.0   16.666666666666668
-250.0   0.0   33.333333333333336
-200.0   30.0   33.333333333333336
-200.0   0.0   16.666666666666668
-250.0   30.0   16.666666666666668
-250.0   0.0   33.333333333333336
-200.0   0.0   33.333333333333336
-250.0   30.0   33.333333333333336
-250.0   0.0   50.0
-200.0   0.0   33.333333333333336
-200.0   30.0   33.333333333333336
-250.0   30.0   33.333333333333336
-200.0   30.0   50.0
-250.0   0.0   50.0
-250.0   30.0   50.0
-200.0   30.0   50.0
-250.0   30.0   33.333333333333336
-250.0   0.0   50.0
-200.0   30.0   50.0
-200.0   0.0   50.0
-200.0   0.0   33.333333333333336
-250.0   0.0   50.0
-200.0   30.0   50.0
-200.0   0.0   33.333333333333336
-250.0   30.0   33.333333333333336
-250.0   30.0   0.0
-200.0   30.0   0.0
-250.0   60.0   0.0
-250.0   30.0   16.666666666666668
-200.0   30.0   0.0
-200.0   60.0   0.0
-250.0   60.0   0.0
-200.0   60.0   16.666666666666668
-250.0   30.0   16.666666666666668
-250.0   60.0   16.666666666666668
-200.0   60.0   16.666666666666668
-250.0   60.0   0.0
-250.0   30.0   16.666666666666668
-200.0   60.0   16.666666666666668
-200.0   30.0   16.666666666666668
-200.0   30.0   0.0
-250.0   30.0   16.666666666666668
-200.0   60.0   16.666666666666668
-200.0   30.0   0.0
-250.0   60.0   0.0
-250.0   30.0   16.666666666666668
-200.0   30.0   16.666666666666668
-250.0   60.0   16.666666666666668
-250.0   30.0   33.333333333333336
-200.0   30.0   16.666666666666668
-200.0   60.0   16.666666666666668
-250.0   60.0   16.666666666666668
-200.0   60.0   33.333333333333336
-250.0   30.0   33.333333333333336
-250.0   60.0   33.333333333333336
-200.0   60.0   33.333333333333336
-250.0   60.0   16.666666666666668
-250.0   30.0   33.333333333333336
-200.0   60.0   33.333333333333336
-200.0   30.0   33.333333333333336
-200.0   30.0   16.666666666666668
-250.0   30.0   33.333333333333336
-200.0   60.0   33.333333333333336
-200.0   30.0   16.666666666666668
-250.0   60.0   16.666666666666668
-250.0   30.0   33.333333333333336
-200.0   30.0   33.333333333333336
-250.0   60.0   33.333333333333336
-250.0   30.0   50.0
-200.0   30.0   33.333333333333336
-200.0   60.0   33.333333333333336
-250.0   60.0   33.333333333333336
-200.0   60.0   50.0
-250.0   30.0   50.0
-250.0   60.0   50.0
-200.0   60.0   50.0
-250.0   60.0   33.333333333333336
-250.0   30.0   50.0
-200.0   60.0   50.0
-200.0   30.0   50.0
-200.0   30.0   33.333333333333336
-250.0   30.0   50.0
-200.0   60.0   50.0
-200.0   30.0   33.333333333333336
-250.0   60.0   33.333333333333336
-250.0   60.0   0.0
-200.0   60.0   0.0
-250.0   90.0   0.0
-250.0   60.0   16.666666666666668
-200.0   60.0   0.0
-200.0   90.0   0.0
-250.0   90.0   0.0
-200.0   90.0   16.666666666666668
-250.0   60.0   16.666666666666668
-250.0   90.0   16.666666666666668
-200.0   90.0   16.666666666666668
-250.0   90.0   0.0
-250.0   60.0   16.666666666666668
-200.0   90.0   16.666666666666668
-200.0   60.0   16.666666666666668
-200.0   60.0   0.0
-250.0   60.0   16.666666666666668
-200.0   90.0   16.666666666666668
-200.0   60.0   0.0
-250.0   90.0   0.0
-250.0   60.0   16.666666666666668
-200.0   60.0   16.666666666666668
-250.0   90.0   16.666666666666668
-250.0   60.0   33.333333333333336
-200.0   60.0   16.666666666666668
-200.0   90.0   16.666666666666668
-250.0   90.0   16.666666666666668
-200.0   90.0   33.333333333333336
-250.0   60.0   33.333333333333336
-250.0   90.0   33.333333333333336
-200.0   90.0   33.333333333333336
-250.0   90.0   16.666666666666668
-250.0   60.0   33.333333333333336
-200.0   90.0   33.333333333333336
-200.0   60.0   33.333333333333336
-200.0   60.0   16.666666666666668
-250.0   60.0   33.333333333333336
-200.0   90.0   33.333333333333336
-200.0   60.0   16.666666666666668
-250.0   90.0   16.666666666666668
-250.0   60.0   33.333333333333336
-200.0   60.0   33.333333333333336
-250.0   90.0   33.333333333333336
-250.0   60.0   50.0
-200.0   60.0   33.333333333333336
-200.0   90.0   33.333333333333336
-250.0   90.0   33.333333333333336
-200.0   90.0   50.0
-250.0   60.0   50.0
-250.0   90.0   50.0
-200.0   90.0   50.0
-250.0   90.0   33.333333333333336
-250.0   60.0   50.0
-200.0   90.0   50.0
-200.0   60.0   50.0
-200.0   60.0   33.333333333333336
-250.0   60.0   50.0
-200.0   90.0   50.0
-200.0   60.0   33.333333333333336
-250.0   90.0   33.333333333333336
-250.0   90.0   0.0
-200.0   90.0   0.0
-250.0   120.0   0.0
-250.0   90.0   16.666666666666668
-200.0   90.0   0.0
-200.0   120.0   0.0
-250.0   120.0   0.0
-200.0   120.0   16.666666666666668
-250.0   90.0   16.666666666666668
-250.0   120.0   16.666666666666668
-200.0   120.0   16.666666666666668
-250.0   120.0   0.0
-250.0   90.0   16.666666666666668
-200.0   120.0   16.666666666666668
-200.0   90.0   16.666666666666668
-200.0   90.0   0.0
-250.0   90.0   16.666666666666668
-200.0   120.0   16.666666666666668
-200.0   90.0   0.0
-250.0   120.0   0.0
-250.0   90.0   16.666666666666668
-200.0   90.0   16.666666666666668
-250.0   120.0   16.666666666666668
-250.0   90.0   33.333333333333336
-200.0   90.0   16.666666666666668
-200.0   120.0   16.666666666666668
-250.0   120.0   16.666666666666668
-200.0   120.0   33.333333333333336
-250.0   90.0   33.333333333333336
-250.0   120.0   33.333333333333336
-200.0   120.0   33.333333333333336
-250.0   120.0   16.666666666666668
-250.0   90.0   33.333333333333336
-200.0   120.0   33.333333333333336
-200.0   90.0   33.333333333333336
-200.0   90.0   16.666666666666668
-250.0   90.0   33.333333333333336
-200.0   120.0   33.333333333333336
-200.0   90.0   16.666666666666668
-250.0   120.0   16.666666666666668
-250.0   90.0   33.333333333333336
-200.0   90.0   33.333333333333336
-250.0   120.0   33.333333333333336
-250.0   90.0   50.0
-200.0   90.0   33.333333333333336
-200.0   120.0   33.333333333333336
-250.0   120.0   33.333333333333336
-200.0   120.0   50.0
-250.0   90.0   50.0
-250.0   120.0   50.0
-200.0   120.0   50.0
-250.0   120.0   33.333333333333336
-250.0   90.0   50.0
-200.0   120.0   50.0
-200.0   90.0   50.0
-200.0   90.0   33.333333333333336
-250.0   90.0   50.0
-200.0   120.0   50.0
-200.0   90.0   33.333333333333336
-250.0   120.0   33.333333333333336
-250.0   120.0   0.0
-200.0   120.0   0.0
-250.0   150.0   0.0
-250.0   120.0   16.666666666666668
-200.0   120.0   0.0
-200.0   150.0   0.0
-250.0   150.0   0.0
-200.0   150.0   16.666666666666668
-250.0   120.0   16.666666666666668
-250.0   150.0   16.666666666666668
-200.0   150.0   16.666666666666668
-250.0   150.0   0.0
-250.0   120.0   16.666666666666668
-200.0   150.0   16.666666666666668
-200.0   120.0   16.666666666666668
-200.0   120.0   0.0
-250.0   120.0   16.666666666666668
-200.0   150.0   16.666666666666668
-200.0   120.0   0.0
-250.0   150.0   0.0
-250.0   120.0   16.666666666666668
-200.0   120.0   16.666666666666668
-250.0   150.0   16.666666666666668
-250.0   120.0   33.333333333333336
-200.0   120.0   16.666666666666668
-200.0   150.0   16.666666666666668
-250.0   150.0   16.666666666666668
-200.0   150.0   33.333333333333336
-250.0   120.0   33.333333333333336
-250.0   150.0   33.333333333333336
-200.0   150.0   33.333333333333336
-250.0   150.0   16.666666666666668
-250.0   120.0   33.333333333333336
-200.0   150.0   33.333333333333336
-200.0   120.0   33.333333333333336
-200.0   120.0   16.666666666666668
-250.0   120.0   33.333333333333336
-200.0   150.0   33.333333333333336
-200.0   120.0   16.666666666666668
-250.0   150.0   16.666666666666668
-250.0   120.0   33.333333333333336
-200.0   120.0   33.333333333333336
-250.0   150.0   33.333333333333336
-250.0   120.0   50.0
-200.0   120.0   33.333333333333336
-200.0   150.0   33.333333333333336
-250.0   150.0   33.333333333333336
-200.0   150.0   50.0
-250.0   120.0   50.0
-250.0   150.0   50.0
-200.0   150.0   50.0
-250.0   150.0   33.333333333333336
-250.0   120.0   50.0
-200.0   150.0   50.0
-200.0   120.0   50.0
-200.0   120.0   33.333333333333336
-250.0   120.0   50.0
-200.0   150.0   50.0
-200.0   120.0   33.333333333333336
-250.0   150.0   33.333333333333336
-200.0   0.0   0.0
-150.0   0.0   0.0
-200.0   30.0   0.0
-200.0   0.0   16.666666666666668
-150.0   0.0   0.0
-150.0   30.0   0.0
-200.0   30.0   0.0
-150.0   30.0   16.666666666666668
-200.0   0.0   16.666666666666668
-200.0   30.0   16.666666666666668
-150.0   30.0   16.666666666666668
-200.0   30.0   0.0
-200.0   0.0   16.666666666666668
-150.0   30.0   16.666666666666668
-150.0   0.0   16.666666666666668
-150.0   0.0   0.0
-200.0   0.0   16.666666666666668
-150.0   30.0   16.666666666666668
-150.0   0.0   0.0
-200.0   30.0   0.0
-200.0   0.0   16.666666666666668
-150.0   0.0   16.666666666666668
-200.0   30.0   16.666666666666668
-200.0   0.0   33.333333333333336
-150.0   0.0   16.666666666666668
-150.0   30.0   16.666666666666668
-200.0   30.0   16.666666666666668
-150.0   30.0   33.333333333333336
-200.0   0.0   33.333333333333336
-200.0   30.0   33.333333333333336
-150.0   30.0   33.333333333333336
-200.0   30.0   16.666666666666668
-200.0   0.0   33.333333333333336
-150.0   30.0   33.333333333333336
-150.0   0.0   33.333333333333336
-150.0   0.0   16.666666666666668
-200.0   0.0   33.333333333333336
-150.0   30.0   33.333333333333336
-150.0   0.0   16.666666666666668
-200.0   30.0   16.666666666666668
-200.0   0.0   33.333333333333336
-150.0   0.0   33.333333333333336
-200.0   30.0   33.333333333333336
-200.0   0.0   50.0
-150.0   0.0   33.333333333333336
-150.0   30.0   33.333333333333336
-200.0   30.0   33.333333333333336
-150.0   30.0   50.0
-200.0   0.0   50.0
-200.0   30.0   50.0
-150.0   30.0   50.0
-200.0   30.0   33.333333333333336
-200.0   0.0   50.0
-150.0   30.0   50.0
-150.0   0.0   50.0
-150.0   0.0   33.333333333333336
-200.0   0.0   50.0
-150.0   30.0   50.0
-150.0   0.0   33.333333333333336
-200.0   30.0   33.333333333333336
-200.0   30.0   0.0
-150.0   30.0   0.0
-200.0   60.0   0.0
-200.0   30.0   16.666666666666668
-150.0   30.0   0.0
-150.0   60.0   0.0
-200.0   60.0   0.0
-150.0   60.0   16.666666666666668
-200.0   30.0   16.666666666666668
-200.0   60.0   16.666666666666668
-150.0   60.0   16.666666666666668
-200.0   60.0   0.0
-200.0   30.0   16.666666666666668
-150.0   60.0   16.666666666666668
-150.0   30.0   16.666666666666668
-150.0   30.0   0.0
-200.0   30.0   16.666666666666668
-150.0   60.0   16.666666666666668
-150.0   30.0   0.0
-200.0   60.0   0.0
-200.0   30.0   16.666666666666668
-150.0   30.0   16.666666666666668
-200.0   60.0   16.666666666666668
-200.0   30.0   33.333333333333336
-150.0   30.0   16.666666666666668
-150.0   60.0   16.666666666666668
-200.0   60.0   16.666666666666668
-150.0   60.0   33.333333333333336
-200.0   30.0   33.333333333333336
-200.0   60.0   33.333333333333336
-150.0   60.0   33.333333333333336
-200.0   60.0   16.666666666666668
-200.0   30.0   33.333333333333336
-150.0   60.0   33.333333333333336
-150.0   30.0   33.333333333333336
-150.0   30.0   16.666666666666668
-200.0   30.0   33.333333333333336
-150.0   60.0   33.333333333333336
-150.0   30.0   16.666666666666668
-200.0   60.0   16.666666666666668
-200.0   30.0   33.333333333333336
-150.0   30.0   33.333333333333336
-200.0   60.0   33.333333333333336
-200.0   30.0   50.0
-150.0   30.0   33.333333333333336
-150.0   60.0   33.333333333333336
-200.0   60.0   33.333333333333336
-150.0   60.0   50.0
-200.0   30.0   50.0
-200.0   60.0   50.0
-150.0   60.0   50.0
-200.0   60.0   33.333333333333336
-200.0   30.0   50.0
-150.0   60.0   50.0
-150.0   30.0   50.0
-150.0   30.0   33.333333333333336
-200.0   30.0   50.0
-150.0   60.0   50.0
-150.0   30.0   33.333333333333336
-200.0   60.0   33.333333333333336
-200.0   60.0   0.0
-150.0   60.0   0.0
-200.0   90.0   0.0
-200.0   60.0   16.666666666666668
-150.0   60.0   0.0
-150.0   90.0   0.0
-200.0   90.0   0.0
-150.0   90.0   16.666666666666668
-200.0   60.0   16.666666666666668
-200.0   90.0   16.666666666666668
-150.0   90.0   16.666666666666668
-200.0   90.0   0.0
-200.0   60.0   16.666666666666668
-150.0   90.0   16.666666666666668
-150.0   60.0   16.666666666666668
-150.0   60.0   0.0
-200.0   60.0   16.666666666666668
-150.0   90.0   16.666666666666668
-150.0   60.0   0.0
-200.0   90.0   0.0
-200.0   60.0   16.666666666666668
-150.0   60.0   16.666666666666668
-200.0   90.0   16.666666666666668
-200.0   60.0   33.333333333333336
-150.0   60.0   16.666666666666668
-150.0   90.0   16.666666666666668
-200.0   90.0   16.666666666666668
-150.0   90.0   33.333333333333336
-200.0   60.0   33.333333333333336
-200.0   90.0   33.333333333333336
-150.0   90.0   33.333333333333336
-200.0   90.0   16.666666666666668
-200.0   60.0   33.333333333333336
-150.0   90.0   33.333333333333336
-150.0   60.0   33.333333333333336
-150.0   60.0   16.666666666666668
-200.0   60.0   33.333333333333336
-150.0   90.0   33.333333333333336
-150.0   60.0   16.666666666666668
-200.0   90.0   16.666666666666668
-200.0   60.0   33.333333333333336
-150.0   60.0   33.333333333333336
-200.0   90.0   33.333333333333336
-200.0   60.0   50.0
-150.0   60.0   33.333333333333336
-150.0   90.0   33.333333333333336
-200.0   90.0   33.333333333333336
-150.0   90.0   50.0
-200.0   60.0   50.0
-200.0   90.0   50.0
-150.0   90.0   50.0
-200.0   90.0   33.333333333333336
-200.0   60.0   50.0
-150.0   90.0   50.0
-150.0   60.0   50.0
-150.0   60.0   33.333333333333336
-200.0   60.0   50.0
-150.0   90.0   50.0
-150.0   60.0   33.333333333333336
-200.0   90.0   33.333333333333336
-200.0   90.0   0.0
-150.0   90.0   0.0
-200.0   120.0   0.0
-200.0   90.0   16.666666666666668
-150.0   90.0   0.0
-150.0   120.0   0.0
-200.0   120.0   0.0
-150.0   120.0   16.666666666666668
-200.0   90.0   16.666666666666668
-200.0   120.0   16.666666666666668
-150.0   120.0   16.666666666666668
-200.0   120.0   0.0
-200.0   90.0   16.666666666666668
-150.0   120.0   16.666666666666668
-150.0   90.0   16.666666666666668
-150.0   90.0   0.0
-200.0   90.0   16.666666666666668
-150.0   120.0   16.666666666666668
-150.0   90.0   0.0
-200.0   120.0   0.0
-200.0   90.0   16.666666666666668
-150.0   90.0   16.666666666666668
-200.0   120.0   16.666666666666668
-200.0   90.0   33.333333333333336
-150.0   90.0   16.666666666666668
-150.0   120.0   16.666666666666668
-200.0   120.0   16.666666666666668
-150.0   120.0   33.333333333333336
-200.0   90.0   33.333333333333336
-200.0   120.0   33.333333333333336
-150.0   120.0   33.333333333333336
-200.0   120.0   16.666666666666668
-200.0   90.0   33.333333333333336
-150.0   120.0   33.333333333333336
-150.0   90.0   33.333333333333336
-150.0   90.0   16.666666666666668
-200.0   90.0   33.333333333333336
-150.0   120.0   33.333333333333336
-150.0   90.0   16.666666666666668
-200.0   120.0   16.666666666666668
-200.0   90.0   33.333333333333336
-150.0   90.0   33.333333333333336
-200.0   120.0   33.333333333333336
-200.0   90.0   50.0
-150.0   90.0   33.333333333333336
-150.0   120.0   33.333333333333336
-200.0   120.0   33.333333333333336
-150.0   120.0   50.0
-200.0   90.0   50.0
-200.0   120.0   50.0
-150.0   120.0   50.0
-200.0   120.0   33.333333333333336
-200.0   90.0   50.0
-150.0   120.0   50.0
-150.0   90.0   50.0
-150.0   90.0   33.333333333333336
-200.0   90.0   50.0
-150.0   120.0   50.0
-150.0   90.0   33.333333333333336
-200.0   120.0   33.333333333333336
-200.0   120.0   0.0
-150.0   120.0   0.0
-200.0   150.0   0.0
-200.0   120.0   16.666666666666668
-150.0   120.0   0.0
-150.0   150.0   0.0
-200.0   150.0   0.0
-150.0   150.0   16.666666666666668
-200.0   120.0   16.666666666666668
-200.0   150.0   16.666666666666668
-150.0   150.0   16.666666666666668
-200.0   150.0   0.0
-200.0   120.0   16.666666666666668
-150.0   150.0   16.666666666666668
-150.0   120.0   16.666666666666668
-150.0   120.0   0.0
-200.0   120.0   16.666666666666668
-150.0   150.0   16.666666666666668
-150.0   120.0   0.0
-200.0   150.0   0.0
-200.0   120.0   16.666666666666668
-150.0   120.0   16.666666666666668
-200.0   150.0   16.666666666666668
-200.0   120.0   33.333333333333336
-150.0   120.0   16.666666666666668
-150.0   150.0   16.666666666666668
-200.0   150.0   16.666666666666668
-150.0   150.0   33.333333333333336
-200.0   120.0   33.333333333333336
-200.0   150.0   33.333333333333336
-150.0   150.0   33.333333333333336
-200.0   150.0   16.666666666666668
-200.0   120.0   33.333333333333336
-150.0   150.0   33.333333333333336
-150.0   120.0   33.333333333333336
-150.0   120.0   16.666666666666668
-200.0   120.0   33.333333333333336
-150.0   150.0   33.333333333333336
-150.0   120.0   16.666666666666668
-200.0   150.0   16.666666666666668
-200.0   120.0   33.333333333333336
-150.0   120.0   33.333333333333336
-200.0   150.0   33.333333333333336
-200.0   120.0   50.0
-150.0   120.0   33.333333333333336
-150.0   150.0   33.333333333333336
-200.0   150.0   33.333333333333336
-150.0   150.0   50.0
-200.0   120.0   50.0
-200.0   150.0   50.0
-150.0   150.0   50.0
-200.0   150.0   33.333333333333336
-200.0   120.0   50.0
-150.0   150.0   50.0
-150.0   120.0   50.0
-150.0   120.0   33.333333333333336
-200.0   120.0   50.0
-150.0   150.0   50.0
-150.0   120.0   33.333333333333336
-200.0   150.0   33.333333333333336
-150.0   0.0   0.0
-100.0   0.0   0.0
-150.0   30.0   0.0
-150.0   0.0   16.666666666666668
-100.0   0.0   0.0
-100.0   30.0   0.0
-150.0   30.0   0.0
-100.0   30.0   16.666666666666668
-150.0   0.0   16.666666666666668
-150.0   30.0   16.666666666666668
-100.0   30.0   16.666666666666668
-150.0   30.0   0.0
-150.0   0.0   16.666666666666668
-100.0   30.0   16.666666666666668
-100.0   0.0   16.666666666666668
-100.0   0.0   0.0
-150.0   0.0   16.666666666666668
-100.0   30.0   16.666666666666668
-100.0   0.0   0.0
-150.0   30.0   0.0
-150.0   0.0   16.666666666666668
-100.0   0.0   16.666666666666668
-150.0   30.0   16.666666666666668
-150.0   0.0   33.333333333333336
-100.0   0.0   16.666666666666668
-100.0   30.0   16.666666666666668
-150.0   30.0   16.666666666666668
-100.0   30.0   33.333333333333336
-150.0   0.0   33.333333333333336
-150.0   30.0   33.333333333333336
-100.0   30.0   33.333333333333336
-150.0   30.0   16.666666666666668
-150.0   0.0   33.333333333333336
-100.0   30.0   33.333333333333336
-100.0   0.0   33.333333333333336
-100.0   0.0   16.666666666666668
-150.0   0.0   33.333333333333336
-100.0   30.0   33.333333333333336
-100.0   0.0   16.666666666666668
-150.0   30.0   16.666666666666668
-150.0   0.0   33.333333333333336
-100.0   0.0   33.333333333333336
-150.0   30.0   33.333333333333336
-150.0   0.0   50.0
-100.0   0.0   33.333333333333336
-100.0   30.0   33.333333333333336
-150.0   30.0   33.333333333333336
-100.0   30.0   50.0
-150.0   0.0   50.0
-150.0   30.0   50.0
-100.0   30.0   50.0
-150.0   30.0   33.333333333333336
-150.0   0.0   50.0
-100.0   30.0   50.0
-100.0   0.0   50.0
-100.0   0.0   33.333333333333336
-150.0   0.0   50.0
-100.0   30.0   50.0
-100.0   0.0   33.333333333333336
-150.0   30.0   33.333333333333336
-150.0   30.0   0.0
-100.0   30.0   0.0
-150.0   60.0   0.0
-150.0   30.0   16.666666666666668
-100.0   30.0   0.0
-100.0   60.0   0.0
-150.0   60.0   0.0
-100.0   60.0   16.666666666666668
-150.0   30.0   16.666666666666668
-150.0   60.0   16.666666666666668
-100.0   60.0   16.666666666666668
-150.0   60.0   0.0
-150.0   30.0   16.666666666666668
-100.0   60.0   16.666666666666668
-100.0   30.0   16.666666666666668
-100.0   30.0   0.0
-150.0   30.0   16.666666666666668
-100.0   60.0   16.666666666666668
-100.0   30.0   0.0
-150.0   60.0   0.0
-150.0   30.0   16.666666666666668
-100.0   30.0   16.666666666666668
-150.0   60.0   16.666666666666668
-150.0   30.0   33.333333333333336
-100.0   30.0   16.666666666666668
-100.0   60.0   16.666666666666668
-150.0   60.0   16.666666666666668
-100.0   60.0   33.333333333333336
-150.0   30.0   33.333333333333336
-150.0   60.0   33.333333333333336
-100.0   60.0   33.333333333333336
-150.0   60.0   16.666666666666668
-150.0   30.0   33.333333333333336
-100.0   60.0   33.333333333333336
-100.0   30.0   33.333333333333336
-100.0   30.0   16.666666666666668
-150.0   30.0   33.333333333333336
-100.0   60.0   33.333333333333336
-100.0   30.0   16.666666666666668
-150.0   60.0   16.666666666666668
-150.0   30.0   33.333333333333336
-100.0   30.0   33.333333333333336
-150.0   60.0   33.333333333333336
-150.0   30.0   50.0
-100.0   30.0   33.333333333333336
-100.0   60.0   33.333333333333336
-150.0   60.0   33.333333333333336
-100.0   60.0   50.0
-150.0   30.0   50.0
-150.0   60.0   50.0
-100.0   60.0   50.0
-150.0   60.0   33.333333333333336
-150.0   30.0   50.0
-100.0   60.0   50.0
-100.0   30.0   50.0
-100.0   30.0   33.333333333333336
-150.0   30.0   50.0
-100.0   60.0   50.0
-100.0   30.0   33.333333333333336
-150.0   60.0   33.333333333333336
-150.0   60.0   0.0
-100.0   60.0   0.0
-150.0   90.0   0.0
-150.0   60.0   16.666666666666668
-100.0   60.0   0.0
-100.0   90.0   0.0
-150.0   90.0   0.0
-100.0   90.0   16.666666666666668
-150.0   60.0   16.666666666666668
-150.0   90.0   16.666666666666668
-100.0   90.0   16.666666666666668
-150.0   90.0   0.0
-150.0   60.0   16.666666666666668
-100.0   90.0   16.666666666666668
-100.0   60.0   16.666666666666668
-100.0   60.0   0.0
-150.0   60.0   16.666666666666668
-100.0   90.0   16.666666666666668
-100.0   60.0   0.0
-150.0   90.0   0.0
-150.0   60.0   16.666666666666668
-100.0   60.0   16.666666666666668
-150.0   90.0   16.666666666666668
-150.0   60.0   33.333333333333336
-100.0   60.0   16.666666666666668
-100.0   90.0   16.666666666666668
-150.0   90.0   16.666666666666668
-100.0   90.0   33.333333333333336
-150.0   60.0   33.333333333333336
-150.0   90.0   33.333333333333336
-100.0   90.0   33.333333333333336
-150.0   90.0   16.666666666666668
-150.0   60.0   33.333333333333336
-100.0   90.0   33.333333333333336
-100.0   60.0   33.333333333333336
-100.0   60.0   16.666666666666668
-150.0   60.0   33.333333333333336
-100.0   90.0   33.333333333333336
-100.0   60.0   16.666666666666668
-150.0   90.0   16.666666666666668
-150.0   60.0   33.333333333333336
-100.0   60.0   33.333333333333336
-150.0   90.0   33.333333333333336
-150.0   60.0   50.0
-100.0   60.0   33.333333333333336
-100.0   90.0   33.333333333333336
-150.0   90.0   33.333333333333336
-100.0   90.0   50.0
-150.0   60.0   50.0
-150.0   90.0   50.0
-100.0   90.0   50.0
-150.0   90.0   33.333333333333336
-150.0   60.0   50.0
-100.0   90.0   50.0
-100.0   60.0   50.0
-100.0   60.0   33.333333333333336
-150.0   60.0   50.0
-100.0   90.0   50.0
-100.0   60.0   33.333333333333336
-150.0   90.0   33.333333333333336
-150.0   90.0   0.0
-100.0   90.0   0.0
-150.0   120.0   0.0
-150.0   90.0   16.666666666666668
-100.0   90.0   0.0
-100.0   120.0   0.0
-150.0   120.0   0.0
-100.0   120.0   16.666666666666668
-150.0   90.0   16.666666666666668
-150.0   120.0   16.666666666666668
-100.0   120.0   16.666666666666668
-150.0   120.0   0.0
-150.0   90.0   16.666666666666668
-100.0   120.0   16.666666666666668
-100.0   90.0   16.666666666666668
-100.0   90.0   0.0
-150.0   90.0   16.666666666666668
-100.0   120.0   16.666666666666668
-100.0   90.0   0.0
-150.0   120.0   0.0
-150.0   90.0   16.666666666666668
-100.0   90.0   16.666666666666668
-150.0   120.0   16.666666666666668
-150.0   90.0   33.333333333333336
-100.0   90.0   16.666666666666668
-100.0   120.0   16.666666666666668
-150.0   120.0   16.666666666666668
-100.0   120.0   33.333333333333336
-150.0   90.0   33.333333333333336
-150.0   120.0   33.333333333333336
-100.0   120.0   33.333333333333336
-150.0   120.0   16.666666666666668
-150.0   90.0   33.333333333333336
-100.0   120.0   33.333333333333336
-100.0   90.0   33.333333333333336
-100.0   90.0   16.666666666666668
-150.0   90.0   33.333333333333336
-100.0   120.0   33.333333333333336
-100.0   90.0   16.666666666666668
-150.0   120.0   16.666666666666668
-150.0   90.0   33.333333333333336
-100.0   90.0   33.333333333333336
-150.0   120.0   33.333333333333336
-150.0   90.0   50.0
-100.0   90.0   33.333333333333336
-100.0   120.0   33.333333333333336
-150.0   120.0   33.333333333333336
-100.0   120.0   50.0
-150.0   90.0   50.0
-150.0   120.0   50.0
-100.0   120.0   50.0
-150.0   120.0   33.333333333333336
-150.0   90.0   50.0
-100.0   120.0   50.0
-100.0   90.0   50.0
-100.0   90.0   33.333333333333336
-150.0   90.0   50.0
-100.0   120.0   50.0
-100.0   90.0   33.333333333333336
-150.0   120.0   33.333333333333336
-150.0   120.0   0.0
-100.0   120.0   0.0
-150.0   150.0   0.0
-150.0   120.0   16.666666666666668
-100.0   120.0   0.0
-100.0   150.0   0.0
-150.0   150.0   0.0
-100.0   150.0   16.666666666666668
-150.0   120.0   16.666666666666668
-150.0   150.0   16.666666666666668
-100.0   150.0   16.666666666666668
-150.0   150.0   0.0
-150.0   120.0   16.666666666666668
-100.0   150.0   16.666666666666668
-100.0   120.0   16.666666666666668
-100.0   120.0   0.0
-150.0   120.0   16.666666666666668
-100.0   150.0   16.666666666666668
-100.0   120.0   0.0
-150.0   150.0   0.0
-150.0   120.0   16.666666666666668
-100.0   120.0   16.666666666666668
-150.0   150.0   16.666666666666668
-150.0   120.0   33.333333333333336
-100.0   120.0   16.666666666666668
-100.0   150.0   16.666666666666668
-150.0   150.0   16.666666666666668
-100.0   150.0   33.333333333333336
-150.0   120.0   33.333333333333336
-150.0   150.0   33.333333333333336
-100.0   150.0   33.333333333333336
-150.0   150.0   16.666666666666668
-150.0   120.0   33.333333333333336
-100.0   150.0   33.333333333333336
-100.0   120.0   33.333333333333336
-100.0   120.0   16.666666666666668
-150.0   120.0   33.333333333333336
-100.0   150.0   33.333333333333336
-100.0   120.0   16.666666666666668
-150.0   150.0   16.666666666666668
-150.0   120.0   33.333333333333336
-100.0   120.0   33.333333333333336
-150.0   150.0   33.333333333333336
-150.0   120.0   50.0
-100.0   120.0   33.333333333333336
-100.0   150.0   33.333333333333336
-150.0   150.0   33.333333333333336
-100.0   150.0   50.0
-150.0   120.0   50.0
-150.0   150.0   50.0
-100.0   150.0   50.0
-150.0   150.0   33.333333333333336
-150.0   120.0   50.0
-100.0   150.0   50.0
-100.0   120.0   50.0
-100.0   120.0   33.333333333333336
-150.0   120.0   50.0
-100.0   150.0   50.0
-100.0   120.0   33.333333333333336
-150.0   150.0   33.333333333333336
-100.0   0.0   0.0
-50.0   0.0   0.0
-100.0   30.0   0.0
-100.0   0.0   16.666666666666668
-50.0   0.0   0.0
-50.0   30.0   0.0
-100.0   30.0   0.0
-50.0   30.0   16.666666666666668
-100.0   0.0   16.666666666666668
-100.0   30.0   16.666666666666668
-50.0   30.0   16.666666666666668
-100.0   30.0   0.0
-100.0   0.0   16.666666666666668
-50.0   30.0   16.666666666666668
-50.0   0.0   16.666666666666668
-50.0   0.0   0.0
-100.0   0.0   16.666666666666668
-50.0   30.0   16.666666666666668
-50.0   0.0   0.0
-100.0   30.0   0.0
-100.0   0.0   16.666666666666668
-50.0   0.0   16.666666666666668
-100.0   30.0   16.666666666666668
-100.0   0.0   33.333333333333336
-50.0   0.0   16.666666666666668
-50.0   30.0   16.666666666666668
-100.0   30.0   16.666666666666668
-50.0   30.0   33.333333333333336
-100.0   0.0   33.333333333333336
-100.0   30.0   33.333333333333336
-50.0   30.0   33.333333333333336
-100.0   30.0   16.666666666666668
-100.0   0.0   33.333333333333336
-50.0   30.0   33.333333333333336
-50.0   0.0   33.333333333333336
-50.0   0.0   16.666666666666668
-100.0   0.0   33.333333333333336
-50.0   30.0   33.333333333333336
-50.0   0.0   16.666666666666668
-100.0   30.0   16.666666666666668
-100.0   0.0   33.333333333333336
-50.0   0.0   33.333333333333336
-100.0   30.0   33.333333333333336
-100.0   0.0   50.0
-50.0   0.0   33.333333333333336
-50.0   30.0   33.333333333333336
-100.0   30.0   33.333333333333336
-50.0   30.0   50.0
-100.0   0.0   50.0
-100.0   30.0   50.0
-50.0   30.0   50.0
-100.0   30.0   33.333333333333336
-100.0   0.0   50.0
-50.0   30.0   50.0
-50.0   0.0   50.0
-50.0   0.0   33.333333333333336
-100.0   0.0   50.0
-50.0   30.0   50.0
-50.0   0.0   33.333333333333336
-100.0   30.0   33.333333333333336
-100.0   30.0   0.0
-50.0   30.0   0.0
-100.0   60.0   0.0
-100.0   30.0   16.666666666666668
-50.0   30.0   0.0
-50.0   60.0   0.0
-100.0   60.0   0.0
-50.0   60.0   16.666666666666668
-100.0   30.0   16.666666666666668
-100.0   60.0   16.666666666666668
-50.0   60.0   16.666666666666668
-100.0   60.0   0.0
-100.0   30.0   16.666666666666668
-50.0   60.0   16.666666666666668
-50.0   30.0   16.666666666666668
-50.0   30.0   0.0
-100.0   30.0   16.666666666666668
-50.0   60.0   16.666666666666668
-50.0   30.0   0.0
-100.0   60.0   0.0
-100.0   30.0   16.666666666666668
-50.0   30.0   16.666666666666668
-100.0   60.0   16.666666666666668
-100.0   30.0   33.333333333333336
-50.0   30.0   16.666666666666668
-50.0   60.0   16.666666666666668
-100.0   60.0   16.666666666666668
-50.0   60.0   33.333333333333336
-100.0   30.0   33.333333333333336
-100.0   60.0   33.333333333333336
-50.0   60.0   33.333333333333336
-100.0   60.0   16.666666666666668
-100.0   30.0   33.333333333333336
-50.0   60.0   33.333333333333336
-50.0   30.0   33.333333333333336
-50.0   30.0   16.666666666666668
-100.0   30.0   33.333333333333336
-50.0   60.0   33.333333333333336
-50.0   30.0   16.666666666666668
-100.0   60.0   16.666666666666668
-100.0   30.0   33.333333333333336
-50.0   30.0   33.333333333333336
-100.0   60.0   33.333333333333336
-100.0   30.0   50.0
-50.0   30.0   33.333333333333336
-50.0   60.0   33.333333333333336
-100.0   60.0   33.333333333333336
-50.0   60.0   50.0
-100.0   30.0   50.0
-100.0   60.0   50.0
-50.0   60.0   50.0
-100.0   60.0   33.333333333333336
-100.0   30.0   50.0
-50.0   60.0   50.0
-50.0   30.0   50.0
-50.0   30.0   33.333333333333336
-100.0   30.0   50.0
-50.0   60.0   50.0
-50.0   30.0   33.333333333333336
-100.0   60.0   33.333333333333336
-100.0   60.0   0.0
-50.0   60.0   0.0
-100.0   90.0   0.0
-100.0   60.0   16.666666666666668
-50.0   60.0   0.0
-50.0   90.0   0.0
-100.0   90.0   0.0
-50.0   90.0   16.666666666666668
-100.0   60.0   16.666666666666668
-100.0   90.0   16.666666666666668
-50.0   90.0   16.666666666666668
-100.0   90.0   0.0
-100.0   60.0   16.666666666666668
-50.0   90.0   16.666666666666668
-50.0   60.0   16.666666666666668
-50.0   60.0   0.0
-100.0   60.0   16.666666666666668
-50.0   90.0   16.666666666666668
-50.0   60.0   0.0
-100.0   90.0   0.0
-100.0   60.0   16.666666666666668
-50.0   60.0   16.666666666666668
-100.0   90.0   16.666666666666668
-100.0   60.0   33.333333333333336
-50.0   60.0   16.666666666666668
-50.0   90.0   16.666666666666668
-100.0   90.0   16.666666666666668
-50.0   90.0   33.333333333333336
-100.0   60.0   33.333333333333336
-100.0   90.0   33.333333333333336
-50.0   90.0   33.333333333333336
-100.0   90.0   16.666666666666668
-100.0   60.0   33.333333333333336
-50.0   90.0   33.333333333333336
-50.0   60.0   33.333333333333336
-50.0   60.0   16.666666666666668
-100.0   60.0   33.333333333333336
-50.0   90.0   33.333333333333336
-50.0   60.0   16.666666666666668
-100.0   90.0   16.666666666666668
-100.0   60.0   33.333333333333336
-50.0   60.0   33.333333333333336
-100.0   90.0   33.333333333333336
-100.0   60.0   50.0
-50.0   60.0   33.333333333333336
-50.0   90.0   33.333333333333336
-100.0   90.0   33.333333333333336
-50.0   90.0   50.0
-100.0   60.0   50.0
-100.0   90.0   50.0
-50.0   90.0   50.0
-100.0   90.0   33.333333333333336
-100.0   60.0   50.0
-50.0   90.0   50.0
-50.0   60.0   50.0
-50.0   60.0   33.333333333333336
-100.0   60.0   50.0
-50.0   90.0   50.0
-50.0   60.0   33.333333333333336
-100.0   90.0   33.333333333333336
-100.0   90.0   0.0
-50.0   90.0   0.0
-100.0   120.0   0.0
-100.0   90.0   16.666666666666668
-50.0   90.0   0.0
-50.0   120.0   0.0
-100.0   120.0   0.0
-50.0   120.0   16.666666666666668
-100.0   90.0   16.666666666666668
-100.0   120.0   16.666666666666668
-50.0   120.0   16.666666666666668
-100.0   120.0   0.0
-100.0   90.0   16.666666666666668
-50.0   120.0   16.666666666666668
-50.0   90.0   16.666666666666668
-50.0   90.0   0.0
-100.0   90.0   16.666666666666668
-50.0   120.0   16.666666666666668
-50.0   90.0   0.0
-100.0   120.0   0.0
-100.0   90.0   16.666666666666668
-50.0   90.0   16.666666666666668
-100.0   120.0   16.666666666666668
-100.0   90.0   33.333333333333336
-50.0   90.0   16.666666666666668
-50.0   120.0   16.666666666666668
-100.0   120.0   16.666666666666668
-50.0   120.0   33.333333333333336
-100.0   90.0   33.333333333333336
-100.0   120.0   33.333333333333336
-50.0   120.0   33.333333333333336
-100.0   120.0   16.666666666666668
-100.0   90.0   33.333333333333336
-50.0   120.0   33.333333333333336
-50.0   90.0   33.333333333333336
-50.0   90.0   16.666666666666668
-100.0   90.0   33.333333333333336
-50.0   120.0   33.333333333333336
-50.0   90.0   16.666666666666668
-100.0   120.0   16.666666666666668
-100.0   90.0   33.333333333333336
-50.0   90.0   33.333333333333336
-100.0   120.0   33.333333333333336
-100.0   90.0   50.0
-50.0   90.0   33.333333333333336
-50.0   120.0   33.333333333333336
-100.0   120.0   33.333333333333336
-50.0   120.0   50.0
-100.0   90.0   50.0
-100.0   120.0   50.0
-50.0   120.0   50.0
-100.0   120.0   33.333333333333336
-100.0   90.0   50.0
-50.0   120.0   50.0
-50.0   90.0   50.0
-50.0   90.0   33.333333333333336
-100.0   90.0   50.0
-50.0   120.0   50.0
-50.0   90.0   33.333333333333336
-100.0   120.0   33.333333333333336
-100.0   120.0   0.0
-50.0   120.0   0.0
-100.0   150.0   0.0
-100.0   120.0   16.666666666666668
-50.0   120.0   0.0
-50.0   150.0   0.0
-100.0   150.0   0.0
-50.0   150.0   16.666666666666668
-100.0   120.0   16.666666666666668
-100.0   150.0   16.666666666666668
-50.0   150.0   16.666666666666668
-100.0   150.0   0.0
-100.0   120.0   16.666666666666668
-50.0   150.0   16.666666666666668
-50.0   120.0   16.666666666666668
-50.0   120.0   0.0
-100.0   120.0   16.666666666666668
-50.0   150.0   16.666666666666668
-50.0   120.0   0.0
-100.0   150.0   0.0
-100.0   120.0   16.666666666666668
-50.0   120.0   16.666666666666668
-100.0   150.0   16.666666666666668
-100.0   120.0   33.333333333333336
-50.0   120.0   16.666666666666668
-50.0   150.0   16.666666666666668
-100.0   150.0   16.666666666666668
-50.0   150.0   33.333333333333336
-100.0   120.0   33.333333333333336
-100.0   150.0   33.333333333333336
-50.0   150.0   33.333333333333336
-100.0   150.0   16.666666666666668
-100.0   120.0   33.333333333333336
-50.0   150.0   33.333333333333336
-50.0   120.0   33.333333333333336
-50.0   120.0   16.666666666666668
-100.0   120.0   33.333333333333336
-50.0   150.0   33.333333333333336
-50.0   120.0   16.666666666666668
-100.0   150.0   16.666666666666668
-100.0   120.0   33.333333333333336
-50.0   120.0   33.333333333333336
-100.0   150.0   33.333333333333336
-100.0   120.0   50.0
-50.0   120.0   33.333333333333336
-50.0   150.0   33.333333333333336
-100.0   150.0   33.333333333333336
-50.0   150.0   50.0
-100.0   120.0   50.0
-100.0   150.0   50.0
-50.0   150.0   50.0
-100.0   150.0   33.333333333333336
-100.0   120.0   50.0
-50.0   150.0   50.0
-50.0   120.0   50.0
-50.0   120.0   33.333333333333336
-100.0   120.0   50.0
-50.0   150.0   50.0
-50.0   120.0   33.333333333333336
-100.0   150.0   33.333333333333336
-50.0   0.0   0.0
0.0   0.0   0.0
-50.0   30.0   0.0
-50.0   0.0   16.666666666666668
0.0   0.0   0.0
0.0   30.0   0.0
-50.0   30.0   0.0
0.0   30.0   16.666666666666668
-50.0   0.0   16.666666666666668
-50.0   30.0   16.666666666666668
0.0   30.0   16.666666666666668
-50.0   30.0   0.0
-50.0   0.0   16.666666666666668
0.0   30.0   16.666666666666668
0.0   0.0   16.666666666666668
0.0   0.0   0.0
-50.0   0.0   16.666666666666668
0.0   30.0   16.666666666666668
0.0   0.0   0.0
-50.0   30.0   0.0
-50.0   0.0   16.666666666666668
0.0   0.0   16.666666666666668
-50.0   30.0   16.666666666666668
-50.0   0.0   33.333333333333336
0.0   0.0   16.666666666666668
0.0   30.0   16.666666666666668
-50.0   30.0   16.666666666666668
0.0   30.0   33.333333333333336
-50.0   0.0   33.333333333333336
-50.0   30.0   33.333333333333336
0.0   30.0   33.333333333333336
-50.0   30.0   16.666666666666668
-50.0   0.0   33.333333333333336
0.0   30.0   33.333333333333336
0.0   0.0   33.333333333333336
0.0   0.0   16.666666666666668
-50.0   0.0   33.333333333333336
0.0   30.0   33.333333333333336
0.0   0.0   16.666666666666668
-50.0   30.0   16.666666666666668
-50.0   0.0   33.333333333333336
0.0   0.0   33.333333333333336
-50.0   30.0   33.333333333333336
-50.0   0.0   50.0
0.0   0.0   33.333333333333336
0.0   30.0   33.333333333333336
-50.0   30.0   33.333333333333336
0.0   30.0   50.0
-50.0   0.0   50.0
-50.0   30.0   50.0
0.0   30.0   50.0
-50.0   30.0   33.333333333333336
-50.0   0.0   50.0
0.0   30.0   50.0
0.0   0.0   50.0
0.0   0.0   33.333333333333336
-50.0   0.0   50.0
0.0   30.0   50.0
0.0   0.0   33.333333333333336
-50.0   30.0   33.333333333333336
-50.0   30.0   0.0
0.0   30.0   0.0
-50.0   60.0   0.0
-50.0   30.0   16.666666666666668
0.0   30.0   0.0
0.0   60.0   0.0
-50.0   60.0   0.0
0.0   60.0   16.666666666666668
-50.0   30.0   16.666666666666668
-50.0   60.0   16.666666666666668
0.0   60.0   16.666666666666668
-50.0   60.0   0.0
-50.0   30.0   16.666666666666668
0.0   60.0   16.666666666666668
0.0   30.0   16.666666666666668
0.0   30.0   0.0
-50.0   30.0   16.666666666666668
0.0   60.0   16.666666666666668
0.0   30.0   0.0
-50.0   60.0   0.0
-50.0   30.0   16.666666666666668
0.0   30.0   16.666666666666668
-50.0   60.0   16.666666666666668
-50.0   30.0   33.333333333333336
0.0   30.0   16.666666666666668
0.0   60.0   16.666666666666668
-50.0   60.0   16.666666666666668
0.0   60.0   33.333333333333336
-50.0   30.0   33.333333333333336
-50.0   60.0   33.333333333333336
0.0   60.0   33.333333333333336
-50.0   60.0   16.666666666666668
-50.0   30.0   33.333333333333336
0.0   60.0   33.333333333333336
0.0   30.0   33.333333333333336
0.0   30.0   16.666666666666668
-50.0   30.0   33.333333333333336
0.0   60.0   33.333333333333336
0.0   30.0   16.666666666666668
-50.0   60.0   16.666666666666668
-50.0   30.0   33.333333333333336
0.0   30.0   33.333333333333336
-50.0   60.0   33.333333333333336
-50.0   30.0   50.0
0.0   30.0   33.333333333333336
0.0   60.0   33.333333333333336
-50.0   60.0   33.333333333333336
0.0   60.0   50.0
-50.0   30.0   50.0
-50.0   60.0   50.0
0.0   60.0   50.0
-50.0   60.0   33.333333333333336
-50.0   30.0   50.0
0.0   60.0   50.0
0.0   30.0   50.0
0.0   30.0   33.333333333333336
-50.0   30.0   50.0
0.0   60.0   50.0
0.0   30.0   33.333333333333336
-50.0   60.0   33.333333333333336
-50.0   60.0   0.0
0.0   60.0   0.0
-50.0   90.0   0.0
-50.0   60.0   16.666666666666668
0.0   60.0   0.0
0.0   90.0   0.0
-50.0   90.0   0.0
0.0   90.0   16.666666666666668
-50.0   60.0   16.666666666666668
-50.0   90.0   16.666666666666668
0.0   90.0   16.666666666666668
-50.0   90.0   0.0
-50.0   60.0   16.666666666666668
0.0   90.0   16.666666666666668
0.0   60.0   16.666666666666668
0.0   60.0   0.0
-50.0   60.0   16.666666666666668
0.0   90.0   16.666666666666668
0.0   60.0   0.0
-50.0   90.0   0.0
-50.0   60.0   16.666666666666668
0.0   60.0   16.666666666666668
-50.0   90.0   16.666666666666668
-50.0   60.0   33.333333333333336
0.0   60.0   16.666666666666668
0.0   90.0   16.666666666666668
-50.0   90.0   16.666666666666668
0.0   90.0   33.333333333333336
-50.0   60.0   33.333333333333336
-50.0   90.0   33.333333333333336
0.0   90.0   33.333333333333336
-50.0   90.0   16.666666666666668
-50.0   60.0   33.333333333333336
0.0   90.0   33.333333333333336
0.0   60.0   33.333333333333336
0.0   60.0   16.666666666666668
-50.0   60.0   33.333333333333336
0.0   90.0   33.333333333333336
0.0   60.0   16.666666666666668
-50.0   90.0   16.666666666666668
-50.0   60.0   33.333333333333336
0.0   60.0   33.333333333333336
-50.0   90.0   33.333333333333336
-50.0   60.0   50.0
0.0   60.0   33.333333333333336
0.0   90.0   33.333333333333336
-50.0   90.0   33.333333333333336
0.0   90.0   50.0
-50.0   60.0   50.0
-50.0   90.0   50.0
0.0   90.0   50.0
-50.0   90.0   33.333333333333336
-50.0   60.0   50.0
0.0   90.0   50.0
0.0   60.0   50.0
0.0   60.0   33.333333333333336
-50.0   60.0   50.0
0.0   90.0   50.0
0.0   60.0   33.333333333333336
-50.0   90.0   33.333333333333336
-50.0   90.0   0.0
0.0   90.0   0.0
-50.0   120.0   0.0
-50.0   90.0   16.666666666666668
0.0   90.0   0.0
0.0   120.0   0.0
-50.0   120.0   0.0
0.0   120.0   16.666666666666668
-50.0   90.0   16.666666666666668
-50.0   120.0   16.666666666666668
0.0   120.0   16.666666666666668
-50.0   120.0   0.0
-50.0   90.0   16.666666666666668
0.0   120.0   16.666666666666668
0.0   90.0   16.666666666666668
0.0   90.0   0.0
-50.0   90.0   16.666666666666668
0.0   120.0   16.666666666666668
0.0   90.0   0.0
-50.0   120.0   0.0
-50.0   90.0   16.666666666666668
0.0   90.0   16.666666666666668
-50.0   120.0   16.666666666666668
-50.0   90.0   33.333333333333336
0.0   90.0   16.666666666666668
0.0   120.0   16.666666666666668
-50.0   120.0   16.666666666666668
0.0   120.0   33.333333333333336
-50.0   90.0   33.333333333333336
-50.0   120.0   33.333333333333336
0.0   120.0   33.333333333333336
-50.0   120.0   16.666666666666668
-50.0   90.0   33.333333333333336
0.0   120.0   33.333333333333336
0.0   90.0   33.333333333333336
0.0   90.0   16.666666666666668
-50.0   90.0   33.333333333333336
0.0   120.0   33.333333333333336
0.0   90.0   16.666666666666668
-50.0   120.0   16.666666666666668
-50.0   90.0   33.333333333333336
0.0   90.0   33.333333333333336
-50.0   120.0   33.333333333333336
-50.0   90.0   50.0
0.0   90.0   33.333333333333336
0.0   120.0   33.333333333333336
-50.0   120.0   33.333333333333336
0.0   120.0   50.0
-50.0   90.0   50.0
-50.0   120.0   50.0
0.0   120.0   50.0
-50.0   120.0   33.333333333333336
-50.0   90.0   50.0
0.0   120.0   50.0
0.0   90.0   50.0
0.0   90.0   33.333333333333336
-50.0   90.0   50.0
0.0   120.0   50.0
0.0   90.0   33.333333333333336
-50.0   120.0   33.333333333333336
-50.0   120.0   0.0
0.0   120.0   0.0
-50.0   150.0   0.0
-50.0   120.0   16.666666666666668
0.0   120.0   0.0
0.0   150.0   0.0
-50.0   150.0   0.0
0.0   150.0   16.666666666666668
-50.0   120.0   16.666666666666668
-50.0   150.0   16.666666666666668
0.0   150.0   16.666666666666668
-50.0   150.0   0.0
-50.0   120.0   16.666666666666668
0.0   150.0   16.666666666666668
0.0   120.0   16.666666666666668
0.0   120.0   0.0
-50.0   120.0   16.666666666666668
0.0   150.0   16.666666666666668
0.0   120.0   0.0
-50.0   150.0   0.0
-50.0   120.0   16.666666666666668
0.0   120.0   16.666666666666668
-50.0   150.0   16.666666666666668
-50.0   120.0   33.333333333333336
0.0   120.0   16.666666666666668
0.0   150.0   16.666666666666668
-50.0   150.0   16.666666666666668
0.0   150.0   33.333333333333336
-50.0   120.0   33.333333333333336
-50.0   150.0   33.333333333333336
0.0   150.0   33.333333333333336
-50.0   150.0   16.666666666666668
-50.0   120.0   33.333333333333336
0.0   150.0   33.333333333333336
0.0   120.0   33.333333333333336
0.0   120.0   16.666666666666668
-50.0   120.0   33.333333333333336
0.0   150.0   33.333333333333336
0.0   120.0   16.666666666666668
-50.0   150.0   16.666666666666668
-50.0   120.0   33.333333333333336
0.0   120.0   33.333333333333336
-50.0   150.0   33.333333333333336
-50.0   120.0   50.0
0.0   120.0   33.333333333333336
0.0   150.0   33.333333333333336
-50.0   150.0   33.333333333333336
0.0   150.0   50.0
-50.0   120.0   50.0
-50.0   150.0   50.0
0.0   150.0   50.0
-50.0   150.0   33.333333333333336
-50.0   120.0   50.0
0.0   150.0   50.0
0.0   120.0   50.0
0.0   120.0   33.333333333333336
-50.0   120.0   50.0
0.0   150.0   50.0
0.0   120.0   33.333333333333336
-50.0   150.0   33.333333333333336
0.0   0.0   0.0
50.0   0.0   0.0
0.0   30.0   0.0
0.0   0.0   16.666666666666668
50.0   0.0   0.0
50.0   30.0   0.0
0.0   30.0   0.0
50.0   30.0   16.666666666666668
0.0   0.0   16.666666666666668
0.0   30.0   16.666666666666668
50.0   30.0   16.666666666666668
0.0   30.0   0.0
0.0   0.0   16.666666666666668
50.0   30.0   16.666666666666668
50.0   0.0   16.666666666666668
50.0   0.0   0.0
0.0   0.0   16.666666666666668
50.0   30.0   16.666666666666668
50.0   0.0   0.0
0.0   30.0   0.0
0.0   0.0   16.666666666666668
50.0   0.0   16.666666666666668
0.0   30.0   16.666666666666668
0.0   0.0   33.333333333333336
50.0   0.0   16.666666666666668
50.0   30.0   16.666666666666668
0.0   30.0   16.666666666666668
50.0   30.0   33.333333333333336
0.0   0.0   33.333333333333336
0.0   30.0   33.333333333333336
50.0   30.0   33.333333333333336
0.0   30.0   16.666666666666668
0.0   0.0   33.333333333333336
50.0   30.0   33.333333333333336
50.0   0.0   33.333333333333336
50.0   0.0   16.666666666666668
0.0   0.0   33.333333333333336
50.0   30.0   33.333333333333336
50.0   0.0   16.666666666666668
0.0   30.0   16.666666666666668
0.0   0.0   33.333333333333336
50.0   0.0   33.333333333333336
0.0   30.0   33.333333333333336
0.0   0.0   50.0
50.0   0.0   33.333333333333336
50.0   30.0   33.333333333333336
0.0   30.0   33.333333333333336
50.0   30.0   50.0
0.0   0.0   50.0
0.0   30.0   50.0
50.0   30.0   50.0
0.0   30.0   33.333333333333336
0.0   0.0   50.0
50.0   30.0   50.0
50.0   0.0   50.0
50.0   0.0   33.333333333333336
0.0   0.0   50.0
50.0   30.0   50.0
50.0   0.0   33.333333333333336
0.0   30.0   33.333333333333336
0.0   30.0   0.0
50.0   30.0   0.0
0.0   60.0   0.0
0.0   30.0   16.666666666666668
50.0   30.0   0.0
50.0   60.0   0.0
0.0   60.0   0.0
50.0   60.0   16.666666666666668
0.0   30.0   16.666666666666668
0.0   60.0   16.666666666666668
50.0   60.0   16.666666666666668
0.0   60.0   0.0
0.0   30.0   16.666666666666668
50.0   60.0   16.666666666666668
50.0   30.0   16.666666666666668
50.0   30.0   0.0
0.0   30.0   16.666666666666668
50.0   60.0   16.666666666666668
50.0   30.0   0.0
0.0   60.0   0.0
0.0   30.0   16.666666666666668
50.0   30.0   16.666666666666668
0.0   60.0   16.666666666666668
0.0   30.0   33.333333333333336
50.0   30.0   16.666666666666668
50.0   60.0   16.666666666666668
0.0   60.0   16.666666666666668
50.0   60.0   33.333333333333336
0.0   30.0   33.333333333333336
0.0   60.0   33.333333333333336
50.0   60.0   33.333333333333336
0.0   60.0   16.666666666666668
0.0   30.0   33.333333333333336
50.0   60.0   33.333333333333336
50.0   30.0   33.333333333333336
50.0   30.0   16.666666666666668
0.0   30.0   33.333333333333336
50.0   60.0   33.333333333333336
50.0   30.0   16.666666666666668
0.0   60.0   16.666666666666668
0.0   30.0   33.333333333333336
50.0   30.0   33.333333333333336
0.0   60.0   33.333333333333336
0.0   30.0   50.0
50.0   30.0   33.333333333333336
50.0   60.0   33.333333333333336
0.0   60.0   33.333333333333336
50.0   60.0   50.0
0.0   30.0   50.0
0.0   60.0   50.0
50.0   60.0   50.0
0.0   60.0   33.333333333333336
0.0   30.0   50.0
50.0   60.0   50.0
50.0   30.0   50.0
50.0   30.0   33.333333333333336
0.0   30.0   50.0
50.0   60.0   50.0
50.0   30.0   33.333333333333336
0.0   60.0   33.333333333333336
0.0   60.0   0.0
50.0   60.0   0.0
0.0   90.0   0.0
0.0   60.0   16.666666666666668
50.0   60.0   0.0
50.0   90.0   0.0
0.0   90.0   0.0
50.0   90.0   16.666666666666668
0.0   60.0   16.666666666666668
0.0   90.0   16.666666666666668
50.0   90.0   16.666666666666668
0.0   90.0   0.0
0.0   60.0   16.666666666666668
50.0   90.0   16.666666666666668
50.0   60.0   16.666666666666668
50.0   60.0   0.0
0.0   60.0   16.666666666666668
50.0   90.0   16.666666666666668
50.0   60.0   0.0
0.0   90.0   0.0
0.0   60.0   16.666666666666668
50.0   60.0   16.666666666666668
0.0   90.0   16.666666666666668
0.0   60.0   33.333333333333336
50.0   60.0   16.666666666666668
50.0   90.0   16.666666666666668
0.0   90.0   16.666666666666668
50.0   90.0   33.333333333333336
0.0   60.0   33.333333333333336
0.0   90.0   33.333333333333336
50.0   90.0   33.333333333333336
0.0   90.0   16.666666666666668
0.0   60.0   33.333333333333336
50.0   90.0   33.333333333333336
50.0   60.0   33.333333333333336
50.0   60.0   16.666666666666668
0.0   60.0   33.333333333333336
50.0   90.0   33.333333333333336
50.0   60.0   16.666666666666668
0.0   90.0   16.666666666666668
0.0   60.0   33.333333333333336
50.0   60.0   33.333333333333336
0.0   90.0   33.333333333333336
0.0   60.0   50.0
50.0   60.0   33.333333333333336
50.0   90.0   33.333333333333336
0.0   90.0   33.333333333333336
50.0   90.0   50.0
0.0   60.0   50.0
0.0   90.0   50.0
50.0   90.0   50.0
0.0   90.0   33.333333333333336
0.0   60.0   50.0
50.0   90.0   50.0
50.0   60.0   50.0
50.0   60.0   33.333333333333336
0.0   60.0   50.0
50.0   90.0   50.0
50.0   60.0   33.333333333333336
0.0   90.0   33.333333333333336
0.0   90.0   0.0
50.0   90.0   0.0
0.0   120.0   0.0
0.0   90.0   16.666666666666668
50.0   90.0   0.0
50.0   120.0   0.0
0.0   120.0   0.0
50.0   120.0   16.666666666666668
0.0   90.0   16.666666666666668
0.0   120.0   16.666666666666668
50.0   120.0   16.666666666666668
0.0   120.0   0.0
0.0   90.0   16.666666666666668
50.0   120.0   16.666666666666668
50.0   90.0   16.666666666666668
50.0   90.0   0.0
0.0   90.0   16.666666666666668
50.0   120.0   16.666666666666668
50.0   90.0   0.0
0.0   120.0   0.0
0.0   90.0   16.666666666666668
50.0   90.0   16.666666666666668
0.0   120.0   16.666666666666668
0.0   90.0   33.333333333333336
50.0   90.0   16.666666666666668
50.0   120.0   16.666666666666668
0.0   120.0   16.666666666666668
50.0   120.0   33.333333333333336
0.0   90.0   33.333333333333336
0.0   120.0   33.333333333333336
50.0   120.0   33.333333333333336
0.0   120.0   16.666666666666668
0.0   90.0   33.333333333333336
50.0   120.0   33.333333333333336
50.0   90.0   33.333333333333336
50.0   90.0   16.666666666666668
0.0   90.0   33.333333333333336
50.0   120.0   33.333333333333336
50.0   90.0   16.666666666666668
0.0   120.0   16.666666666666668
0.0   90.0   33.333333333333336
50.0   90.0   33.333333333333336
0.0   120.0   33.333333333333336
0.0   90.0   50.0
50.0   90.0   33.333333333333336
50.0   120.0   33.333333333333336
0.0   120.0   33.333333333333336
50.0   120.0   50.0
0.0   90.0   50.0
0.0   120.0   50.0
50.0   120.0   50.0
0.0   120.0   33.333333333333336
0.0   90.0   50.0
50.0   120.0   50.0
50.0   90.0   50.0
50.0   90.0   33.333333333333336
0.0   90.0   50.0
50.0   120.0   50.0
50.0   90.0   33.333333333333336
0.0   120.0   33.333333333333336
0.0   120.0   0.0
50.0   120.0   0.0
0.0   150.0   0.0
0.0   120.0   16.666666666666668
50.0   120.0   0.0
50.0   150.0   0.0
0.0   150.0   0.0
50.0   150.0   16.666666666666668
0.0   120.0   16.666666666666668
0.0   150.0   16.666666666666668
50.0   150.0   16.666666666666668
0.0   150.0   0.0
0.0   120.0   16.666666666666668
50.0   150.0   16.666666666666668
50.0   120.0   16.666666666666668
50.0   120.0   0.0
0.0   120.0   16.666666666666668
50.0   150.0   16.666666666666668
50.0   120.0   0.0
0.0   150.0   0.0
0.0   120.0   16.666666666666668
50.0   120.0   16.666666666666668
0.0   150.0   16.666666666666668
0.0   120.0   33.333333333333336
50.0   120.0   16.666666666666668
50.0   150.0   16.666666666666668
0.0   150.0   16.666666666666668
50.0   150.0   33.333333333333336
0.0   120.0   33.333333333333336
0.0   150.0   33.333333333333336
50.0   150.0   33.333333333333336
0.0   150.0   16.666666666666668
0.0   120.0   33.333333333333336
50.0   150.0   33.333333333333336
50.0   120.0   33.333333333333336
50.0   120.0   16.666666666666668
0.0   120.0   33.333333333333336
50.0   150.0   33.333333333333336
50.0   120.0   16.666666666666668
0.0   150.0   16.666666666666668
0.0   120.0   33.333333333333336
50.0   120.0   33.333333333333336
0.0   150.0   33.333333333333336
0.0   120.0   50.0
50.0   120.0   33.333333333333336
50.0   150.0   33.333333333333336
0.0   150.0   33.333333333333336
50.0   150.0   50.0
0.0   120.0   50.0
0.0   150.0   50.0
50.0   150.0   50.0
0.0   150.0   33.333333333333336
0.0   120.0   50.0
50.0   150.0   50.0
50.0   120.0   50.0
50.0   120.0   33.333333333333336
0.0   120.0   50.0
50.0   150.0   50.0
50.0   120.0   33.333333333333336
0.0   150.0   33.333333333333336
50.0   0.0   0.0
100.0   0.0   0.0
50.0   30.0   0.0
50.0   0.0   16.666666666666668
100.0   0.0   0.0
100.0   30.0   0.0
50.0   30.0   0.0
100.0   30.0   16.666666666666668
50.0   0.0   16.666666666666668
50.0   30.0   16.666666666666668
100.0   30.0   16.666666666666668
50.0   30.0   0.0
50.0   0.0   16.666666666666668
100.0   30.0   16.666666666666668
100.0   0.0   16.666666666666668
100.0   0.0   0.0
50.0   0.0   16.666666666666668
100.0   30.0   16.666666666666668
100.0   0.0   0.0
50.0   30.0   0.0
50.0   0.0   16.666666666666668
100.0   0.0   16.666666666666668
50.0   30.0   16.666666666666668
50.0   0.0   33.333333333333336
100.0   0.0   16.666666666666668
100.0   30.0   16.666666666666668
50.0   30.0   16.666666666666668
100.0   30.0   33.333333333333336
50.0   0.0   33.333333333333336
50.0   30.0   33.333333333333336
100.0   30.0   33.333333333333336
50.0   30.0   16.666666666666668
50.0   0.0   33.333333333333336
100.0   30.0   33.333333333333336
100.0   0.0   33.333333333333336
100.0   0.0   16.666666666666668
50.0   0.0   33.333333333333336
100.0   30.0   33.333333333333336
100.0   0.0   16.666666666666668
50.0   30.0   16.666666666666668
50.0   0.0   33.333333333333336
100.0   0.0   33.333333333333336
50.0   30.0   33.333333333333336
50.0   0.0   50.0
100.0   0.0   33.333333333333336
100.0   30.0   33.333333333333336
50.0   30.0   33.333333333333336
100.0   30.0   50.0
50.0   0.0   50.0
50.0   30.0   50.0
100.0   30.0   50.0
50.0   30.0   33.333333333333336
50.0   0.0   50.0
100.0   30.0   50.0
100.0   0.0   50.0
100.0   0.0   33.333333333333336
50.0   0.0   50.0
100.0   30.0   50.0
100.0   0.0   33.333333333333336
50.0   30.0   33.333333333333336
50.0   30.0   0.0
100.0   30.0   0.0
50.0   60.0   0.0
50.0   30.0   16.666666666666668
100.0   30.0   0.0
100.0   60.0   0.0
50.0   60.0   0.0
100.0   60.0   16.666666666666668
50.0   30.0   16.666666666666668
50.0   60.0   16.666666666666668
100.0   60.0   16.666666666666668
50.0   60.0   0.0
50.0   30.0   16.666666666666668
100.0   60.0   16.666666666666668
100.0   30.0   16.666666666666668
100.0   30.0   0.0
50.0   30.0   16.666666666666668
100.0   60.0   16.666666666666668
100.0   30.0   0.0
50.0   60.0   0.0
50.0   30.0   16.666666666666668
100.0   30.0   16.666666666666668
50.0   60.0   16.666666666666668
50.0   30.0   33.333333333333336
100.0   30.0   16.666666666666668
100.0   60.0   16.666666666666668
50.0   60.0   16.666666666666668
100.0   60.0   33.333333333333336
50.0   30.0   33.333333333333336
50.0   60.0   33.333333333333336
100.0   60.0   33.333333333333336
50.0   60.0   16.666666666666668
50.0   30.0   33.333333333333336
100.0   60.0   33.333333333333336
100.0   30.0   33.333333333333336
100.0   30.0   16.666666666666668
50.0   30.0   33.333333333333336
100.0   60.0   33.333333333333336
100.0   30.0   16.666666666666668
50.0   60.0   16.666666666666668
50.0   30.0   33.333333333333336
100.0   30.0   33.333333333333336
50.0   60.0   33.333333333333336
50.0   30.0   50.0
100.0   30.0   33.333333333333336
100.0   60.0   33.333333333333336
50.0   60.0   33.333333333333336
100.0   60.0   50.0
50.0   30.0   50.0
50.0   60.0   50.0
100.0   60.0   50.0
50.0   60.0   33.333333333333336
50.0   30.0   50.0
100.0   60.0   50.0
100.0   30.0   50.0
100.0   30.0   33.333333333333336
50.0   30.0   50.0
100.0   60.0   50.0
100.0   30.0   33.333333333333336
50.0   60.0   33.333333333333336
50.0   60.0   0.0
100.0   60.0   0.0
50.0   90.0   0.0
50.0   60.0   16.666666666666668
100.0   60.0   0.0
100.0   90.0   0.0
50.0   90.0   0.0
100.0   90.0   16.666666666666668
50.0   60.0   16.666666666666668
50.0   90.0   16.666666666666668
100.0   90.0   16.666666666666668
50.0   90.0   0.0
50.0   60.0   16.666666666666668
100.0   90.0   16.666666666666668
100.0   60.0   16.666666666666668
100.0   60.0   0.0
50.0   60.0   16.666666666666668
100.0   90.0   16.666666666666668
100.0   60.0   0.0
50.0   90.0   0.0
50.0   60.0   16.666666666666668
100.0   60.0   16.666666666666668
50.0   90.0   16.666666666666668
50.0   60.0   33.333333333333336
100.0   60.0   16.666666666666668
100.0   90.0   16.666666666666668
50.0   90.0   16.666666666666668
100.0   90.0   33.333333333333336
50.0   60.0   33.333333333333336
50.0   90.0   33.333333333333336
100.0   90.0   33.333333333333336
50.0   90.0   16.666666666666668
50.0   60.0   33.333333333333336
100.0   90.0   33.333333333333336
100.0   60.0   33.333333333333336
100.0   60.0   16.666666666666668
50.0   60.0   33.333333333333336
100.0   90.0   33.333333333333336
100.0   60.0   16.666666666666668
50.0   90.0   16.666666666666668
50.0   60.0   33.333333333333336
100.0   60.0   33.333333333333336
50.0   90.0   33.333333333333336
50.0   60.0   50.0
100.0   60.0   33.333333333333336
100.0   90.0   33.333333333333336
50.0   90.0   33.333333333333336
100.0   90.0   50.0
50.0   60.0   50.0
50.0   90.0   50.0
100.0   90.0   50.0
50.0   90.0   33.333333333333336
50.0   60.0   50.0
100.0   90.0   50.0
100.0   60.0   50.0
100.0   60.0   33.333333333333336
50.0   60.0   50.0
100.0   90.0   50.0
100.0   60.0   33.333333333333336
50.0   90.0   33.333333333333336
50.0   90.0   0.0
100.0   90.0   0.0
50.0   120.0   0.0
50.0   90.0   16.666666666666668
100.0   90.0   0.0
100.0   120.0   0.0
50.0   120.0   0.0
100.0   120.0   16.666666666666668
50.0   90.0   16.666666666666668
50.0   120.0   16.666666666666668
100.0   120.0   16.666666666666668
50.0   120.0   0.0
50.0   90.0   16.666666666666668
100.0   120.0   16.666666666666668
100.0   90.0   16.666666666666668
100.0   90.0   0.0
50.0   90.0   16.666666666666668
100.0   120.0   16.666666666666668
100.0   90.0   0.0
50.0   120.0   0.0
50.0   90.0   16.666666666666668
100.0   90.0   16.666666666666668
50.0   120.0   16.666666666666668
50.0   90.0   33.333333333333336
100.0   90.0   16.666666666666668
100.0   120.0   16.666666666666668
50.0   120.0   16.666666666666668
100.0   120.0   33.333333333333336
50.0   90.0   33.333333333333336
50.0   120.0   33.333333333333336
100.0   120.0   33.333333333333336
50.0   120.0   16.666666666666668
50.0   90.0   33.333333333333336
100.0   120.0   33.333333333333336
100.0   90.0   33.333333333333336
100.0   90.0   16.666666666666668
50.0   90.0   33.333333333333336
100.0   120.0   33.333333333333336
100.0   90.0   16.666666666666668
50.0   120.0   16.666666666666668
50.0   90.0   33.333333333333336
100.0   90.0   33.333333333333336
50.0   120.0   33.333333333333336
50.0   90.0   50.0
100.0   90.0   33.333333333333336
100.0   120.0   33.333333333333336
50.0   120.0   33.333333333333336
100.0   120.0   50.0
50.0   90.0   50.0
50.0   120.0   50.0
100.0   120.0   50.0
50.0   120.0   33.333333333333336
50.0   90.0   50.0
100.0   120.0   50.0
100.0   90.0   50.0
100.0   90.0   33.333333333333336
50.0   90.0   50.0
100.0   120.0   50.0
100.0   90.0   33.333333333333336
50.0   120.0   33.333333333333336
50.0   120.0   0.0
100.0   120.0   0.0
50.0   150.0   0.0
50.0   120.0   16.666666666666668
100.0   120.0   0.0
100.0   150.0   0.0
50.0   150.0   0.0
100.0   150.0   16.666666666666668
50.0   120.0   16.666666666666668
50.0   150.0   16.666666666666668
100.0   150.0   16.666666666666668
50.0   150.0   0.0
50.0   120.0   16.666666666666668
100.0   150.0   16.666666666666668
100.0   120.0   16.666666666666668
100.0   120.0   0.0
50.0   120.0   16.666666666666668
100.0   150.0   16.666666666666668
100.0   120.0   0.0
50.0   150.0   0.0
50.0   120.0   16.666666666666668
100.0   120.0   16.666666666666668
50.0   150.0   16.666666666666668
50.0   120.0   33.333333333333336
100.0   120.0   16.666666666666668
100.0   150.0   16.666666666666668
50.0   150.0   16.666666666666668
100.0   150.0   33.333333333333336
50.0   120.0   33.333333333333336
50.0   150.0   33.333333333333336
100.0   150.0   33.333333333333336
50.0   150.0   16.666666666666668
50.0   120.0   33.333333333333336
100.0   150.0   33.333333333333336
100.0   120.0   33.333333333333336
100.0   120.0   16.666666666666668
50.0   120.0   33.333333333333336
100.0   150.0   33.333333333333336
100.0   120.0   16.666666666666668
50.0   150.0   16.666666666666668
50.0   120.0   33.333333333333336
100.0   120.0   33.333333333333336
50.0   150.0   33.333333333333336
50.0   120.0   50.0
100.0   120.0   33.333333333333336
100.0   150.0   33.333333333333336
50.0   150.0   33.333333333333336
100.0   150.0   50.0
50.0   120.0   50.0
50.0   150.0   50.0
100.0   150.0   50.0
50.0   150.0   33.333333333333336
50.0   120.0   50.0
100.0   150.0   50.0
100.0   120.0   50.0
100.0   120.0   33.333333333333336
50.0   120.0   50.0
100.0   150.0   50.0
100.0   120.0   33.333333333333336
50.0   150.0   33.333333333333336
100.0   0.0   0.0
150.0   0.0   0.0
100.0   30.0   0.0
100.0   0.0   16.666666666666668
150.0   0.0   0.0
150.0   30.0   0.0
100.0   30.0   0.0
150.0   30.0   16.666666666666668
100.0   0.0   16.666666666666668
100.0   30.0   16.666666666666668
150.0   30.0   16.666666666666668
100.0   30.0   0.0
100.0   0.0   16.666666666666668
150.0   30.0   16.666666666666668
150.0   0.0   16.666666666666668
150.0   0.0   0.0
100.0   0.0   16.666666666666668
150.0   30.0   16.666666666666668
150.0   0.0   0.0
100.0   30.0   0.0
100.0   0.0   16.666666666666668
150.0   0.0   16.666666666666668
100.0   30.0   16.666666666666668
100.0   0.0   33.333333333333336
150.0   0.0   16.666666666666668
150.0   30.0   16.666666666666668
100.0   30.0   16.666666666666668
150.0   30.0   33.333333333333336
100.0   0.0   33.333333333333336
100.0   30.0   33.333333333333336
150.0   30.0   33.333333333333336
100.0   30.0   16.666666666666668
100.0   0.0   33.333333333333336
150.0   30.0   33.333333333333336
150.0   0.0   33.333333333333336
150.0   0.0   16.666666666666668
100.0   0.0   33.333333333333336
150.0   30.0   33.333333333333336
150.0   0.0   16.666666666666668
100.0   30.0   16.666666666666668
100.0   0.0   33.333333333333336
150.0   0.0   33.333333333333336
100.0   30.0   33.333333333333336
100.0   0.0   50.0
150.0   0.0   33.333333333333336
150.0   30.0   33.333333333333336
100.0   30.0   33.333333333333336
150.0   30.0   50.0
100.0   0.0   50.0
100.0   30.0   50.0
150.0   30.0   50.0
100.0   30.0   33.333333333333336
100.0   0.0   50.0
150.0   30.0   50.0
150.0   0.0   50.0
150.0   0.0   33.333333333333336
100.0   0.0   50.0
150.0   30.0   50.0
150.0   0.0   33.333333333333336
100.0   30.0   33.333333333333336
100.0   30.0   0.0
150.0   30.0   0.0
100.0   60.0   0.0
100.0   30.0   16.666666666666668
150.0   30.0   0.0
150.0   60.0   0.0
100.0   60.0   0.0
150.0   60.0   16.666666666666668
100.0   30.0   16.666666666666668
100.0   60.0   16.666666666666668
150.0   60.0   16.666666666666668
100.0   60.0   0.0
100.0   30.0   16.666666666666668
150.0   60.0   16.666666666666668
150.0   30.0   16.666666666666668
150.0   30.0   0.0
100.0   30.0   16.666666666666668
150.0   60.0   16.666666666666668
150.0   30.0   0.0
100.0   60.0   0.0
100.0   30.0   16.666666666666668
150.0   30.0   16.666666666666668
100.0   60.0   16.666666666666668
100.0   30.0   33.333333333333336
150.0   30.0   16.666666666666668
150.0   60.0   16.666666666666668
100.0   60.0   16.666666666666668
150.0   60.0   33.333333333333336
100.0   30.0   33.333333333333336
100.0   60.0   33.333333333333336
150.0   60.0   33.333333333333336
100.0   60.0   16.666666666666668
100.0   30.0   33.333333333333336
150.0   60.0   33.333333333333336
150.0   30.0   33.333333333333336
150.0   30.0   16.666666666666668
100.0   30.0   33.333333333333336
150.0   60.0   33.333333333333336
150.0   30.0   16.666666666666668
100.0   60.0   16.666666666666668
100.0   30.0   33.333333333333336
150.0   30.0   33.333333333333336
100.0   60.0   33.333333333333336
100.0   30.0   50.0
150.0   30.0   33.333333333333336
150.0   60.0   33.333333333333336
100.0   60.0   33.333333333333336
150.0   60.0   50.0
100.0   30.0   50.0
100.0   60.0   50.0
150.0   60.0   50.0
100.0   60.0   33.333333333333336
100.0   30.0   50.0
150.0   60.0   50.0
150.0   30.0   50.0
150.0   30.0   33.333333333333336
100.0   30.0   50.0
150.0   60.0   50.0
150.0   30.0   33.333333333333336
100.0   60.0   33.333333333333336
100.0   60.0   0.0
150.0   60.0   0.0
100.0   90.0   0.0
100.0   60.0   16.666666666666668
150.0   60.0   0.0
150.0   90.0   0.0
100.0   90.0   0.0
150.0   90.0   16.666666666666668
100.0   60.0   16.666666666666668
100.0   90.0   16.666666666666668
150.0   90.0   16.666666666666668
100.0   90.0   0.0
100.0   60.0   16.666666666666668
150.0   90.0   16.666666666666668
150.0   60.0   16.666666666666668
150.0   60.0   0.0
100.0   60.0   16.666666666666668
150.0   90.0   16.666666666666668
150.0   60.0   0.0
100.0   90.0   0.0
100.0   60.0   16.666666666666668
150.0   60.0   16.666666666666668
100.0   90.0   16.666666666666668
100.0   60.0   33.333333333333336
150.0   60.0   16.666666666666668
150.0   90.0   16.666666666666668
100.0   90.0   16.666666666666668
150.0   90.0   33.333333333333336
100.0   60.0   33.333333333333336
100.0   90.0   33.333333333333336
150.0   90.0   33.333333333333336
100.0   90.0   16.666666666666668
100.0   60.0   33.333333333333336
150.0   90.0   33.333333333333336
150.0   60.0   33.333333333333336
150.0   60.0   16.666666666666668
100.0   60.0   33.333333333333336
150.0   90.0   33.333333333333336
150.0   60.0   16.666666666666668
100.0   90.0   16.666666666666668
100.0   60.0   33.333333333333336
150.0   60.0   33.333333333333336
100.0   90.0   33.333333333333336
100.0   60.0   50.0
150.0   60.0   33.333333333333336
150.0   90.0   33.333333333333336
100.0   90.0   33.333333333333336
150.0   90.0   50.0
100.0   60.0   50.0
100.0   90.0   50.0
150.0   90.0   50.0
100.0   90.0   33.333333333333336
100.0   60.0   50.0
150.0   90.0   50.0
150.0   60.0   50.0
150.0   60.0   33.333333333333336
100.0   60.0   50.0
150.0   90.0   50.0
150.0   60.0   33.333333333333336
100.0   90.0   33.333333333333336
100.0   90.0   0.0
150.0   90.0   0.0
100.0   120.0   0.0
100.0   90.0   16.666666666666668
150.0   90.0   0.0
150.0   120.0   0.0
100.0   120.0   0.0
150.0   120.0   16.666666666666668
100.0   90.0   16.666666666666668
100.0   120.0   16.666666666666668
150.0   120.0   16.666666666666668
100.0   120.0   0.0
100.0   90.0   16.666666666666668
150.0   120.0   16.666666666666668
150.0   90.0   16.666666666666668
150.0   90.0   0.0
100.0   90.0   16.666666666666668
150.0   120.0   16.666666666666668
150.0   90.0   0.0
100.0   120.0   0.0
100.0   90.0   16.666666666666668
150.0   90.0   16.666666666666668
100.0   120.0   16.666666666666668
100.0   90.0   33.333333333333336
150.0   90.0   16.666666666666668
150.0   120.0   16.666666666666668
100.0   120.0   16.666666666666668
150.0   120.0   33.333333333333336
100.0   90.0   33.333333333333336
100.0   120.0   33.333333333333336
150.0   120.0   33.333333333333336
100.0   120.0   16.666666666666668
100.0   90.0   33.333333333333336
150.0   120.0   33.333333333333336
150.0   90.0   33.333333333333336
150.0   90.0   16.666666666666668
100.0   90.0   33.333333333333336
150.0   120.0   33.333333333333336
150.0   90.0   16.666666666666668
100.0   120.0   16.666666666666668
100.0   90.0   33.333333333333336
150.0   90.0   33.333333333333336
100.0   120.0   33.333333333333336
100.0   90.0   50.0
150.0   90.0   33.333333333333336
150.0   120.0   33.333333333333336
100.0   120.0   33.333333333333336
150.0   120.0   50.0
100.0   90.0   50.0
100.0   120.0   50.0
150.0   120.0   50.0
100.0   120.0   33.333333333333336
100.0   90.0   50.0
150.0   120.0   50.0
150.0   90.0   50.0
150.0   90.0   33.333333333333336
100.0   90.0   50.0
150.0   120.0   50.0
150.0   90.0   33.333333333333336
100.0   120.0   33.333333333333336
100.0   120.0   0.0
150.0   120.0   0.0
100.0   150.0   0.0
100.0   120.0   16.666666666666668
150.0   120.0   0.0
150.0   150.0   0.0
100.0   150.0   0.0
150.0   150.0   16.666666666666668
100.0   120.0   16.666666666666668
100.0   150.0   16.666666666666668
150.0   150.0   16.666666666666668
100.0   150.0   0.0
100.0   120.0   16.666666666666668
150.0   150.0   16.666666666666668
150.0   120.0   16.666666666666668
150.0   120.0   0.0
100.0   120.0   16.666666666666668
150.0   150.0   16.666666666666668
150.0   120.0   0.0
100.0   150.0   0.0
100.0   120.0   16.666666666666668
150.0   120.0   16.666666666666668
100.0   150.0   16.666666666666668
100.0   120.0   33.333333333333336
150.0   120.0   16.666666666666668
150.0   150.0   16.666666666666668
100.0   150.0   16.666666666666668
150.0   150.0   33.333333333333336
100.0   120.0   33.333333333333336
100.0   150.0   33.333333333333336
150.0   150.0   33.333333333333336
100.0   150.0   16.666666666666668
100.0   120.0   33.333333333333336
150.0   150.0   33.333333333333336
150.0   120.0   33.333333333333336
150.0   120.0   16.666666666666668
100.0   120.0   33.333333333333336
150.0   150.0   33.333333333333336
150.0   120.0   16.666666666666668
100.0   150.0   16.666666666666668
100.0   120.0   33.333333333333336
150.0   120.0   33.333333333333336
100.0   150.0   33.333333333333336
100.0   120.0   50.0
150.0   120.0   33.333333333333336
150.0   150.0   33.333333333333336
100.0   150.0   33.333333333333336
150.0   150.0   50.0
100.0   120.0   50.0
100.0   150.0   50.0
150.0   150.0   50.0
100.0   150.0   33.333333333333336
100.0   120.0   50.0
150.0   150.0   50.0
150.0   120.0   50.0
150.0   120.0   33.333333333333336
100.0   120.0   50.0
150.0   150.0   50.0
150.0   120.0   33.333333333333336
100.0   150.0   33.333333333333336
150.0   0.0   0.0
200.0   0.0   0.0
150.0   30.0   0.0
150.0   0.0   16.666666666666668
200.0   0.0   0.0
200.0   30.0   0.0
150.0   30.0   0.0
200.0   30.0   16.666666666666668
150.0   0.0   16.666666666666668
150.0   30.0   16.666666666666668
200.0   30.0   16.666666666666668
150.0   30.0   0.0
150.0   0.0   16.666666666666668
200.0   30.0   16.666666666666668
200.0   0.0   16.666666666666668
200.0   0.0   0.0
150.0   0.0   16.666666666666668
200.0   30.0   16.666666666666668
200.0   0.0   0.0
150.0   30.0   0.0
150.0   0.0   16.666666666666668
200.0   0.0   16.666666666666668
150.0   30.0   16.666666666666668
150.0   0.0   33.333333333333336
200.0   0.0   16.666666666666668
200.0   30.0   16.666666666666668
150.0   30.0   16.666666666666668
200.0   30.0   33.333333333333336
150.0   0.0   33.333333333333336
150.0   30.0   33.333333333333336
200.0   30.0   33.333333333333336
150.0   30.0   16.666666666666668
150.0   0.0   33.333333333333336
200.0   30.0   33.333333333333336
200.0   0.0   33.333333333333336
200.0   0.0   16.666666666666668
150.0   0.0   33.333333333333336
200.0   30.0   33.333333333333336
200.0   0.0   16.666666666666668
150.0   30.0   16.666666666666668
150.0   0.0   33.333333333333336
200.0   0.0   33.333333333333336
150.0   30.0   33.333333333333336
150.0   0.0   50.0
200.0   0.0   33.333333333333336
200.0   30.0   33.333333333333336
150.0   30.0   33.333333333333336
200.0   30.0   50.0
150.0   0.0   50.0
150.0   30.0   50.0
200.0   30.0   50.0
150.0   30.0   33.333333333333336
150.0   0.0   50.0
200.0   30.0   50.0
200.0   0.0   50.0
200.0   0.0   33.333333333333336
150.0   0.0   50.0
200.0   30.0   50.0
200.0   0.0   33.333333333333336
150.0   30.0   33.333333333333336
150.0   30.0   0.0
200.0   30.0   0.0
150.0   60.0   0.0
150.0   30.0   16.666666666666668
200.0   30.0   0.0
200.0   60.0   0.0
150.0   60.0   0.0
200.0   60.0   16.666666666666668
150.0   30.0   16.666666666666668
150.0   60.0   16.666666666666668
200.0   60.0   16.666666666666668
150.0   60.0   0.0
150.0   30.0   16.666666666666668
200.0   60.0   16.666666666666668
200.0   30.0   16.666666666666668
200.0   30.0   0.0
150.0   30.0   16.666666666666668
200.0   60.0   16.666666666666668
200.0   30.0   0.0
150.0   60.0   0.0
150.0   30.0   16.666666666666668
200.0   30.0   16.666666666666668
150.0   60.0   16.666666666666668
150.0   30.0   33.333333333333336
200.0   30.0   16.666666666666668
200.0   60.0   16.666666666666668
150.0   60.0   16.666666666666668
200.0   60.0   33.333333333333336
150.0   30.0   33.333333333333336
150.0   60.0   33.333333333333336
200.0   60.0   33.333333333333336
150.0   60.0   16.666666666666668
150.0   30.0   33.333333333333336
200.0   60.0   33.333333333333336
200.0   30.0   33.333333333333336
200.0   30.0   16.666666666666668
150.0   30.0   33.333333333333336
200.0   60.0   33.333333333333336
200.0   30.0   16.666666666666668
150.0   60.0   16.666666666666668
150.0   30.0   33.333333333333336
200.0   30.0   33.333333333333336
150.0   60.0   33.333333333333336
150.0   30.0   50.0
200.0   30.0   33.333333333333336
200.0   60.0   33.333333333333336
150.0   60.0   33.333333333333336
200.0   60.0   50.0
150.0   30.0   50.0
150.0   60.0   50.0
200.0   60.0   50.0
150.0   60.0   33.333333333333336
150.0   30.0   50.0
200.0   60.0   50.0
200.0   30.0   50.0
200.0   30.0   33.333333333333336
150.0   30.0   50.0
200.0   60.0   50.0
200.0   30.0   33.333333333333336
150.0   60.0   33.333333333333336
150.0   60.0   0.0
200.0   60.0   0.0
150.0   90.0   0.0
150.0   60.0   16.666666666666668
200.0   60.0   0.0
200.0   90.0   0.0
150.0   90.0   0.0
200.0   90.0   16.666666666666668
150.0   60.0   16.666666666666668
150.0   90.0   16.666666666666668
200.0   90.0   16.666666666666668
150.0   90.0   0.0
150.0   60.0   16.666666666666668
200.0   90.0   16.666666666666668
200.0   60.0   16.666666666666668
200.0   60.0   0.0
150.0   60.0   16.666666666666668
200.0   90.0   16.666666666666668
200.0   60.0   0.0
150.0   90.0   0.0
150.0   60.0   16.666666666666668
200.0   60.0   16.666666666666668
150.0   90.0   16.666666666666668
150.0   60.0   33.333333333333336
200.0   60.0   16.666666666666668
200.0   90.0   16.666666666666668
150.0   90.0   16.666666666666668
200.0   90.0   33.333333333333336
150.0   60.0   33.333333333333336
150.0   90.0   33.333333333333336
200.0   90.0   33.333333333333336
150.0   90.0   16.666666666666668
150.0   60.0   33.333333333333336
200.0   90.0   33.333333333333336
200.0   60.0   33.333333333333336
200.0   60.0   16.666666666666668
150.0   60.0   33.333333333333336
200.0   90.0   33.333333333333336
200.0   60.0   16.666666666666668
150.0   90.0   16.666666666666668
150.0   60.0   33.333333333333336
200.0   60.0   33.333333333333336
150.0   90.0   33.333333333333336
150.0   60.0   50.0
200.0   60.0   33.333333333333336
200.0   90.0   33.333333333333336
150.0   90.0   33.333333333333336
200.0   90.0   50.0
150.0   60.0   50.0
150.0   90.0   50.0
200.0   90.0   50.0
150.0   90.0   33.333333333333336
150.0   60.0   50.0
200.0   90.0   50.0
200.0   60.0   50.0
200.0   60.0   33.333333333333336
150.0   60.0   50.0
200.0   90.0   50.0
200.0   60.0   33.333333333333336
150.0   90.0   33.333333333333336
150.0   90.0   0.0
200.0   90.0   0.0
150.0   120.0   0.0
150.0   90.0   16.666666666666668
200.0   90.0   0.0
200.0   120.0   0.0
150.0   120.0   0.0
200.0   120.0   16.666666666666668
150.0   90.0   16.666666666666668
150.0   120.0   16.666666666666668
200.0   120.0   16.666666666666668
150.0   120.0   0.0
150.0   90.0   16.666666666666668
200.0   120.0   16.666666666666668
200.0   90.0   16.666666666666668
200.0   90.0   0.0
150.0   90.0   16.666666666666668
200.0   120.0   16.666666666666668
200.0   90.0   0.0
150.0   120.0   0.0
150.0   90.0   16.666666666666668
200.0   90.0   16.666666666666668
150.0   120.0   16.666666666666668
150.0   90.0   33.333333333333336
200.0   90.0   16.666666666666668
200.0   120.0   16.666666666666668
150.0   120.0   16.666666666666668
200.0   120.0   33.333333333333336
150.0   90.0   33.333333333333336
150.0   120.0   33.333333333333336
200.0   120.0   33.333333333333336
150.0   120.0   16.666666666666668
150.0   90.0   33.333333333333336
200.0   120.0   33.333333333333336
200.0   90.0   33.333333333333336
200.0   90.0   16.666666666666668
150.0   90.0   33.333333333333336
200.0   120.0   33.333333333333336
200.0   90.0   16.666666666666668
150.0   120.0   16.666666666666668
150.0   90.0   33.333333333333336
200.0   90.0   33.333333333333336
150.0   120.0   33.333333333333336
150.0   90.0   50.0
200.0   90.0   33.333333333333336
200.0   120.0   33.333333333333336
150.0   120.0   33.333333333333336
200.0   120.0   50.0
150.0   90.0   50.0
150.0   120.0   50.0
200.0   120.0   50.0
150.0   120.0   33.333333333333336
150.0   90.0   50.0
200.0   120.0   50.0
200.0   90.0   50.0
200.0   90.0   33.333333333333336
150.0   90.0   50.0
200.0   120.0   50.0
200.0   90.0   33.333333333333336
150.0   120.0   33.333333333333336
150.0   120.0   0.0
200.0   120.0   0.0
150.0   150.0   0.0
150.0   120.0   16.666666666666668
200.0   120.0   0.0
200.0   150.0   0.0
150.0   150.0   0.0
200.0   150.0   16.666666666666668
150.0   120.0   16.666666666666668
150.0   150.0   16.666666666666668
200.0   150.0   16.666666666666668
150.0   150.0   0.0
150.0   120.0   16.666666666666668
200.0   150.0   16.666666666666668
200.0   120.0   16.666666666666668
200.0   120.0   0.0
150.0   120.0   16.666666666666668
200.0   150.0   16.666666666666668
200.0   120.0   0.0
150.0   150.0   0.0
150.0   120.0   16.666666666666668
200.0   120.0   16.666666666666668
150.0   150.0   16.666666666666668
150.0   120.0   33.333333333333336
200.0   120.0   16.666666666666668
200.0   150.0   16.666666666666668
150.0   150.0   16.666666666666668
200.0   150.0   33.333333333333336
150.0   120.0   33.333333333333336
150.0   150.0   33.333333333333336
200.0   150.0   33.333333333333336
150.0   150.0   16.666666666666668
150.0   120.0   33.333333333333336
200.0   150.0   33.333333333333336
200.0   120.0   33.333333333333336
200.0   120.0   16.666666666666668
150.0   120.0   33.333333333333336
200.0   150.0   33.333333333333336
200.0   120.0   16.666666666666668
150.0   150.0   16.666666666666668
150.0   120.0   33.333333333333336
200.0   120.0   33.333333333333336
150.0   150.0   33.333333333333336
150.0   120.0   50.0
200.0   120.0   33.333333333333336
200.0   150.0   33.333333333333336
150.0   150.0   33.333333333333336
200.0   150.0   50.0
150.0   120.0   50.0
150.0   150.0   50.0
200.0   150.0   50.0
150.0   150.0   33.333333333333336
150.0   120.0   50.0
200.0   150.0   50.0
200.0   120.0   50.0
200.0   120.0   33.333333333333336
150.0   120.0   50.0
200.0   150.0   50.0
200.0   120.0   33.333333333333336
150.0   150.0   33.333333333333336
200.0   0.0   0.0
250.0   0.0   0.0
200.0   30.0   0.0
200.0   0.0   16.666666666666668
250.0   0.0   0.0
250.0   30.0   0.0
200.0   30.0   0.0
250.0   30.0   16.666666666666668
200.0   0.0   16.666666666666668
200.0   30.0   16.666666666666668
250.0   30.0   16.666666666666668
200.0   30.0   0.0
200.0   0.0   16.666666666666668
250.0   30.0   16.666666666666668
250.0   0.0   16.666666666666668
250.0   0.0   0.0
200.0   0.0   16.666666666666668
250.0   30.0   16.666666666666668
250.0   0.0   0.0
200.0   30.0   0.0
200.0   0.0   16.666666666666668
250.0   0.0   16.666666666666668
200.0   30.0   16.666666666666668
200.0   0.0   33.333333333333336
250.0   0.0   16.666666666666668
250.0   30.0   16.666666666666668
200.0   30.0   16.666666666666668
250.0   30.0   33.333333333333336
200.0   0.0   33.333333333333336
200.0   30.0   33.333333333333336
250.0   30.0   33.333333333333336
200.0   30.0   16.666666666666668
200.0   0.0   33.333333333333336
250.0   30.0   33.333333333333336
250.0   0.0   33.333333333333336
250.0   0.0   16.666666666666668
200.0   0.0   33.333333333333336
250.0   30.0   33.333333333333336
250.0   0.0   16.666666666666668
200.0   30.0   16.666666666666668
200.0   0.0   33.333333333333336
250.0   0.0   33.333333333333336
200.0   30.0   33.333333333333336
200.0   0.0   50.0
250.0   0.0   33.333333333333336
250.0   30.0   33.333333333333336
200.0   30.0   33.333333333333336
250.0   30.0   50.0
200.0   0.0   50.0
200.0   30.0   50.0
250.0   30.0   50.0
200.0   30.0   33.333333333333336
200.0   0.0   50.0
250.0   30.0   50.0
250.0   0.0   50.0
250.0   0.0   33.333333333333336
200.0   0.0   50.0
250.0   30.0   50.0
250.0   0.0   33.333333333333336
200.0   30.0   33.333333333333336
200.0   30.0   0.0
250.0   30.0   0.0
200.0   60.0   0.0
200.0   30.0   16.666666666666668
250.0   30.0   0.0
250.0   60.0   0.0
200.0   60.0   0.0
250.0   60.0   16.666666666666668
200.0   30.0   16.666666666666668
200.0   60.0   16.666666666666668
250.0   60.0   16.666666666666668
200.0   60.0   0.0
200.0   30.0   16.666666666666668
250.0   60.0   16.666666666666668
250.0   30.0   16.666666666666668
250.0   30.0   0.0
200.0   30.0   16.666666666666668
250.0   60.0   16.666666666666668
250.0   30.0   0.0
200.0   60.0   0.0
200.0   30.0   16.666666666666668
250.0   30.0   16.666666666666668
200.0   60.0   16.666666666666668
200.0   30.0   33.333333333333336
250.0   30.0   16.666666666666668
250.0   60.0   16.666666666666668
200.0   60.0   16.666666666666668
250.0   60.0   33.333333333333336
200.0   30.0   33.333333333333336
200.0   60.0   33.333333333333336
250.0   60.0   33.333333333333336
200.0   60.0   16.666666666666668
200.0   30.0   33.333333333333336
250.0   60.0   33.333333333333336
250.0   30.0   33.333333333333336
250.0   30.0   16.666666666666668
200.0   30.0   33.333333333333336
250.0   60.0   33.333333333333336
250.0   30.0   16.666666666666668
200.0   60.0   16.666666666666668
200.0   30.0   33.333333333333336
250.0   30.0   33.333333333333336
200.0   60.0   33.333333333333336
200.0   30.0   50.0
250.0   30.0   33.333333333333336
250.0   60.0   33.333333333333336
200.0   60.0   33.333333333333336
250.0   60.0   50.0
200.0   30.0   50.0
200.0   60.0   50.0
250.0   60.0   50.0
200.0   60.0   33.333333333333336
200.0   30.0   50.0
250.0   60.0   50.0
250.0   30.0   50.0
250.0   30.0   33.333333333333336
200.0   30.0   50.0
250.0   60.0   50.0
250.0   30.0   33.333333333333336
200.0   60.0   33.333333333333336
200.0   60.0   0.0
250.0   60.0   0.0
200.0   90.0   0.0
200.0   60.0   16.666666666666668
250.0   60.0   0.0
250.0   90.0   0.0
200.0   90.0   0.0
250.0   90.0   16.666666666666668
200.0   60.0   16.666666666666668
200.0   90.0   16.666666666666668
250.0   90.0   16.666666666666668
200.0   90.0   0.0
200.0   60.0   16.666666666666668
250.0   90.0   16.666666666666668
250.0   60.0   16.666666666666668
250.0   60.0   0.0
200.0   60.0   16.666666666666668
250.0   90.0   16.666666666666668
250.0   60.0   0.0
200.0   90.0   0.0
200.0   60.0   16.666666666666668
250.0   60.0   16.666666666666668
200.0   90.0   16.666666666666668
200.0   60.0   33.333333333333336
250.0   60.0   16.666666666666668
250.0   90.0   16.666666666666668
200.0   90.0   16.666666666666668
250.0   90.0   33.333333333333336
200.0   60.0   33.333333333333336
200.0   90.0   33.333333333333336
250.0   90.0   33.333333333333336
200.0   90.0   16.666666666666668
200.0   60.0   33.333333333333336
250.0   90.0   33.333333333333336
250.0   60.0   33.333333333333336
250.0   60.0   16.666666666666668
200.0   60.0   33.333333333333336
250.0   90.0   33.333333333333336
250.0   60.0   16.666666666666668
200.0   90.0   16.666666666666668
200.0   60.0   33.333333333333336
250.0   60.0   33.333333333333336
200.0   90.0   33.333333333333336
200.0   60.0   50.0
250.0   60.0   33.333333333333336
250.0   90.0   33.333333333333336
200.0   90.0   33.333333333333336
250.0   90.0   50.0
200.0   60.0   50.0
200.0   90.0   50.0
250.0   90.0   50.0
200.0   90.0   33.333333333333336
200.0   60.0   50.0
250.0   90.0   50.0
250.0   60.0   50.0
250.0   60.0   33.333333333333336
200.0   60.0   50.0
250.0   90.0   50.0
250.0   60.0   33.333333333333336
200.0   90.0   33.333333333333336
200.0   90.0   0.0
250.0   90.0   0.0
200.0   120.0   0.0
200.0   90.0   16.666666666666668
250.0   90.0   0.0
250.0   120.0   0.0
200.0   120.0   0.0
250.0   120.0   16.666666666666668
200.0   90.0   16.666666666666668
200.0   120.0   16.666666666666668
250.0   120.0   16.666666666666668
200.0   120.0   0.0
200.0   90.0   16.666666666666668
250.0   120.0   16.666666666666668
250.0   90.0   16.666666666666668
250.0   90.0   0.0
200.0   90.0   16.666666666666668
250.0   120.0   16.666666666666668
250.0   90.0   0.0
200.0   120.0   0.0
200.0   90.0   16.666666666666668
250.0   90.0   16.666666666666668
200.0   120.0   16.666666666666668
200.0   90.0   33.333333333333336
250.0   90.0   16.666666666666668
250.0   120.0   16.666666666666668
200.0   120.0   16.666666666666668
250.0   120.0   33.333333333333336
200.0   90.0   33.333333333333336
200.0   120.0   33.333333333333336
250.0   120.0   33.333333333333336
200.0   120.0   16.666666666666668
200.0   90.0   33.333333333333336
250.0   120.0   33.333333333333336
250.0   90.0   33.333333333333336
250.0   90.0   16.666666666666668
200.0   90.0   33.333333333333336
250.0   120.0   33.333333333333336
250.0   90.0   16.666666666666668
200.0   120.0   16.666666666666668
200.0   90.0   33.333333333333336
250.0   90.0   33.333333333333336
200.0   120.0   33.333333333333336
200.0   90.0   50.0
250.0   90.0   33.333333333333336
250.0   120.0   33.333333333333336
200.0   120.0   33.333333333333336
250.0   120.0   50.0
200.0   90.0   50.0
200.0   120.0   50.0
250.0   120.0   50.0
200.0   120.0   33.333333333333336
200.0   90.0   50.0
250.0   120.0   50.0
250.0   90.0   50.0
250.0   90.0   33.333333333333336
200.0   90.0   50.0
250.0   120.0   50.0
250.0   90.0   33.333333333333336
200.0   120.0   33.333333333333336
200.0   120.0   0.0
250.0   120.0   0.0
200.0   150.0   0.0
200.0   120.0   16.666666666666668
250.0   120.0   0.0
250.0   150.0   0.0
200.0   150.0   0.0
250.0   150.0   16.666666666666668
200.0   120.0   16.666666666666668
200.0   150.0   16.666666666666668
250.0   150.0   16.666666666666668
200.0   150.0   0.0
200.0   120.0   16.666666666666668
250.0   150.0   16.666666666666668
250.0   120.0   16.666666666666668
250.0   120.0   0.0
200.0   120.0   16.666666666666668
250.0   150.0   16.666666666666668
250.0   120.0   0.0
200.0   150.0   0.0
200.0   120.0   16.666666666666668
250.0   120.0   16.666666666666668
200.0   150.0   16.666666666666668
200.0   120.0   33.333333333333336
250.0   120.0   16.666666666666668
250.0   150.0   16.666666666666668
200.0   150.0   16.666666666666668
250.0   150.0   33.333333333333336
200.0   120.0   33.333333333333336
200.0   150.0   33.333333333333336
250.0   150.0   33.333333333333336
200.0   150.0   16.666666666666668
200.0   120.0   33.333333333333336
250.0   150.0   33.333333333333336
250.0   120.0   33.333333333333336
250.0   120.0   16.666666666666668
200.0   120.0   33.333333333333336
250.0   150.0   33.333333333333336
250.0   120.0   16.666666666666668
200.0   150.0   16.666666666666668
200.0   120.0   33.333333333333336
250.0   120.0   33.333333333333336
200.0   150.0   33.333333333333336
200.0   120.0   50.0
250.0   120.0   33.333333333333336
250.0   150.0   33.333333333333336
200.0   150.0   33.333333333333336
250.0   150.0   50.0
200.0   120.0   50.0
200.0   150.0   50.0
250.0   150.0   50.0
200.0   150.0   33.333333333333336
200.0   120.0   50.0
250.0   150.0   50.0
250.0   120.0   50.0
250.0   120.0   33.333333333333336
200.0   120.0   50.0
250.0   150.0   50.0
250.0   120.0   33.333333333333336
200.0   150.0   33.333333333333336
250.0   0.0   0.0
300.0   0.0   0.0
250.0   30.0   0.0
250.0   0.0   16.666666666666668
300.0   0.0   0.0
300.0   30.0   0.0
250.0   30.0   0.0
300.0   30.0   16.666666666666668
250.0   0.0   16.666666666666668
250.0   30.0   16.666666666666668
300.0   30.0   16.666666666666668
250.0   30.0   0.0
250.0   0.0   16.666666666666668
300.0   30.0   16.666666666666668
300.0   0.0   16.666666666666668
300.0   0.0   0.0
250.0   0.0   16.666666666666668
300.0   30.0   16.666666666666668
300.0   0.0   0.0
250.0   30.0   0.0
250.0   0.0   16.666666666666668
300.0   0.0   16.666666666666668
250.0   30.0   16.666666666666668
250.0   0.0   33.333333333333336
300.0   0.0   16.666666666666668
300.0   30.0   16.666666666666668
250.0   30.0   16.666666666666668
300.0   30.0   33.333333333333336
250.0   0.0   33.333333333333336
250.0   30.0   33.333333333333336
300.0   30.0   33.333333333333336
250.0   30.0   16.666666666666668
250.0   0.0   33.333333333333336
300.0   30.0   33.333333333333336
300.0   0.0   33.333333333333336
300.0   0.0   16.666666666666668
250.0   0.0   33.333333333333336
300.0   30.0   33.333333333333336
300.0   0.0   16.666666666666668
250.0   30.0   16.666666666666668
250.0   0.0   33.333333333333336
300.0   0.0   33.333333333333336
250.0   30.0   33.333333333333336
250.0   0.0   50.0
300.0   0.0   33.333333333333336
300.0   30.0   33.333333333333336
250.0   30.0   33.333333333333336
300.0   30.0   50.0
250.0   0.0   50.0
250.0   30.0   50.0
300.0   30.0   50.0
250.0   30.0   33.333333333333336
250.0   0.0   50.0
300.0   30.0   50.0
300.0   0.0   50.0
300.0   0.0   33.333333333333336
250.0   0.0   50.0
300.0   30.0   50.0
300.0   0.0   33.333333333333336
250.0   30.0   33.333333333333336
250.0   30.0   0.0
300.0   30.0   0.0
250.0   60.0   0.0
250.0   30.0   16.666666666666668
300.0   30.0   0.0
300.0   60.0   0.0
250.0   60.0   0.0
300.0   60.0   16.666666666666668
250.0   30.0   16.666666666666668
250.0   60.0   16.666666666666668
300.0   60.0   16.666666666666668
250.0   60.0   0.0
250.0   30.0   16.666666666666668
300.0   60.0   16.666666666666668
300.0   30.0   16.666666666666668
300.0   30.0   0.0
250.0   30.0   16.666666666666668
300.0   60.0   16.666666666666668
300.0   30.0   0.0
250.0   60.0   0.0
250.0   30.0   16.666666666666668
300.0   30.0   16.666666666666668
250.0   60.0   16.666666666666668
250.0   30.0   33.333333333333336
300.0   30.0   16.666666666666668
300.0   60.0   16.666666666666668
250.0   60.0   16.666666666666668
300.0   60.0   33.333333333333336
250.0   30.0   33.333333333333336
250.0   60.0   33.333333333333336
300.0   60.0   33.333333333333336
250.0   60.0   16.666666666666668
250.0   30.0   33.333333333333336
300.0   60.0   33.333333333333336
300.0   30.0   33.333333333333336
300.0   30.0   16.666666666666668
250.0   30.0   33.333333333333336
300.0   60.0   33.333333333333336
300.0   30.0   16.666666666666668
250.0   60.0   16.666666666666668
250.0   30.0   33.333333333333336
300.0   30.0   33.333333333333336
250.0   60.0   33.333333333333336
250.0   30.0   50.0
300.0   30.0   33.333333333333336
300.0   60.0   33.333333333333336
250.0   60.0   33.333333333333336
300.0   60.0   50.0
250.0   30.0   50.0
250.0   60.0   50.0
300.0   60.0   50.0
250.0   60.0   33.333333333333336
250.0   30.0   50.0
300.0   60.0   50.0
300.0   30.0   50.0
300.0   30.0   33.333333333333336
250.0   30.0   50.0
300.0   60.0   50.0
300.0   30.0   33.333333333333336
250.0   60.0   33.333333333333336
250.0   60.0   0.0
300.0   60.0   0.0
250.0   90.0   0.0
250.0   60.0   16.666666666666668
300.0   60.0   0.0
300.0   90.0   0.0
250.0   90.0   0.0
300.0   90.0   16.666666666666668
250.0   60.0   16.666666666666668
250.0   90.0   16.666666666666668
300.0   90.0   16.666666666666668
250.0   90.0   0.0
250.0   60.0   16.666666666666668
300.0   90.0   16.666666666666668
300.0   60.0   16.666666666666668
300.0   60.0   0.0
250.0   60.0   16.666666666666668
300.0   90.0   16.666666666666668
300.0   60.0   0.0
250.0   90.0   0.0
250.0   60.0   16.666666666666668
300.0   60.0   16.666666666666668
250.0   90.0   16.666666666666668
250.0   60.0   33.333333333333336
300.0   60.0   16.666666666666668
300.0   90.0   16.666666666666668
250.0   90.0   16.666666666666668
300.0   90.0   33.333333333333336
250.0   60.0   33.333333333333336
250.0   90.0   33.333333333333336
300.0   90.0   33.333333333333336
250.0   90.0   16.666666666666668
250.0   60.0   33.333333333333336
300.0   90.0   33.333333333333336
300.0   60.0   33.333333333333336
300.0   60.0   16.666666666666668
250.0   60.0   33.333333333333336
300.0   90.0   33.333333333333336
300.0   60.0   16.666666666666668
250.0   90.0   16.666666666666668
250.0   60.0   33.333333333333336
300.0   60.0   33.333333333333336
250.0   90.0   33.333333333333336
250.0   60.0   50.0
300.0   60.0   33.333333333333336
300.0   90.0   33.333333333333336
250.0   90.0   33.333333333333336
300.0   90.0   50.0
250.0   60.0   50.0
250.0   90.0   50.0
300.0   90.0   50.0
250.0   90.0   33.333333333333336
250.0   60.0   50.0
300.0   90.0   50.0
300.0   60.0   50.0
300.0   60.0   33.333333333333336
250.0   60.0   50.0
300.0   90.0   50.0
300.0   60.0   33.333333333333336
250.0   90.0   33.333333333333336
250.0   90.0   0.0
300.0   90.0   0.0
250.0   120.0   0.0
250.0   90.0   16.666666666666668
300.0   90.0   0.0
300.0   120.0   0.0
250.0   120.0   0.0
300.0   120.0   16.666666666666668
250.0   90.0   16.666666666666668
250.0   120.0   16.666666666666668
300.0   120.0   16.666666666666668
250.0   120.0   0.0
250.0   90.0   16.666666666666668
300.0   120.0   16.666666666666668
300.0   90.0   16.666666666666668
300.0   90.0   0.0
250.0   90.0   16.666666666666668
300.0   120.0   16.666666666666668
300.0   90.0   0.0
250.0   120.0   0.0
250.0   90.0   16.666666666666668
300.0   90.0   16.666666666666668
250.0   120.0   16.666666666666668
250.0   90.0   33.333333333333336
300.0   90.0   16.666666666666668
300.0   120.0   16.666666666666668
250.0   120.0   16.666666666666668
300.0   120.0   33.333333333333336
250.0   90.0   33.333333333333336
250.0   120.0   33.333333333333336
300.0   120.0   33.333333333333336
250.0   120.0   16.666666666666668
250.0   90.0   33.333333333333336
300.0   120.0   33.333333333333336
300.0   90.0   33.333333333333336
300.0   90.0   16.666666666666668
250.0   90.0   33.333333333333336
300.0   120.0   33.333333333333336
300.0   90.0   16.666666666666668
250.0   120.0   16.666666666666668
250.0   90.0   33.333333333333336
300.0   90.0   33.333333333333336
250.0   120.0   33.333333333333336
250.0   90.0   50.0
300.0   90.0   33.333333333333336
300.0   120.0   33.333333333333336
250.0   120.0   33.333333333333336
300.0   120.0   50.0
250.0   90.0   50.0
250.0   120.0   50.0
300.0   120.0   50.0
250.0   120.0   33.333333333333336
250.0   90.0   50.0
300.0   120.0   50.0
300.0   90.0   50.0
300.0   90.0   33.333333333333336
250.0   90.0   50.0
300.0   120.0   50.0
300.0   90.0   33.333333333333336
250.0   120.0   33.333333333333336
250.0   120.0   0.0
300.0   120.0   0.0
250.0   150.0   0.0
250.0   120.0   16.666666666666668
300.0   120.0   0.0
300.0   150.0   0.0
250.0   150.0   0.0
300.0   150.0   16.666666666666668
250.0   120.0   16.666666666666668
250.0   150.0   16.666666666666668
300.0   150.0   16.666666666666668
250.0   150.0   0.0
250.0   120.0   16.666666666666668
300.0   150.0   16.666666666666668
300.0   120.0   16.666666666666668
300.0   120.0   0.0
250.0   120.0   16.666666666666668
300.0   150.0   16.666666666666668
300.0   120.0   0.0
250.0   150.0   0.0
250.0   120.0   16.666666666666668
300.0   120.0   16.666666666666668
250.0   150.0   16.666666666666668
250.0   120.0   33.333333333333336
300.0   120.0   16.666666666666668
300.0   150.0   16.666666666666668
250.0   150.0   16.666666666666668
300.0   150.0   33.333333333333336
250.0   120.0   33.333333333333336
250.0   150.0   33.333333333333336
300.0   150.0   33.333333333333336
250.0   150.0   16.666666666666668
250.0   120.0   33.333333333333336
300.0   150.0   33.333333333333336
300.0   120.0   33.333333333333336
300.0   120.0   16.666666666666668
250.0   120.0   33.333333333333336
300.0   150.0   33.333333333333336
300.0   120.0   16.666666666666668
250.0   150.0   16.666666666666668
250.0   120.0   33.333333333333336
300.0   120.0   33.333333333333336
250.0   150.0   33.333333333333336
250.0   120.0   50.0
300.0   120.0   33.333333333333336
300.0   150.0   33.333333333333336
250.0   150.0   33.333333333333336
300.0   150.0   50.0
250.0   120.0   50.0
250.0   150.0   50.0
300.0   150.0   50.0
250.0   150.0   33.333333333333336
250.0   120.0   50.0
300.0   150.0   50.0
300.0   120.0   50.0
300.0   120.0   33.333333333333336
250.0   120.0   50.0
300.0   150.0   50.0
300.0   120.0   33.333333333333336
250.0   150.0   33.333333333333336
300.0   0.0   0.0
350.0   0.0   0.0
300.0   30.0   0.0
300.0   0.0   16.666666666666668
350.0   0.0   0.0
350.0   30.0   0.0
300.0   30.0   0.0
350.0   30.0   16.666666666666668
300.0   0.0   16.666666666666668
300.0   30.0   16.666666666666668
350.0   30.0   16.666666666666668
300.0   30.0   0.0
300.0   0.0   16.666666666666668
350.0   30.0   16.666666666666668
350.0   0.0   16.666666666666668
350.0   0.0   0.0
300.0   0.0   16.666666666666668
350.0   30.0   16.666666666666668
350.0   0.0   0.0
300.0   30.0   0.0
300.0   0.0   16.666666666666668
350.0   0.0   16.666666666666668
300.0   30.0   16.666666666666668
300.0   0.0   33.333333333333336
350.0   0.0   16.666666666666668
350.0   30.0   16.666666666666668
300.0   30.0   16.666666666666668
350.0   30.0   33.333333333333336
300.0   0.0   33.333333333333336
300.0   30.0   33.333333333333336
350.0   30.0   33.333333333333336
300.0   30.0   16.666666666666668
300.0   0.0   33.333333333333336
350.0   30.0   33.333333333333336
350.0   0.0   33.333333333333336
350.0   0.0   16.666666666666668
300.0   0.0   33.333333333333336
350.0   30.0   33.333333333333336
350.0   0.0   16.666666666666668
300.0   30.0   16.666666666666668
300.0   0.0   33.333333333333336
350.0   0.0   33.333333333333336
300.0   30.0   33.333333333333336
300.0   0.0   50.0
350.0   0.0   33.333333333333336
350.0   30.0   33.333333333333336
300.0   30.0   33.333333333333336
350.0   30.0   50.0
300.0   0.0   50.0
300.0   30.0   50.0
350.0   30.0   50.0
300.0   30.0   33.333333333333336
300.0   0.0   50.0
350.0   30.0   50.0
350.0   0.0   50.0
350.0   0.0   33.333333333333336
300.0   0.0   50.0
350.0   30.0   50.0
350.0   0.0   33.333333333333336
300.0   30.0   33.333333333333336
300.0   30.0   0.0
350.0   30.0   0.0
300.0   60.0   0.0
300.0   30.0   16.666666666666668
350.0   30.0   0.0
350.0   60.0   0.0
300.0   60.0   0.0
350.0   60.0   16.666666666666668
300.0   30.0   16.666666666666668
300.0   60.0   16.666666666666668
350.0   60.0   16.666666666666668
300.0   60.0   0.0
300.0   30.0   16.666666666666668
350.0   60.0   16.666666666666668
350.0   30.0   16.666666666666668
350.0   30.0   0.0
300.0   30.0   16.666666666666668
350.0   60.0   16.666666666666668
350.0   30.0   0.0
300.0   60.0   0.0
300.0   30.0   16.666666666666668
350.0   30.0   16.666666666666668
300.0   60.0   16.666666666666668
300.0   30.0   33.333333333333336
350.0   30.0   16.666666666666668
350.0   60.0   16.666666666666668
300.0   60.0   16.666666666666668
350.0   60.0   33.333333333333336
300.0   30.0   33.333333333333336
300.0   60.0   33.333333333333336
350.0   60.0   33.333333333333336
300.0   60.0   16.666666666666668
300.0   30.0   33.333333333333336
350.0   60.0   33.333333333333336
350.0   30.0   33.333333333333336
350.0   30.0   16.666666666666668
300.0   30.0   33.333333333333336
350.0   60.0   33.333333333333336
350.0   30.0   16.666666666666668
300.0   60.0   16.666666666666668
300.0   30.0   33.333333333333336
350.0   30.0   33.333333333333336
300.0   60.0   33.333333333333336
300.0   30.0   50.0
350.0   30.0   33.333333333333336
350.0   60.0   33.333333333333336
300.0   60.0   33.333333333333336
350.0   60.0   50.0
300.0   30.0   50.0
300.0   60.0   50.0
350.0   60.0   50.0
300.0   60.0   33.333333333333336
300.0   30.0   50.0
350.0   60.0   50.0
350.0   30.0   50.0
350.0   30.0   33.333333333333336
300.0   30.0   50.0
350.0   60.0   50.0
350.0   30.0   33.333333333333336
300.0   60.0   33.333333333333336
300.0   60.0   0.0
350.0   60.0   0.0
300.0   90.0   0.0
300.0   60.0   16.666666666666668
350.0   60.0   0.0
350.0   90.0   0.0
300.0   90.0   0.0
350.0   90.0   16.666666666666668
300.0   60.0   16.666666666666668
300.0   90.0   16.666666666666668
350.0   90.0   16.666666666666668
300.0   90.0   0.0
300.0   60.0   16.666666666666668
350.0   90.0   16.666666666666668
350.0   60.0   16.666666666666668
350.0   60.0   0.0
300.0   60.0   16.666666666666668
350.0   90.0   16.666666666666668
350.0   60.0   0.0
300.0   90.0   0.0
300.0   60.0   16.666666666666668
350.0   60.0   16.666666666666668
300.0   90.0   16.666666666666668
300.0   60.0   33.333333333333336
350.0   60.0   16.666666666666668
350.0   90.0   16.666666666666668
300.0   90.0   16.666666666666668
350.0   90.0   33.333333333333336
300.0   60.0   33.333333333333336
300.0   90.0   33.333333333333336
350.0   90.0   33.333333333333336
300.0   90.0   16.666666666666668
300.0   60.0   33.333333333333336
350.0   90.0   33.333333333333336
350.0   60.0   33.333333333333336
350.0   60.0   16.666666666666668
300.0   60.0   33.333333333333336
350.0   90.0   33.333333333333336
350.0   60.0   16.666666666666668
300.0   90.0   16.666666666666668
300.0   60.0   33.333333333333336
350.0   60.0   33.333333333333336
300.0   90.0   33.333333333333336
300.0   60.0   50.0
350.0   60.0   33.333333333333336
350.0   90.0   33.333333333333336
300.0   90.0   33.333333333333336
350.0   90.0   50.0
300.0   60.0   50.0
300.0   90.0   50.0
350.0   90.0   50.0
300.0   90.0   33.333333333333336
300.0   60.0   50.0
350.0   90.0   50.0
350.0   60.0   50.0
350.0   60.0   33.333333333333336
300.0   60.0   50.0
350.0   90.0   50.0
350.0   60.0   33.333333333333336
300.0   90.0   33.333333333333336
300.0   90.0   0.0
350.0   90.0   0.0
300.0   120.0   0.0
300.0   90.0   16.666666666666668
350.0   90.0   0.0
350.0   120.0   0.0
300.0   120.0   0.0
350.0   120.0   16.666666666666668
300.0   90.0   16.666666666666668
300.0   120.0   16.666666666666668
350.0   120.0   16.666666666666668
300.0   120.0   0.0
300.0   90.0   16.666666666666668
350.0   120.0   16.666666666666668
350.0   90.0   16.666666666666668
350.0   90.0   0.0
300.0   90.0   16.666666666666668
350.0   120.0   16.666666666666668
350.0   90.0   0.0
300.0   120.0   0.0
300.0   90.0   16.666666666666668
350.0   90.0   16.666666666666668
300.0   120.0   16.666666666666668
300.0   90.0   33.333333333333336
350.0   90.0   16.666666666666668
350.0   120.0   16.666666666666668
300.0   120.0   16.666666666666668
350.0   120.0   33.333333333333336
300.0   90.0   33.333333333333336
300.0   120.0   33.333333333333336
350.0   120.0   33.333333333333336
300.0   120.0   16.666666666666668
300.0   90.0   33.333333333333336
350.0   120.0   33.333333333333336
350.0   90.0   33.333333333333336
350.0   90.0   16.666666666666668
300.0   90.0   33.333333333333336
350.0   120.0   33.333333333333336
350.0   90.0   16.666666666666668
300.0   120.0   16.666666666666668
300.0   90.0   33.333333333333336
350.0   90.0   33.333333333333336
300.0   120.0   33.333333333333336
300.0   90.0   50.0
350.0   90.0   33.333333333333336
350.0   120.0   33.333333333333336
300.0   120.0   33.333333333333336
350.0   120.0   50.0
300.0   90.0   50.0
300.0   120.0   50.0
350.0   120.0   50.0
300.0   120.0   33.333333333333336
300.0   90.0   50.0
350.0   120.0   50.0
350.0   90.0   50.0
350.0   90.0   33.333333333333336
300.0   90.0   50.0
350.0   120.0   50.0
350.0   90.0   33.333333333333336
300.0   120.0   33.333333333333336
300.0   120.0   0.0
350.0   120.0   0.0
300.0   150.0   0.0
300.0   120.0   16.666666666666668
350.0   120.0   0.0
350.0   150.0   0.0
300.0   150.0   0.0
350.0   150.0   16.666666666666668
300.0   120.0   16.666666666666668
300.0   150.0   16.666666666666668
350.0   150.0   16.666666666666668
300.0   150.0   0.0
300.0   120.0   16.666666666666668
350.0   150.0   16.666666666666668
350.0   120.0   16.666666666666668
350.0   120.0   0.0
300.0   120.0   16.666666666666668
350.0   150.0   16.666666666666668
350.0   120.0   0.0
300.0   150.0   0.0
300.0   120.0   16.666666666666668
350.0   120.0   16.666666666666668
300.0   150.0   16.666666666666668
300.0   120.0   33.333333333333336
350.0   120.0   16.666666666666668
350.0   150.0   16.666666666666668
300.0   150.0   16.666666666666668
350.0   150.0   33.333333333333336
300.0   120.0   33.333333333333336
300.0   150.0   33.333333333333336
350.0   150.0   33.333333333333336
300.0   150.0   16.666666666666668
300.0   120.0   33.333333333333336
350.0   150.0   33.333333333333336
350.0   120.0   33.333333333333336
350.0   120.0   16.666666666666668
300.0   120.0   33.333333333333336
350.0   150.0   33.333333333333336
350.0   120.0   16.666666666666668
300.0   150.0   16.666666666666668
300.0   120.0   33.333333333333336
350.0   120.0   33.333333333333336
300.0   150.0   33.333333333333336
300.0   120.0   50.0
350.0   120.0   33.333333333333336
350.0   150.0   33.333333333333336
300.0   150.0   33.333333333333336
350.0   150.0   50.0
300.0   120.0   50.0
300.0   150.0   50.0
350.0   150.0   50.0
300.0   150.0   33.333333333333336
300.0   120.0   50.0
350.0   150.0   50.0
350.0   120.0   50.0
350.0   120.0   33.333333333333336
300.0   120.0   50.0
350.0   150.0   50.0
350.0   120.0   33.333333333333336
300.0   150.0   33.333333333333336
350.0   0.0   0.0
400.0   0.0   0.0
350.0   30.0   0.0
350.0   0.0   16.666666666666668
400.0   0.0   0.0
400.0   30.0   0.0
350.0   30.0   0.0
400.0   30.0   16.666666666666668
350.0   0.0   16.666666666666668
350.0   30.0   16.666666666666668
400.0   30.0   16.666666666666668
350.0   30.0   0.0
350.0   0.0   16.666666666666668
400.0   30.0   16.666666666666668
400.0   0.0   16.666666666666668
400.0   0.0   0.0
350.0   0.0   16.666666666666668
400.0   30.0   16.666666666666668
400.0   0.0   0.0
350.0   30.0   0.0
350.0   0.0   16.666666666666668
400.0   0.0   16.666666666666668
350.0   30.0   16.666666666666668
350.0   0.0   33.333333333333336
400.0   0.0   16.666666666666668
400.0   30.0   16.666666666666668
350.0   30.0   16.666666666666668
400.0   30.0   33.333333333333336
350.0   0.0   33.333333333333336
350.0   30.0   33.333333333333336
400.0   30.0   33.333333333333336
350.0   30.0   16.666666666666668
350.0   0.0   33.333333333333336
400.0   30.0   33.333333333333336
400.0   0.0   33.333333333333336
400.0   0.0   16.666666666666668
350.0   0.0   33.333333333333336
400.0   30.0   33.333333333333336
400.0   0.0   16.666666666666668
350.0   30.0   16.666666666666668
350.0   0.0   33.333333333333336
400.0   0.0   33.333333333333336
350.0   30.0   33.333333333333336
350.0   0.0   50.0
400.0   0.0   33.333333333333336
400.0   30.0   33.333333333333336
350.0   30.0   33.333333333333336
400.0   30.0   50.0
350.0   0.0   50.0
350.0   30.0   50.0
400.0   30.0   50.0
350.0   30.0   33.333333333333336
350.0   0.0   50.0
400.0   30.0   50.0
400.0   0.0   50.0
400.0   0.0   33.333333333333336
350.0   0.0   50.0
400.0   30.0   50.0
400.0   0.0   33.333333333333336
350.0   30.0   33.333333333333336
350.0   30.0   0.0
400.0   30.0   0.0
350.0   60.0   0.0
350.0   30.0   16.666666666666668
400.0   30.0   0.0
400.0   60.0   0.0
350.0   60.0   0.0
400.0   60.0   16.666666666666668
350.0   30.0   16.666666666666668
350.0   60.0   16.666666666666668
400.0   60.0   16.666666666666668
350.0   60.0   0.0
350.0   30.0   16.666666666666668
400.0   60.0   16.666666666666668
400.0   30.0   16.666666666666668
400.0   30.0   0.0
350.0   30.0   16.666666666666668
400.0   60.0   16.666666666666668
400.0   30.0   0.0
350.0   60.0   0.0
350.0   30.0   16.666666666666668
400.0   30.0   16.666666666666668
350.0   60.0   16.666666666666668
350.0   30.0   33.333333333333336
400.0   30.0   16.666666666666668
400.0   60.0   16.666666666666668
350.0   60.0   16.666666666666668
400.0   60.0   33.333333333333336
350.0   30.0   33.333333333333336
350.0   60.0   33.333333333333336
400.0   60.0   33.333333333333336
350.0   60.0   16.666666666666668
350.0   30.0   33.333333333333336
400.0   60.0   33.333333333333336
400.0   30.0   33.333333333333336
400.0   30.0   16.666666666666668
350.0   30.0   33.333333333333336
400.0   60.0   33.333333333333336
400.0   30.0   16.666666666666668
350.0   60.0   16.666666666666668
350.0   30.0   33.333333333333336
400.0   30.0   33.333333333333336
350.0   60.0   33.333333333333336
350.0   30.0   50.0
400.0   30.0   33.333333333333336
400.0   60.0   33.333333333333336
350.0   60.0   33.333333333333336
400.0   60.0   50.0
350.0   30.0   50.0
350.0   60.0   50.0
400.0   60.0   50.0
350.0   60.0   33.333333333333336
350.0   30.0   50.0
400.0   60.0   50.0
400.0   30.0   50.0
400.0   30.0   33.333333333333336
350.0   30.0   50.0
400.0   60.0   50.0
400.0   30.0   33.333333333333336
350.0   60.0   33.333333333333336
350.0   60.0   0.0
400.0   60.0   0.0
350.0   90.0   0.0
350.0   60.0   16.666666666666668
400.0   60.0   0.0
400.0   90.0   0.0
350.0   90.0   0.0
400.0   90.0   16.666666666666668
350.0   60.0   16.666666666666668
350.0   90.0   16.666666666666668
400.0   90.0   16.666666666666668
350.0   90.0   0.0
350.0   60.0   16.666666666666668
400.0   90.0   16.666666666666668
400.0   60.0   16.666666666666668
400.0   60.0   0.0
350.0   60.0   16.666666666666668
400.0   90.0   16.666666666666668
400.0   60.0   0.0
350.0   90.0   0.0
350.0   60.0   16.666666666666668
400.0   60.0   16.666666666666668
350.0   90.0   16.666666666666668
350.0   60.0   33.333333333333336
400.0   60.0   16.666666666666668
400.0   90.0   16.666666666666668
350.0   90.0   16.666666666666668
400.0   90.0   33.333333333333336
350.0   60.0   33.333333333333336
350.0   90.0   33.333333333333336
400.0   90.0   33.333333333333336
350.0   90.0   16.666666666666668
350.0   60.0   33.333333333333336
400.0   90.0   33.333333333333336
400.0   60.0   33.333333333333336
400.0   60.0   16.666666666666668
350.0   60.0   33.333333333333336
400.0   90.0   33.333333333333336
400.0   60.0   16.666666666666668
350.0   90.0   16.666666666666668
350.0   60.0   33.333333333333336
400.0   60.0   33.333333333333336
350.0   90.0   33.333333333333336
350.0   60.0   50.0
400.0   60.0   33.333333333333336
400.0   90.0   33.333333333333336
350.0   90.0   33.333333333333336
400.0   90.0   50.0
350.0   60.0   50.0
350.0   90.0   50.0
400.0   90.0   50.0
350.0   90.0   33.333333333333336
350.0   60.0   50.0
400.0   90.0   50.0
400.0   60.0   50.0
400.0   60.0   33.333333333333336
350.0   60.0   50.0
400.0   90.0   50.0
400.0   60.0   33.333333333333336
350.0   90.0   33.333333333333336
350.0   90.0   0.0
400.0   90.0   0.0
350.0   120.0   0.0
350.0   90.0   16.666666666666668
400.0   90.0   0.0
400.0   120.0   0.0
350.0   120.0   0.0
400.0   120.0   16.666666666666668
350.0   90.0   16.666666666666668
350.0   120.0   16.666666666666668
400.0   120.0   16.666666666666668
350.0   120.0   0.0
350.0   90.0   16.666666666666668
400.0   120.0   16.666666666666668
400.0   90.0   16.666666666666668
400.0   90.0   0.0
350.0   90.0   16.666666666666668
400.0   120.0   16.666666666666668
400.0   90.0   0.0
350.0   120.0   0.0
350.0   90.0   16.666666666666668
400.0   90.0   16.666666666666668
350.0   120.0   16.666666666666668
350.0   90.0   33.333333333333336
400.0   90.0   16.666666666666668
400.0   120.0   16.666666666666668
350.0   120.0   16.666666666666668
400.0   120.0   33.333333333333336
350.0   90.0   33.333333333333336
350.0   120.0   33.333333333333336
400.0   120.0   33.333333333333336
350.0   120.0   16.666666666666668
350.0   90.0   33.333333333333336
400.0   120.0   33.333333333333336
400.0   90.0   33.333333333333336
400.0   90.0   16.666666666666668
350.0   90.0   33.333333333333336
400.0   120.0   33.333333333333336
400.0   90.0   16.666666666666668
350.0   120.0   16.666666666666668
350.0   90.0   33.333333333333336
400.0   90.0   33.333333333333336
350.0   120.0   33.333333333333336
350.0   90.0   50.0
400.0   90.0   33.333333333333336
400.0   120.0   33.333333333333336
350.0   120.0   33.333333333333336
400.0   120.0   50.0
350.0   90.0   50.0
350.0   120.0   50.0
400.0   120.0   50.0
350.0   120.0   33.333333333333336
350.0   90.0   50.0
400.0   120.0   50.0
400.0   90.0   50.0
400.0   90.0   33.333333333333336
350.0   90.0   50.0
400.0   120.0   50.0
400.0   90.0   33.333333333333336
350.0   120.0   33.333333333333336
350.0   120.0   0.0
400.0   120.0   0.0
350.0   150.0   0.0
350.0   120.0   16.666666666666668
400.0   120.0   0.0
400.0   150.0   0.0
350.0   150.0   0.0
400.0   150.0   16.666666666666668
350.0   120.0   16.666666666666668
350.0   150.0   16.666666666666668
400.0   150.0   16.666666666666668
350.0   150.0   0.0
350.0   120.0   16.666666666666668
400.0   150.0   16.666666666666668
400.0   120.0   16.666666666666668
400.0   120.0   0.0
350.0   120.0   16.666666666666668
400.0   150.0   16.666666666666668
400.0   120.0   0.0
350.0   150.0   0.0
350.0   120.0   16.666666666666668
400.0   120.0   16.666666666666668
350.0   150.0   16.666666666666668
350.0   120.0   33.333333333333336
400.0   120.0   16.666666666666668
400.0   150.0   16.666666666666668
350.0   150.0   16.666666666666668
400.0   150.0   33.333333333333336
350.0   120.0   33.333333333333336
350.0   150.0   33.333333333333336
400.0   150.0   33.333333333333336
350.0   150.0   16.666666666666668
350.0   120.0   33.333333333333336
400.0   150.0   33.333333333333336
400.0   120.0   33.333333333333336
400.0   120.0   16.666666666666668
350.0   120.0   33.333333333333336
400.0   150.0   33.333333333333336
400.0   120.0   16.666666666666668
350.0   150.0   16.666666666666668
350.0   120.0   33.333333333333336
400.0   120.0   33.333333333333336
350.0   150.0   33.333333333333336
350.0   120.0   50.0
400.0   120.0   33.333333333333336
400.0   150.0   33.333333333333336
350.0   150.0   33.333333333333336
400.0   150.0   50.0
350.0   120.0   50.0
350.0   150.0   50.0
400.0   150.0   50.0
350.0   150.0   33.333333333333336
350.0   120.0   50.0
400.0   150.0   50.0
400.0   120.0   50.0
400.0   120.0   33.333333333333336
350.0   120.0   50.0
400.0   150.0   50.0
400.0   120.0   33.333333333333336
350.0   150.0   33.333333333333336
400.0   0.0   0.0
450.0   0.0   0.0
400.0   30.0   0.0
400.0   0.0   16.666666666666668
450.0   0.0   0.0
450.0   30.0   0.0
400.0   30.0   0.0
450.0   30.0   16.666666666666668
400.0   0.0   16.666666666666668
400.0   30.0   16.666666666666668
450.0   30.0   16.666666666666668
400.0   30.0   0.0
400.0   0.0   16.666666666666668
450.0   30.0   16.666666666666668
450.0   0.0   16.666666666666668
450.0   0.0   0.0
400.0   0.0   16.666666666666668
450.0   30.0   16.666666666666668
450.0   0.0   0.0
400.0   30.0   0.0
400.0   0.0   16.666666666666668
450.0   0.0   16.666666666666668
400.0   30.0   16.666666666666668
400.0   0.0   33.333333333333336
450.0   0.0   16.666666666666668
450.0   30.0   16.666666666666668
400.0   30.0   16.666666666666668
450.0   30.0   33.333333333333336
400.0   0.0   33.333333333333336
400.0   30.0   33.333333333333336
450.0   30.0   33.333333333333336
400.0   30.0   16.666666666666668
400.0   0.0   33.333333333333336
450.0   30.0   33.333333333333336
450.0   0.0   33.333333333333336
450.0   0.0   16.666666666666668
400.0   0.0   33.333333333333336
450.0   30.0   33.333333333333336
450.0   0.0   16.666666666666668
400.0   30.0   16.666666666666668
400.0   0.0   33.333333333333336
450.0   0.0   33.333333333333336
400.0   30.0   33.333333333333336
400.0   0.0   50.0
450.0   0.0   33.333333333333336
450.0   30.0   33.333333333333336
400.0   30.0   33.333333333333336
450.0   30.0   50.0
400.0   0.0   50.0
400.0   30.0   50.0
450.0   30.0   50.0
400.0   30.0   33.333333333333336
400.0   0.0   50.0
450.0   30.0   50.0
450.0   0.0   50.0
450.0   0.0   33.333333333333336
400.0   0.0   50.0
450.0   30.0   50.0
450.0   0.0   33.333333333333336
400.0   30.0   33.333333333333336
400.0   30.0   0.0
450.0   30.0   0.0
400.0   60.0   0.0
400.0   30.0   16.666666666666668
450.0   30.0   0.0
450.0   60.0   0.0
400.0   60.0   0.0
450.0   60.0   16.666666666666668
400.0   30.0   16.666666666666668
400.0   60.0   16.666666666666668
450.0   60.0   16.666666666666668
400.0   60.0   0.0
400.0   30.0   16.666666666666668
450.0   60.0   16.666666666666668
450.0   30.0   16.666666666666668
450.0   30.0   0.0
400.0   30.0   16.666666666666668
450.0   60.0   16.666666666666668
450.0   30.0   0.0
400.0   60.0   0.0
400.0   30.0   16.666666666666668
450.0   30.0   16.666666666666668
400.0   60.0   16.666666666666668
400.0   30.0   33.333333333333336
450.0   30.0   16.666666666666668
450.0   60.0   16.666666666666668
400.0   60.0   16.666666666666668
450.0   60.0   33.333333333333336
400.0   30.0   33.333333333333336
400.0   60.0   33.333333333333336
450.0   60.0   33.333333333333336
400.0   60.0   16.666666666666668
400.0   30.0   33.333333333333336
450.0   60.0   33.333333333333336
450.0   30.0   33.333333333333336
450.0   30.0   16.666666666666668
400.0   30.0   33.333333333333336
450.0   60.0   33.333333333333336
450.0   30.0   16.666666666666668
400.0   60.0   16.666666666666668
400.0   30.0   33.333333333333336
450.0   30.0   33.333333333333336
400.0   60.0   33.333333333333336
400.0   30.0   50.0
450.0   30.0   33.333333333333336
450.0   60.0   33.333333333333336
400.0   60.0   33.333333333333336
450.0   60.0   50.0
400.0   30.0   50.0
400.0   60.0   50.0
450.0   60.0   50.0
400.0   60.0   33.333333333333336
400.0   30.0   50.0
450.0   60.0   50.0
450.0   30.0   50.0
450.0   30.0   33.333333333333336
400.0   30.0   50.0
450.0   60.0   50.0
450.0   30.0   33.333333333333336
400.0   60.0   33.333333333333336
400.0   60.0   0.0
450.0   60.0   0.0
400.0   90.0   0.0
400.0   60.0   16.666666666666668
450.0   60.0   0.0
450.0   90.0   0.0
400.0   90.0   0.0
450.0   90.0   16.666666666666668
400.0   60.0   16.666666666666668
400.0   90.0   16.666666666666668
450.0   90.0   16.666666666666668
400.0   90.0   0.0
400.0   60.0   16.666666666666668
450.0   90.0   16.666666666666668
450.0   60.0   16.666666666666668
450.0   60.0   0.0
400.0   60.0   16.666666666666668
450.0   90.0   16.666666666666668
450.0   60.0   0.0
400.0   90.0   0.0
400.0   60.0   16.666666666666668
450.0   60.0   16.666666666666668
400.0   90.0   16.666666666666668
400.0   60.0   33.333333333333336
450.0   60.0   16.666666666666668
450.0   90.0   16.666666666666668
400.0   90.0   16.666666666666668
450.0   90.0   33.333333333333336
400.0   60.0   33.333333333333336
400.0   90.0   33.333333333333336
450.0   90.0   33.333333333333336
400.0   90.0   16.666666666666668
400.0   60.0   33.333333333333336
450.0   90.0   33.333333333333336
450.0   60.0   33.333333333333336
450.0   60.0   16.666666666666668
400.0   60.0   33.333333333333336
450.0   90.0   33.333333333333336
450.0   60.0   16.666666666666668
400.0   90.0   16.666666666666668
400.0   60.0   33.333333333333336
450.0   60.0   33.333333333333336
400.0   90.0   33.333333333333336
400.0   60.0   50.0
450.0   60.0   33.333333333333336
450.0   90.0   33.333333333333336
400.0   90.0   33.333333333333336
450.0   90.0   50.0
400.0   60.0   50.0
400.0   90.0   50.0
450.0   90.0   50.0
400.0   90.0   33.333333333333336
400.0   60.0   50.0
450.0   90.0   50.0
450.0   60.0   50.0
450.0   60.0   33.333333333333336
400.0   60.0   50.0
450.0   90.0   50.0
450.0   60.0   33.333333333333336
400.0   90.0   33.333333333333336
400.0   90.0   0.0
450.0   90.0   0.0
400.0   120.0   0.0
400.0   90.0   16.666666666666668
450.0   90.0   0.0
450.0   120.0   0.0
400.0   120.0   0.0
450.0   120.0   16.666666666666668
400.0   90.0   16.666666666666668
400.0   120.0   16.666666666666668
450.0   120.0   16.666666666666668
400.0   120.0   0.0
400.0   90.0   16.666666666666668
450.0   120.0   16.666666666666668
450.0   90.0   16.666666666666668
450.0   90.0   0.0
400.0   90.0   16.666666666666668
450.0   120.0   16.666666666666668
450.0   90.0   0.0
400.0   120.0   0.0
400.0   90.0   16.666666666666668
450.0   90.0   16.666666666666668
400.0   120.0   16.666666666666668
400.0   90.0   33.333333333333336
450.0   90.0   16.666666666666668
450.0   120.0   16.666666666666668
400.0   120.0   16.666666666666668
450.0   120.0   33.333333333333336
400.0   90.0   33.333333333333336
400.0   120.0   33.333333333333336
450.0   120.0   33.333333333333336
400.0   120.0   16.666666666666668
400.0   90.0   33.333333333333336
450.0   120.0   33.333333333333336
450.0   90.0   33.333333333333336
450.0   90.0   16.666666666666668
400.0   90.0   33.333333333333336
450.0   120.0   33.333333333333336
450.0   90.0   16.666666666666668
400.0   120.0   16.666666666666668
400.0   90.0   33.333333333333336
450.0   90.0   33.333333333333336
400.0   120.0   33.333333333333336
400.0   90.0   50.0
450.0   90.0   33.333333333333336
450.0   120.0   33.333333333333336
400.0   120.0   33.333333333333336
450.0   120.0   50.0
400.0   90.0   50.0
400.0   120.0   50.0
450.0   120.0   50.0
400.0   120.0   33.333333333333336
400.0   90.0   50.0
450.0   120.0   50.0
450.0   90.0   50.0
450.0   90.0   33.333333333333336
400.0   90.0   50.0
450.0   120.0   50.0
450.0   90.0   33.333333333333336
400.0   120.0   33.333333333333336
400.0   120.0   0.0
450.0   120.0   0.0
400.0   150.0   0.0
400.0   120.0   16.666666666666668
450.0   120.0   0.0
450.0   150.0   0.0
400.0   150.0   0.0
450.0   150.0   16.666666666666668
400.0   120.0   16.666666666666668
400.0   150.0   16.666666666666668
450.0   150.0   16.666666666666668
400.0   150.0   0.0
400.0   120.0   16.666666666666668
450.0   150.0   16.666666666666668
450.0   120.0   16.666666666666668
450.0   120.0   0.0
400.0   120.0   16.666666666666668
450.0   150.0   16.666666666666668
450.0   120.0   0.0
400.0   150.0   0.0
400.0   120.0   16.666666666666668
450.0   120.0   16.666666666666668
400.0   150.0   16.666666666666668
400.0   120.0   33.333333333333336
450.0   120.0   16.666666666666668
450.0   150.0   16.666666666666668
400.0   150.0   16.666666666666668
450.0   150.0   33.333333333333336
400.0   120.0   33.333333333333336
400.0   150.0   33.333333333333336
450.0   150.0   33.333333333333336
400.0   150.0   16.666666666666668
400.0   120.0   33.333333333333336
450.0   150.0   33.333333333333336
450.0   120.0   33.333333333333336
450.0   120.0   16.666666666666668
400.0   120.0   33.333333333333336
450.0   150.0   33.333333333333336
450.0   120.0   16.666666666666668
400.0   150.0   16.666666666666668
400.0   120.0   33.333333333333336
450.0   120.0   33.333333333333336
400.0   150.0   33.333333333333336
400.0   120.0   50.0
450.0   120.0   33.333333333333336
450.0   150.0   33.333333333333336
400.0   150.0   33.333333333333336
450.0   150.0   50.0
400.0   120.0   50.0
400.0   150.0   50.0
450.0   150.0   50.0
400.0   150.0   33.333333333333336
400.0   120.0   50.0
450.0   150.0   50.0
450.0   120.0   50.0
450.0   120.0   33.333333333333336
400.0   120.0   50.0
450.0   150.0   50.0
450.0   120.0   33.333333333333336
400.0   150.0   33.333333333333336
450.0   0.0   0.0
500.0   0.0   0.0
450.0   30.0   0.0
450.0   0.0   16.666666666666668
500.0   0.0   0.0
500.0   30.0   0.0
450.0   30.0   0.0
500.0   30.0   16.666666666666668
450.0   0.0   16.666666666666668
450.0   30.0   16.666666666666668
500.0   30.0   16.666666666666668
450.0   30.0   0.0
450.0   0.0   16.666666666666668
500.0   30.0   16.666666666666668
500.0   0.0   16.666666666666668
500.0   0.0   0.0
450.0   0.0   16.666666666666668
500.0   30.0   16.666666666666668
500.0   0.0   0.0
450.0   30.0   0.0
450.0   0.0   16.666666666666668
500.0   0.0   16.666666666666668
450.0   30.0   16.666666666666668
450.0   0.0   33.333333333333336
500.0   0.0   16.666666666666668
500.0   30.0   16.666666666666668
450.0   30.0   16.666666666666668
500.0   30.0   33.333333333333336
450.0   0.0   33.333333333333336
450.0   30.0   33.333333333333336
500.0   30.0   33.333333333333336
450.0   30.0   16.666666666666668
450.0   0.0   33.333333333333336
500.0   30.0   33.333333333333336
500.0   0.0   33.333333333333336
500.0   0.0   16.666666666666668
450.0   0.0   33.333333333333336
500.0   30.0   33.333333333333336
500.0   0.0   16.666666666666668
450.0   30.0   16.666666666666668
450.0   0.0   33.333333333333336
500.0   0.0   33.333333333333336
450.0   30.0   33.333333333333336
450.0   0.0   50.0
500.0   0.0   33.333333333333336
500.0   30.0   33.333333333333336
450.0   30.0   33.333333333333336
500.0   30.0   50.0
450.0   0.0   50.0
450.0   30.0   50.0
500.0   30.0   50.0
450.0   30.0   33.333333333333336
450.0   0.0   50.0
500.0   30.0   50.0
500.0   0.0   50.0
500.0   0.0   33.333333333333336
450.0   0.0   50.0
500.0   30.0   50.0
500.0   0.0   33.333333333333336
450.0   30.0   33.333333333333336
450.0   30.0   0.0
500.0   30.0   0.0
450.0   60.0   0.0
450.0   30.0   16.666666666666668
500.0   30.0   0.0
500.0   60.0   0.0
450.0   60.0   0.0
500.0   60.0   16.666666666666668
450.0   30.0   16.666666666666668
450.0   60.0   16.666666666666668
500.0   60.0   16.666666666666668
450.0   60.0   0.0
450.0   30.0   16.666666666666668
500.0   60.0   16.666666666666668
500.0   30.0   16.666666666666668
500.0   30.0   0.0
450.0   30.0   16.666666666666668
500.0   60.0   16.666666666666668
500.0   30.0   0.0
450.0   60.0   0.0
450.0   30.0   16.666666666666668
500.0   30.0   16.666666666666668
450.0   60.0   16.666666666666668
450.0   30.0   33.333333333333336
500.0   30.0   16.666666666666668
500.0   60.0   16.666666666666668
450.0   60.0   16.666666666666668
500.0   60.0   33.333333333333336
450.0   30.0   33.333333333333336
450.0   60.0   33.333333333333336
500.0   60.0   33.333333333333336
450.0   60.0   16.666666666666668
450.0   30.0   33.333333333333336
500.0   60.0   33.333333333333336
500.0   30.0   33.333333333333336
500.0   30.0   16.666666666666668
450.0   30.0   33.333333333333336
500.0   60.0   33.333333333333336
500.0   30.0   16.666666666666668
450.0   60.0   16.666666666666668
450.0   30.0   33.333333333333336
500.0   30.0   33.333333333333336
450.0   60.0   33.333333333333336
450.0   30.0   50.0
500.0   30.0   33.333333333333336
500.0   60.0   33.333333333333336
450.0   60.0   33.333333333333336
500.0   60.0   50.0
450.0   30.0   50.0
450.0   60.0   50.0
500.0   60.0   50.0
450.0   60.0   33.333333333333336
450.0   30.0   50.0
500.0   60.0   50.0
500.0   30.0   50.0
500.0   30.0   33.333333333333336
450.0   30.0   50.0
500.0   60.0   50.0
500.0   30.0   33.333333333333336
450.0   60.0   33.333333333333336
450.0   60.0   0.0
500.0   60.0   0.0
450.0   90.0   0.0
450.0   60.0   16.666666666666668
500.0   60.0   0.0
500.0   90.0   0.0
450.0   90.0   0.0
500.0   90.0   16.666666666666668
450.0   60.0   16.666666666666668
450.0   90.0   16.666666666666668
500.0   90.0   16.666666666666668
450.0   90.0   0.0
450.0   60.0   16.666666666666668
500.0   90.0   16.666666666666668
500.0   60.0   16.666666666666668
500.0   60.0   0.0
450.0   60.0   16.666666666666668
500.0   90.0   16.666666666666668
500.0   60.0   0.0
450.0   90.0   0.0
450.0   60.0   16.666666666666668
500.0   60.0   16.666666666666668
450.0   90.0   16.666666666666668
450.0   60.0   33.333333333333336
500.0   60.0   16.666666666666668
500.0   90.0   16.666666666666668
450.0   90.0   16.666666666666668
500.0   90.0   33.333333333333336
450.0   60.0   33.333333333333336
450.0   90.0   33.333333333333336
500.0   90.0   33.333333333333336
450.0   90.0   16.666666666666668
450.0   60.0   33.333333333333336
500.0   90.0   33.333333333333336
500.0   60.0   33.333333333333336
500.0   60.0   16.666666666666668
450.0   60.0   33.333333333333336
500.0   90.0   33.333333333333336
500.0   60.0   16.666666666666668
450.0   90.0   16.666666666666668
450.0   60.0   33.333333333333336
500.0   60.0   33.333333333333336
450.0   90.0   33.333333333333336
450.0   60.0   50.0
500.0   60.0   33.333333333333336
500.0   90.0   33.333333333333336
450.0   90.0   33.333333333333336
500.0   90.0   50.0
450.0   60.0   50.0
450.0   90.0   50.0
500.0   90.0   50.0
450.0   90.0   33.333333333333336
450.0   60.0   50.0
500.0   90.0   50.0
500.0   60.0   50.0
500.0   60.0   33.333333333333336
450.0   60.0   50.0
500.0   90.0   50.0
500.0   60.0   33.333333333333336
450.0   90.0   33.333333333333336
450.0   90.0   0.0
500.0   90.0   0.0
450.0   120.0   0.0
450.0   90.0   16.666666666666668
500.0   90.0   0.0
500.0   120.0   0.0
450.0   120.0   0.0
500.0   120.0   16.666666666666668
450.0   90.0   16.666666666666668
450.0   120.0   16.666666666666668
500.0   120.0   16.666666666666668
450.0   120.0   0.0
450.0   90.0   16.666666666666668
500.0   120.0   16.666666666666668
500.0   90.0   16.666666666666668
500.0   90.0   0.0
450.0   90.0   16.666666666666668
500.0   120.0   16.666666666666668
500.0   90.0   0.0
450.0   120.0   0.0
450.0   90.0   16.666666666666668
500.0   90.0   16.666666666666668
450.0   120.0   16.666666666666668
450.0   90.0   33.333333333333336
500.0   90.0   16.666666666666668
500.0   120.0   16.666666666666668
450.0   120.0   16.666666666666668
500.0   120.0   33.333333333333336
450.0   90.0   33.333333333333336
450.0   120.0   33.333333333333336
500.0   120.0   33.333333333333336
450.0   120.0   16.666666666666668
450.0   90.0   33.333333333333336
500.0   120.0   33.333333333333336
500.0   90.0   33.333333333333336
500.0   90.0   16.666666666666668
450.0   90.0   33.333333333333336
500.0   120.0   33.333333333333336
500.0   90.0   16.666666666666668
450.0   120.0   16.666666666666668
450.0   90.0   33.333333333333336
500.0   90.0   33.333333333333336
450.0   120.0   33.333333333333336
450.0   90.0   50.0
500.0   90.0   33.333333333333336
500.0   120.0   33.333333333333336
450.0   120.0   33.333333333333336
500.0   120.0   50.0
450.0   90.0   50.0
450.0   120.0   50.0
500.0   120.0   50.0
450.0   120.0   33.333333333333336
450.0   90.0   50.0
500.0   120.0   50.0
500.0   90.0   50.0
500.0   90.0   33.333333333333336
450.0   90.0   50.0
500.0   120.0   50.0
500.0   90.0   33.333333333333336
450.0   120.0   33.333333333333336
450.0   120.0   0.0
500.0   120.0   0.0
450.0   150.0   0.0
450.0   120.0   16.666666666666668
500.0   120.0   0.0
500.0   150.0   0.0
450.0   150.0   0.0
500.0   150.0   16.666666666666668
450.0   120.0   16.666666666666668
450.0   150.0   16.666666666666668
500.0   150.0   16.666666666666668
450.0   150.0   0.0
450.0   120.0   16.666666666666668
500.0   150.0   16.666666666666668
500.0   120.0   16.666666666666668
500.0   120.0   0.0
450.0   120.0   16.666666666666668
500.0   150.0   16.666666666666668
500.0   120.0   0.0
450.0   150.0   0.0
450.0   120.0   16.666666666666668
500.0   120.0   16.666666666666668
450.0   150.0   16.666666666666668
450.0   120.0   33.333333333333336
500.0   120.0   16.666666666666668
500.0   150.0   16.666666666666668
450.0   150.0   16.666666666666668
500.0   150.0   33.333333333333336
450.0   120.0   33.333333333333336
450.0   150.0   33.333333333333336
500.0   150.0   33.333333333333336
450.0   150.0   16.666666666666668
450.0   120.0   33.333333333333336
500.0   150.0   33.333333333333336
500.0   120.0   33.333333333333336
500.0   120.0   16.666666666666668
450.0   120.0   33.333333333333336
500.0   150.0   33.333333333333336
500.0   120.0   16.666666666666668
450.0   150.0   16.666666666666668
450.0   120.0   33.333333333333336
500.0   120.0   33.333333333333336
450.0   150.0   33.333333333333336
450.0   120.0   50.0
500.0   120.0   33.333333333333336
500.0   150.0   33.333333333333336
450.0   150.0   33.333333333333336
500.0   150.0   50.0
450.0   120.0   50.0
450.0   150.0   50.0
500.0   150.0   50.0
450.0   150.0   33.333333333333336
450.0   120.0   50.0
500.0   150.0   50.0
500.0   120.0   50.0
500.0   120.0   33.333333333333336
450.0   120.0   50.0
500.0   150.0   50.0
500.0   120.0   33.333333333333336
450.0   150.0   33.333333333333336
             </DataArray>   
          </Points>  
          <Cells>  
             <DataArray type="Int32" Name="connectivity" format="ascii">   
0   1   2   3
4   5   6   7
8   9   10   11
12   13   14   15
16   17   18   19
20   21   22   23
24   25   26   27
28   29   30   31
32   33   34   35
36   37   38   39
40   41   42   43
44   45   46   47
48   49   50   51
52   53   54   55
56   57   58   59
60   61   62   63
64   65   66   67
68   69   70   71
72   73   74   75
76   77   78   79
80   81   82   83
84   85   86   87
88   89   90   91
92   93   94   95
96   97   98   99
100   101   102   103
104   105   106   107
108   109   110   111
112   113   114   115
116   117   118   119
120   121   122   123
124   125   126   127
128   129   130   131
132   133   134   135
136   137   138   139
140   141   142   143
144   145   146   147
148   149   150   151
152   153   154   155
156   157   158   159
160   161   162   163
164   165   166   167
168   169   170   171
172   173   174   175
176   177   178   179
180   181   182   183
184   185   186   187
188   189   190   191
192   193   194   195
196   197   198   199
200   201   202   203
204   205   206   207
208   209   210   211
212   213   214   215
216   217   218   219
220   221   222   223
224   225   226   227
228   229   230   231
232   233   234   235
236   237   238   239
240   241   242   243
244   245   246   247
248   249   250   251
252   253   254   255
256   257   258   259
260   261   262   263
264   265   266   267
268   269   270   271
272   273   274   275
276   277   278   279
280   281   282   283
284   285   286   287
288   289   290   291
292   293   294   295
296   297   298   299
300   301   302   303
304   305   306   307
308   309   310   311
312   313   314   315
316   317   318   319
320   321   322   323
324   325   326   327
328   329   330   331
332   333   334   335
336   337   338   339
340   341   342   343
344   345   346   347
348   349   350   351
352   353   354   355
356   357   358   359
360   361   362   363
364   365   366   367
368   369   370   371
372   373   374   375
376   377   378   379
380   381   382   383
384   385   386   387
388   389   390   391
392   393   394   395
396   397   398   399
400   401   402   403
404   405   406   407
408   409   410   411
412   413   414   415
416   417   418   419
420   421   422   423
424   425   426   427
428   429   430   431
432   433   434   435
436   437   438   439
440   441   442   443
444   445   446   447
448   449   450   451
452   453   454   455
456   457   458   459
460   461   462   463
464   465   466   467
468   469   470   471
472   473   474   475
476   477   478   479
480   481   482   483
484   485   486   487
488   489   490   491
492   493   494   495
496   497   498   499
500   501   502   503
504   505   506   507
508   509   510   511
512   513   514   515
516   517   518   519
520   521   522   523
524   525   526   527
528   529   530   531
532   533   534   535
536   537   538   539
540   541   542   543
544   545   546   547
548   549   550   551
552   553   554   555
556   557   558   559
560   561   562   563
564   565   566   567
568   569   570   571
572   573   574   575
576   577   578   579
580   581   582   583
584   585   586   587
588   589   590   591
592   593   594   595
596   597   598   599
600   601   602   603
604   605   606   607
608   609   610   611
612   613   614   615
616   617   618   619
620   621   622   623
624   625   626   627
628   629   630   631
632   633   634   635
636   637   638   639
640   641   642   643
644   645   646   647
648   649   650   651
652   653   654   655
656   657   658   659
660   661   662   663
664   665   666   667
668   669   670   671
672   673   674   675
676   677   678   679
680   681   682   683
684   685   686   687
688   689   690   691
692   693   694   695
696   697   698   699
700   701   702   703
704   705   706   707
708   709   710   711
712   713   714   715
716   717   718   719
720   721   722   723
724   725   726   727
728   729   730   731
732   733   734   735
736   737   738   739
740   741   742   743
744   745   746   747
748   749   750   751
752   753   754   755
756   757   758   759
760   761   762   763
764   765   766   767
768   769   770   771
772   773   774   775
776   777   778   779
780   781   782   783
784   785   786   787
788   789   790   791
792   793   794   795
796   797   798   799
800   801   802   803
804   805   806   807
808   809   810   811
812   813   814   815
816   817   818   819
820   821   822   823
824   825   826   827
828   829   830   831
832   833   834   835
836   837   838   839
840   841   842   843
844   845   846   847
848   849   850   851
852   853   854   855
856   857   858   859
860   861   862   863
864   865   866   867
868   869   870   871
872   873   874   875
876   877   878   879
880   881   882   883
884   885   886   887
888   889   890   891
892   893   894   895
896   897   898   899
900   901   902   903
904   905   906   907
908   909   910   911
912   913   914   915
916   917   918   919
920   921   922   923
924   925   926   927
928   929   930   931
932   933   934   935
936   937   938   939
940   941   942   943
944   945   946   947
948   949   950   951
952   953   954   955
956   957   958   959
960   961   962   963
964   965   966   967
968   969   970   971
972   973   974   975
976   977   978   979
980   981   982   983
984   985   986   987
988   989   990   991
992   993   994   995
996   997   998   999
1000   1001   1002   1003
1004   1005   1006   1007
1008   1009   1010   1011
1012   1013   1014   1015
1016   1017   1018   1019
1020   1021   1022   1023
1024   1025   1026   1027
1028   1029   1030   1031
1032   1033   1034   1035
1036   1037   1038   1039
1040   1041   1042   1043
1044   1045   1046   1047
1048   1049   1050   1051
1052   1053   1054   1055
1056   1057   1058   1059
1060   1061   1062   1063
1064   1065   1066   1067
1068   1069   1070   1071
1072   1073   1074   1075
1076   1077   1078   1079
1080   1081   1082   1083
1084   1085   1086   1087
1088   1089   1090   1091
1092   1093   1094   1095
1096   1097   1098   1099
1100   1101   1102   1103
1104   1105   1106   1107
1108   1109   1110   1111
1112   1113   1114   1115
1116   1117   1118   1119
1120   1121   1122   1123
1124   1125   1126   1127
1128   1129   1130   1131
1132   1133   1134   1135
1136   1137   1138   1139
1140   1141   1142   1143
1144   1145   1146   1147
1148   1149   1150   1151
1152   1153   1154   1155
1156   1157   1158   1159
1160   1161   1162   1163
1164   1165   1166   1167
1168   1169   1170   1171
1172   1173   1174   1175
1176   1177   1178   1179
1180   1181   1182   1183
1184   1185   1186   1187
1188   1189   1190   1191
1192   1193   1194   1195
1196   1197   1198   1199
1200   1201   1202   1203
1204   1205   1206   1207
1208   1209   1210   1211
1212   1213   1214   1215
1216   1217   1218   1219
1220   1221   1222   1223
1224   1225   1226   1227
1228   1229   1230   1231
1232   1233   1234   1235
1236   1237   1238   1239
1240   1241   1242   1243
1244   1245   1246   1247
1248   1249   1250   1251
1252   1253   1254   1255
1256   1257   1258   1259
1260   1261   1262   1263
1264   1265   1266   1267
1268   1269   1270   1271
1272   1273   1274   1275
1276   1277   1278   1279
1280   1281   1282   1283
1284   1285   1286   1287
1288   1289   1290   1291
1292   1293   1294   1295
1296   1297   1298   1299
1300   1301   1302   1303
1304   1305   1306   1307
1308   1309   1310   1311
1312   1313   1314   1315
1316   1317   1318   1319
1320   1321   1322   1323
1324   1325   1326   1327
1328   1329   1330   1331
1332   1333   1334   1335
1336   1337   1338   1339
1340   1341   1342   1343
1344   1345   1346   1347
1348   1349   1350   1351
1352   1353   1354   1355
1356   1357   1358   1359
1360   1361   1362   1363
1364   1365   1366   1367
1368   1369   1370   1371
1372   1373   1374   1375
1376   1377   1378   1379
1380   1381   1382   1383
1384   1385   1386   1387
1388   1389   1390   1391
1392   1393   1394   1395
1396   1397   1398   1399
1400   1401   1402   1403
1404   1405   1406   1407
1408   1409   1410   1411
1412   1413   1414   1415
1416   1417   1418   1419
1420   1421   1422   1423
1424   1425   1426   1427
1428   1429   1430   1431
1432   1433   1434   1435
1436   1437   1438   1439
1440   1441   1442   1443
1444   1445   1446   1447
1448   1449   1450   1451
1452   1453   1454   1455
1456   1457   1458   1459
1460   1461   1462   1463
1464   1465   1466   1467
1468   1469   1470   1471
1472   1473   1474   1475
1476   1477   1478   1479
1480   1481   1482   1483
1484   1485   1486   1487
1488   1489   1490   1491
1492   1493   1494   1495
1496   1497   1498   1499
1500   1501   1502   1503
1504   1505   1506   1507
1508   1509   1510   1511
1512   1513   1514   1515
1516   1517   1518   1519
1520   1521   1522   1523
1524   1525   1526   1527
1528   1529   1530   1531
1532   1533   1534   1535
1536   1537   1538   1539
1540   1541   1542   1543
1544   1545   1546   1547
1548   1549   1550   1551
1552   1553   1554   1555
1556   1557   1558   1559
1560   1561   1562   1563
1564   1565   1566   1567
1568   1569   1570   1571
1572   1573   1574   1575
1576   1577   1578   1579
1580   1581   1582   1583
1584   1585   1586   1587
1588   1589   1590   1591
1592   1593   1594   1595
1596   1597   1598   1599
1600   1601   1602   1603
1604   1605   1606   1607
1608   1609   1610   1611
1612   1613   1614   1615
1616   1617   1618   1619
1620   1621   1622   1623
1624   1625   1626   1627
1628   1629   1630   1631
1632   1633   1634   1635
1636   1637   1638   1639
1640   1641   1642   1643
1644   1645   1646   1647
1648   1649   1650   1651
1652   1653   1654   1655
1656   1657   1658   1659
1660   1661   1662   1663
1664   1665   1666   1667
1668   1669   1670   1671
1672   1673   1674   1675
1676   1677   1678   1679
1680   1681   1682   1683
1684   1685   1686   1687
1688   1689   1690   1691
1692   1693   1694   1695
1696   1697   1698   1699
1700   1701   1702   1703
1704   1705   1706   1707
1708   1709   1710   1711
1712   1713   1714   1715
1716   1717   1718   1719
1720   1721   1722   1723
1724   1725   1726   1727
1728   1729   1730   1731
1732   1733   1734   1735
1736   1737   1738   1739
1740   1741   1742   1743
1744   1745   1746   1747
1748   1749   1750   1751
1752   1753   1754   1755
1756   1757   1758   1759
1760   1761   1762   1763
1764   1765   1766   1767
1768   1769   1770   1771
1772   1773   1774   1775
1776   1777   1778   1779
1780   1781   1782   1783
1784   1785   1786   1787
1788   1789   1790   1791
1792   1793   1794   1795
1796   1797   1798   1799
1800   1801   1802   1803
1804   1805   1806   1807
1808   1809   1810   1811
1812   1813   1814   1815
1816   1817   1818   1819
1820   1821   1822   1823
1824   1825   1826   1827
1828   1829   1830   1831
1832   1833   1834   1835
1836   1837   1838   1839
1840   1841   1842   1843
1844   1845   1846   1847
1848   1849   1850   1851
1852   1853   1854   1855
1856   1857   1858   1859
1860   1861   1862   1863
1864   1865   1866   1867
1868   1869   1870   1871
1872   1873   1874   1875
1876   1877   1878   1879
1880   1881   1882   1883
1884   1885   1886   1887
1888   1889   1890   1891
1892   1893   1894   1895
1896   1897   1898   1899
1900   1901   1902   1903
1904   1905   1906   1907
1908   1909   1910   1911
1912   1913   1914   1915
1916   1917   1918   1919
1920   1921   1922   1923
1924   1925   1926   1927
1928   1929   1930   1931
1932   1933   1934   1935
1936   1937   1938   1939
1940   1941   1942   1943
1944   1945   1946   1947
1948   1949   1950   1951
1952   1953   1954   1955
1956   1957   1958   1959
1960   1961   1962   1963
1964   1965   1966   1967
1968   1969   1970   1971
1972   1973   1974   1975
1976   1977   1978   1979
1980   1981   1982   1983
1984   1985   1986   1987
1988   1989   1990   1991
1992   1993   1994   1995
1996   1997   1998   1999
2000   2001   2002   2003
2004   2005   2006   2007
2008   2009   2010   2011
2012   2013   2014   2015
2016   2017   2018   2019
2020   2021   2022   2023
2024   2025   2026   2027
2028   2029   2030   2031
2032   2033   2034   2035
2036   2037   2038   2039
2040   2041   2042   2043
2044   2045   2046   2047
2048   2049   2050   2051
2052   2053   2054   2055
2056   2057   2058   2059
2060   2061   2062   2063
2064   2065   2066   2067
2068   2069   2070   2071
2072   2073   2074   2075
2076   2077   2078   2079
2080   2081   2082   2083
2084   2085   2086   2087
2088   2089   2090   2091
2092   2093   2094   2095
2096   2097   2098   2099
2100   2101   2102   2103
2104   2105   2106   2107
2108   2109   2110   2111
2112   2113   2114   2115
2116   2117   2118   2119
2120   2121   2122   2123
2124   2125   2126   2127
2128   2129   2130   2131
2132   2133   2134   2135
2136   2137   2138   2139
2140   2141   2142   2143
2144   2145   2146   2147
2148   2149   2150   2151
2152   2153   2154   2155
2156   2157   2158   2159
2160   2161   2162   2163
2164   2165   2166   2167
2168   2169   2170   2171
2172   2173   2174   2175
2176   2177   2178   2179
2180   2181   2182   2183
2184   2185   2186   2187
2188   2189   2190   2191
2192   2193   2194   2195
2196   2197   2198   2199
2200   2201   2202   2203
2204   2205   2206   2207
2208   2209   2210   2211
2212   2213   2214   2215
2216   2217   2218   2219
2220   2221   2222   2223
2224   2225   2226   2227
2228   2229   2230   2231
2232   2233   2234   2235
2236   2237   2238   2239
2240   2241   2242   2243
2244   2245   2246   2247
2248   2249   2250   2251
2252   2253   2254   2255
2256   2257   2258   2259
2260   2261   2262   2263
2264   2265   2266   2267
2268   2269   2270   2271
2272   2273   2274   2275
2276   2277   2278   2279
2280   2281   2282   2283
2284   2285   2286   2287
2288   2289   2290   2291
2292   2293   2294   2295
2296   2297   2298   2299
2300   2301   2302   2303
2304   2305   2306   2307
2308   2309   2310   2311
2312   2313   2314   2315
2316   2317   2318   2319
2320   2321   2322   2323
2324   2325   2326   2327
2328   2329   2330   2331
2332   2333   2334   2335
2336   2337   2338   2339
2340   2341   2342   2343
2344   2345   2346   2347
2348   2349   2350   2351
2352   2353   2354   2355
2356   2357   2358   2359
2360   2361   2362   2363
2364   2365   2366   2367
2368   2369   2370   2371
2372   2373   2374   2375
2376   2377   2378   2379
2380   2381   2382   2383
2384   2385   2386   2387
2388   2389   2390   2391
2392   2393   2394   2395
2396   2397   2398   2399
2400   2401   2402   2403
2404   2405   2406   2407
2408   2409   2410   2411
2412   2413   2414   2415
2416   2417   2418   2419
2420   2421   2422   2423
2424   2425   2426   2427
2428   2429   2430   2431
2432   2433   2434   2435
2436   2437   2438   2439
2440   2441   2442   2443
2444   2445   2446   2447
2448   2449   2450   2451
2452   2453   2454   2455
2456   2457   2458   2459
2460   2461   2462   2463
2464   2465   2466   2467
2468   2469   2470   2471
2472   2473   2474   2475
2476   2477   2478   2479
2480   2481   2482   2483
2484   2485   2486   2487
2488   2489   2490   2491
2492   2493   2494   2495
2496   2497   2498   2499
2500   2501   2502   2503
2504   2505   2506   2507
2508   2509   2510   2511
2512   2513   2514   2515
2516   2517   2518   2519
2520   2521   2522   2523
2524   2525   2526   2527
2528   2529   2530   2531
2532   2533   2534   2535
2536   2537   2538   2539
2540   2541   2542   2543
2544   2545   2546   2547
2548   2549   2550   2551
2552   2553   2554   2555
2556   2557   2558   2559
2560   2561   2562   2563
2564   2565   2566   2567
2568   2569   2570   2571
2572   2573   2574   2575
2576   2577   2578   2579
2580   2581   2582   2583
2584   2585   2586   2587
2588   2589   2590   2591
2592   2593   2594   2595
2596   2597   2598   2599
2600   2601   2602   2603
2604   2605   2606   2607
2608   2609   2610   2611
2612   2613   2614   2615
2616   2617   2618   2619
2620   2621   2622   2623
2624   2625   2626   2627
2628   2629   2630   2631
2632   2633   2634   2635
2636   2637   2638   2639
2640   2641   2642   2643
2644   2645   2646   2647
2648   2649   2650   2651
2652   2653   2654   2655
2656   2657   2658   2659
2660   2661   2662   2663
2664   2665   2666   2667
2668   2669   2670   2671
2672   2673   2674   2675
2676   2677   2678   2679
2680   2681   2682   2683
2684   2685   2686   2687
2688   2689   2690   2691
2692   2693   2694   2695
2696   2697   2698   2699
2700   2701   2702   2703
2704   2705   2706   2707
2708   2709   2710   2711
2712   2713   2714   2715
2716   2717   2718   2719
2720   2721   2722   2723
2724   2725   2726   2727
2728   2729   2730   2731
2732   2733   2734   2735
2736   2737   2738   2739
2740   2741   2742   2743
2744   2745   2746   2747
2748   2749   2750   2751
2752   2753   2754   2755
2756   2757   2758   2759
2760   2761   2762   2763
2764   2765   2766   2767
2768   2769   2770   2771
2772   2773   2774   2775
2776   2777   2778   2779
2780   2781   2782   2783
2784   2785   2786   2787
2788   2789   2790   2791
2792   2793   2794   2795
2796   2797   2798   2799
2800   2801   2802   2803
2804   2805   2806   2807
2808   2809   2810   2811
2812   2813   2814   2815
2816   2817   2818   2819
2820   2821   2822   2823
2824   2825   2826   2827
2828   2829   2830   2831
2832   2833   2834   2835
2836   2837   2838   2839
2840   2841   2842   2843
2844   2845   2846   2847
2848   2849   2850   2851
2852   2853   2854   2855
2856   2857   2858   2859
2860   2861   2862   2863
2864   2865   2866   2867
2868   2869   2870   2871
2872   2873   2874   2875
2876   2877   2878   2879
2880   2881   2882   2883
2884   2885   2886   2887
2888   2889   2890   2891
2892   2893   2894   2895
2896   2897   2898   2899
2900   2901   2902   2903
2904   2905   2906   2907
2908   2909   2910   2911
2912   2913   2914   2915
2916   2917   2918   2919
2920   2921   2922   2923
2924   2925   2926   2927
2928   2929   2930   2931
2932   2933   2934   2935
2936   2937   2938   2939
2940   2941   2942   2943
2944   2945   2946   2947
2948   2949   2950   2951
2952   2953   2954   2955
2956   2957   2958   2959
2960   2961   2962   2963
2964   2965   2966   2967
2968   2969   2970   2971
2972   2973   2974   2975
2976   2977   2978   2979
2980   2981   2982   2983
2984   2985   2986   2987
2988   2989   2990   2991
2992   2993   2994   2995
2996   2997   2998   2999
3000   3001   3002   3003
3004   3005   3006   3007
3008   3009   3010   3011
3012   3013   3014   3015
3016   3017   3018   3019
3020   3021   3022   3023
3024   3025   3026   3027
3028   3029   3030   3031
3032   3033   3034   3035
3036   3037   3038   3039
3040   3041   3042   3043
3044   3045   3046   3047
3048   3049   3050   3051
3052   3053   3054   3055
3056   3057   3058   3059
3060   3061   3062   3063
3064   3065   3066   3067
3068   3069   3070   3071
3072   3073   3074   3075
3076   3077   3078   3079
3080   3081   3082   3083
3084   3085   3086   3087
3088   3089   3090   3091
3092   3093   3094   3095
3096   3097   3098   3099
3100   3101   3102   3103
3104   3105   3106   3107
3108   3109   3110   3111
3112   3113   3114   3115
3116   3117   3118   3119
3120   3121   3122   3123
3124   3125   3126   3127
3128   3129   3130   3131
3132   3133   3134   3135
3136   3137   3138   3139
3140   3141   3142   3143
3144   3145   3146   3147
3148   3149   3150   3151
3152   3153   3154   3155
3156   3157   3158   3159
3160   3161   3162   3163
3164   3165   3166   3167
3168   3169   3170   3171
3172   3173   3174   3175
3176   3177   3178   3179
3180   3181   3182   3183
3184   3185   3186   3187
3188   3189   3190   3191
3192   3193   3194   3195
3196   3197   3198   3199
3200   3201   3202   3203
3204   3205   3206   3207
3208   3209   3210   3211
3212   3213   3214   3215
3216   3217   3218   3219
3220   3221   3222   3223
3224   3225   3226   3227
3228   3229   3230   3231
3232   3233   3234   3235
3236   3237   3238   3239
3240   3241   3242   3243
3244   3245   3246   3247
3248   3249   3250   3251
3252   3253   3254   3255
3256   3257   3258   3259
3260   3261   3262   3263
3264   3265   3266   3267
3268   3269   3270   3271
3272   3273   3274   3275
3276   3277   3278   3279
3280   3281   3282   3283
3284   3285   3286   3287
3288   3289   3290   3291
3292   3293   3294   3295
3296   3297   3298   3299
3300   3301   3302   3303
3304   3305   3306   3307
3308   3309   3310   3311
3312   3313   3314   3315
3316   3317   3318   3319
3320   3321   3322   3323
3324   3325   3326   3327
3328   3329   3330   3331
3332   3333   3334   3335
3336   3337   3338   3339
3340   3341   3342   3343
3344   3345   3346   3347
3348   3349   3350   3351
3352   3353   3354   3355
3356   3357   3358   3359
3360   3361   3362   3363
3364   3365   3366   3367
3368   3369   3370   3371
3372   3373   3374   3375
3376   3377   3378   3379
3380   3381   3382   3383
3384   3385   3386   3387
3388   3389   3390   3391
3392   3393   3394   3395
3396   3397   3398   3399
3400   3401   3402   3403
3404   3405   3406   3407
3408   3409   3410   3411
3412   3413   3414   3415
3416   3417   3418   3419
3420   3421   3422   3423
3424   3425   3426   3427
3428   3429   3430   3431
3432   3433   3434   3435
3436   3437   3438   3439
3440   3441   3442   3443
3444   3445   3446   3447
3448   3449   3450   3451
3452   3453   3454   3455
3456   3457   3458   3459
3460   3461   3462   3463
3464   3465   3466   3467
3468   3469   3470   3471
3472   3473   3474   3475
3476   3477   3478   3479
3480   3481   3482   3483
3484   3485   3486   3487
3488   3489   3490   3491
3492   3493   3494   3495
3496   3497   3498   3499
3500   3501   3502   3503
3504   3505   3506   3507
3508   3509   3510   3511
3512   3513   3514   3515
3516   3517   3518   3519
3520   3521   3522   3523
3524   3525   3526   3527
3528   3529   3530   3531
3532   3533   3534   3535
3536   3537   3538   3539
3540   3541   3542   3543
3544   3545   3546   3547
3548   3549   3550   3551
3552   3553   3554   3555
3556   3557   3558   3559
3560   3561   3562   3563
3564   3565   3566   3567
3568   3569   3570   3571
3572   3573   3574   3575
3576   3577   3578   3579
3580   3581   3582   3583
3584   3585   3586   3587
3588   3589   3590   3591
3592   3593   3594   3595
3596   3597   3598   3599
3600   3601   3602   3603
3604   3605   3606   3607
3608   3609   3610   3611
3612   3613   3614   3615
3616   3617   3618   3619
3620   3621   3622   3623
3624   3625   3626   3627
3628   3629   3630   3631
3632   3633   3634   3635
3636   3637   3638   3639
3640   3641   3642   3643
3644   3645   3646   3647
3648   3649   3650   3651
3652   3653   3654   3655
3656   3657   3658   3659
3660   3661   3662   3663
3664   3665   3666   3667
3668   3669   3670   3671
3672   3673   3674   3675
3676   3677   3678   3679
3680   3681   3682   3683
3684   3685   3686   3687
3688   3689   3690   3691
3692   3693   3694   3695
3696   3697   3698   3699
3700   3701   3702   3703
3704   3705   3706   3707
3708   3709   3710   3711
3712   3713   3714   3715
3716   3717   3718   3719
3720   3721   3722   3723
3724   3725   3726   3727
3728   3729   3730   3731
3732   3733   3734   3735
3736   3737   3738   3739
3740   3741   3742   3743
3744   3745   3746   3747
3748   3749   3750   3751
3752   3753   3754   3755
3756   3757   3758   3759
3760   3761   3762   3763
3764   3765   3766   3767
3768   3769   3770   3771
3772   3773   3774   3775
3776   3777   3778   3779
3780   3781   3782   3783
3784   3785   3786   3787
3788   3789   3790   3791
3792   3793   3794   3795
3796   3797   3798   3799
3800   3801   3802   3803
3804   3805   3806   3807
3808   3809   3810   3811
3812   3813   3814   3815
3816   3817   3818   3819
3820   3821   3822   3823
3824   3825   3826   3827
3828   3829   3830   3831
3832   3833   3834   3835
3836   3837   3838   3839
3840   3841   3842   3843
3844   3845   3846   3847
3848   3849   3850   3851
3852   3853   3854   3855
3856   3857   3858   3859
3860   3861   3862   3863
3864   3865   3866   3867
3868   3869   3870   3871
3872   3873   3874   3875
3876   3877   3878   3879
3880   3881   3882   3883
3884   3885   3886   3887
3888   3889   3890   3891
3892   3893   3894   3895
3896   3897   3898   3899
3900   3901   3902   3903
3904   3905   3906   3907
3908   3909   3910   3911
3912   3913   3914   3915
3916   3917   3918   3919
3920   3921   3922   3923
3924   3925   3926   3927
3928   3929   3930   3931
3932   3933   3934   3935
3936   3937   3938   3939
3940   3941   3942   3943
3944   3945   3946   3947
3948   3949   3950   3951
3952   3953   3954   3955
3956   3957   3958   3959
3960   3961   3962   3963
3964   3965   3966   3967
3968   3969   3970   3971
3972   3973   3974   3975
3976   3977   3978   3979
3980   3981   3982   3983
3984   3985   3986   3987
3988   3989   3990   3991
3992   3993   3994   3995
3996   3997   3998   3999
4000   4001   4002   4003
4004   4005   4006   4007
4008   4009   4010   4011
4012   4013   4014   4015
4016   4017   4018   4019
4020   4021   4022   4023
4024   4025   4026   4027
4028   4029   4030   4031
4032   4033   4034   4035
4036   4037   4038   4039
4040   4041   4042   4043
4044   4045   4046   4047
4048   4049   4050   4051
4052   4053   4054   4055
4056   4057   4058   4059
4060   4061   4062   4063
4064   4065   4066   4067
4068   4069   4070   4071
4072   4073   4074   4075
4076   4077   4078   4079
4080   4081   4082   4083
4084   4085   4086   4087
4088   4089   4090   4091
4092   4093   4094   4095
4096   4097   4098   4099
4100   4101   4102   4103
4104   4105   4106   4107
4108   4109   4110   4111
4112   4113   4114   4115
4116   4117   4118   4119
4120   4121   4122   4123
4124   4125   4126   4127
4128   4129   4130   4131
4132   4133   4134   4135
4136   4137   4138   4139
4140   4141   4142   4143
4144   4145   4146   4147
4148   4149   4150   4151
4152   4153   4154   4155
4156   4157   4158   4159
4160   4161   4162   4163
4164   4165   4166   4167
4168   4169   4170   4171
4172   4173   4174   4175
4176   4177   4178   4179
4180   4181   4182   4183
4184   4185   4186   4187
4188   4189   4190   4191
4192   4193   4194   4195
4196   4197   4198   4199
4200   4201   4202   4203
4204   4205   4206   4207
4208   4209   4210   4211
4212   4213   4214   4215
4216   4217   4218   4219
4220   4221   4222   4223
4224   4225   4226   4227
4228   4229   4230   4231
4232   4233   4234   4235
4236   4237   4238   4239
4240   4241   4242   4243
4244   4245   4246   4247
4248   4249   4250   4251
4252   4253   4254   4255
4256   4257   4258   4259
4260   4261   4262   4263
4264   4265   4266   4267
4268   4269   4270   4271
4272   4273   4274   4275
4276   4277   4278   4279
4280   4281   4282   4283
4284   4285   4286   4287
4288   4289   4290   4291
4292   4293   4294   4295
4296   4297   4298   4299
4300   4301   4302   4303
4304   4305   4306   4307
4308   4309   4310   4311
4312   4313   4314   4315
4316   4317   4318   4319
4320   4321   4322   4323
4324   4325   4326   4327
4328   4329   4330   4331
4332   4333   4334   4335
4336   4337   4338   4339
4340   4341   4342   4343
4344   4345   4346   4347
4348   4349   4350   4351
4352   4353   4354   4355
4356   4357   4358   4359
4360   4361   4362   4363
4364   4365   4366   4367
4368   4369   4370   4371
4372   4373   4374   4375
4376   4377   4378   4379
4380   4381   4382   4383
4384   4385   4386   4387
4388   4389   4390   4391
4392   4393   4394   4395
4396   4397   4398   4399
4400   4401   4402   4403
4404   4405   4406   4407
4408   4409   4410   4411
4412   4413   4414   4415
4416   4417   4418   4419
4420   4421   4422   4423
4424   4425   4426   4427
4428   4429   4430   4431
4432   4433   4434   4435
4436   4437   4438   4439
4440   4441   4442   4443
4444   4445   4446   4447
4448   4449   4450   4451
4452   4453   4454   4455
4456   4457   4458   4459
4460   4461   4462   4463
4464   4465   4466   4467
4468   4469   4470   4471
4472   4473   4474   4475
4476   4477   4478   4479
4480   4481   4482   4483
4484   4485   4486   4487
4488   4489   4490   4491
4492   4493   4494   4495
4496   4497   4498   4499
4500   4501   4502   4503
4504   4505   4506   4507
4508   4509   4510   4511
4512   4513   4514   4515
4516   4517   4518   4519
4520   4521   4522   4523
4524   4525   4526   4527
4528   4529   4530   4531
4532   4533   4534   4535
4536   4537   4538   4539
4540   4541   4542   4543
4544   4545   4546   4547
4548   4549   4550   4551
4552   4553   4554   4555
4556   4557   4558   4559
4560   4561   4562   4563
4564   4565   4566   4567
4568   4569   4570   4571
4572   4573   4574   4575
4576   4577   4578   4579
4580   4581   4582   4583
4584   4585   4586   4587
4588   4589   4590   4591
4592   4593   4594   4595
4596   4597   4598   4599
4600   4601   4602   4603
4604   4605   4606   4607
4608   4609   4610   4611
4612   4613   4614   4615
4616   4617   4618   4619
4620   4621   4622   4623
4624   4625   4626   4627
4628   4629   4630   4631
4632   4633   4634   4635
4636   4637   4638   4639
4640   4641   4642   4643
4644   4645   4646   4647
4648   4649   4650   4651
4652   4653   4654   4655
4656   4657   4658   4659
4660   4661   4662   4663
4664   4665   4666   4667
4668   4669   4670   4671
4672   4673   4674   4675
4676   4677   4678   4679
4680   4681   4682   4683
4684   4685   4686   4687
4688   4689   4690   4691
4692   4693   4694   4695
4696   4697   4698   4699
4700   4701   4702   4703
4704   4705   4706   4707
4708   4709   4710   4711
4712   4713   4714   4715
4716   4717   4718   4719
4720   4721   4722   4723
4724   4725   4726   4727
4728   4729   4730   4731
4732   4733   4734   4735
4736   4737   4738   4739
4740   4741   4742   4743
4744   4745   4746   4747
4748   4749   4750   4751
4752   4753   4754   4755
4756   4757   4758   4759
4760   4761   4762   4763
4764   4765   4766   4767
4768   4769   4770   4771
4772   4773   4774   4775
4776   4777   4778   4779
4780   4781   4782   4783
4784   4785   4786   4787
4788   4789   4790   4791
4792   4793   4794   4795
4796   4797   4798   4799
4800   4801   4802   4803
4804   4805   4806   4807
4808   4809   4810   4811
4812   4813   4814   4815
4816   4817   4818   4819
4820   4821   4822   4823
4824   4825   4826   4827
4828   4829   4830   4831
4832   4833   4834   4835
4836   4837   4838   4839
4840   4841   4842   4843
4844   4845   4846   4847
4848   4849   4850   4851
4852   4853   4854   4855
4856   4857   4858   4859
4860   4861   4862   4863
4864   4865   4866   4867
4868   4869   4870   4871
4872   4873   4874   4875
4876   4877   4878   4879
4880   4881   4882   4883
4884   4885   4886   4887
4888   4889   4890   4891
4892   4893   4894   4895
4896   4897   4898   4899
4900   4901   4902   4903
4904   4905   4906   4907
4908   4909   4910   4911
4912   4913   4914   4915
4916   4917   4918   4919
4920   4921   4922   4923
4924   4925   4926   4927
4928   4929   4930   4931
4932   4933   4934   4935
4936   4937   4938   4939
4940   4941   4942   4943
4944   4945   4946   4947
4948   4949   4950   4951
4952   4953   4954   4955
4956   4957   4958   4959
4960   4961   4962   4963
4964   4965   4966   4967
4968   4969   4970   4971
4972   4973   4974   4975
4976   4977   4978   4979
4980   4981   4982   4983
4984   4985   4986   4987
4988   4989   4990   4991
4992   4993   4994   4995
4996   4997   4998   4999
5000   5001   5002   5003
5004   5005   5006   5007
5008   5009   5010   5011
5012   5013   5014   5015
5016   5017   5018   5019
5020   5021   5022   5023
5024   5025   5026   5027
5028   5029   5030   5031
5032   5033   5034   5035
5036   5037   5038   5039
5040   5041   5042   5043
5044   5045   5046   5047
5048   5049   5050   5051
5052   5053   5054   5055
5056   5057   5058   5059
5060   5061   5062   5063
5064   5065   5066   5067
5068   5069   5070   5071
5072   5073   5074   5075
5076   5077   5078   5079
5080   5081   5082   5083
5084   5085   5086   5087
5088   5089   5090   5091
5092   5093   5094   5095
5096   5097   5098   5099
5100   5101   5102   5103
5104   5105   5106   5107
5108   5109   5110   5111
5112   5113   5114   5115
5116   5117   5118   5119
5120   5121   5122   5123
5124   5125   5126   5127
5128   5129   5130   5131
5132   5133   5134   5135
5136   5137   5138   5139
5140   5141   5142   5143
5144   5145   5146   5147
5148   5149   5150   5151
5152   5153   5154   5155
5156   5157   5158   5159
5160   5161   5162   5163
5164   5165   5166   5167
5168   5169   5170   5171
5172   5173   5174   5175
5176   5177   5178   5179
5180   5181   5182   5183
5184   5185   5186   5187
5188   5189   5190   5191
5192   5193   5194   5195
5196   5197   5198   5199
5200   5201   5202   5203
5204   5205   5206   5207
5208   5209   5210   5211
5212   5213   5214   5215
5216   5217   5218   5219
5220   5221   5222   5223
5224   5225   5226   5227
5228   5229   5230   5231
5232   5233   5234   5235
5236   5237   5238   5239
5240   5241   5242   5243
5244   5245   5246   5247
5248   5249   5250   5251
5252   5253   5254   5255
5256   5257   5258   5259
5260   5261   5262   5263
5264   5265   5266   5267
5268   5269   5270   5271
5272   5273   5274   5275
5276   5277   5278   5279
5280   5281   5282   5283
5284   5285   5286   5287
5288   5289   5290   5291
5292   5293   5294   5295
5296   5297   5298   5299
5300   5301   5302   5303
5304   5305   5306   5307
5308   5309   5310   5311
5312   5313   5314   5315
5316   5317   5318   5319
5320   5321   5322   5323
5324   5325   5326   5327
5328   5329   5330   5331
5332   5333   5334   5335
5336   5337   5338   5339
5340   5341   5342   5343
5344   5345   5346   5347
5348   5349   5350   5351
5352   5353   5354   5355
5356   5357   5358   5359
5360   5361   5362   5363
5364   5365   5366   5367
5368   5369   5370   5371
5372   5373   5374   5375
5376   5377   5378   5379
5380   5381   5382   5383
5384   5385   5386   5387
5388   5389   5390   5391
5392   5393   5394   5395
5396   5397   5398   5399
5400   5401   5402   5403
5404   5405   5406   5407
5408   5409   5410   5411
5412   5413   5414   5415
5416   5417   5418   5419
5420   5421   5422   5423
5424   5425   5426   5427
5428   5429   5430   5431
5432   5433   5434   5435
5436   5437   5438   5439
5440   5441   5442   5443
5444   5445   5446   5447
5448   5449   5450   5451
5452   5453   5454   5455
5456   5457   5458   5459
5460   5461   5462   5463
5464   5465   5466   5467
5468   5469   5470   5471
5472   5473   5474   5475
5476   5477   5478   5479
5480   5481   5482   5483
5484   5485   5486   5487
5488   5489   5490   5491
5492   5493   5494   5495
5496   5497   5498   5499
5500   5501   5502   5503
5504   5505   5506   5507
5508   5509   5510   5511
5512   5513   5514   5515
5516   5517   5518   5519
5520   5521   5522   5523
5524   5525   5526   5527
5528   5529   5530   5531
5532   5533   5534   5535
5536   5537   5538   5539
5540   5541   5542   5543
5544   5545   5546   5547
5548   5549   5550   5551
5552   5553   5554   5555
5556   5557   5558   5559
5560   5561   5562   5563
5564   5565   5566   5567
5568   5569   5570   5571
5572   5573   5574   5575
5576   5577   5578   5579
5580   5581   5582   5583
5584   5585   5586   5587
5588   5589   5590   5591
5592   5593   5594   5595
5596   5597   5598   5599
5600   5601   5602   5603
5604   5605   5606   5607
5608   5609   5610   5611
5612   5613   5614   5615
5616   5617   5618   5619
5620   5621   5622   5623
5624   5625   5626   5627
5628   5629   5630   5631
5632   5633   5634   5635
5636   5637   5638   5639
5640   5641   5642   5643
5644   5645   5646   5647
5648   5649   5650   5651
5652   5653   5654   5655
5656   5657   5658   5659
5660   5661   5662   5663
5664   5665   5666   5667
5668   5669   5670   5671
5672   5673   5674   5675
5676   5677   5678   5679
5680   5681   5682   5683
5684   5685   5686   5687
5688   5689   5690   5691
5692   5693   5694   5695
5696   5697   5698   5699
5700   5701   5702   5703
5704   5705   5706   5707
5708   5709   5710   5711
5712   5713   5714   5715
5716   5717   5718   5719
5720   5721   5722   5723
5724   5725   5726   5727
5728   5729   5730   5731
5732   5733   5734   5735
5736   5737   5738   5739
5740   5741   5742   5743
5744   5745   5746   5747
5748   5749   5750   5751
5752   5753   5754   5755
5756   5757   5758   5759
5760   5761   5762   5763
5764   5765   5766   5767
5768   5769   5770   5771
5772   5773   5774   5775
5776   5777   5778   5779
5780   5781   5782   5783
5784   5785   5786   5787
5788   5789   5790   5791
5792   5793   5794   5795
5796   5797   5798   5799
5800   5801   5802   5803
5804   5805   5806   5807
5808   5809   5810   5811
5812   5813   5814   5815
5816   5817   5818   5819
5820   5821   5822   5823
5824   5825   5826   5827
5828   5829   5830   5831
5832   5833   5834   5835
5836   5837   5838   5839
5840   5841   5842   5843
5844   5845   5846   5847
5848   5849   5850   5851
5852   5853   5854   5855
5856   5857   5858   5859
5860   5861   5862   5863
5864   5865   5866   5867
5868   5869   5870   5871
5872   5873   5874   5875
5876   5877   5878   5879
5880   5881   5882   5883
5884   5885   5886   5887
5888   5889   5890   5891
5892   5893   5894   5895
5896   5897   5898   5899
5900   5901   5902   5903
5904   5905   5906   5907
5908   5909   5910   5911
5912   5913   5914   5915
5916   5917   5918   5919
5920   5921   5922   5923
5924   5925   5926   5927
5928   5929   5930   5931
5932   5933   5934   5935
5936   5937   5938   5939
5940   5941   5942   5943
5944   5945   5946   5947
5948   5949   5950   5951
5952   5953   5954   5955
5956   5957   5958   5959
5960   5961   5962   5963
5964   5965   5966   5967
5968   5969   5970   5971
5972   5973   5974   5975
5976   5977   5978   5979
5980   5981   5982   5983
5984   5985   5986   5987
5988   5989   5990   5991
5992   5993   5994   5995
5996   5997   5998   5999
              </DataArray>   
              <DataArray type="Int32" Name="offsets" format="ascii">   
4
8
12
16
20
24
28
32
36
40
44
48
52
56
60
64
68
72
76
80
84
88
92
96
100
104
108
112
116
120
124
128
132
136
140
144
148
152
156
160
164
168
172
176
180
184
188
192
196
200
204
208
212
216
220
224
228
232
236
240
244
248
252
256
260
264
268
272
276
280
284
288
292
296
300
304
308
312
316
320
324
328
332
336
340
344
348
352
356
360
364
368
372
376
380
384
388
392
396
400
404
408
412
416
420
424
428
432
436
440
444
448
452
456
460
464
468
472
476
480
484
488
492
496
500
504
508
512
516
520
524
528
532
536
540
544
548
552
556
560
564
568
572
576
580
584
588
592
596
600
604
608
612
616
620
624
628
632
636
640
644
648
652
656
660
664
668
672
676
680
684
688
692
696
700
704
708
712
716
720
724
728
732
736
740
744
748
752
756
760
764
768
772
776
780
784
788
792
796
800
804
808
812
816
820
824
828
832
836
840
844
848
852
856
860
864
868
872
876
880
884
888
892
896
900
904
908
912
916
920
924
928
932
936
940
944
948
952
956
960
964
968
972
976
980
984
988
992
996
1000
1004
1008
1012
1016
1020
1024
1028
1032
1036
1040
1044
1048
1052
1056
1060
1064
1068
1072
1076
1080
1084
1088
1092
1096
1100
1104
1108
1112
1116
1120
1124
1128
1132
1136
1140
1144
1148
1152
1156
1160
1164
1168
1172
1176
1180
1184
1188
1192
1196
1200
1204
1208
1212
1216
1220
1224
1228
1232
1236
1240
1244
1248
1252
1256
1260
1264
1268
1272
1276
1280
1284
1288
1292
1296
1300
1304
1308
1312
1316
1320
1324
1328
1332
1336
1340
1344
1348
1352
1356
1360
1364
1368
1372
1376
1380
1384
1388
1392
1396
1400
1404
1408
1412
1416
1420
1424
1428
1432
1436
1440
1444
1448
1452
1456
1460
1464
1468
1472
1476
1480
1484
1488
1492
1496
1500
1504
1508
1512
1516
1520
1524
1528
1532
1536
1540
1544
1548
1552
1556
1560
1564
1568
1572
1576
1580
1584
1588
1592
1596
1600
1604
1608
1612
1616
1620
1624
1628
1632
1636
1640
1644
1648
1652
1656
1660
1664
1668
1672
1676
1680
1684
1688
1692
1696
1700
1704
1708
1712
1716
1720
1724
1728
1732
1736
1740
1744
1748
1752
1756
1760
1764
1768
1772
1776
1780
1784
1788
1792
1796
1800
1804
1808
1812
1816
1820
1824
1828
1832
1836
1840
1844
1848
1852
1856
1860
1864
1868
1872
1876
1880
1884
1888
1892
1896
1900
1904
1908
1912
1916
1920
1924
1928
1932
1936
1940
1944
1948
1952
1956
1960
1964
1968
1972
1976
1980
1984
1988
1992
1996
2000
2004
2008
2012
2016
2020
2024
2028
2032
2036
2040
2044
2048
2052
2056
2060
2064
2068
2072
2076
2080
2084
2088
2092
2096
2100
2104
2108
2112
2116
2120
2124
2128
2132
2136
2140
2144
2148
2152
2156
2160
2164
2168
2172
2176
2180
2184
2188
2192
2196
2200
2204
2208
2212
2216
2220
2224
2228
2232
2236
2240
2244
2248
2252
2256
2260
2264
2268
2272
2276
2280
2284
2288
2292
2296
2300
2304
2308
2312
2316
2320
2324
2328
2332
2336
2340
2344
2348
2352
2356
2360
2364
2368
2372
2376
2380
2384
2388
2392
2396
2400
2404
2408
2412
2416
2420
2424
2428
2432
2436
2440
2444
2448
2452
2456
2460
2464
2468
2472
2476
2480
2484
2488
2492
2496
2500
2504
2508
2512
2516
2520
2524
2528
2532
2536
2540
2544
2548
2552
2556
2560
2564
2568
2572
2576
2580
2584
2588
2592
2596
2600
2604
2608
2612
2616
2620
2624
2628
2632
2636
2640
2644
2648
2652
2656
2660
2664
2668
2672
2676
2680
2684
2688
2692
2696
2700
2704
2708
2712
2716
2720
2724
2728
2732
2736
2740
2744
2748
2752
2756
2760
2764
2768
2772
2776
2780
2784
2788
2792
2796
2800
2804
2808
2812
2816
2820
2824
2828
2832
2836
2840
2844
2848
2852
2856
2860
2864
2868
2872
2876
2880
2884
2888
2892
2896
2900
2904
2908
2912
2916
2920
2924
2928
2932
2936
2940
2944
2948
2952
2956
2960
2964
2968
2972
2976
2980
2984
2988
2992
2996
3000
3004
3008
3012
3016
3020
3024
3028
3032
3036
3040
3044
3048
3052
3056
3060
3064
3068
3072
3076
3080
3084
3088
3092
3096
3100
3104
3108
3112
3116
3120
3124
3128
3132
3136
3140
3144
3148
3152
3156
3160
3164
3168
3172
3176
3180
3184
3188
3192
3196
3200
3204
3208
3212
3216
3220
3224
3228
3232
3236
3240
3244
3248
3252
3256
3260
3264
3268
3272
3276
3280
3284
3288
3292
3296
3300
3304
3308
3312
3316
3320
3324
3328
3332
3336
3340
3344
3348
3352
3356
3360
3364
3368
3372
3376
3380
3384
3388
3392
3396
3400
3404
3408
3412
3416
3420
3424
3428
3432
3436
3440
3444
3448
3452
3456
3460
3464
3468
3472
3476
3480
3484
3488
3492
3496
3500
3504
3508
3512
3516
3520
3524
3528
3532
3536
3540
3544
3548
3552
3556
3560
3564
3568
3572
3576
3580
3584
3588
3592
3596
3600
3604
3608
3612
3616
3620
3624
3628
3632
3636
3640
3644
3648
3652
3656
3660
3664
3668
3672
3676
3680
3684
3688
3692
3696
3700
3704
3708
3712
3716
3720
3724
3728
3732
3736
3740
3744
3748
3752
3756
3760
3764
3768
3772
3776
3780
3784
3788
3792
3796
3800
3804
3808
3812
3816
3820
3824
3828
3832
3836
3840
3844
3848
3852
3856
3860
3864
3868
3872
3876
3880
3884
3888
3892
3896
3900
3904
3908
3912
3916
3920
3924
3928
3932
3936
3940
3944
3948
3952
3956
3960
3964
3968
3972
3976
3980
3984
3988
3992
3996
4000
4004
4008
4012
4016
4020
4024
4028
4032
4036
4040
4044
4048
4052
4056
4060
4064
4068
4072
4076
4080
4084
4088
4092
4096
4100
4104
4108
4112
4116
4120
4124
4128
4132
4136
4140
4144
4148
4152
4156
4160
4164
4168
4172
4176
4180
4184
4188
4192
4196
4200
4204
4208
4212
4216
4220
4224
4228
4232
4236
4240
4244
4248
4252
4256
4260
4264
4268
4272
4276
4280
4284
4288
4292
4296
4300
4304
4308
4312
4316
4320
4324
4328
4332
4336
4340
4344
4348
4352
4356
4360
4364
4368
4372
4376
4380
4384
4388
4392
4396
4400
4404
4408
4412
4416
4420
4424
4428
4432
4436
4440
4444
4448
4452
4456
4460
4464
4468
4472
4476
4480
4484
4488
4492
4496
4500
4504
4508
4512
4516
4520
4524
4528
4532
4536
4540
4544
4548
4552
4556
4560
4564
4568
4572
4576
4580
4584
4588
4592
4596
4600
4604
4608
4612
4616
4620
4624
4628
4632
4636
4640
4644
4648
4652
4656
4660
4664
4668
4672
4676
4680
4684
4688
4692
4696
4700
4704
4708
4712
4716
4720
4724
4728
4732
4736
4740
4744
4748
4752
4756
4760
4764
4768
4772
4776
4780
4784
4788
4792
4796
4800
4804
4808
4812
4816
4820
4824
4828
4832
4836
4840
4844
4848
4852
4856
4860
4864
4868
4872
4876
4880
4884
4888
4892
4896
4900
4904
4908
4912
4916
4920
4924
4928
4932
4936
4940
4944
4948
4952
4956
4960
4964
4968
4972
4976
4980
4984
4988
4992
4996
5000
5004
5008
5012
5016
5020
5024
5028
5032
5036
5040
5044
5048
5052
5056
5060
5064
5068
5072
5076
5080
5084
5088
5092
5096
5100
5104
5108
5112
5116
5120
5124
5128
5132
5136
5140
5144
5148
5152
5156
5160
5164
5168
5172
5176
5180
5184
5188
5192
5196
5200
5204
5208
5212
5216
5220
5224
5228
5232
5236
5240
5244
5248
5252
5256
5260
5264
5268
5272
5276
5280
5284
5288
5292
5296
5300
5304
5308
5312
5316
5320
5324
5328
5332
5336
5340
5344
5348
5352
5356
5360
5364
5368
5372
5376
5380
5384
5388
5392
5396
5400
5404
5408
5412
5416
5420
5424
5428
5432
5436
5440
5444
5448
5452
5456
5460
5464
5468
5472
5476
5480
5484
5488
5492
5496
5500
5504
5508
5512
5516
5520
5524
5528
5532
5536
5540
5544
5548
5552
5556
5560
5564
5568
5572
5576
5580
5584
5588
5592
5596
5600
5604
5608
5612
5616
5620
5624
5628
5632
5636
5640
5644
5648
5652
5656
5660
5664
5668
5672
5676
5680
5684
5688
5692
5696
5700
5704
5708
5712
5716
5720
5724
5728
5732
5736
5740
5744
5748
5752
5756
5760
5764
5768
5772
5776
5780
5784
5788
5792
5796
5800
5804
5808
5812
5816
5820
5824
5828
5832
5836
5840
5844
5848
5852
5856
5860
5864
5868
5872
5876
5880
5884
5888
5892
5896
5900
5904
5908
5912
5916
5920
5924
5928
5932
5936
5940
5944
5948
5952
5956
5960
5964
5968
5972
5976
5980
5984
5988
5992
5996
6000
              </DataArray>   
              <DataArray type="UInt8" Name="types" format="ascii">   
10
10
10
10
10
10
10
10
10
10
10
10
10
10
10
10
10
10
10
10
10
10
10
10
10
10
10
10
10
10
10
10
10
10
10
10
10
10
10
10
10
10
10
10
10
10
10
10
10
10
10
10
10
10
10
10
10
10
10
10
10
10
10
10
10
10
10
10
10
10
10
10
10
10
10
10
10
10
10
10
10
10
10
10
10
10
10
10
10
10
10
10
10
10
10
10
10
10
10
10
10
10
10
10
10
10
10
10
10
10
10
10
10
10
10
10
10
10
10
10
10
10
10
10
10
10
10
10
10
10
10
10
10
10
10
10
10
10
10
10
10
10
10
10
10
10
10
10
10
10
10
10
10
10
10
10
10
10
10
10
10
10
10
10
10
10
10
10
10
10
10
10
10
10
10
10
10
10
10
10
10
10
10
10
10
10
10
10
10
10
10
10
10
10
10
10
10
10
10
10
10
10
10
10
10
10
10
10
10
10
10
10
10
10
10
10
10
10
10
10
10
10
10
10
10
10
10
10
10
10
10
10
10
10
10
10
10
10
10
10
10
10
10
10
10
10
10
10
10
10
10
10
10
10
10
10
10
10
10
10
10
10
10
10
10
10
10
10
10
10
10
10
10
10
10
10
10
10
10
10
10
10
10
10
10
10
10
10
10
10
10
10
10
10
10
10
10
10
10
10
10
10
10
10
10
10
10
10
10
10
10
10
10
10
10
10
10
10
10
10
10
10
10
10
10
10
10
10
10
10
10
10
10
10
10
10
10
10
10
10
10
10
10
10
10
10
10
10
10
10
10
10
10
10
10
10
10
10
10
10
10
10
10
10
10
10
10
10
10
10
10
10
10
10
10
10
10
10
10
10
10
10
10
10
10
10
10
10
10
10
10
10
10
10
10
10
10
10
10
10
10
10
10
10
10
10
10
10
10
10
10
10
10
10
10
10
10
10
10
10
10
10
10
10
10
10
10
10
10
10
10
10
10
10
10
10
10
10
10
10
10
10
10
10
10
10
10
10
10
10
10
10
10
10
10
10
10
10
10
10
10
10
10
10
10
10
10
10
10
10
10
10
10
10
10
10
10
10
10
10
10
10
10
10
10
10
10
10
10
10
10
10
10
10
10
10
10
10
10
10
10
10
10
10
10
10
10
10
10
10
10
10
10
10
10
10
10
10
10
10
10
10
10
10
10
10
10
10
10
10
10
10
10
10
10
10
10
10
10
10
10
10
10
10
10
10
10
10
10
10
10
10
10
10
10
10
10
10
10
10
10
10
10
10
10
10
10
10
10
10
10
10
10
10
10
10
10
10
10
10
10
10
10
10
10
10
10
10
10
10
10
10
10
10
10
10
10
10
10
10
10
10
10
10
10
10
10
10
10
10
10
10
10
10
10
10
10
10
10
10
10
10
10
10
10
10
10
10
10
10
10
10
10
10
10
10
10
10
10
10
10
10
10
10
10
10
10
10
10
10
10
10
10
10
10
10
10
10
10
10
10
10
10
10
10
10
10
10
10
10
10
10
10
10
10
10
10
10
10
10
10
10
10
10
10
10
10
10
10
10
10
10
10
10
10
10
10
10
10
10
10
10
10
10
10
10
10
10
10
10
10
10
10
10
10
10
10
10
10
10
10
10
10
10
10
10
10
10
10
10
10
10
10
10
10
10
10
10
10
10
10
10
10
10
10
10
10
10
10
10
10
10
10
10
10
10
10
10
10
10
10
10
10
10
10
10
10
10
10
10
10
10
10
10
10
10
10
10
10
10
10
10
10
10
10
10
10
10
10
10
10
10
10
10
10
10
10
10
10
10
10
10
10
10
10
10
10
10
10
10
10
10
10
10
10
10
10
10
10
10
10
10
10
10
10
10
10
10
10
10
10
10
10
10
10
10
10
10
10
10
10
10
10
10
10
10
10
10
10
10
10
10
10
10
10
10
10
10
10
10
10
10
10
10
10
10
10
10
10
10
10
10
10
10
10
10
10
10
10
10
10
10
10
10
10
10
10
10
10
10
10
10
10
10
10
10
10
10
10
10
10
10
10
10
10
10
10
10
10
10
10
10
10
10
10
10
10
10
10
10
10
10
10
10
10
10
10
10
10
10
10
10
10
10
10
10
10
10
10
10
10
10
10
10
10
10
10
10
10
10
10
10
10
10
10
10
10
10
10
10
10
10
10
10
10
10
10
10
10
10
10
10
10
10
10
10
10
10
10
10
10
10
10
10
10
10
10
10
10
10
10
10
10
10
10
10
10
10
10
10
10
10
10
10
10
10
10
10
10
10
10
10
10
10
10
10
10
10
10
10
10
10
10
10
10
10
10
10
10
10
10
10
10
10
10
10
10
10
10
10
10
10
10
10
10
10
10
10
10
10
10
10
10
10
10
10
10
10
10
10
10
10
10
10
10
10
10
10
10
10
10
10
10
10
10
10
10
10
10
10
10
10
10
10
10
10
10
10
10
10
10
10
10
10
10
10
10
10
10
10
10
10
10
10
10
10
10
10
10
10
10
10
10
10
10
10
10
10
10
10
10
10
10
10
10
10
10
10
10
10
10
10
10
10
10
10
10
10
10
10
10
10
10
10
10
10
10
10
10
10
10
10
10
10
10
10
10
10
10
10
10
10
10
10
10
10
10
10
10
10
10
10
10
10
10
10
10
10
10
10
10
10
10
10
10
10
10
10
10
10
10
10
10
10
10
10
10
10
10
10
10
10
10
10
10
10
10
10
10
10
10
10
10
10
10
10
10
10
10
10
10
10
10
10
10
10
10
10
10
10
10
10
10
10
10
10
10
10
10
10
10
10
10
10
10
10
10
10
10
10
10
10
10
10
10
10
10
10
10
10
10
10
10
10
10
10
10
10
10
10
10
10
10
10
10
10
10
10
10
10
10
10
10
10
10
10
10
10
10
10
10
10
10
10
10
10
10
10
10
10
10
10
10
10
10
10
10
10
10
10
10
10
10
10
10
10
10
10
10
10
10
10
10
10
10
10
10
10
10
10
10
10
10
10
10
10
10
10
10
10
10
10
10
10
10
10
10
10
10
10
10
10
10
10
10
10
10
10
10
10
10
10
10
10
10
10
10
10
10
10
10
10
10
10
10
10
10
10
10
10
10
10
10
10
10
10
10
10
10
10
10
10
10
10
10
10
10
10
10
10
10
10
10
10
10
10
10
10
10
10
10
10
10
10
10
10
10
10
10
10
10
10
10
10
10
10
10
10
10
10
10
10
10
10
10
10
10
10
10
10
10
10
10
10
10
10
10
10
10
10
10
10
10
10
10
10
10
10
10
10
10
10
10
10
10
10
10
10
10
10
10
10
10
10
10
10
10
10
10
10
10
10
10
10
10
10
10
10
10
10
10
10
10
10
10
10
10
10
10
10
              </DataArray>   
          </Cells>  
          <PointData>  
             <DataArray type="Float64" NumberOfComponents="3" Name="Strains" format="ascii">   
-1.3011568811720582e-05   0.0   -8.765400633043239e-06
-1.3011568811720582e-05   0.0   -8.765400633043239e-06
-1.3011568811720582e-05   0.0   -8.765400633043239e-06
-1.3011568811720582e-05   0.0   -8.765400633043239e-06
-8.25716895673987e-06   1.4114596980913628e-06   5.47494411275104e-09
-8.25716895673987e-06   1.4114596980913628e-06   5.47494411275104e-09
-8.25716895673987e-06   1.4114596980913628e-06   5.47494411275104e-09
-8.25716895673987e-06   1.4114596980913628e-06   5.47494411275104e-09
-8.078434054843982e-06   0.0   -8.302558785151814e-06
-8.078434054843982e-06   0.0   -8.302558785151814e-06
-8.078434054843982e-06   0.0   -8.302558785151814e-06
-8.078434054843982e-06   0.0   -8.302558785151814e-06
-1.3598135785058632e-05   1.708123953586083e-06   -1.2793027361234817e-07
-1.3598135785058632e-05   1.708123953586083e-06   -1.2793027361234817e-07
-1.3598135785058632e-05   1.708123953586083e-06   -1.2793027361234817e-07
-1.3598135785058632e-05   1.708123953586083e-06   -1.2793027361234817e-07
-1.0545001433282265e-05   3.8570153990951956e-07   -4.4230340783670134e-06
-1.0545001433282265e-05   3.8570153990951956e-07   -4.4230340783670134e-06
-1.0545001433282265e-05   3.8570153990951956e-07   -4.4230340783670134e-06
-1.0545001433282265e-05   3.8570153990951956e-07   -4.4230340783670134e-06
-1.3598135785058654e-05   0.0   -9.327433157303466e-06
-1.3598135785058654e-05   0.0   -9.327433157303466e-06
-1.3598135785058654e-05   0.0   -9.327433157303466e-06
-1.3598135785058654e-05   0.0   -9.327433157303466e-06
-8.078434054843982e-06   1.7081239535860881e-06   8.969440985393054e-07
-8.078434054843982e-06   1.7081239535860881e-06   8.969440985393054e-07
-8.078434054843982e-06   1.7081239535860881e-06   8.969440985393054e-07
-8.078434054843982e-06   1.7081239535860881e-06   8.969440985393054e-07
-8.084526561204708e-06   0.0   -8.501283916857781e-06
-8.084526561204708e-06   0.0   -8.501283916857781e-06
-8.084526561204708e-06   0.0   -8.501283916857781e-06
-8.084526561204708e-06   0.0   -8.501283916857781e-06
-1.4002413926501157e-05   1.8338924872244755e-06   2.6152619963498483e-07
-1.4002413926501157e-05   1.8338924872244755e-06   2.6152619963498483e-07
-1.4002413926501157e-05   1.8338924872244755e-06   2.6152619963498483e-07
-1.4002413926501157e-05   1.8338924872244755e-06   2.6152619963498483e-07
-1.0841331173131663e-05   6.884577003714033e-07   -4.319684183868992e-06
-1.0841331173131663e-05   6.884577003714033e-07   -4.319684183868992e-06
-1.0841331173131663e-05   6.884577003714033e-07   -4.319684183868992e-06
-1.0841331173131663e-05   6.884577003714033e-07   -4.319684183868992e-06
-1.400241392650118e-05   0.0   -9.601619409192469e-06
-1.400241392650118e-05   0.0   -9.601619409192469e-06
-1.400241392650118e-05   0.0   -9.601619409192469e-06
-1.400241392650118e-05   0.0   -9.601619409192469e-06
-8.084526561204708e-06   1.8338924872244789e-06   1.3618616919696745e-06
-8.084526561204708e-06   1.8338924872244789e-06   1.3618616919696745e-06
-8.084526561204708e-06   1.8338924872244789e-06   1.3618616919696745e-06
-8.084526561204708e-06   1.8338924872244789e-06   1.3618616919696745e-06
-8.061462743176393e-06   0.0   -8.554980204904709e-06
-8.061462743176393e-06   0.0   -8.554980204904709e-06
-8.061462743176393e-06   0.0   -8.554980204904709e-06
-8.061462743176393e-06   0.0   -8.554980204904709e-06
-1.4889903526822554e-05   2.101342691318628e-06   1.5649488197144208e-06
-1.4889903526822554e-05   2.101342691318628e-06   1.5649488197144208e-06
-1.4889903526822554e-05   2.101342691318628e-06   1.5649488197144208e-06
-1.4889903526822554e-05   2.101342691318628e-06   1.5649488197144208e-06
-1.1031938334838767e-05   8.721993369064659e-07   -4.12750715427792e-06
-1.1031938334838767e-05   8.721993369064659e-07   -4.12750715427792e-06
-1.1031938334838767e-05   8.721993369064659e-07   -4.12750715427792e-06
-1.1031938334838767e-05   8.721993369064659e-07   -4.12750715427792e-06
-8.257168956739886e-06   0.0   -7.918524814188421e-06
-8.257168956739886e-06   0.0   -7.918524814188421e-06
-8.257168956739886e-06   0.0   -7.918524814188421e-06
-8.257168956739886e-06   0.0   -7.918524814188421e-06
-3.7796602864661368e-06   5.118849063727913e-07   -1.4887941990850335e-07
-3.7796602864661368e-06   5.118849063727913e-07   -1.4887941990850335e-07
-3.7796602864661368e-06   5.118849063727913e-07   -1.4887941990850335e-07
-3.7796602864661368e-06   5.118849063727913e-07   -1.4887941990850335e-07
-3.6189569733135433e-06   0.0   -7.859375196557791e-06
-3.6189569733135433e-06   0.0   -7.859375196557791e-06
-3.6189569733135433e-06   0.0   -7.859375196557791e-06
-3.6189569733135433e-06   0.0   -7.859375196557791e-06
-8.078434054843982e-06   7.386393143233693e-07   -8.700969826010832e-07
-8.078434054843982e-06   7.386393143233693e-07   -8.700969826010832e-07
-8.078434054843982e-06   7.386393143233693e-07   -8.700969826010832e-07
-8.078434054843982e-06   7.386393143233693e-07   -8.700969826010832e-07
-5.938062965026704e-06   4.92913480255237e-08   -4.023773352517812e-06
-5.938062965026704e-06   4.92913480255237e-08   -4.023773352517812e-06
-5.938062965026704e-06   4.92913480255237e-08   -4.023773352517812e-06
-5.938062965026704e-06   4.92913480255237e-08   -4.023773352517812e-06
-8.078434054843976e-06   0.0   -8.302558785151806e-06
-8.078434054843976e-06   0.0   -8.302558785151806e-06
-8.078434054843976e-06   0.0   -8.302558785151806e-06
-8.078434054843976e-06   0.0   -8.302558785151806e-06
-3.6189569733135433e-06   7.386393143233693e-07   -4.2691339400706106e-07
-3.6189569733135433e-06   7.386393143233693e-07   -4.2691339400706106e-07
-3.6189569733135433e-06   7.386393143233693e-07   -4.2691339400706106e-07
-3.6189569733135433e-06   7.386393143233693e-07   -4.2691339400706106e-07
-3.5218785485864647e-06   0.0   -7.954580018646667e-06
-3.5218785485864647e-06   0.0   -7.954580018646667e-06
-3.5218785485864647e-06   0.0   -7.954580018646667e-06
-3.5218785485864647e-06   0.0   -7.954580018646667e-06
-8.084526561204708e-06   9.111731636851904e-07   -8.968705624940425e-07
-8.084526561204708e-06   9.111731636851904e-07   -8.968705624940425e-07
-8.084526561204708e-06   9.111731636851904e-07   -8.968705624940425e-07
-8.084526561204708e-06   9.111731636851904e-07   -8.968705624940425e-07
-5.800156301715212e-06   2.899823054209553e-07   -4.331439813351295e-06
-5.800156301715212e-06   2.899823054209553e-07   -4.331439813351295e-06
-5.800156301715212e-06   2.899823054209553e-07   -4.331439813351295e-06
-5.800156301715212e-06   2.899823054209553e-07   -4.331439813351295e-06
-8.084526561204708e-06   0.0   -8.501283916857781e-06
-8.084526561204708e-06   0.0   -8.501283916857781e-06
-8.084526561204708e-06   0.0   -8.501283916857781e-06
-8.084526561204708e-06   0.0   -8.501283916857781e-06
-3.5218785485864647e-06   9.111731636851904e-07   -3.5016666428292916e-07
-3.5218785485864647e-06   9.111731636851904e-07   -3.5016666428292916e-07
-3.5218785485864647e-06   9.111731636851904e-07   -3.5016666428292916e-07
-3.5218785485864647e-06   9.111731636851904e-07   -3.5016666428292916e-07
-3.430723927042963e-06   0.0   -7.916451089396429e-06
-3.430723927042963e-06   0.0   -7.916451089396429e-06
-3.430723927042963e-06   0.0   -7.916451089396429e-06
-3.430723927042963e-06   0.0   -7.916451089396429e-06
-8.061462743176372e-06   1.0642151925137873e-06   -8.370821780156561e-07
-8.061462743176372e-06   1.0642151925137873e-06   -8.370821780156561e-07
-8.061462743176372e-06   1.0642151925137873e-06   -8.370821780156561e-07
-8.061462743176372e-06   1.0642151925137873e-06   -8.370821780156561e-07
-5.757625244123834e-06   4.873606895511226e-07   -4.330698641325651e-06
-5.757625244123834e-06   4.873606895511226e-07   -4.330698641325651e-06
-5.757625244123834e-06   4.873606895511226e-07   -4.330698641325651e-06
-5.757625244123834e-06   4.873606895511226e-07   -4.330698641325651e-06
-3.7796602864661435e-06   0.0   -7.611393870364745e-06
-3.7796602864661435e-06   0.0   -7.611393870364745e-06
-3.7796602864661435e-06   0.0   -7.611393870364745e-06
-3.7796602864661435e-06   0.0   -7.611393870364745e-06
4.364803614628889e-07   -6.993256020091316e-08   -6.264523266035646e-07
4.364803614628889e-07   -6.993256020091316e-08   -6.264523266035646e-07
4.364803614628889e-07   -6.993256020091316e-08   -6.264523266035646e-07
4.364803614628889e-07   -6.993256020091316e-08   -6.264523266035646e-07
5.46793819326015e-07   0.0   -7.779658742560528e-06
5.46793819326015e-07   0.0   -7.779658742560528e-06
5.46793819326015e-07   0.0   -7.779658742560528e-06
5.46793819326015e-07   0.0   -7.779658742560528e-06
-3.6189569733135374e-06   1.3286075666206083e-07   -9.164572088251899e-07
-3.6189569733135374e-06   1.3286075666206083e-07   -9.164572088251899e-07
-3.6189569733135374e-06   1.3286075666206083e-07   -9.164572088251899e-07
-3.6189569733135374e-06   1.3286075666206083e-07   -9.164572088251899e-07
-1.6164332335700577e-06   -1.4022072682984152e-07   -4.090147884969166e-06
-1.6164332335700577e-06   -1.4022072682984152e-07   -4.090147884969166e-06
-1.6164332335700577e-06   -1.4022072682984152e-07   -4.090147884969166e-06
-1.6164332335700577e-06   -1.4022072682984152e-07   -4.090147884969166e-06
-3.6189569733135433e-06   0.0   -7.859375196557791e-06
-3.6189569733135433e-06   0.0   -7.859375196557791e-06
-3.6189569733135433e-06   0.0   -7.859375196557791e-06
-3.6189569733135433e-06   0.0   -7.859375196557791e-06
5.467938193260159e-07   1.3286075666206083e-07   -8.36740754827954e-07
5.467938193260159e-07   1.3286075666206083e-07   -8.36740754827954e-07
5.467938193260159e-07   1.3286075666206083e-07   -8.36740754827954e-07
5.467938193260159e-07   1.3286075666206083e-07   -8.36740754827954e-07
6.360661970020533e-07   0.0   -7.767247078738105e-06
6.360661970020533e-07   0.0   -7.767247078738105e-06
6.360661970020533e-07   0.0   -7.767247078738105e-06
6.360661970020533e-07   0.0   -7.767247078738105e-06
-3.5218785485864524e-06   3.122215665142488e-07   -1.0246721093324673e-06
-3.5218785485864524e-06   3.122215665142488e-07   -1.0246721093324673e-06
-3.5218785485864524e-06   3.122215665142488e-07   -1.0246721093324673e-06
-3.5218785485864524e-06   3.122215665142488e-07   -1.0246721093324673e-06
-1.491445388155742e-06   7.677343151639419e-08   -4.26745849571828e-06
-1.491445388155742e-06   7.677343151639419e-08   -4.26745849571828e-06
-1.491445388155742e-06   7.677343151639419e-08   -4.26745849571828e-06
-1.491445388155742e-06   7.677343151639419e-08   -4.26745849571828e-06
-3.5218785485864647e-06   0.0   -7.954580018646667e-06
-3.5218785485864647e-06   0.0   -7.954580018646667e-06
-3.5218785485864647e-06   0.0   -7.954580018646667e-06
-3.5218785485864647e-06   0.0   -7.954580018646667e-06
6.360661970020544e-07   3.122215665142488e-07   -8.373391694239208e-07
6.360661970020544e-07   3.122215665142488e-07   -8.373391694239208e-07
6.360661970020544e-07   3.122215665142488e-07   -8.373391694239208e-07
6.360661970020544e-07   3.122215665142488e-07   -8.373391694239208e-07
7.506422246991761e-07   0.0   -7.60506623205712e-06
7.506422246991761e-07   0.0   -7.60506623205712e-06
7.506422246991761e-07   0.0   -7.60506623205712e-06
7.506422246991761e-07   0.0   -7.60506623205712e-06
-3.430723927042954e-06   5.18974762232166e-07   -9.475075031595281e-07
-3.430723927042954e-06   5.18974762232166e-07   -9.475075031595281e-07
-3.430723927042954e-06   5.18974762232166e-07   -9.475075031595281e-07
-3.430723927042954e-06   5.18974762232166e-07   -9.475075031595281e-07
-1.3856181619436411e-06   2.9126148882461127e-07   -4.219389147613855e-06
-1.3856181619436411e-06   2.9126148882461127e-07   -4.219389147613855e-06
-1.3856181619436411e-06   2.9126148882461127e-07   -4.219389147613855e-06
-1.3856181619436411e-06   2.9126148882461127e-07   -4.219389147613855e-06
4.364803614628896e-07   0.0   -7.653353406485292e-06
4.364803614628896e-07   0.0   -7.653353406485292e-06
4.364803614628896e-07   0.0   -7.653353406485292e-06
4.364803614628896e-07   0.0   -7.653353406485292e-06
5.027236771108465e-06   -5.897314647185485e-07   -3.5593160257379317e-07
5.027236771108465e-06   -5.897314647185485e-07   -3.5593160257379317e-07
5.027236771108465e-06   -5.897314647185485e-07   -3.5593160257379317e-07
5.027236771108465e-06   -5.897314647185485e-07   -3.5593160257379317e-07
5.057065175192201e-06   0.0   -8.043583758752486e-06
5.057065175192201e-06   0.0   -8.043583758752486e-06
5.057065175192201e-06   0.0   -8.043583758752486e-06
5.057065175192201e-06   0.0   -8.043583758752486e-06
5.467938193260169e-07   -4.398750269865499e-07   -2.6253981611691547e-07
5.467938193260169e-07   -4.398750269865499e-07   -2.6253981611691547e-07
5.467938193260169e-07   -4.398750269865499e-07   -2.6253981611691547e-07
5.467938193260169e-07   -4.398750269865499e-07   -2.6253981611691547e-07
2.746772768327545e-06   -3.2519196022266075e-07   -3.99798123784446e-06
2.746772768327545e-06   -3.2519196022266075e-07   -3.99798123784446e-06
2.746772768327545e-06   -3.2519196022266075e-07   -3.99798123784446e-06
2.746772768327545e-06   -3.2519196022266075e-07   -3.99798123784446e-06
5.467938193260169e-07   0.0   -7.779658742560555e-06
5.467938193260169e-07   0.0   -7.779658742560555e-06
5.467938193260169e-07   0.0   -7.779658742560555e-06
5.467938193260169e-07   0.0   -7.779658742560555e-06
5.057065175192201e-06   -4.398750269865499e-07   -5.264648323088454e-07
5.057065175192201e-06   -4.398750269865499e-07   -5.264648323088454e-07
5.057065175192201e-06   -4.398750269865499e-07   -5.264648323088454e-07
5.057065175192201e-06   -4.398750269865499e-07   -5.264648323088454e-07
5.053408354963901e-06   0.0   -7.928874072279463e-06
5.053408354963901e-06   0.0   -7.928874072279463e-06
5.053408354963901e-06   0.0   -7.928874072279463e-06
5.053408354963901e-06   0.0   -7.928874072279463e-06
6.360661970020544e-07   -2.693783225689074e-07   -4.050101488017078e-07
6.360661970020544e-07   -2.693783225689074e-07   -4.050101488017078e-07
6.360661970020544e-07   -2.693783225689074e-07   -4.050101488017078e-07
6.360661970020544e-07   -2.693783225689074e-07   -4.050101488017078e-07
2.800101087144959e-06   -1.2434610809908908e-07   -4.098754294388437e-06
2.800101087144959e-06   -1.2434610809908908e-07   -4.098754294388437e-06
2.800101087144959e-06   -1.2434610809908908e-07   -4.098754294388437e-06
2.800101087144959e-06   -1.2434610809908908e-07   -4.098754294388437e-06
6.360661970020539e-07   0.0   -7.76724707873811e-06
6.360661970020539e-07   0.0   -7.76724707873811e-06
6.360661970020539e-07   0.0   -7.76724707873811e-06
6.360661970020539e-07   0.0   -7.76724707873811e-06
5.053408354963901e-06   -2.693783225689074e-07   -5.666371423430518e-07
5.053408354963901e-06   -2.693783225689074e-07   -5.666371423430518e-07
5.053408354963901e-06   -2.693783225689074e-07   -5.666371423430518e-07
5.053408354963901e-06   -2.693783225689074e-07   -5.666371423430518e-07
5.168575062588581e-06   0.0   -7.629885727193974e-06
5.168575062588581e-06   0.0   -7.629885727193974e-06
5.168575062588581e-06   0.0   -7.629885727193974e-06
5.168575062588581e-06   0.0   -7.629885727193974e-06
7.506422246991774e-07   -4.136582522806802e-08   -2.418448355747964e-07
7.506422246991774e-07   -4.136582522806802e-08   -2.418448355747964e-07
7.506422246991774e-07   -4.136582522806802e-08   -2.418448355747964e-07
7.506422246991774e-07   -4.136582522806802e-08   -2.418448355747964e-07
2.9023206297953156e-06   1.1446779295345287e-07   -3.921475681643935e-06
2.9023206297953156e-06   1.1446779295345287e-07   -3.921475681643935e-06
2.9023206297953156e-06   1.1446779295345287e-07   -3.921475681643935e-06
2.9023206297953156e-06   1.1446779295345287e-07   -3.921475681643935e-06
5.027236771108465e-06   0.0   -8.007192285316423e-06
5.027236771108465e-06   0.0   -8.007192285316423e-06
5.027236771108465e-06   0.0   -8.007192285316423e-06
5.027236771108465e-06   0.0   -8.007192285316423e-06
1.1460153835278777e-05   -1.5090194608070692e-06   1.8089244784832516e-06
1.1460153835278777e-05   -1.5090194608070692e-06   1.8089244784832516e-06
1.1460153835278777e-05   -1.5090194608070692e-06   1.8089244784832516e-06
1.1460153835278777e-05   -1.5090194608070692e-06   1.8089244784832516e-06
1.0790067338670882e-05   0.0   -8.807325162907908e-06
1.0790067338670882e-05   0.0   -8.807325162907908e-06
1.0790067338670882e-05   0.0   -8.807325162907908e-06
1.0790067338670882e-05   0.0   -8.807325162907908e-06
5.057065175192201e-06   -1.2729023402590385e-06   1.5114198470453147e-06
5.057065175192201e-06   -1.2729023402590385e-06   1.5114198470453147e-06
5.057065175192201e-06   -1.2729023402590385e-06   1.5114198470453147e-06
5.057065175192201e-06   -1.2729023402590385e-06   1.5114198470453147e-06
7.908652054889673e-06   -6.667773979929058e-07   -3.604899917810147e-06
7.908652054889673e-06   -6.667773979929058e-07   -3.604899917810147e-06
7.908652054889673e-06   -6.667773979929058e-07   -3.604899917810147e-06
7.908652054889673e-06   -6.667773979929058e-07   -3.604899917810147e-06
5.057065175192197e-06   0.0   -8.043583758752479e-06
5.057065175192197e-06   0.0   -8.043583758752479e-06
5.057065175192197e-06   0.0   -8.043583758752479e-06
5.057065175192197e-06   0.0   -8.043583758752479e-06
1.0790067338670843e-05   -1.2729023402590334e-06   7.476784428898886e-07
1.0790067338670843e-05   -1.2729023402590334e-06   7.476784428898886e-07
1.0790067338670843e-05   -1.2729023402590334e-06   7.476784428898886e-07
1.0790067338670843e-05   -1.2729023402590334e-06   7.476784428898886e-07
1.0489194918620926e-05   0.0   -8.624413389308815e-06
1.0489194918620926e-05   0.0   -8.624413389308815e-06
1.0489194918620926e-05   0.0   -8.624413389308815e-06
1.0489194918620926e-05   0.0   -8.624413389308815e-06
5.053408354963901e-06   -1.159232195048921e-06   1.1307702004822435e-06
5.053408354963901e-06   -1.159232195048921e-06   1.1307702004822435e-06
5.053408354963901e-06   -1.159232195048921e-06   1.1307702004822435e-06
5.053408354963901e-06   -1.159232195048921e-06   1.1307702004822435e-06
7.773130046906559e-06   -4.840246921302747e-07   -3.8072237878400396e-06
7.773130046906559e-06   -4.840246921302747e-07   -3.8072237878400396e-06
7.773130046906559e-06   -4.840246921302747e-07   -3.8072237878400396e-06
7.773130046906559e-06   -4.840246921302747e-07   -3.8072237878400396e-06
5.053408354963901e-06   0.0   -7.928874072279463e-06
5.053408354963901e-06   0.0   -7.928874072279463e-06
5.053408354963901e-06   0.0   -7.928874072279463e-06
5.053408354963901e-06   0.0   -7.928874072279463e-06
1.048919491862089e-05   -1.1592321950489177e-06   4.3523088345289156e-07
1.048919491862089e-05   -1.1592321950489177e-06   4.3523088345289156e-07
1.048919491862089e-05   -1.1592321950489177e-06   4.3523088345289156e-07
1.048919491862089e-05   -1.1592321950489177e-06   4.3523088345289156e-07
1.0028698233516618e-05   0.0   -8.162694671000804e-06
1.0028698233516618e-05   0.0   -8.162694671000804e-06
1.0028698233516618e-05   0.0   -8.162694671000804e-06
1.0028698233516618e-05   0.0   -8.162694671000804e-06
5.168575062588581e-06   -8.88014906344741e-07   4.7031955768611625e-07
5.168575062588581e-06   -8.88014906344741e-07   4.7031955768611625e-07
5.168575062588581e-06   -8.88014906344741e-07   4.7031955768611625e-07
5.168575062588581e-06   -8.88014906344741e-07   4.7031955768611625e-07
7.541053294240268e-06   -1.9485049893446478e-07   -3.8997094728461924e-06
7.541053294240268e-06   -1.9485049893446478e-07   -3.8997094728461924e-06
7.541053294240268e-06   -1.9485049893446478e-07   -3.8997094728461924e-06
7.541053294240268e-06   -1.9485049893446478e-07   -3.8997094728461924e-06
-1.1122161246849169e-05   1.4114596980913594e-06   -7.447797858020362e-06
-1.1122161246849169e-05   1.4114596980913594e-06   -7.447797858020362e-06
-1.1122161246849169e-05   1.4114596980913594e-06   -7.447797858020362e-06
-1.1122161246849169e-05   1.4114596980913594e-06   -7.447797858020362e-06
-7.138690086179713e-06   1.2591770111732795e-06   -9.000488690554544e-07
-7.138690086179713e-06   1.2591770111732795e-06   -9.000488690554544e-07
-7.138690086179713e-06   1.2591770111732795e-06   -9.000488690554544e-07
-7.138690086179713e-06   1.2591770111732795e-06   -9.000488690554544e-07
-7.309309956631088e-06   1.7081239535860813e-06   -6.269211391252908e-06
-7.309309956631088e-06   1.7081239535860813e-06   -6.269211391252908e-06
-7.309309956631088e-06   1.7081239535860813e-06   -6.269211391252908e-06
-7.309309956631088e-06   1.7081239535860813e-06   -6.269211391252908e-06
-1.1223726696856982e-05   1.520511295819064e-06   3.673841037838118e-07
-1.1223726696856982e-05   1.520511295819064e-06   3.673841037838118e-07
-1.1223726696856982e-05   1.520511295819064e-06   3.673841037838118e-07
-1.1223726696856982e-05   1.520511295819064e-06   3.673841037838118e-07
-8.83308466412316e-06   1.4790279436533089e-06   -3.5921292728064916e-06
-8.83308466412316e-06   1.4790279436533089e-06   -3.5921292728064916e-06
-8.83308466412316e-06   1.4790279436533089e-06   -3.5921292728064916e-06
-8.83308466412316e-06   1.4790279436533089e-06   -3.5921292728064916e-06
-1.1223726696856982e-05   1.7081239535860813e-06   -6.156643796592695e-06
-1.1223726696856982e-05   1.7081239535860813e-06   -6.156643796592695e-06
-1.1223726696856982e-05   1.7081239535860813e-06   -6.156643796592695e-06
-1.1223726696856982e-05   1.7081239535860813e-06   -6.156643796592695e-06
-7.309309956631114e-06   1.5205112958190776e-06   2.5481650912360343e-07
-7.309309956631114e-06   1.5205112958190776e-06   2.5481650912360343e-07
-7.309309956631114e-06   1.5205112958190776e-06   2.5481650912360343e-07
-7.309309956631114e-06   1.5205112958190776e-06   2.5481650912360343e-07
-7.33555202101617e-06   1.8338924872244738e-06   -5.646749332426715e-06
-7.33555202101617e-06   1.8338924872244738e-06   -5.646749332426715e-06
-7.33555202101617e-06   1.8338924872244738e-06   -5.646749332426715e-06
-7.33555202101617e-06   1.8338924872244738e-06   -5.646749332426715e-06
-1.1286458192541298e-05   1.6388150167610842e-06   1.0551407690598364e-06
-1.1286458192541298e-05   1.6388150167610842e-06   1.0551407690598364e-06
-1.1286458192541298e-05   1.6388150167610842e-06   1.0551407690598364e-06
-1.1286458192541298e-05   1.6388150167610842e-06   1.0551407690598364e-06
-9.080546541395692e-06   1.6428846695966654e-06   -2.6238204412174987e-06
-9.080546541395692e-06   1.6428846695966654e-06   -2.6238204412174987e-06
-9.080546541395692e-06   1.6428846695966654e-06   -2.6238204412174987e-06
-9.080546541395692e-06   1.6428846695966654e-06   -2.6238204412174987e-06
-1.1286458192541278e-05   1.8338924872244738e-06   -5.529702850148678e-06
-1.1286458192541278e-05   1.8338924872244738e-06   -5.529702850148678e-06
-1.1286458192541278e-05   1.8338924872244738e-06   -5.529702850148678e-06
-1.1286458192541278e-05   1.8338924872244738e-06   -5.529702850148678e-06
-7.3355520210161834e-06   1.6388150167610842e-06   9.380942867817955e-07
-7.3355520210161834e-06   1.6388150167610842e-06   9.380942867817955e-07
-7.3355520210161834e-06   1.6388150167610842e-06   9.380942867817955e-07
-7.3355520210161834e-06   1.6388150167610842e-06   9.380942867817955e-07
-7.283351183873858e-06   2.1013426913186263e-06   -4.203969919634185e-06
-7.283351183873858e-06   2.1013426913186263e-06   -4.203969919634185e-06
-7.283351183873858e-06   2.1013426913186263e-06   -4.203969919634185e-06
-7.283351183873858e-06   2.1013426913186263e-06   -4.203969919634185e-06
-1.0949750152107378e-05   1.7378306966493262e-06   2.124802224223217e-06
-1.0949750152107378e-05   1.7378306966493262e-06   2.124802224223217e-06
-1.0949750152107378e-05   1.7378306966493262e-06   2.124802224223217e-06
-1.0949750152107378e-05   1.7378306966493262e-06   2.124802224223217e-06
-8.829627979032729e-06   1.8077375058812536e-06   -1.4506788164403391e-06
-8.829627979032729e-06   1.8077375058812536e-06   -1.4506788164403391e-06
-8.829627979032729e-06   1.8077375058812536e-06   -1.4506788164403391e-06
-8.829627979032729e-06   1.8077375058812536e-06   -1.4506788164403391e-06
-7.138690086179713e-06   5.118849063727913e-07   -8.000652778016142e-06
-7.138690086179713e-06   5.118849063727913e-07   -8.000652778016142e-06
-7.138690086179713e-06   5.118849063727913e-07   -8.000652778016142e-06
-7.138690086179713e-06   5.118849063727913e-07   -8.000652778016142e-06
-3.4095500621933474e-06   5.862321843568553e-07   -1.7408110379150781e-06
-3.4095500621933474e-06   5.862321843568553e-07   -1.7408110379150781e-06
-3.4095500621933474e-06   5.862321843568553e-07   -1.7408110379150781e-06
-3.4095500621933474e-06   5.862321843568553e-07   -1.7408110379150781e-06
-3.48143168410065e-06   7.386393143233676e-07   -7.98363847473495e-06
-3.48143168410065e-06   7.386393143233676e-07   -7.98363847473495e-06
-3.48143168410065e-06   7.386393143233676e-07   -7.98363847473495e-06
-3.48143168410065e-06   7.386393143233676e-07   -7.98363847473495e-06
-7.309309956631088e-06   8.263293104206025e-07   -1.656455351509207e-06
-7.309309956631088e-06   8.263293104206025e-07   -1.656455351509207e-06
-7.309309956631088e-06   8.263293104206025e-07   -1.656455351509207e-06
-7.309309956631088e-06   8.263293104206025e-07   -1.656455351509207e-06
-5.319076679511843e-06   6.644845696703211e-07   -4.876403968924491e-06
-5.319076679511843e-06   6.644845696703211e-07   -4.876403968924491e-06
-5.319076679511843e-06   6.644845696703211e-07   -4.876403968924491e-06
-5.319076679511843e-06   6.644845696703211e-07   -4.876403968924491e-06
-7.309309956631082e-06   7.386393143233676e-07   -8.036252472393277e-06
-7.309309956631082e-06   7.386393143233676e-07   -8.036252472393277e-06
-7.309309956631082e-06   7.386393143233676e-07   -8.036252472393277e-06
-7.309309956631082e-06   7.386393143233676e-07   -8.036252472393277e-06
-3.4814316841006563e-06   8.263293104206025e-07   -1.6038413538508719e-06
-3.4814316841006563e-06   8.263293104206025e-07   -1.6038413538508719e-06
-3.4814316841006563e-06   8.263293104206025e-07   -1.6038413538508719e-06
-3.4814316841006563e-06   8.263293104206025e-07   -1.6038413538508719e-06
-3.4967812353835322e-06   9.11173163685187e-07   -7.836470899211928e-06
-3.4967812353835322e-06   9.11173163685187e-07   -7.836470899211928e-06
-3.4967812353835322e-06   9.11173163685187e-07   -7.836470899211928e-06
-3.4967812353835322e-06   9.11173163685187e-07   -7.836470899211928e-06
-7.33555202101617e-06   1.0261909764826816e-06   -1.5075302775027022e-06
-7.33555202101617e-06   1.0261909764826816e-06   -1.5075302775027022e-06
-7.33555202101617e-06   1.0261909764826816e-06   -1.5075302775027022e-06
-7.33555202101617e-06   1.0261909764826816e-06   -1.5075302775027022e-06
-5.351460130463414e-06   8.480979234779195e-07   -4.707494263287751e-06
-5.351460130463414e-06   8.480979234779195e-07   -4.707494263287751e-06
-5.351460130463414e-06   8.480979234779195e-07   -4.707494263287751e-06
-5.351460130463414e-06   8.480979234779195e-07   -4.707494263287751e-06
-7.33555202101617e-06   9.11173163685187e-07   -7.905481586890425e-06
-7.33555202101617e-06   9.11173163685187e-07   -7.905481586890425e-06
-7.33555202101617e-06   9.11173163685187e-07   -7.905481586890425e-06
-7.33555202101617e-06   9.11173163685187e-07   -7.905481586890425e-06
-3.4967812353835445e-06   1.0261909764826816e-06   -1.4385195898242102e-06
-3.4967812353835445e-06   1.0261909764826816e-06   -1.4385195898242102e-06
-3.4967812353835445e-06   1.0261909764826816e-06   -1.4385195898242102e-06
-3.4967812353835445e-06   1.0261909764826816e-06   -1.4385195898242102e-06
-3.4784736352894494e-06   1.0642151925137856e-06   -7.760024949277128e-06
-3.4784736352894494e-06   1.0642151925137856e-06   -7.760024949277128e-06
-3.4784736352894494e-06   1.0642151925137856e-06   -7.760024949277128e-06
-3.4784736352894494e-06   1.0642151925137856e-06   -7.760024949277128e-06
-7.283351183873853e-06   1.2421844973109557e-06   -1.5253439511814263e-06
-7.283351183873853e-06   1.2421844973109557e-06   -1.5253439511814263e-06
-7.283351183873853e-06   1.2421844973109557e-06   -1.5253439511814263e-06
-7.283351183873853e-06   1.2421844973109557e-06   -1.5253439511814263e-06
-5.372967426395224e-06   1.0143374823394688e-06   -4.572608671329606e-06
-5.372967426395224e-06   1.0143374823394688e-06   -4.572608671329606e-06
-5.372967426395224e-06   1.0143374823394688e-06   -4.572608671329606e-06
-5.372967426395224e-06   1.0143374823394688e-06   -4.572608671329606e-06
-3.409550062193341e-06   -6.993256020091316e-08   -8.391657781800218e-06
-3.409550062193341e-06   -6.993256020091316e-08   -8.391657781800218e-06
-3.409550062193341e-06   -6.993256020091316e-08   -8.391657781800218e-06
-3.409550062193341e-06   -6.993256020091316e-08   -8.391657781800218e-06
2.7090838635640833e-07   -2.013371656892825e-08   -2.227681061371439e-06
2.7090838635640833e-07   -2.013371656892825e-08   -2.227681061371439e-06
2.7090838635640833e-07   -2.013371656892825e-08   -2.227681061371439e-06
2.7090838635640833e-07   -2.013371656892825e-08   -2.227681061371439e-06
2.651087775714694e-07   1.3286075666206083e-07   -8.431940939075453e-06
2.651087775714694e-07   1.3286075666206083e-07   -8.431940939075453e-06
2.651087775714694e-07   1.3286075666206083e-07   -8.431940939075453e-06
2.651087775714694e-07   1.3286075666206083e-07   -8.431940939075453e-06
-3.48143168410065e-06   2.0159634079145887e-07   -2.2289481867661956e-06
-3.48143168410065e-06   2.0159634079145887e-07   -2.2289481867661956e-06
-3.48143168410065e-06   2.0159634079145887e-07   -2.2289481867661956e-06
-3.48143168410065e-06   2.0159634079145887e-07   -2.2289481867661956e-06
-1.5974155699556723e-06   6.788071062548251e-08   -5.288745665574926e-06
-1.5974155699556723e-06   6.788071062548251e-08   -5.288745665574926e-06
-1.5974155699556723e-06   6.788071062548251e-08   -5.288745665574926e-06
-1.5974155699556723e-06   6.788071062548251e-08   -5.288745665574926e-06
-3.48143168410065e-06   1.3286075666206083e-07   -8.473182289553078e-06
-3.48143168410065e-06   1.3286075666206083e-07   -8.473182289553078e-06
-3.48143168410065e-06   1.3286075666206083e-07   -8.473182289553078e-06
-3.48143168410065e-06   1.3286075666206083e-07   -8.473182289553078e-06
2.651087775714694e-07   2.0159634079145887e-07   -2.1877068362885605e-06
2.651087775714694e-07   2.0159634079145887e-07   -2.1877068362885605e-06
2.651087775714694e-07   2.0159634079145887e-07   -2.1877068362885605e-06
2.651087775714694e-07   2.0159634079145887e-07   -2.1877068362885605e-06
2.546677155130201e-07   3.122215665142488e-07   -8.44716307468547e-06
2.546677155130201e-07   3.122215665142488e-07   -8.44716307468547e-06
2.546677155130201e-07   3.122215665142488e-07   -8.44716307468547e-06
2.546677155130201e-07   3.122215665142488e-07   -8.44716307468547e-06
-3.4967812353835322e-06   4.185770158075729e-07   -2.2585614261005533e-06
-3.4967812353835322e-06   4.185770158075729e-07   -2.2585614261005533e-06
-3.4967812353835322e-06   4.185770158075729e-07   -2.2585614261005533e-06
-3.4967812353835322e-06   4.185770158075729e-07   -2.2585614261005533e-06
-1.6172850078193357e-06   2.550655726598441e-07   -5.292948272818889e-06
-1.6172850078193357e-06   2.550655726598441e-07   -5.292948272818889e-06
-1.6172850078193357e-06   2.550655726598441e-07   -5.292948272818889e-06
-1.6172850078193357e-06   2.550655726598441e-07   -5.292948272818889e-06
-3.4967812353835322e-06   3.122215665142488e-07   -8.510976344261469e-06
-3.4967812353835322e-06   3.122215665142488e-07   -8.510976344261469e-06
-3.4967812353835322e-06   3.122215665142488e-07   -8.510976344261469e-06
-3.4967812353835322e-06   3.122215665142488e-07   -8.510976344261469e-06
2.546677155130205e-07   4.185770158075797e-07   -2.194748156524559e-06
2.546677155130205e-07   4.185770158075797e-07   -2.194748156524559e-06
2.546677155130205e-07   4.185770158075797e-07   -2.194748156524559e-06
2.546677155130205e-07   4.185770158075797e-07   -2.194748156524559e-06
2.2266896339231577e-07   5.189747622321677e-07   -8.433811337389326e-06
2.2266896339231577e-07   5.189747622321677e-07   -8.433811337389326e-06
2.2266896339231577e-07   5.189747622321677e-07   -8.433811337389326e-06
2.2266896339231577e-07   5.189747622321677e-07   -8.433811337389326e-06
-3.4784736352894523e-06   6.442548497987579e-07   -2.3404083921263396e-06
-3.4784736352894523e-06   6.442548497987579e-07   -2.3404083921263396e-06
-3.4784736352894523e-06   6.442548497987579e-07   -2.3404083921263396e-06
-3.4784736352894523e-06   6.442548497987579e-07   -2.3404083921263396e-06
-1.625345432918796e-06   4.473726059977402e-07   -5.310826049796817e-06
-1.625345432918796e-06   4.473726059977402e-07   -5.310826049796817e-06
-1.625345432918796e-06   4.473726059977402e-07   -5.310826049796817e-06
-1.625345432918796e-06   4.473726059977402e-07   -5.310826049796817e-06
2.7090838635640833e-07   -5.897314647185468e-07   -7.737418872760124e-06
2.7090838635640833e-07   -5.897314647185468e-07   -7.737418872760124e-06
2.7090838635640833e-07   -5.897314647185468e-07   -7.737418872760124e-06
2.7090838635640833e-07   -5.897314647185468e-07   -7.737418872760124e-06
4.0632189752614454e-06   -6.054846183274403e-07   -1.4263531167503985e-06
4.0632189752614454e-06   -6.054846183274403e-07   -1.4263531167503985e-06
4.0632189752614454e-06   -6.054846183274403e-07   -1.4263531167503985e-06
4.0632189752614454e-06   -6.054846183274403e-07   -1.4263531167503985e-06
4.107814936201599e-06   -4.398750269865499e-07   -7.835111646253681e-06
4.107814936201599e-06   -4.398750269865499e-07   -7.835111646253681e-06
4.107814936201599e-06   -4.398750269865499e-07   -7.835111646253681e-06
4.107814936201599e-06   -4.398750269865499e-07   -7.835111646253681e-06
2.651087775714694e-07   -4.0216110346870756e-07   -1.4532297359808244e-06
2.651087775714694e-07   -4.0216110346870756e-07   -1.4532297359808244e-06
2.651087775714694e-07   -4.0216110346870756e-07   -1.4532297359808244e-06
2.651087775714694e-07   -4.0216110346870756e-07   -1.4532297359808244e-06
2.1491191343893125e-06   -4.844290935147084e-07   -4.5438862033163065e-06
2.1491191343893125e-06   -4.844290935147084e-07   -4.5438862033163065e-06
2.1491191343893125e-06   -4.844290935147084e-07   -4.5438862033163065e-06
2.1491191343893125e-06   -4.844290935147084e-07   -4.5438862033163065e-06
2.6510877757146897e-07   -4.398750269865499e-07   -7.8577400003644e-06
2.6510877757146897e-07   -4.398750269865499e-07   -7.8577400003644e-06
2.6510877757146897e-07   -4.398750269865499e-07   -7.8577400003644e-06
2.6510877757146897e-07   -4.398750269865499e-07   -7.8577400003644e-06
4.107814936201606e-06   -4.0216110346870756e-07   -1.4306013818701122e-06
4.107814936201606e-06   -4.0216110346870756e-07   -1.4306013818701122e-06
4.107814936201606e-06   -4.0216110346870756e-07   -1.4306013818701122e-06
4.107814936201606e-06   -4.0216110346870756e-07   -1.4306013818701122e-06
4.099362589479987e-06   -2.693783225689057e-07   -7.975702118259919e-06
4.099362589479987e-06   -2.693783225689057e-07   -7.975702118259919e-06
4.099362589479987e-06   -2.693783225689057e-07   -7.975702118259919e-06
4.099362589479987e-06   -2.693783225689057e-07   -7.975702118259919e-06
2.546677155130201e-07   -2.0415842956335946e-07   -1.607009264118309e-06
2.546677155130201e-07   -2.0415842956335946e-07   -1.607009264118309e-06
2.546677155130201e-07   -2.0415842956335946e-07   -1.607009264118309e-06
2.546677155130201e-07   -2.0415842956335946e-07   -1.607009264118309e-06
2.1357710845735625e-06   -3.238601092679678e-07   -4.6703605380631065e-06
2.1357710845735625e-06   -3.238601092679678e-07   -4.6703605380631065e-06
2.1357710845735625e-06   -3.238601092679678e-07   -4.6703605380631065e-06
2.1357710845735625e-06   -3.238601092679678e-07   -4.6703605380631065e-06
2.5466771551301986e-07   -2.693783225689074e-07   -8.014834054063245e-06
2.5466771551301986e-07   -2.693783225689074e-07   -8.014834054063245e-06
2.5466771551301986e-07   -2.693783225689074e-07   -8.014834054063245e-06
2.5466771551301986e-07   -2.693783225689074e-07   -8.014834054063245e-06
4.0993625894800015e-06   -2.0415842956336623e-07   -1.5678773283149876e-06
4.0993625894800015e-06   -2.0415842956336623e-07   -1.5678773283149876e-06
4.0993625894800015e-06   -2.0415842956336623e-07   -1.5678773283149876e-06
4.0993625894800015e-06   -2.0415842956336623e-07   -1.5678773283149876e-06
3.988225680079045e-06   -4.136582522806802e-08   -7.991137274017903e-06
3.988225680079045e-06   -4.136582522806802e-08   -7.991137274017903e-06
3.988225680079045e-06   -4.136582522806802e-08   -7.991137274017903e-06
3.988225680079045e-06   -4.136582522806802e-08   -7.991137274017903e-06
2.2266896339231577e-07   3.929459664855288e-08   -1.7636056659993429e-06
2.2266896339231577e-07   3.929459664855288e-08   -1.7636056659993429e-06
2.2266896339231577e-07   3.929459664855288e-08   -1.7636056659993429e-06
2.2266896339231577e-07   3.929459664855288e-08   -1.7636056659993429e-06
2.121742037759814e-06   -1.3644514598230734e-07   -4.823283611033307e-06
2.121742037759814e-06   -1.3644514598230734e-07   -4.823283611033307e-06
2.121742037759814e-06   -1.3644514598230734e-07   -4.823283611033307e-06
2.121742037759814e-06   -1.3644514598230734e-07   -4.823283611033307e-06
4.0632189752614454e-06   -1.5090194608070692e-06   -4.6766030073841776e-06
4.0632189752614454e-06   -1.5090194608070692e-06   -4.6766030073841776e-06
4.0632189752614454e-06   -1.5090194608070692e-06   -4.6766030073841776e-06
4.0632189752614454e-06   -1.5090194608070692e-06   -4.6766030073841776e-06
7.785510151498642e-06   -1.1165288556287242e-06   1.7627099827848176e-06
7.785510151498642e-06   -1.1165288556287242e-06   1.7627099827848176e-06
7.785510151498642e-06   -1.1165288556287242e-06   1.7627099827848176e-06
7.785510151498642e-06   -1.1165288556287242e-06   1.7627099827848176e-06
8.108715989617415e-06   -1.2729023402590368e-06   -5.635946805538559e-06
8.108715989617415e-06   -1.2729023402590368e-06   -5.635946805538559e-06
8.108715989617415e-06   -1.2729023402590368e-06   -5.635946805538559e-06
8.108715989617415e-06   -1.2729023402590368e-06   -5.635946805538559e-06
4.107814936201613e-06   -1.0041020713240552e-06   8.709414554601436e-07
4.107814936201613e-06   -1.0041020713240552e-06   8.709414554601436e-07
4.107814936201613e-06   -1.0041020713240552e-06   8.709414554601436e-07
4.107814936201613e-06   -1.0041020713240552e-06   8.709414554601436e-07
5.736010032093599e-06   -1.2183100369232763e-06   -1.7141922583336472e-06
5.736010032093599e-06   -1.2183100369232763e-06   -1.7141922583336472e-06
5.736010032093599e-06   -1.2183100369232763e-06   -1.7141922583336472e-06
5.736010032093599e-06   -1.2183100369232763e-06   -1.7141922583336472e-06
4.107814936201603e-06   -1.2729023402590334e-06   -5.7972269668995294e-06
4.107814936201603e-06   -1.2729023402590334e-06   -5.7972269668995294e-06
4.107814936201603e-06   -1.2729023402590334e-06   -5.7972269668995294e-06
4.107814936201603e-06   -1.2729023402590334e-06   -5.7972269668995294e-06
8.108715989617415e-06   -1.0041020713240552e-06   1.032221616821133e-06
8.108715989617415e-06   -1.0041020713240552e-06   1.032221616821133e-06
8.108715989617415e-06   -1.0041020713240552e-06   1.032221616821133e-06
8.108715989617415e-06   -1.0041020713240552e-06   1.032221616821133e-06
8.095775681710239e-06   -1.159232195048921e-06   -6.11699438238928e-06
8.095775681710239e-06   -1.159232195048921e-06   -6.11699438238928e-06
8.095775681710239e-06   -1.159232195048921e-06   -6.11699438238928e-06
8.095775681710239e-06   -1.159232195048921e-06   -6.11699438238928e-06
4.0993625894800015e-06   -8.903982066399711e-07   3.823937116157342e-07
4.0993625894800015e-06   -8.903982066399711e-07   3.823937116157342e-07
4.0993625894800015e-06   -8.903982066399711e-07   3.823937116157342e-07
4.0993625894800015e-06   -8.903982066399711e-07   3.823937116157342e-07
5.953187509045089e-06   -1.0697406696986685e-06   -2.5997090098241925e-06
5.953187509045089e-06   -1.0697406696986685e-06   -2.5997090098241925e-06
5.953187509045089e-06   -1.0697406696986685e-06   -2.5997090098241925e-06
5.953187509045089e-06   -1.0697406696986685e-06   -2.5997090098241925e-06
4.099362589479994e-06   -1.1592321950489177e-06   -6.278294775434644e-06
4.099362589479994e-06   -1.1592321950489177e-06   -6.278294775434644e-06
4.099362589479994e-06   -1.1592321950489177e-06   -6.278294775434644e-06
4.099362589479994e-06   -1.1592321950489177e-06   -6.278294775434644e-06
8.095775681710239e-06   -8.903982066399711e-07   5.436941046611018e-07
8.095775681710239e-06   -8.903982066399711e-07   5.436941046611018e-07
8.095775681710239e-06   -8.903982066399711e-07   5.436941046611018e-07
8.095775681710239e-06   -8.903982066399711e-07   5.436941046611018e-07
8.0670337933456e-06   -8.880149063447393e-07   -7.1092528218420275e-06
8.0670337933456e-06   -8.880149063447393e-07   -7.1092528218420275e-06
8.0670337933456e-06   -8.880149063447393e-07   -7.1092528218420275e-06
8.0670337933456e-06   -8.880149063447393e-07   -7.1092528218420275e-06
3.988225680079058e-06   -6.465139667144915e-07   -4.561398635092803e-07
3.988225680079058e-06   -6.465139667144915e-07   -4.561398635092803e-07
3.988225680079058e-06   -6.465139667144915e-07   -4.561398635092803e-07
3.988225680079058e-06   -6.465139667144915e-07   -4.561398635092803e-07
5.795366495048317e-06   -9.165560994682956e-07   -3.306015942139087e-06
5.795366495048317e-06   -9.165560994682956e-07   -3.306015942139087e-06
5.795366495048317e-06   -9.165560994682956e-07   -3.306015942139087e-06
5.795366495048317e-06   -9.165560994682956e-07   -3.306015942139087e-06
-8.722253885152236e-06   1.2591770111732795e-06   -6.123381883561668e-06
-8.722253885152236e-06   1.2591770111732795e-06   -6.123381883561668e-06
-8.722253885152236e-06   1.2591770111732795e-06   -6.123381883561668e-06
-8.722253885152236e-06   1.2591770111732795e-06   -6.123381883561668e-06
-5.751454218164596e-06   9.502058877691234e-07   -1.3574317792914159e-06
-5.751454218164596e-06   9.502058877691234e-07   -1.3574317792914159e-06
-5.751454218164596e-06   9.502058877691234e-07   -1.3574317792914159e-06
-5.751454218164596e-06   9.502058877691234e-07   -1.3574317792914159e-06
-5.773877169092912e-06   1.520511295819064e-06   -5.090427148022879e-06
-5.773877169092912e-06   1.520511295819064e-06   -5.090427148022879e-06
-5.773877169092912e-06   1.520511295819064e-06   -5.090427148022879e-06
-5.773877169092912e-06   1.520511295819064e-06   -5.090427148022879e-06
-8.574336765120547e-06   1.1559392167157922e-06   -2.0425124051484954e-07
-8.574336765120547e-06   1.1559392167157922e-06   -2.0425124051484954e-07
-8.574336765120547e-06   1.1559392167157922e-06   -2.0425124051484954e-07
-8.574336765120547e-06   1.1559392167157922e-06   -2.0425124051484954e-07
-6.899941799727382e-06   1.2836294125696045e-06   -3.071523633682433e-06
-6.899941799727382e-06   1.2836294125696045e-06   -3.071523633682433e-06
-6.899941799727382e-06   1.2836294125696045e-06   -3.071523633682433e-06
-6.899941799727382e-06   1.2836294125696045e-06   -3.071523633682433e-06
-8.574336765120547e-06   1.520511295819064e-06   -4.871683900560913e-06
-8.574336765120547e-06   1.520511295819064e-06   -4.871683900560913e-06
-8.574336765120547e-06   1.520511295819064e-06   -4.871683900560913e-06
-8.574336765120547e-06   1.520511295819064e-06   -4.871683900560913e-06
-5.773877169092912e-06   1.1559392167158057e-06   -4.229944879768018e-07
-5.773877169092912e-06   1.1559392167158057e-06   -4.229944879768018e-07
-5.773877169092912e-06   1.1559392167158057e-06   -4.229944879768018e-07
-5.773877169092912e-06   1.1559392167158057e-06   -4.229944879768018e-07
-5.762301230901693e-06   1.6388150167610842e-06   -4.359467267611204e-06
-5.762301230901693e-06   1.6388150167610842e-06   -4.359467267611204e-06
-5.762301230901693e-06   1.6388150167610842e-06   -4.359467267611204e-06
-5.762301230901693e-06   1.6388150167610842e-06   -4.359467267611204e-06
-8.433176174937979e-06   1.2474557095963574e-06   3.2680655674808303e-07
-8.433176174937979e-06   1.2474557095963574e-06   3.2680655674808303e-07
-8.433176174937979e-06   1.2474557095963574e-06   3.2680655674808303e-07
-8.433176174937979e-06   1.2474557095963574e-06   3.2680655674808303e-07
-6.950981464820612e-06   1.4027949804412224e-06   -2.2367215226210522e-06
-6.950981464820612e-06   1.4027949804412224e-06   -2.2367215226210522e-06
-6.950981464820612e-06   1.4027949804412224e-06   -2.2367215226210522e-06
-6.950981464820612e-06   1.4027949804412224e-06   -2.2367215226210522e-06
-8.433176174937979e-06   1.6388150167610842e-06   -4.124651683312379e-06
-8.433176174937979e-06   1.6388150167610842e-06   -4.124651683312379e-06
-8.433176174937979e-06   1.6388150167610842e-06   -4.124651683312379e-06
-8.433176174937979e-06   1.6388150167610842e-06   -4.124651683312379e-06
-5.762301230901703e-06   1.2474557095963574e-06   9.199097244927474e-08
-5.762301230901703e-06   1.2474557095963574e-06   9.199097244927474e-08
-5.762301230901703e-06   1.2474557095963574e-06   9.199097244927474e-08
-5.762301230901703e-06   1.2474557095963574e-06   9.199097244927474e-08
-5.763947990932132e-06   1.7378306966493262e-06   -3.345095867556504e-06
-5.763947990932132e-06   1.7378306966493262e-06   -3.345095867556504e-06
-5.763947990932132e-06   1.7378306966493262e-06   -3.345095867556504e-06
-5.763947990932132e-06   1.7378306966493262e-06   -3.345095867556504e-06
-8.253119292004603e-06   1.3412360776732382e-06   1.041479738949879e-06
-8.253119292004603e-06   1.3412360776732382e-06   1.041479738949879e-06
-8.253119292004603e-06   1.3412360776732382e-06   1.041479738949879e-06
-8.253119292004603e-06   1.3412360776732382e-06   1.041479738949879e-06
-6.785538975406003e-06   1.4684440711433354e-06   -1.4808122514630627e-06
-6.785538975406003e-06   1.4684440711433354e-06   -1.4808122514630627e-06
-6.785538975406003e-06   1.4684440711433354e-06   -1.4808122514630627e-06
-6.785538975406003e-06   1.4684440711433354e-06   -1.4808122514630627e-06
-5.751454218164596e-06   5.862321843568485e-07   -7.194135093254226e-06
-5.751454218164596e-06   5.862321843568485e-07   -7.194135093254226e-06
-5.751454218164596e-06   5.862321843568485e-07   -7.194135093254226e-06
-5.751454218164596e-06   5.862321843568485e-07   -7.194135093254226e-06
-2.9633898359970704e-06   4.783129438757603e-07   -2.6121126672636664e-06
-2.9633898359970704e-06   4.783129438757603e-07   -2.6121126672636664e-06
-2.9633898359970704e-06   4.783129438757603e-07   -2.6121126672636664e-06
-2.9633898359970704e-06   4.783129438757603e-07   -2.6121126672636664e-06
-2.99494766954605e-06   8.263293104206025e-07   -7.088529893270671e-06
-2.99494766954605e-06   8.263293104206025e-07   -7.088529893270671e-06
-2.99494766954605e-06   8.263293104206025e-07   -7.088529893270671e-06
-2.99494766954605e-06   8.263293104206025e-07   -7.088529893270671e-06
-5.773877169092902e-06   6.816111693956259e-07   -2.3701498427442435e-06
-5.773877169092902e-06   6.816111693956259e-07   -2.3701498427442435e-06
-5.773877169092902e-06   6.816111693956259e-07   -2.3701498427442435e-06
-5.773877169092902e-06   6.816111693956259e-07   -2.3701498427442435e-06
-4.332847613954942e-06   6.821924976517345e-07   -4.772214564927865e-06
-4.332847613954942e-06   6.821924976517345e-07   -4.772214564927865e-06
-4.332847613954942e-06   6.821924976517345e-07   -4.772214564927865e-06
-4.332847613954942e-06   6.821924976517345e-07   -4.772214564927865e-06
-5.7738771690929055e-06   8.263293104206025e-07   -7.001699008655665e-06
-5.7738771690929055e-06   8.263293104206025e-07   -7.001699008655665e-06
-5.7738771690929055e-06   8.263293104206025e-07   -7.001699008655665e-06
-5.7738771690929055e-06   8.263293104206025e-07   -7.001699008655665e-06
-2.994947669546054e-06   6.816111693956124e-07   -2.4569807273592237e-06
-2.994947669546054e-06   6.816111693956124e-07   -2.4569807273592237e-06
-2.994947669546054e-06   6.816111693956124e-07   -2.4569807273592237e-06
-2.994947669546054e-06   6.816111693956124e-07   -2.4569807273592237e-06
-3.013882853915838e-06   1.0261909764826816e-06   -6.902615734599032e-06
-3.013882853915838e-06   1.0261909764826816e-06   -6.902615734599032e-06
-3.013882853915838e-06   1.0261909764826816e-06   -6.902615734599032e-06
-3.013882853915838e-06   1.0261909764826816e-06   -6.902615734599032e-06
-5.762301230901693e-06   8.636511386437987e-07   -2.2243945369193136e-06
-5.762301230901693e-06   8.636511386437987e-07   -2.2243945369193136e-06
-5.762301230901693e-06   8.636511386437987e-07   -2.2243945369193136e-06
-5.762301230901693e-06   8.636511386437987e-07   -2.2243945369193136e-06
-4.336848289409371e-06   8.504080882349916e-07   -4.59220360916114e-06
-4.336848289409371e-06   8.504080882349916e-07   -4.59220360916114e-06
-4.336848289409371e-06   8.504080882349916e-07   -4.59220360916114e-06
-4.336848289409371e-06   8.504080882349916e-07   -4.59220360916114e-06
-5.762301230901693e-06   1.0261909764826816e-06   -6.805091831895715e-06
-5.762301230901693e-06   1.0261909764826816e-06   -6.805091831895715e-06
-5.762301230901693e-06   1.0261909764826816e-06   -6.805091831895715e-06
-5.762301230901693e-06   1.0261909764826816e-06   -6.805091831895715e-06
-3.013882853915849e-06   8.636511386438123e-07   -2.3219184396226093e-06
-3.013882853915849e-06   8.636511386438123e-07   -2.3219184396226093e-06
-3.013882853915849e-06   8.636511386438123e-07   -2.3219184396226093e-06
-3.013882853915849e-06   8.636511386438123e-07   -2.3219184396226093e-06
-3.0400300132655694e-06   1.2421844973109557e-06   -6.887162118755131e-06
-3.0400300132655694e-06   1.2421844973109557e-06   -6.887162118755131e-06
-3.0400300132655694e-06   1.2421844973109557e-06   -6.887162118755131e-06
-3.0400300132655694e-06   1.2421844973109557e-06   -6.887162118755131e-06
-5.763947990932128e-06   1.058805709651709e-06   -2.237271550048641e-06
-5.763947990932128e-06   1.058805709651709e-06   -2.237271550048641e-06
-5.763947990932128e-06   1.058805709651709e-06   -2.237271550048641e-06
-5.763947990932128e-06   1.058805709651709e-06   -2.237271550048641e-06
-4.3840668388501495e-06   1.0182992110876788e-06   -4.512769571046811e-06
-4.3840668388501495e-06   1.0182992110876788e-06   -4.512769571046811e-06
-4.3840668388501495e-06   1.0182992110876788e-06   -4.512769571046811e-06
-4.3840668388501495e-06   1.0182992110876788e-06   -4.512769571046811e-06
-2.9633898359970645e-06   -2.0133716568921474e-08   -7.775635967178435e-06
-2.9633898359970645e-06   -2.0133716568921474e-08   -7.775635967178435e-06
-2.9633898359970645e-06   -2.0133716568921474e-08   -7.775635967178435e-06
-2.9633898359970645e-06   -2.0133716568921474e-08   -7.775635967178435e-06
-2.0176172922530865e-07   2.6350249549540283e-08   -3.145032076221082e-06
-2.0176172922530865e-07   2.6350249549540283e-08   -3.145032076221082e-06
-2.0176172922530865e-07   2.6350249549540283e-08   -3.145032076221082e-06
-2.0176172922530865e-07   2.6350249549540283e-08   -3.145032076221082e-06
-2.26522242611418e-07   2.0159634079145887e-07   -7.697929444391152e-06
-2.26522242611418e-07   2.0159634079145887e-07   -7.697929444391152e-06
-2.26522242611418e-07   2.0159634079145887e-07   -7.697929444391152e-06
-2.26522242611418e-07   2.0159634079145887e-07   -7.697929444391152e-06
-2.99494766954605e-06   2.2777514378285655e-07   -3.0995943479616127e-06
-2.99494766954605e-06   2.2777514378285655e-07   -3.0995943479616127e-06
-2.99494766954605e-06   2.2777514378285655e-07   -3.0995943479616127e-06
-2.99494766954605e-06   2.2777514378285655e-07   -3.0995943479616127e-06
-1.5871099603877928e-06   1.336920841105274e-07   -5.389540694088642e-06
-1.5871099603877928e-06   1.336920841105274e-07   -5.389540694088642e-06
-1.5871099603877928e-06   1.336920841105274e-07   -5.389540694088642e-06
-1.5871099603877928e-06   1.336920841105274e-07   -5.389540694088642e-06
-2.99494766954605e-06   2.0159634079145887e-07   -7.713636726186e-06
-2.99494766954605e-06   2.0159634079145887e-07   -7.713636726186e-06
-2.99494766954605e-06   2.0159634079145887e-07   -7.713636726186e-06
-2.99494766954605e-06   2.0159634079145887e-07   -7.713636726186e-06
-2.2652224261141832e-07   2.2777514378285655e-07   -3.083887066166762e-06
-2.2652224261141832e-07   2.2777514378285655e-07   -3.083887066166762e-06
-2.2652224261141832e-07   2.2777514378285655e-07   -3.083887066166762e-06
-2.2652224261141832e-07   2.2777514378285655e-07   -3.083887066166762e-06
-2.4287067114725546e-07   4.185770158075729e-07   -7.71656351555186e-06
-2.4287067114725546e-07   4.185770158075729e-07   -7.71656351555186e-06
-2.4287067114725546e-07   4.185770158075729e-07   -7.71656351555186e-06
-2.4287067114725546e-07   4.185770158075729e-07   -7.71656351555186e-06
-3.0138828539158446e-06   4.287337746800994e-07   -3.1043039329277615e-06
-3.0138828539158446e-06   4.287337746800994e-07   -3.1043039329277615e-06
-3.0138828539158446e-06   4.287337746800994e-07   -3.1043039329277615e-06
-3.0138828539158446e-06   4.287337746800994e-07   -3.1043039329277615e-06
-1.6203579492599572e-06   3.1167207303160337e-07   -5.356608419698436e-06
-1.6203579492599572e-06   3.1167207303160337e-07   -5.356608419698436e-06
-1.6203579492599572e-06   3.1167207303160337e-07   -5.356608419698436e-06
-1.6203579492599572e-06   3.1167207303160337e-07   -5.356608419698436e-06
-3.0138828539158446e-06   4.185770158075797e-07   -7.722657570875387e-06
-3.0138828539158446e-06   4.185770158075797e-07   -7.722657570875387e-06
-3.0138828539158446e-06   4.185770158075797e-07   -7.722657570875387e-06
-3.0138828539158446e-06   4.185770158075797e-07   -7.722657570875387e-06
-2.428706711472559e-07   4.287337746800994e-07   -3.098209877604218e-06
-2.428706711472559e-07   4.287337746800994e-07   -3.098209877604218e-06
-2.428706711472559e-07   4.287337746800994e-07   -3.098209877604218e-06
-2.428706711472559e-07   4.287337746800994e-07   -3.098209877604218e-06
-2.7108481035578983e-07   6.442548497987579e-07   -7.815029473773708e-06
-2.7108481035578983e-07   6.442548497987579e-07   -7.815029473773708e-06
-2.7108481035578983e-07   6.442548497987579e-07   -7.815029473773708e-06
-2.7108481035578983e-07   6.442548497987579e-07   -7.815029473773708e-06
-3.040030013265567e-06   6.342192978064438e-07   -3.1940994710620603e-06
-3.040030013265567e-06   6.342192978064438e-07   -3.1940994710620603e-06
-3.040030013265567e-06   6.342192978064438e-07   -3.1940994710620603e-06
-3.040030013265567e-06   6.342192978064438e-07   -3.1940994710620603e-06
-1.6559263051663974e-06   4.917795499173133e-07   -5.415475135827155e-06
-1.6559263051663974e-06   4.917795499173133e-07   -5.415475135827155e-06
-1.6559263051663974e-06   4.917795499173133e-07   -5.415475135827155e-06
-1.6559263051663974e-06   4.917795499173133e-07   -5.415475135827155e-06
-2.0176172922530907e-07   -6.054846183274471e-07   -6.93696575072097e-06
-2.0176172922530907e-07   -6.054846183274471e-07   -6.93696575072097e-06
-2.0176172922530907e-07   -6.054846183274471e-07   -6.93696575072097e-06
-2.0176172922530907e-07   -6.054846183274471e-07   -6.93696575072097e-06
2.5372972318276885e-06   -3.9826987666094114e-07   -2.2475386372994164e-06
2.5372972318276885e-06   -3.9826987666094114e-07   -2.2475386372994164e-06
2.5372972318276885e-06   -3.9826987666094114e-07   -2.2475386372994164e-06
2.5372972318276885e-06   -3.9826987666094114e-07   -2.2475386372994164e-06
2.539760731885477e-06   -4.0216110346870756e-07   -6.849225164782183e-06
2.539760731885477e-06   -4.0216110346870756e-07   -6.849225164782183e-06
2.539760731885477e-06   -4.0216110346870756e-07   -6.849225164782183e-06
2.539760731885477e-06   -4.0216110346870756e-07   -6.849225164782183e-06
-2.2652224261141832e-07   -2.11782471299941e-07   -2.3529807199219422e-06
-2.2652224261141832e-07   -2.11782471299941e-07   -2.3529807199219422e-06
-2.2652224261141832e-07   -2.11782471299941e-07   -2.3529807199219422e-06
-2.2652224261141832e-07   -2.11782471299941e-07   -2.3529807199219422e-06
1.1539547593029375e-06   -3.8891475587366625e-07   -4.547496352368295e-06
1.1539547593029375e-06   -3.8891475587366625e-07   -4.547496352368295e-06
1.1539547593029375e-06   -3.8891475587366625e-07   -4.547496352368295e-06
1.1539547593029375e-06   -3.8891475587366625e-07   -4.547496352368295e-06
-2.2652224261141832e-07   -4.0216110346870756e-07   -6.963452344083425e-06
-2.2652224261141832e-07   -4.0216110346870756e-07   -6.963452344083425e-06
-2.2652224261141832e-07   -4.0216110346870756e-07   -6.963452344083425e-06
-2.2652224261141832e-07   -4.0216110346870756e-07   -6.963452344083425e-06
2.539760731885477e-06   -2.11782471299941e-07   -2.2387535406206703e-06
2.539760731885477e-06   -2.11782471299941e-07   -2.2387535406206703e-06
2.539760731885477e-06   -2.11782471299941e-07   -2.2387535406206703e-06
2.539760731885477e-06   -2.11782471299941e-07   -2.2387535406206703e-06
2.5583471221051195e-06   -2.0415842956336623e-07   -7.024402206001481e-06
2.5583471221051195e-06   -2.0415842956336623e-07   -7.024402206001481e-06
2.5583471221051195e-06   -2.0415842956336623e-07   -7.024402206001481e-06
2.5583471221051195e-06   -2.0415842956336623e-07   -7.024402206001481e-06
-2.428706711472563e-07   -3.012106765642704e-08   -2.4601283010583695e-06
-2.428706711472563e-07   -3.012106765642704e-08   -2.4601283010583695e-06
-2.428706711472563e-07   -3.012106765642704e-08   -2.4601283010583695e-06
-2.428706711472563e-07   -3.012106765642704e-08   -2.4601283010583695e-06
1.120442198463098e-06   -2.276450923261719e-07   -4.613802002273742e-06
1.120442198463098e-06   -2.276450923261719e-07   -4.613802002273742e-06
1.120442198463098e-06   -2.276450923261719e-07   -4.613802002273742e-06
1.120442198463098e-06   -2.276450923261719e-07   -4.613802002273742e-06
-2.428706711472557e-07   -2.0415842956336623e-07   -7.128824623145613e-06
-2.428706711472557e-07   -2.0415842956336623e-07   -7.128824623145613e-06
-2.428706711472557e-07   -2.0415842956336623e-07   -7.128824623145613e-06
-2.428706711472557e-07   -2.0415842956336623e-07   -7.128824623145613e-06
2.5583471221051195e-06   -3.012106765642704e-08   -2.3557058839141734e-06
2.5583471221051195e-06   -3.012106765642704e-08   -2.3557058839141734e-06
2.5583471221051195e-06   -3.012106765642704e-08   -2.3557058839141734e-06
2.5583471221051195e-06   -3.012106765642704e-08   -2.3557058839141734e-06
2.5437512596776573e-06   3.929459664855288e-08   -7.228599538136648e-06
2.5437512596776573e-06   3.929459664855288e-08   -7.228599538136648e-06
2.5437512596776573e-06   3.929459664855288e-08   -7.228599538136648e-06
2.5437512596776573e-06   3.929459664855288e-08   -7.228599538136648e-06
-2.7108481035579025e-07   1.8062003339863546e-07   -2.622001350130956e-06
-2.7108481035579025e-07   1.8062003339863546e-07   -2.622001350130956e-06
-2.7108481035579025e-07   1.8062003339863546e-07   -2.622001350130956e-06
-2.7108481035579025e-07   1.8062003339863546e-07   -2.622001350130956e-06
1.1111665555888547e-06   -5.648396040448074e-08   -4.783491230423463e-06
1.1111665555888547e-06   -5.648396040448074e-08   -4.783491230423463e-06
1.1111665555888547e-06   -5.648396040448074e-08   -4.783491230423463e-06
1.1111665555888547e-06   -5.648396040448074e-08   -4.783491230423463e-06
2.5372972318276834e-06   -1.1165288556287242e-06   -3.859068169292861e-06
2.5372972318276834e-06   -1.1165288556287242e-06   -3.859068169292861e-06
2.5372972318276834e-06   -1.1165288556287242e-06   -3.859068169292861e-06
2.5372972318276834e-06   -1.1165288556287242e-06   -3.859068169292861e-06
5.067264018803677e-06   -7.104970415768404e-07   6.011622307649172e-07
5.067264018803677e-06   -7.104970415768404e-07   6.011622307649172e-07
5.067264018803677e-06   -7.104970415768404e-07   6.011622307649172e-07
5.067264018803677e-06   -7.104970415768404e-07   6.011622307649172e-07
5.255397561487498e-06   -1.0041020713240484e-06   -4.305286678225943e-06
5.255397561487498e-06   -1.0041020713240484e-06   -4.305286678225943e-06
5.255397561487498e-06   -1.0041020713240484e-06   -4.305286678225943e-06
5.255397561487498e-06   -1.0041020713240484e-06   -4.305286678225943e-06
2.5397607318854736e-06   -6.001093226141134e-07   -2.1620944781861902e-08
2.5397607318854736e-06   -6.001093226141134e-07   -2.1620944781861902e-08
2.5397607318854736e-06   -6.001093226141134e-07   -2.1620944781861902e-08
2.5397607318854736e-06   -6.001093226141134e-07   -2.1620944781861902e-08
3.685694884901059e-06   -8.470183549302607e-07   -1.783365780418151e-06
3.685694884901059e-06   -8.470183549302607e-07   -1.783365780418151e-06
3.685694884901059e-06   -8.470183549302607e-07   -1.783365780418151e-06
3.685694884901059e-06   -8.470183549302607e-07   -1.783365780418151e-06
2.5397607318854702e-06   -1.0041020713240484e-06   -4.547682327451897e-06
2.5397607318854702e-06   -1.0041020713240484e-06   -4.547682327451897e-06
2.5397607318854702e-06   -1.0041020713240484e-06   -4.547682327451897e-06
2.5397607318854702e-06   -1.0041020713240484e-06   -4.547682327451897e-06
5.255397561487498e-06   -6.001093226140999e-07   2.2077470444411738e-07
5.255397561487498e-06   -6.001093226140999e-07   2.2077470444411738e-07
5.255397561487498e-06   -6.001093226140999e-07   2.2077470444411738e-07
5.255397561487498e-06   -6.001093226140999e-07   2.2077470444411738e-07
5.403330751495117e-06   -8.903982066399711e-07   -4.845168199531343e-06
5.403330751495117e-06   -8.903982066399711e-07   -4.845168199531343e-06
5.403330751495117e-06   -8.903982066399711e-07   -4.845168199531343e-06
5.403330751495117e-06   -8.903982066399711e-07   -4.845168199531343e-06
2.558347122105111e-06   -5.087932624076274e-07   -3.3249178375409664e-07
2.558347122105111e-06   -5.087932624076274e-07   -3.3249178375409664e-07
2.558347122105111e-06   -5.087932624076274e-07   -3.3249178375409664e-07
2.558347122105111e-06   -5.087932624076274e-07   -3.3249178375409664e-07
3.820693961186674e-06   -7.761223087603629e-07   -2.276005754411704e-06
3.820693961186674e-06   -7.761223087603629e-07   -2.276005754411704e-06
3.820693961186674e-06   -7.761223087603629e-07   -2.276005754411704e-06
3.820693961186674e-06   -7.761223087603629e-07   -2.276005754411704e-06
2.5583471221051144e-06   -8.903982066399711e-07   -5.074131166070744e-06
2.5583471221051144e-06   -8.903982066399711e-07   -5.074131166070744e-06
2.5583471221051144e-06   -8.903982066399711e-07   -5.074131166070744e-06
2.5583471221051144e-06   -8.903982066399711e-07   -5.074131166070744e-06
5.40333075149511e-06   -5.08793262407641e-07   -1.0352881721466332e-07
5.40333075149511e-06   -5.08793262407641e-07   -1.0352881721466332e-07
5.40333075149511e-06   -5.08793262407641e-07   -1.0352881721466332e-07
5.40333075149511e-06   -5.08793262407641e-07   -1.0352881721466332e-07
5.563811471509844e-06   -6.465139667144915e-07   -5.771484814070628e-06
5.563811471509844e-06   -6.465139667144915e-07   -5.771484814070628e-06
5.563811471509844e-06   -6.465139667144915e-07   -5.771484814070628e-06
5.563811471509844e-06   -6.465139667144915e-07   -5.771484814070628e-06
2.543751259677649e-06   -3.164386755446217e-07   -9.360963023855903e-07
2.543751259677649e-06   -3.164386755446217e-07   -9.360963023855903e-07
2.543751259677649e-06   -3.164386755446217e-07   -9.360963023855903e-07
2.543751259677649e-06   -3.164386755446217e-07   -9.360963023855903e-07
3.8144451109611476e-06   -6.644891659928468e-07   -2.845089093589125e-06
3.8144451109611476e-06   -6.644891659928468e-07   -2.845089093589125e-06
3.8144451109611476e-06   -6.644891659928468e-07   -2.845089093589125e-06
3.8144451109611476e-06   -6.644891659928468e-07   -2.845089093589125e-06
-6.150671708092164e-06   9.502058877691234e-07   -4.755541871406609e-06
-6.150671708092164e-06   9.502058877691234e-07   -4.755541871406609e-06
-6.150671708092164e-06   9.502058877691234e-07   -4.755541871406609e-06
-6.150671708092164e-06   9.502058877691234e-07   -4.755541871406609e-06
-4.233603787733876e-06   5.932483656148982e-07   -1.774603184102006e-06
-4.233603787733876e-06   5.932483656148982e-07   -1.774603184102006e-06
-4.233603787733876e-06   5.932483656148982e-07   -1.774603184102006e-06
-4.233603787733876e-06   5.932483656148982e-07   -1.774603184102006e-06
-4.21729491719344e-06   1.1559392167157922e-06   -4.042232305108892e-06
-4.21729491719344e-06   1.1559392167157922e-06   -4.042232305108892e-06
-4.21729491719344e-06   1.1559392167157922e-06   -4.042232305108892e-06
-4.21729491719344e-06   1.1559392167157922e-06   -4.042232305108892e-06
-5.9558140297366906e-06   7.609983394570556e-07   -9.077359245148869e-07
-5.9558140297366906e-06   7.609983394570556e-07   -9.077359245148869e-07
-5.9558140297366906e-06   7.609983394570556e-07   -9.077359245148869e-07
-5.9558140297366906e-06   7.609983394570556e-07   -9.077359245148869e-07
-4.921029620727601e-06   9.17070268837222e-07   -2.726019763824821e-06
-4.921029620727601e-06   9.17070268837222e-07   -2.726019763824821e-06
-4.921029620727601e-06   9.17070268837222e-07   -2.726019763824821e-06
-4.921029620727601e-06   9.17070268837222e-07   -2.726019763824821e-06
-5.9558140297366906e-06   1.1559392167157922e-06   -3.805267778753654e-06
-5.9558140297366906e-06   1.1559392167157922e-06   -3.805267778753654e-06
-5.9558140297366906e-06   1.1559392167157922e-06   -3.805267778753654e-06
-5.9558140297366906e-06   1.1559392167157922e-06   -3.805267778753654e-06
-4.21729491719345e-06   7.609983394570556e-07   -1.144700450870131e-06
-4.21729491719345e-06   7.609983394570556e-07   -1.144700450870131e-06
-4.21729491719345e-06   7.609983394570556e-07   -1.144700450870131e-06
-4.21729491719345e-06   7.609983394570556e-07   -1.144700450870131e-06
-4.184705135808046e-06   1.2474557095963574e-06   -3.525624339455641e-06
-4.184705135808046e-06   1.2474557095963574e-06   -3.525624339455641e-06
-4.184705135808046e-06   1.2474557095963574e-06   -3.525624339455641e-06
-4.184705135808046e-06   1.2474557095963574e-06   -3.525624339455641e-06
-5.812071890175261e-06   8.407293137248215e-07   -5.69310577987374e-07
-5.812071890175261e-06   8.407293137248215e-07   -5.69310577987374e-07
-5.812071890175261e-06   8.407293137248215e-07   -5.69310577987374e-07
-5.812071890175261e-06   8.407293137248215e-07   -5.69310577987374e-07
-4.917714375577543e-06   1.010996975918751e-06   -2.162067032966604e-06
-4.917714375577543e-06   1.010996975918751e-06   -2.162067032966604e-06
-4.917714375577543e-06   1.010996975918751e-06   -2.162067032966604e-06
-4.917714375577543e-06   1.010996975918751e-06   -2.162067032966604e-06
-5.812071890175261e-06   1.2474557095963574e-06   -3.2815885019327304e-06
-5.812071890175261e-06   1.2474557095963574e-06   -3.2815885019327304e-06
-5.812071890175261e-06   1.2474557095963574e-06   -3.2815885019327304e-06
-5.812071890175261e-06   1.2474557095963574e-06   -3.2815885019327304e-06
-4.184705135808053e-06   8.407293137248351e-07   -8.133464155102698e-07
-4.184705135808053e-06   8.407293137248351e-07   -8.133464155102698e-07
-4.184705135808053e-06   8.407293137248351e-07   -8.133464155102698e-07
-4.184705135808053e-06   8.407293137248351e-07   -8.133464155102698e-07
-4.172912653008231e-06   1.3412360776732382e-06   -2.8163689390403102e-06
-4.172912653008231e-06   1.3412360776732382e-06   -2.8163689390403102e-06
-4.172912653008231e-06   1.3412360776732382e-06   -2.8163689390403102e-06
-4.172912653008231e-06   1.3412360776732382e-06   -2.8163689390403102e-06
-5.6262280720394e-06   9.434053337359165e-07   -1.5547812762596624e-07
-5.6262280720394e-06   9.434053337359165e-07   -1.5547812762596624e-07
-5.6262280720394e-06   9.434053337359165e-07   -1.5547812762596624e-07
-5.6262280720394e-06   9.434053337359165e-07   -1.5547812762596624e-07
-4.77032098554461e-06   1.064886401469777e-06   -1.654878579090937e-06
-4.77032098554461e-06   1.064886401469777e-06   -1.654878579090937e-06
-4.77032098554461e-06   1.064886401469777e-06   -1.654878579090937e-06
-4.77032098554461e-06   1.064886401469777e-06   -1.654878579090937e-06
-4.233603787733869e-06   4.783129438757603e-07   -6.159645728382731e-06
-4.233603787733869e-06   4.783129438757603e-07   -6.159645728382731e-06
-4.233603787733869e-06   4.783129438757603e-07   -6.159645728382731e-06
-4.233603787733869e-06   4.783129438757603e-07   -6.159645728382731e-06
-2.4817647377424362e-06   3.141996720397097e-07   -3.3383819414986353e-06
-2.4817647377424362e-06   3.141996720397097e-07   -3.3383819414986353e-06
-2.4817647377424362e-06   3.141996720397097e-07   -3.3383819414986353e-06
-2.4817647377424362e-06   3.141996720397097e-07   -3.3383819414986353e-06
-2.4834107125072352e-06   6.816111693956259e-07   -6.102927801717741e-06
-2.4834107125072352e-06   6.816111693956259e-07   -6.102927801717741e-06
-2.4834107125072352e-06   6.816111693956259e-07   -6.102927801717741e-06
-2.4834107125072352e-06   6.816111693956259e-07   -6.102927801717741e-06
-4.21729491719344e-06   4.923775996599491e-07   -3.099580652065965e-06
-4.21729491719344e-06   4.923775996599491e-07   -3.099580652065965e-06
-4.21729491719344e-06   4.923775996599491e-07   -3.099580652065965e-06
-4.21729491719344e-06   4.923775996599491e-07   -3.099580652065965e-06
-3.3227213615305097e-06   5.278217494397383e-07   -4.611803068038738e-06
-3.3227213615305097e-06   5.278217494397383e-07   -4.611803068038738e-06
-3.3227213615305097e-06   5.278217494397383e-07   -4.611803068038738e-06
-3.3227213615305097e-06   5.278217494397383e-07   -4.611803068038738e-06
-4.217294917193436e-06   6.816111693956259e-07   -5.989387659876293e-06
-4.217294917193436e-06   6.816111693956259e-07   -5.989387659876293e-06
-4.217294917193436e-06   6.816111693956259e-07   -5.989387659876293e-06
-4.217294917193436e-06   6.816111693956259e-07   -5.989387659876293e-06
-2.4834107125072352e-06   4.923775996599491e-07   -3.213120793907386e-06
-2.4834107125072352e-06   4.923775996599491e-07   -3.213120793907386e-06
-2.4834107125072352e-06   4.923775996599491e-07   -3.213120793907386e-06
-2.4834107125072352e-06   4.923775996599491e-07   -3.213120793907386e-06
-2.482225752151425e-06   8.636511386438123e-07   -5.96655347476159e-06
-2.482225752151425e-06   8.636511386438123e-07   -5.96655347476159e-06
-2.482225752151425e-06   8.636511386438123e-07   -5.96655347476159e-06
-2.482225752151425e-06   8.636511386438123e-07   -5.96655347476159e-06
-4.184705135808046e-06   6.560784287481711e-07   -3.004544209396494e-06
-4.184705135808046e-06   6.560784287481711e-07   -3.004544209396494e-06
-4.184705135808046e-06   6.560784287481711e-07   -3.004544209396494e-06
-4.184705135808046e-06   6.560784287481711e-07   -3.004544209396494e-06
-3.3079841738579313e-06   6.756147504639431e-07   -4.477467605676119e-06
-3.3079841738579313e-06   6.756147504639431e-07   -4.477467605676119e-06
-3.3079841738579313e-06   6.756147504639431e-07   -4.477467605676119e-06
-3.3079841738579313e-06   6.756147504639431e-07   -4.477467605676119e-06
-4.184705135808046e-06   8.636511386438123e-07   -5.842009848824199e-06
-4.184705135808046e-06   8.636511386438123e-07   -5.842009848824199e-06
-4.184705135808046e-06   8.636511386438123e-07   -5.842009848824199e-06
-4.184705135808046e-06   8.636511386438123e-07   -5.842009848824199e-06
-2.48222575215143e-06   6.560784287481711e-07   -3.1290878353338685e-06
-2.48222575215143e-06   6.560784287481711e-07   -3.1290878353338685e-06
-2.48222575215143e-06   6.560784287481711e-07   -3.1290878353338685e-06
-2.48222575215143e-06   6.560784287481711e-07   -3.1290878353338685e-06
-2.4851758719587885e-06   1.058805709651709e-06   -5.991149014510059e-06
-2.4851758719587885e-06   1.058805709651709e-06   -5.991149014510059e-06
-2.4851758719587885e-06   1.058805709651709e-06   -5.991149014510059e-06
-2.4851758719587885e-06   1.058805709651709e-06   -5.991149014510059e-06
-4.172912653008234e-06   8.35496446556974e-07   -3.0442688215707843e-06
-4.172912653008234e-06   8.35496446556974e-07   -3.0442688215707843e-06
-4.172912653008234e-06   8.35496446556974e-07   -3.0442688215707843e-06
-4.172912653008234e-06   8.35496446556974e-07   -3.0442688215707843e-06
-3.330091920309578e-06   8.234774983711132e-07   -4.441758673823692e-06
-3.330091920309578e-06   8.234774983711132e-07   -4.441758673823692e-06
-3.330091920309578e-06   8.234774983711132e-07   -4.441758673823692e-06
-3.330091920309578e-06   8.234774983711132e-07   -4.441758673823692e-06
-2.481764737742433e-06   2.6350249549540283e-08   -6.81892348011287e-06
-2.481764737742433e-06   2.6350249549540283e-08   -6.81892348011287e-06
-2.481764737742433e-06   2.6350249549540283e-08   -6.81892348011287e-06
-2.481764737742433e-06   2.6350249549540283e-08   -6.81892348011287e-06
-7.473800888263493e-07   5.876085100550883e-08   -3.908836037712493e-06
-7.473800888263493e-07   5.876085100550883e-08   -3.908836037712493e-06
-7.473800888263493e-07   5.876085100550883e-08   -3.908836037712493e-06
-7.473800888263493e-07   5.876085100550883e-08   -3.908836037712493e-06
-7.495424663824218e-07   2.2777514378285655e-07   -6.738477701230998e-06
-7.495424663824218e-07   2.2777514378285655e-07   -6.738477701230998e-06
-7.495424663824218e-07   2.2777514378285655e-07   -6.738477701230998e-06
-7.495424663824218e-07   2.2777514378285655e-07   -6.738477701230998e-06
-2.483410712507232e-06   2.3954801226468603e-07   -3.855761012112091e-06
-2.483410712507232e-06   2.3954801226468603e-07   -3.855761012112091e-06
-2.483410712507232e-06   2.3954801226468603e-07   -3.855761012112091e-06
-2.483410712507232e-06   2.3954801226468603e-07   -3.855761012112091e-06
-1.6044088630645406e-06   1.628654596291904e-07   -5.274754562935271e-06
-1.6044088630645406e-06   1.628654596291904e-07   -5.274754562935271e-06
-1.6044088630645406e-06   1.628654596291904e-07   -5.274754562935271e-06
-1.6044088630645406e-06   1.628654596291904e-07   -5.274754562935271e-06
-2.483410712507232e-06   2.2777514378285655e-07   -6.745541422320101e-06
-2.483410712507232e-06   2.2777514378285655e-07   -6.745541422320101e-06
-2.483410712507232e-06   2.2777514378285655e-07   -6.745541422320101e-06
-2.483410712507232e-06   2.2777514378285655e-07   -6.745541422320101e-06
-7.495424663824218e-07   2.3954801226468603e-07   -3.848697291022985e-06
-7.495424663824218e-07   2.3954801226468603e-07   -3.848697291022985e-06
-7.495424663824218e-07   2.3954801226468603e-07   -3.848697291022985e-06
-7.495424663824218e-07   2.3954801226468603e-07   -3.848697291022985e-06
-7.477352360251128e-07   4.2873377468008586e-07   -6.753615842421175e-06
-7.477352360251128e-07   4.2873377468008586e-07   -6.753615842421175e-06
-7.477352360251128e-07   4.2873377468008586e-07   -6.753615842421175e-06
-7.477352360251128e-07   4.2873377468008586e-07   -6.753615842421175e-06
-2.482225752151425e-06   4.2093898408930737e-07   -3.858121441189528e-06
-2.482225752151425e-06   4.2093898408930737e-07   -3.858121441189528e-06
-2.482225752151425e-06   4.2093898408930737e-07   -3.858121441189528e-06
-2.482225752151425e-06   4.2093898408930737e-07   -3.858121441189528e-06
-1.6157283752624986e-06   3.219574452481376e-07   -5.242894812699707e-06
-1.6157283752624986e-06   3.219574452481376e-07   -5.242894812699707e-06
-1.6157283752624986e-06   3.219574452481376e-07   -5.242894812699707e-06
-1.6157283752624986e-06   3.219574452481376e-07   -5.242894812699707e-06
-2.482225752151425e-06   4.2873377468008586e-07   -6.748938968066708e-06
-2.482225752151425e-06   4.2873377468008586e-07   -6.748938968066708e-06
-2.482225752151425e-06   4.2873377468008586e-07   -6.748938968066708e-06
-2.482225752151425e-06   4.2873377468008586e-07   -6.748938968066708e-06
-7.477352360251142e-07   4.2093898408930737e-07   -3.862798315543985e-06
-7.477352360251142e-07   4.2093898408930737e-07   -3.862798315543985e-06
-7.477352360251142e-07   4.2093898408930737e-07   -3.862798315543985e-06
-7.477352360251142e-07   4.2093898408930737e-07   -3.862798315543985e-06
-7.491653369271045e-07   6.342192978064573e-07   -6.85518096413284e-06
-7.491653369271045e-07   6.342192978064573e-07   -6.85518096413284e-06
-7.491653369271045e-07   6.342192978064573e-07   -6.85518096413284e-06
-7.491653369271045e-07   6.342192978064573e-07   -6.85518096413284e-06
-2.485175871958787e-06   6.055004624649387e-07   -3.944598771208429e-06
-2.485175871958787e-06   6.055004624649387e-07   -3.944598771208429e-06
-2.485175871958787e-06   6.055004624649387e-07   -3.944598771208429e-06
-2.485175871958787e-06   6.055004624649387e-07   -3.944598771208429e-06
-1.63017150749925e-06   4.831525477437125e-07   -5.296197296474918e-06
-1.63017150749925e-06   4.831525477437125e-07   -5.296197296474918e-06
-1.63017150749925e-06   4.831525477437125e-07   -5.296197296474918e-06
-1.63017150749925e-06   4.831525477437125e-07   -5.296197296474918e-06
-7.47380088826348e-07   -3.9826987666094114e-07   -6.026312525317521e-06
-7.47380088826348e-07   -3.9826987666094114e-07   -6.026312525317521e-06
-7.47380088826348e-07   -3.9826987666094114e-07   -6.026312525317521e-06
-7.47380088826348e-07   -3.9826987666094114e-07   -6.026312525317521e-06
9.51113235527078e-07   -1.735401364468404e-07   -3.0606524739333634e-06
9.51113235527078e-07   -1.735401364468404e-07   -3.0606524739333634e-06
9.51113235527078e-07   -1.735401364468404e-07   -3.0606524739333634e-06
9.51113235527078e-07   -1.735401364468404e-07   -3.0606524739333634e-06
9.645989664608189e-07   -2.11782471299941e-07   -5.881459887694861e-06
9.645989664608189e-07   -2.11782471299941e-07   -5.881459887694861e-06
9.645989664608189e-07   -2.11782471299941e-07   -5.881459887694861e-06
9.645989664608189e-07   -2.11782471299941e-07   -5.881459887694861e-06
-7.495424663824218e-07   -1.596692481126128e-09   -3.1506689669140875e-06
-7.495424663824218e-07   -1.596692481126128e-09   -3.1506689669140875e-06
-7.495424663824218e-07   -1.596692481126128e-09   -3.1506689669140875e-06
-7.495424663824218e-07   -1.596692481126128e-09   -3.1506689669140875e-06
1.0717670351204125e-07   -1.8033582233601916e-07   -4.471290772158587e-06
1.0717670351204125e-07   -1.8033582233601916e-07   -4.471290772158587e-06
1.0717670351204125e-07   -1.8033582233601916e-07   -4.471290772158587e-06
1.0717670351204125e-07   -1.8033582233601916e-07   -4.471290772158587e-06
-7.495424663824218e-07   -2.11782471299941e-07   -6.007571354986169e-06
-7.495424663824218e-07   -2.11782471299941e-07   -6.007571354986169e-06
-7.495424663824218e-07   -2.11782471299941e-07   -6.007571354986169e-06
-7.495424663824218e-07   -2.11782471299941e-07   -6.007571354986169e-06
9.645989664608222e-07   -1.596692481126128e-09   -3.024557499622818e-06
9.645989664608222e-07   -1.596692481126128e-09   -3.024557499622818e-06
9.645989664608222e-07   -1.596692481126128e-09   -3.024557499622818e-06
9.645989664608222e-07   -1.596692481126128e-09   -3.024557499622818e-06
9.990610582824688e-07   -3.012106765642704e-08   -6.000091974797932e-06
9.990610582824688e-07   -3.012106765642704e-08   -6.000091974797932e-06
9.990610582824688e-07   -3.012106765642704e-08   -6.000091974797932e-06
9.990610582824688e-07   -3.012106765642704e-08   -6.000091974797932e-06
-7.477352360251142e-07   1.6228275080583116e-07   -3.2042071086959906e-06
-7.477352360251142e-07   1.6228275080583116e-07   -3.2042071086959906e-06
-7.477352360251142e-07   1.6228275080583116e-07   -3.2042071086959906e-06
-7.477352360251142e-07   1.6228275080583116e-07   -3.2042071086959906e-06
9.675646404401343e-08   -3.693330847130325e-08   -4.492163639911582e-06
9.675646404401343e-08   -3.693330847130325e-08   -4.492163639911582e-06
9.675646404401343e-08   -3.693330847130325e-08   -4.492163639911582e-06
9.675646404401343e-08   -3.693330847130325e-08   -4.492163639911582e-06
-7.477352360251134e-07   -3.012106765642704e-08   -6.115534265875279e-06
-7.477352360251134e-07   -3.012106765642704e-08   -6.115534265875279e-06
-7.477352360251134e-07   -3.012106765642704e-08   -6.115534265875279e-06
-7.477352360251134e-07   -3.012106765642704e-08   -6.115534265875279e-06
9.990610582824722e-07   1.6228275080583116e-07   -3.088764817618615e-06
9.990610582824722e-07   1.6228275080583116e-07   -3.088764817618615e-06
9.990610582824722e-07   1.6228275080583116e-07   -3.088764817618615e-06
9.990610582824722e-07   1.6228275080583116e-07   -3.088764817618615e-06
1.0166088336445293e-06   1.806200333986219e-07   -6.176397911162553e-06
1.0166088336445293e-06   1.806200333986219e-07   -6.176397911162553e-06
1.0166088336445293e-06   1.806200333986219e-07   -6.176397911162553e-06
1.0166088336445293e-06   1.806200333986219e-07   -6.176397911162553e-06
-7.491653369271032e-07   3.483927014715784e-07   -3.334104561053592e-06
-7.491653369271032e-07   3.483927014715784e-07   -3.334104561053592e-06
-7.491653369271032e-07   3.483927014715784e-07   -3.334104561053592e-06
-7.491653369271032e-07   3.483927014715784e-07   -3.334104561053592e-06
1.0197219852389876e-07   1.1470922370338552e-07   -4.612457033477672e-06
1.0197219852389876e-07   1.1470922370338552e-07   -4.612457033477672e-06
1.0197219852389876e-07   1.1470922370338552e-07   -4.612457033477672e-06
1.0197219852389876e-07   1.1470922370338552e-07   -4.612457033477672e-06
9.511132355270763e-07   -7.10497041576854e-07   -3.2863929015558425e-06
9.511132355270763e-07   -7.10497041576854e-07   -3.2863929015558425e-06
9.511132355270763e-07   -7.10497041576854e-07   -3.2863929015558425e-06
9.511132355270763e-07   -7.10497041576854e-07   -3.2863929015558425e-06
2.4196954801270596e-06   -3.093941152620863e-07   -5.980940714336635e-07
2.4196954801270596e-06   -3.093941152620863e-07   -5.980940714336635e-07
2.4196954801270596e-06   -3.093941152620863e-07   -5.980940714336635e-07
2.4196954801270596e-06   -3.093941152620863e-07   -5.980940714336635e-07
2.6083511201853994e-06   -6.001093226141134e-07   -3.418733245718883e-06
2.6083511201853994e-06   -6.001093226141134e-07   -3.418733245718883e-06
2.6083511201853994e-06   -6.001093226141134e-07   -3.418733245718883e-06
2.6083511201853994e-06   -6.001093226141134e-07   -3.418733245718883e-06
9.645989664608205e-07   -1.9078591238547334e-07   -9.247403689817659e-07
9.645989664608205e-07   -1.9078591238547334e-07   -9.247403689817659e-07
9.645989664608205e-07   -1.9078591238547334e-07   -9.247403689817659e-07
9.645989664608205e-07   -1.9078591238547334e-07   -9.247403689817659e-07
1.6619146874127208e-06   -4.383159954437989e-07   -1.93841518739993e-06
1.6619146874127208e-06   -4.383159954437989e-07   -1.93841518739993e-06
1.6619146874127208e-06   -4.383159954437989e-07   -1.93841518739993e-06
1.6619146874127208e-06   -4.383159954437989e-07   -1.93841518739993e-06
9.645989664608205e-07   -6.001093226141134e-07   -3.664327291856036e-06
9.645989664608205e-07   -6.001093226141134e-07   -3.664327291856036e-06
9.645989664608205e-07   -6.001093226141134e-07   -3.664327291856036e-06
9.645989664608205e-07   -6.001093226141134e-07   -3.664327291856036e-06
2.6083511201853893e-06   -1.9078591238547334e-07   -6.79146322844586e-07
2.6083511201853893e-06   -1.9078591238547334e-07   -6.79146322844586e-07
2.6083511201853893e-06   -1.9078591238547334e-07   -6.79146322844586e-07
2.6083511201853893e-06   -1.9078591238547334e-07   -6.79146322844586e-07
2.755291763476626e-06   -5.087932624076274e-07   -3.738091643599895e-06
2.755291763476626e-06   -5.087932624076274e-07   -3.738091643599895e-06
2.755291763476626e-06   -5.087932624076274e-07   -3.738091643599895e-06
2.755291763476626e-06   -5.087932624076274e-07   -3.738091643599895e-06
9.990610582824722e-07   -1.1081621067773732e-07   -1.049826699314256e-06
9.990610582824722e-07   -1.1081621067773732e-07   -1.049826699314256e-06
9.990610582824722e-07   -1.1081621067773732e-07   -1.049826699314256e-06
9.990610582824722e-07   -1.1081621067773732e-07   -1.049826699314256e-06
1.7737669843590847e-06   -3.765371950484385e-07   -2.1815706521528287e-06
1.7737669843590847e-06   -3.765371950484385e-07   -2.1815706521528287e-06
1.7737669843590847e-06   -3.765371950484385e-07   -2.1815706521528287e-06
1.7737669843590847e-06   -3.765371950484385e-07   -2.1815706521528287e-06
9.990610582824705e-07   -5.087932624076274e-07   -3.9768778746378285e-06
9.990610582824705e-07   -5.087932624076274e-07   -3.9768778746378285e-06
9.990610582824705e-07   -5.087932624076274e-07   -3.9768778746378285e-06
9.990610582824705e-07   -5.087932624076274e-07   -3.9768778746378285e-06
2.7552917634766157e-06   -1.1081621067773732e-07   -8.110404682762752e-07
2.7552917634766157e-06   -1.1081621067773732e-07   -8.110404682762752e-07
2.7552917634766157e-06   -1.1081621067773732e-07   -8.110404682762752e-07
2.7552917634766157e-06   -1.1081621067773732e-07   -8.110404682762752e-07
2.9530183465206802e-06   -3.164386755446217e-07   -4.359765226703882e-06
2.9530183465206802e-06   -3.164386755446217e-07   -4.359765226703882e-06
2.9530183465206802e-06   -3.164386755446217e-07   -4.359765226703882e-06
2.9530183465206802e-06   -3.164386755446217e-07   -4.359765226703882e-06
1.016608833644531e-06   4.2766155727657186e-08   -1.3479389373403153e-06
1.016608833644531e-06   4.2766155727657186e-08   -1.3479389373403153e-06
1.016608833644531e-06   4.2766155727657186e-08   -1.3479389373403153e-06
1.016608833644531e-06   4.2766155727657186e-08   -1.3479389373403153e-06
1.8169438077763384e-06   -2.897557217388329e-07   -2.4823174344134388e-06
1.8169438077763384e-06   -2.897557217388329e-07   -2.4823174344134388e-06
1.8169438077763384e-06   -2.897557217388329e-07   -2.4823174344134388e-06
1.8169438077763384e-06   -2.897557217388329e-07   -2.4823174344134388e-06
-3.619519328601648e-06   5.932483656148982e-07   -3.461230806308608e-06
-3.619519328601648e-06   5.932483656148982e-07   -3.461230806308608e-06
-3.619519328601648e-06   5.932483656148982e-07   -3.461230806308608e-06
-3.619519328601648e-06   5.932483656148982e-07   -3.461230806308608e-06
-2.733402867930106e-06   2.3154583966633136e-07   -2.201391554091838e-06
-2.733402867930106e-06   2.3154583966633136e-07   -2.201391554091838e-06
-2.733402867930106e-06   2.3154583966633136e-07   -2.201391554091838e-06
-2.733402867930106e-06   2.3154583966633136e-07   -2.201391554091838e-06
-2.6965750955171565e-06   7.609983394570556e-07   -3.0538236144613668e-06
-2.6965750955171565e-06   7.609983394570556e-07   -3.0538236144613668e-06
-2.6965750955171565e-06   7.609983394570556e-07   -3.0538236144613668e-06
-2.6965750955171565e-06   7.609983394570556e-07   -3.0538236144613668e-06
-3.4153409944494064e-06   3.689552348213037e-07   -1.6206545867927845e-06
-3.4153409944494064e-06   3.689552348213037e-07   -1.6206545867927845e-06
-3.4153409944494064e-06   3.689552348213037e-07   -1.6206545867927845e-06
-3.4153409944494064e-06   3.689552348213037e-07   -1.6206545867927845e-06
-2.984367924051728e-06   5.341868790538766e-07   -2.438082023995302e-06
-2.984367924051728e-06   5.341868790538766e-07   -2.438082023995302e-06
-2.984367924051728e-06   5.341868790538766e-07   -2.438082023995302e-06
-2.984367924051728e-06   5.341868790538766e-07   -2.438082023995302e-06
-3.4153409944494064e-06   7.609983394570556e-07   -2.8185977516798994e-06
-3.4153409944494064e-06   7.609983394570556e-07   -2.8185977516798994e-06
-3.4153409944494064e-06   7.609983394570556e-07   -2.8185977516798994e-06
-3.4153409944494064e-06   7.609983394570556e-07   -2.8185977516798994e-06
-2.69657509551716e-06   3.689552348213037e-07   -1.8558804495742655e-06
-2.69657509551716e-06   3.689552348213037e-07   -1.8558804495742655e-06
-2.69657509551716e-06   3.689552348213037e-07   -1.8558804495742655e-06
-2.69657509551716e-06   3.689552348213037e-07   -1.8558804495742655e-06
-2.6429763621641926e-06   8.407293137248215e-07   -2.725475364024672e-06
-2.6429763621641926e-06   8.407293137248215e-07   -2.725475364024672e-06
-2.6429763621641926e-06   8.407293137248215e-07   -2.725475364024672e-06
-2.6429763621641926e-06   8.407293137248215e-07   -2.725475364024672e-06
-3.2555008854797892e-06   4.4028031494119696e-07   -1.4643317592284992e-06
-3.2555008854797892e-06   4.4028031494119696e-07   -1.4643317592284992e-06
-3.2555008854797892e-06   4.4028031494119696e-07   -1.4643317592284992e-06
-3.2555008854797892e-06   4.4028031494119696e-07   -1.4643317592284992e-06
-2.9321896501999887e-06   6.091074048958161e-07   -2.1044800720009297e-06
-2.9321896501999887e-06   6.091074048958161e-07   -2.1044800720009297e-06
-2.9321896501999887e-06   6.091074048958161e-07   -2.1044800720009297e-06
-2.9321896501999887e-06   6.091074048958161e-07   -2.1044800720009297e-06
-3.2555008854797825e-06   8.407293137248215e-07   -2.485205964754516e-06
-3.2555008854797825e-06   8.407293137248215e-07   -2.485205964754516e-06
-3.2555008854797825e-06   8.407293137248215e-07   -2.485205964754516e-06
-3.2555008854797825e-06   8.407293137248215e-07   -2.485205964754516e-06
-2.642976362164196e-06   4.4028031494119696e-07   -1.7046011584986787e-06
-2.642976362164196e-06   4.4028031494119696e-07   -1.7046011584986787e-06
-2.642976362164196e-06   4.4028031494119696e-07   -1.7046011584986787e-06
-2.642976362164196e-06   4.4028031494119696e-07   -1.7046011584986787e-06
-2.6091786907105454e-06   9.434053337359301e-07   -2.3083507255730606e-06
-2.6091786907105454e-06   9.434053337359301e-07   -2.3083507255730606e-06
-2.6091786907105454e-06   9.434053337359301e-07   -2.3083507255730606e-06
-2.6091786907105454e-06   9.434053337359301e-07   -2.3083507255730606e-06
-3.052705784219558e-06   5.541964106970819e-07   -1.3356135492346928e-06
-3.052705784219558e-06   5.541964106970819e-07   -1.3356135492346928e-06
-3.052705784219558e-06   5.541964106970819e-07   -1.3356135492346928e-06
-3.052705784219558e-06   5.541964106970819e-07   -1.3356135492346928e-06
-2.797194169716056e-06   6.640421942173235e-07   -1.8273737101860959e-06
-2.797194169716056e-06   6.640421942173235e-07   -1.8273737101860959e-06
-2.797194169716056e-06   6.640421942173235e-07   -1.8273737101860959e-06
-2.797194169716056e-06   6.640421942173235e-07   -1.8273737101860959e-06
-2.733402867930106e-06   3.141996720397097e-07   -5.143563116172739e-06
-2.733402867930106e-06   3.141996720397097e-07   -5.143563116172739e-06
-2.733402867930106e-06   3.141996720397097e-07   -5.143563116172739e-06
-2.733402867930106e-06   3.141996720397097e-07   -5.143563116172739e-06
-2.005965297357904e-06   1.4318015197705108e-07   -4.0337788772566634e-06
-2.005965297357904e-06   1.4318015197705108e-07   -4.0337788772566634e-06
-2.005965297357904e-06   1.4318015197705108e-07   -4.0337788772566634e-06
-2.005965297357904e-06   1.4318015197705108e-07   -4.0337788772566634e-06
-1.984176785089807e-06   4.923775996599491e-07   -5.123063019542233e-06
-1.984176785089807e-06   4.923775996599491e-07   -5.123063019542233e-06
-1.984176785089807e-06   4.923775996599491e-07   -5.123063019542233e-06
-1.984176785089807e-06   4.923775996599491e-07   -5.123063019542233e-06
-2.69657509551716e-06   3.0177892651822515e-07   -3.8213732982782375e-06
-2.69657509551716e-06   3.0177892651822515e-07   -3.8213732982782375e-06
-2.69657509551716e-06   3.0177892651822515e-07   -3.8213732982782375e-06
-2.69657509551716e-06   3.0177892651822515e-07   -3.8213732982782375e-06
-2.3319813605725274e-06   3.4590408877117093e-07   -4.455504620537858e-06
-2.3319813605725274e-06   3.4590408877117093e-07   -4.455504620537858e-06
-2.3319813605725274e-06   3.4590408877117093e-07   -4.455504620537858e-06
-2.3319813605725274e-06   3.4590408877117093e-07   -4.455504620537858e-06
-2.6965750955171565e-06   4.923775996599491e-07   -5.00870381565718e-06
-2.6965750955171565e-06   4.923775996599491e-07   -5.00870381565718e-06
-2.6965750955171565e-06   4.923775996599491e-07   -5.00870381565718e-06
-2.6965750955171565e-06   4.923775996599491e-07   -5.00870381565718e-06
-1.984176785089807e-06   3.0177892651822515e-07   -3.935732502163291e-06
-1.984176785089807e-06   3.0177892651822515e-07   -3.935732502163291e-06
-1.984176785089807e-06   3.0177892651822515e-07   -3.935732502163291e-06
-1.984176785089807e-06   3.0177892651822515e-07   -3.935732502163291e-06
-1.9597955057598635e-06   6.560784287481711e-07   -5.039812782663388e-06
-1.9597955057598635e-06   6.560784287481711e-07   -5.039812782663388e-06
-1.9597955057598635e-06   6.560784287481711e-07   -5.039812782663388e-06
-1.9597955057598635e-06   6.560784287481711e-07   -5.039812782663388e-06
-2.6429763621641994e-06   4.5084572082739176e-07   -3.7780383972369858e-06
-2.6429763621641994e-06   4.5084572082739176e-07   -3.7780383972369858e-06
-2.6429763621641994e-06   4.5084572082739176e-07   -3.7780383972369858e-06
-2.6429763621641994e-06   4.5084572082739176e-07   -3.7780383972369858e-06
-2.3021115503388065e-06   4.7587679086641714e-07   -4.361165058969362e-06
-2.3021115503388065e-06   4.7587679086641714e-07   -4.361165058969362e-06
-2.3021115503388065e-06   4.7587679086641714e-07   -4.361165058969362e-06
-2.3021115503388065e-06   4.7587679086641714e-07   -4.361165058969362e-06
-2.6429763621641926e-06   6.560784287481711e-07   -4.916673157910888e-06
-2.6429763621641926e-06   6.560784287481711e-07   -4.916673157910888e-06
-2.6429763621641926e-06   6.560784287481711e-07   -4.916673157910888e-06
-2.6429763621641926e-06   6.560784287481711e-07   -4.916673157910888e-06
-1.95979550575986e-06   4.5084572082739176e-07   -3.901178021989452e-06
-1.95979550575986e-06   4.5084572082739176e-07   -3.901178021989452e-06
-1.95979550575986e-06   4.5084572082739176e-07   -3.901178021989452e-06
-1.95979550575986e-06   4.5084572082739176e-07   -3.901178021989452e-06
-1.9390186929662503e-06   8.35496446556974e-07   -5.088913454458411e-06
-1.9390186929662503e-06   8.35496446556974e-07   -5.088913454458411e-06
-1.9390186929662503e-06   8.35496446556974e-07   -5.088913454458411e-06
-1.9390186929662503e-06   8.35496446556974e-07   -5.088913454458411e-06
-2.6091786907105488e-06   6.180456443854066e-07   -3.841509643581608e-06
-2.6091786907105488e-06   6.180456443854066e-07   -3.841509643581608e-06
-2.6091786907105488e-06   6.180456443854066e-07   -3.841509643581608e-06
-2.6091786907105488e-06   6.180456443854066e-07   -3.841509643581608e-06
-2.2935202452949705e-06   6.092614064455556e-07   -4.362336509843723e-06
-2.2935202452949705e-06   6.092614064455556e-07   -4.362336509843723e-06
-2.2935202452949705e-06   6.092614064455556e-07   -4.362336509843723e-06
-2.2935202452949705e-06   6.092614064455556e-07   -4.362336509843723e-06
-2.0059652973578974e-06   5.876085100550883e-08   -5.836075285297761e-06
-2.0059652973578974e-06   5.876085100550883e-08   -5.836075285297761e-06
-2.0059652973578974e-06   5.876085100550883e-08   -5.836075285297761e-06
-2.0059652973578974e-06   5.876085100550883e-08   -5.836075285297761e-06
-1.2907700302661834e-06   8.885260745241622e-08   -4.626028119610108e-06
-1.2907700302661834e-06   8.885260745241622e-08   -4.626028119610108e-06
-1.2907700302661834e-06   8.885260745241622e-08   -4.626028119610108e-06
-1.2907700302661834e-06   8.885260745241622e-08   -4.626028119610108e-06
-1.2700917831932684e-06   2.3954801226468603e-07   -5.7581249565496595e-06
-1.2700917831932684e-06   2.3954801226468603e-07   -5.7581249565496595e-06
-1.2700917831932684e-06   2.3954801226468603e-07   -5.7581249565496595e-06
-1.2700917831932684e-06   2.3954801226468603e-07   -5.7581249565496595e-06
-1.984176785089807e-06   2.5217848092685285e-07   -4.575561567919332e-06
-1.984176785089807e-06   2.5217848092685285e-07   -4.575561567919332e-06
-1.984176785089807e-06   2.5217848092685285e-07   -4.575561567919332e-06
-1.984176785089807e-06   2.5217848092685285e-07   -4.575561567919332e-06
-1.6270420026733378e-06   1.8359487891886524e-07   -5.1296360440754315e-06
-1.6270420026733378e-06   1.8359487891886524e-07   -5.1296360440754315e-06
-1.6270420026733378e-06   1.8359487891886524e-07   -5.1296360440754315e-06
-1.6270420026733378e-06   1.8359487891886524e-07   -5.1296360440754315e-06
-1.9841767850898037e-06   2.3954801226468603e-07   -5.765703237746935e-06
-1.9841767850898037e-06   2.3954801226468603e-07   -5.765703237746935e-06
-1.9841767850898037e-06   2.3954801226468603e-07   -5.765703237746935e-06
-1.9841767850898037e-06   2.3954801226468603e-07   -5.765703237746935e-06
-1.2700917831932684e-06   2.5217848092685285e-07   -4.567983286722063e-06
-1.2700917831932684e-06   2.5217848092685285e-07   -4.567983286722063e-06
-1.2700917831932684e-06   2.5217848092685285e-07   -4.567983286722063e-06
-1.2700917831932684e-06   2.5217848092685285e-07   -4.567983286722063e-06
-1.2458178697464706e-06   4.2093898408930737e-07   -5.771297840570657e-06
-1.2458178697464706e-06   4.2093898408930737e-07   -5.771297840570657e-06
-1.2458178697464706e-06   4.2093898408930737e-07   -5.771297840570657e-06
-1.2458178697464706e-06   4.2093898408930737e-07   -5.771297840570657e-06
-1.95979550575986e-06   4.168532306698643e-07   -4.578883661829994e-06
-1.95979550575986e-06   4.168532306698643e-07   -4.578883661829994e-06
-1.95979550575986e-06   4.168532306698643e-07   -4.578883661829994e-06
-1.95979550575986e-06   4.168532306698643e-07   -4.578883661829994e-06
-1.6148415934137144e-06   3.2514873470046706e-07   -5.09878415149196e-06
-1.6148415934137144e-06   3.2514873470046706e-07   -5.09878415149196e-06
-1.6148415934137144e-06   3.2514873470046706e-07   -5.09878415149196e-06
-1.6148415934137144e-06   3.2514873470046706e-07   -5.09878415149196e-06
-1.9597955057598567e-06   4.2093898408930737e-07   -5.768846388518994e-06
-1.9597955057598567e-06   4.2093898408930737e-07   -5.768846388518994e-06
-1.9597955057598567e-06   4.2093898408930737e-07   -5.768846388518994e-06
-1.9597955057598567e-06   4.2093898408930737e-07   -5.768846388518994e-06
-1.2458178697464727e-06   4.168532306698914e-07   -4.581335113881661e-06
-1.2458178697464727e-06   4.168532306698914e-07   -4.581335113881661e-06
-1.2458178697464727e-06   4.168532306698914e-07   -4.581335113881661e-06
-1.2458178697464727e-06   4.168532306698914e-07   -4.581335113881661e-06
-1.2243005331735469e-06   6.055004624649387e-07   -5.868093196418714e-06
-1.2243005331735469e-06   6.055004624649387e-07   -5.868093196418714e-06
-1.2243005331735469e-06   6.055004624649387e-07   -5.868093196418714e-06
-1.2243005331735469e-06   6.055004624649387e-07   -5.868093196418714e-06
-1.939018692966252e-06   5.841082121657972e-07   -4.664060913251356e-06
-1.939018692966252e-06   5.841082121657972e-07   -4.664060913251356e-06
-1.939018692966252e-06   5.841082121657972e-07   -4.664060913251356e-06
-1.939018692966252e-06   5.841082121657972e-07   -4.664060913251356e-06
-1.6057639729740018e-06   4.68613920880925e-07   -5.150188871800886e-06
-1.6057639729740018e-06   4.68613920880925e-07   -5.150188871800886e-06
-1.6057639729740018e-06   4.68613920880925e-07   -5.150188871800886e-06
-1.6057639729740018e-06   4.68613920880925e-07   -5.150188871800886e-06
-1.290770030266179e-06   -1.735401364468404e-07   -5.104674511778961e-06
-1.290770030266179e-06   -1.735401364468404e-07   -5.104674511778961e-06
-1.290770030266179e-06   -1.735401364468404e-07   -5.104674511778961e-06
-1.290770030266179e-06   -1.735401364468404e-07   -5.104674511778961e-06
-6.095356661846052e-07   5.0193342711172834e-08   -3.835043817481537e-06
-6.095356661846052e-07   5.0193342711172834e-08   -3.835043817481537e-06
-6.095356661846052e-07   5.0193342711172834e-08   -3.835043817481537e-06
-6.095356661846052e-07   5.0193342711172834e-08   -3.835043817481537e-06
-5.762190759781608e-07   -1.596692481126128e-09   -4.933267416829838e-06
-5.762190759781608e-07   -1.596692481126128e-09   -4.933267416829838e-06
-5.762190759781608e-07   -1.596692481126128e-09   -4.933267416829838e-06
-5.762190759781608e-07   -1.596692481126128e-09   -4.933267416829838e-06
-1.2700917831932663e-06   2.0978533353706308e-07   -3.903642120415533e-06
-1.2700917831932663e-06   2.0978533353706308e-07   -3.903642120415533e-06
-1.2700917831932663e-06   2.0978533353706308e-07   -3.903642120415533e-06
-1.2700917831932663e-06   2.0978533353706308e-07   -3.903642120415533e-06
-9.271032341824571e-07   3.7517167605411903e-08   -4.371928802541316e-06
-9.271032341824571e-07   3.7517167605411903e-08   -4.371928802541316e-06
-9.271032341824571e-07   3.7517167605411903e-08   -4.371928802541316e-06
-9.271032341824571e-07   3.7517167605411903e-08   -4.371928802541316e-06
-1.270091783193264e-06   -1.596692481126128e-09   -5.0600966324407465e-06
-1.270091783193264e-06   -1.596692481126128e-09   -5.0600966324407465e-06
-1.270091783193264e-06   -1.596692481126128e-09   -5.0600966324407465e-06
-1.270091783193264e-06   -1.596692481126128e-09   -5.0600966324407465e-06
-5.762190759781625e-07   2.0978533353706308e-07   -3.77681290480464e-06
-5.762190759781625e-07   2.0978533353706308e-07   -3.77681290480464e-06
-5.762190759781625e-07   2.0978533353706308e-07   -3.77681290480464e-06
-5.762190759781625e-07   2.0978533353706308e-07   -3.77681290480464e-06
-5.22823328533459e-07   1.6228275080583116e-07   -4.994793194602529e-06
-5.22823328533459e-07   1.6228275080583116e-07   -4.994793194602529e-06
-5.22823328533459e-07   1.6228275080583116e-07   -4.994793194602529e-06
-5.22823328533459e-07   1.6228275080583116e-07   -4.994793194602529e-06
-1.2458178697464706e-06   3.588051493393432e-07   -3.9077157317009455e-06
-1.2458178697464706e-06   3.588051493393432e-07   -3.9077157317009455e-06
-1.2458178697464706e-06   3.588051493393432e-07   -3.9077157317009455e-06
-1.2458178697464706e-06   3.588051493393432e-07   -3.9077157317009455e-06
-9.081329570372024e-07   1.671942306215226e-07   -4.355557368319048e-06
-9.081329570372024e-07   1.671942306215226e-07   -4.355557368319048e-06
-9.081329570372024e-07   1.671942306215226e-07   -4.355557368319048e-06
-9.081329570372024e-07   1.671942306215226e-07   -4.355557368319048e-06
-1.2458178697464674e-06   1.6228275080583116e-07   -5.11270663372262e-06
-1.2458178697464674e-06   1.6228275080583116e-07   -5.11270663372262e-06
-1.2458178697464674e-06   1.6228275080583116e-07   -5.11270663372262e-06
-1.2458178697464674e-06   1.6228275080583116e-07   -5.11270663372262e-06
-5.228233285334607e-07   3.588051493393432e-07   -3.7898022925808545e-06
-5.228233285334607e-07   3.588051493393432e-07   -3.7898022925808545e-06
-5.228233285334607e-07   3.588051493393432e-07   -3.7898022925808545e-06
-5.228233285334607e-07   3.588051493393432e-07   -3.7898022925808545e-06
-4.862095874190397e-07   3.4839270147156486e-07   -5.134067768084461e-06
-4.862095874190397e-07   3.4839270147156486e-07   -5.134067768084461e-06
-4.862095874190397e-07   3.4839270147156486e-07   -5.134067768084461e-06
-4.862095874190397e-07   3.4839270147156486e-07   -5.134067768084461e-06
-1.2243005331735469e-06   5.255592297624049e-07   -4.010216108801414e-06
-1.2243005331735469e-06   5.255592297624049e-07   -4.010216108801414e-06
-1.2243005331735469e-06   5.255592297624049e-07   -4.010216108801414e-06
-1.2243005331735469e-06   5.255592297624049e-07   -4.010216108801414e-06
-8.889893907365409e-07   3.013580645976348e-07   -4.434547313764255e-06
-8.889893907365409e-07   3.013580645976348e-07   -4.434547313764255e-06
-8.889893907365409e-07   3.013580645976348e-07   -4.434547313764255e-06
-8.889893907365409e-07   3.013580645976348e-07   -4.434547313764255e-06
-6.095356661846018e-07   -3.093941152620863e-07   -2.7485377775733356e-06
-6.095356661846018e-07   -3.093941152620863e-07   -2.7485377775733356e-06
-6.095356661846018e-07   -3.093941152620863e-07   -2.7485377775733356e-06
-6.095356661846018e-07   -3.093941152620863e-07   -2.7485377775733356e-06
-1.5595380242154944e-07   8.324898043303767e-08   -1.7569821472178442e-06
-1.5595380242154944e-07   8.324898043303767e-08   -1.7569821472178442e-06
-1.5595380242154944e-07   8.324898043303767e-08   -1.7569821472178442e-06
-1.5595380242154944e-07   8.324898043303767e-08   -1.7569821472178442e-06
4.533020214995563e-08   -1.9078591238547334e-07   -2.592310057343676e-06
4.533020214995563e-08   -1.9078591238547334e-07   -2.592310057343676e-06
4.533020214995563e-08   -1.9078591238547334e-07   -2.592310057343676e-06
4.533020214995563e-08   -1.9078591238547334e-07   -2.592310057343676e-06
-5.762190759781608e-07   2.111144690230887e-07   -1.7975348226418888e-06
-5.762190759781608e-07   2.111144690230887e-07   -1.7975348226418888e-06
-5.762190759781608e-07   2.111144690230887e-07   -1.7975348226418888e-06
-5.762190759781608e-07   2.111144690230887e-07   -1.7975348226418888e-06
-3.123352678985466e-07   -3.5920980629089916e-08   -2.089119899650009e-06
-3.123352678985466e-07   -3.5920980629089916e-08   -2.089119899650009e-06
-3.123352678985466e-07   -3.5920980629089916e-08   -2.089119899650009e-06
-3.123352678985466e-07   -3.5920980629089916e-08   -2.089119899650009e-06
-5.762190759781608e-07   -1.9078591238547334e-07   -2.833450286188766e-06
-5.762190759781608e-07   -1.9078591238547334e-07   -2.833450286188766e-06
-5.762190759781608e-07   -1.9078591238547334e-07   -2.833450286188766e-06
-5.762190759781608e-07   -1.9078591238547334e-07   -2.833450286188766e-06
4.533020214995563e-08   2.111144690230887e-07   -1.5563945937967753e-06
4.533020214995563e-08   2.111144690230887e-07   -1.5563945937967753e-06
4.533020214995563e-08   2.111144690230887e-07   -1.5563945937967753e-06
4.533020214995563e-08   2.111144690230887e-07   -1.5563945937967753e-06
2.0485308827295257e-07   -1.1081621067773732e-07   -2.720086145397769e-06
2.0485308827295257e-07   -1.1081621067773732e-07   -2.720086145397769e-06
2.0485308827295257e-07   -1.1081621067773732e-07   -2.720086145397769e-06
2.0485308827295257e-07   -1.1081621067773732e-07   -2.720086145397769e-06
-5.22823328533459e-07   2.82132007489624e-07   -1.7430610482874546e-06
-5.22823328533459e-07   2.82132007489624e-07   -1.7430610482874546e-06
-5.22823328533459e-07   2.82132007489624e-07   -1.7430610482874546e-06
-5.22823328533459e-07   2.82132007489624e-07   -1.7430610482874546e-06
-2.1562209872745266e-07   2.683323600214402e-08   -2.101883835071644e-06
-2.1562209872745266e-07   2.683323600214402e-08   -2.101883835071644e-06
-2.1562209872745266e-07   2.683323600214402e-08   -2.101883835071644e-06
-2.1562209872745266e-07   2.683323600214402e-08   -2.101883835071644e-06
-5.22823328533459e-07   -1.1081621067773732e-07   -2.955855076298153e-06
-5.22823328533459e-07   -1.1081621067773732e-07   -2.955855076298153e-06
-5.22823328533459e-07   -1.1081621067773732e-07   -2.955855076298153e-06
-5.22823328533459e-07   -1.1081621067773732e-07   -2.955855076298153e-06
2.0485308827294918e-07   2.821320074895969e-07   -1.5072921173870534e-06
2.0485308827294918e-07   2.821320074895969e-07   -1.5072921173870534e-06
2.0485308827294918e-07   2.821320074895969e-07   -1.5072921173870534e-06
2.0485308827294918e-07   2.821320074895969e-07   -1.5072921173870534e-06
4.09741193153337e-07   4.2766155727657186e-08   -3.0318855396653985e-06
4.09741193153337e-07   4.2766155727657186e-08   -3.0318855396653985e-06
4.09741193153337e-07   4.2766155727657186e-08   -3.0318855396653985e-06
4.09741193153337e-07   4.2766155727657186e-08   -3.0318855396653985e-06
-4.862095874190397e-07   4.038998316436074e-07   -1.7553144442609559e-06
-4.862095874190397e-07   4.038998316436074e-07   -1.7553144442609559e-06
-4.862095874190397e-07   4.038998316436074e-07   -1.7553144442609559e-06
-4.862095874190397e-07   4.038998316436074e-07   -1.7553144442609559e-06
-1.255475584743027e-07   9.430094967510902e-08   -2.1706584966544698e-06
-1.255475584743027e-07   9.430094967510902e-08   -2.1706584966544698e-06
-1.255475584743027e-07   9.430094967510902e-08   -2.1706584966544698e-06
-1.255475584743027e-07   9.430094967510902e-08   -2.1706584966544698e-06
-1.1505938015829513e-06   2.3154583966633136e-07   -2.222660800320963e-06
-1.1505938015829513e-06   2.3154583966633136e-07   -2.222660800320963e-06
-1.1505938015829513e-06   2.3154583966633136e-07   -2.222660800320963e-06
-1.1505938015829513e-06   2.3154583966633136e-07   -2.222660800320963e-06
-1.2723781436915786e-06   -1.2387133554788853e-07   -2.638885008963877e-06
-1.2723781436915786e-06   -1.2387133554788853e-07   -2.638885008963877e-06
-1.2723781436915786e-06   -1.2387133554788853e-07   -2.638885008963877e-06
-1.2723781436915786e-06   -1.2387133554788853e-07   -2.638885008963877e-06
-1.2148356494156067e-06   3.689552348212766e-07   -2.090965253945785e-06
-1.2148356494156067e-06   3.689552348212766e-07   -2.090965253945785e-06
-1.2148356494156067e-06   3.689552348212766e-07   -2.090965253945785e-06
-1.2148356494156067e-06   3.689552348212766e-07   -2.090965253945785e-06
-9.308733556363859e-07   -1.4802952702324106e-08   -2.333980831063632e-06
-9.308733556363859e-07   -1.4802952702324106e-08   -2.333980831063632e-06
-9.308733556363859e-07   -1.4802952702324106e-08   -2.333980831063632e-06
-9.308733556363859e-07   -1.4802952702324106e-08   -2.333980831063632e-06
-1.0927107183612458e-06   1.599856949507201e-07   -2.169125081780788e-06
-1.0927107183612458e-06   1.599856949507201e-07   -2.169125081780788e-06
-1.0927107183612458e-06   1.599856949507201e-07   -2.169125081780788e-06
-1.0927107183612458e-06   1.599856949507201e-07   -2.169125081780788e-06
-9.308733556363859e-07   3.689552348212766e-07   -1.8607103414316302e-06
-9.308733556363859e-07   3.689552348212766e-07   -1.8607103414316302e-06
-9.308733556363859e-07   3.689552348212766e-07   -1.8607103414316302e-06
-9.308733556363859e-07   3.689552348212766e-07   -1.8607103414316302e-06
-1.21483564941561e-06   -1.4802952702324106e-08   -2.564235743577821e-06
-1.21483564941561e-06   -1.4802952702324106e-08   -2.564235743577821e-06
-1.21483564941561e-06   -1.4802952702324106e-08   -2.564235743577821e-06
-1.21483564941561e-06   -1.4802952702324106e-08   -2.564235743577821e-06
-1.1409647892015318e-06   4.4028031494119696e-07   -1.939457195818757e-06
-1.1409647892015318e-06   4.4028031494119696e-07   -1.939457195818757e-06
-1.1409647892015318e-06   4.4028031494119696e-07   -1.939457195818757e-06
-1.1409647892015318e-06   4.4028031494119696e-07   -1.939457195818757e-06
-7.527746935366312e-07   4.908457412346038e-08   -2.351723244102918e-06
-7.527746935366312e-07   4.908457412346038e-08   -2.351723244102918e-06
-7.527746935366312e-07   4.908457412346038e-08   -2.351723244102918e-06
-7.527746935366312e-07   4.908457412346038e-08   -2.351723244102918e-06
-9.920707321204747e-07   2.1719445095165274e-07   -2.0537624392268544e-06
-9.920707321204747e-07   2.1719445095165274e-07   -2.0537624392268544e-06
-9.920707321204747e-07   2.1719445095165274e-07   -2.0537624392268544e-06
-9.920707321204747e-07   2.1719445095165274e-07   -2.0537624392268544e-06
-7.527746935366312e-07   4.4028031494119696e-07   -1.7047397513280879e-06
-7.527746935366312e-07   4.4028031494119696e-07   -1.7047397513280879e-06
-7.527746935366312e-07   4.4028031494119696e-07   -1.7047397513280879e-06
-7.527746935366312e-07   4.4028031494119696e-07   -1.7047397513280879e-06
-1.1409647892015352e-06   4.908457412346038e-08   -2.5864406885935665e-06
-1.1409647892015352e-06   4.908457412346038e-08   -2.5864406885935665e-06
-1.1409647892015352e-06   4.908457412346038e-08   -2.5864406885935665e-06
-1.1409647892015352e-06   4.908457412346038e-08   -2.5864406885935665e-06
-1.0863297748066505e-06   5.541964106970819e-07   -1.8028638766287813e-06
-1.0863297748066505e-06   5.541964106970819e-07   -1.8028638766287813e-06
-1.0863297748066505e-06   5.541964106970819e-07   -1.8028638766287813e-06
-1.0863297748066505e-06   5.541964106970819e-07   -1.8028638766287813e-06
-5.328752040216221e-07   1.7574493700565365e-07   -2.4982172770556026e-06
-5.328752040216221e-07   1.7574493700565365e-07   -2.4982172770556026e-06
-5.328752040216221e-07   1.7574493700565365e-07   -2.4982172770556026e-06
-5.328752040216221e-07   1.7574493700565365e-07   -2.4982172770556026e-06
-8.689053306958214e-07   2.747824154135229e-07   -1.997589552976677e-06
-8.689053306958214e-07   2.747824154135229e-07   -1.997589552976677e-06
-8.689053306958214e-07   2.747824154135229e-07   -1.997589552976677e-06
-8.689053306958214e-07   2.747824154135229e-07   -1.997589552976677e-06
-1.2723781436915752e-06   1.431801519770782e-07   -4.165686716576722e-06
-1.2723781436915752e-06   1.431801519770782e-07   -4.165686716576722e-06
-1.2723781436915752e-06   1.431801519770782e-07   -4.165686716576722e-06
-1.2723781436915752e-06   1.431801519770782e-07   -4.165686716576722e-06
-1.5483874812145417e-06   -1.96850469676396e-08   -4.723421398481839e-06
-1.5483874812145417e-06   -1.96850469676396e-08   -4.723421398481839e-06
-1.5483874812145417e-06   -1.96850469676396e-08   -4.723421398481839e-06
-1.5483874812145417e-06   -1.96850469676396e-08   -4.723421398481839e-06
-1.5042668400818718e-06   3.0177892651822515e-07   -4.165911475432821e-06
-1.5042668400818718e-06   3.0177892651822515e-07   -4.165911475432821e-06
-1.5042668400818718e-06   3.0177892651822515e-07   -4.165911475432821e-06
-1.5042668400818718e-06   3.0177892651822515e-07   -4.165911475432821e-06
-1.21483564941561e-06   1.1935663854652483e-07   -4.538843420426859e-06
-1.21483564941561e-06   1.1935663854652483e-07   -4.538843420426859e-06
-1.21483564941561e-06   1.1935663854652483e-07   -4.538843420426859e-06
-1.21483564941561e-06   1.1935663854652483e-07   -4.538843420426859e-06
-1.3690336560217197e-06   1.6871214057580046e-07   -4.3114600439676895e-06
-1.3690336560217197e-06   1.6871214057580046e-07   -4.3114600439676895e-06
-1.3690336560217197e-06   1.6871214057580046e-07   -4.3114600439676895e-06
-1.3690336560217197e-06   1.6871214057580046e-07   -4.3114600439676895e-06
-1.2148356494156033e-06   3.0177892651822515e-07   -4.056458102649744e-06
-1.2148356494156033e-06   3.0177892651822515e-07   -4.056458102649744e-06
-1.2148356494156033e-06   3.0177892651822515e-07   -4.056458102649744e-06
-1.2148356494156033e-06   3.0177892651822515e-07   -4.056458102649744e-06
-1.5042668400818684e-06   1.1935663854652483e-07   -4.648296793209895e-06
-1.5042668400818684e-06   1.1935663854652483e-07   -4.648296793209895e-06
-1.5042668400818684e-06   1.1935663854652483e-07   -4.648296793209895e-06
-1.5042668400818684e-06   1.1935663854652483e-07   -4.648296793209895e-06
-1.4581700197629646e-06   4.5084572082736466e-07   -4.130602026020672e-06
-1.4581700197629646e-06   4.5084572082736466e-07   -4.130602026020672e-06
-1.4581700197629646e-06   4.5084572082736466e-07   -4.130602026020672e-06
-1.4581700197629646e-06   4.5084572082736466e-07   -4.130602026020672e-06
-1.1409647892015386e-06   2.546664017213365e-07   -4.541569818826072e-06
-1.1409647892015386e-06   2.546664017213365e-07   -4.541569818826072e-06
-1.1409647892015386e-06   2.546664017213365e-07   -4.541569818826072e-06
-1.1409647892015386e-06   2.546664017213365e-07   -4.541569818826072e-06
-1.325037811301089e-06   2.8267843395202424e-07   -4.25158866799856e-06
-1.325037811301089e-06   2.8267843395202424e-07   -4.25158866799856e-06
-1.325037811301089e-06   2.8267843395202424e-07   -4.25158866799856e-06
-1.325037811301089e-06   2.8267843395202424e-07   -4.25158866799856e-06
-1.1409647892015318e-06   4.5084572082739176e-07   -4.01289443455702e-06
-1.1409647892015318e-06   4.5084572082739176e-07   -4.01289443455702e-06
-1.1409647892015318e-06   4.5084572082739176e-07   -4.01289443455702e-06
-1.1409647892015318e-06   4.5084572082739176e-07   -4.01289443455702e-06
-1.4581700197629578e-06   2.546664017213636e-07   -4.65927741028967e-06
-1.4581700197629578e-06   2.546664017213636e-07   -4.65927741028967e-06
-1.4581700197629578e-06   2.546664017213636e-07   -4.65927741028967e-06
-1.4581700197629578e-06   2.546664017213636e-07   -4.65927741028967e-06
-1.4155841938404797e-06   6.180456443854066e-07   -4.199666434225139e-06
-1.4155841938404797e-06   6.180456443854066e-07   -4.199666434225139e-06
-1.4155841938404797e-06   6.180456443854066e-07   -4.199666434225139e-06
-1.4155841938404797e-06   6.180456443854066e-07   -4.199666434225139e-06
-1.0863297748066573e-06   4.106592825974865e-07   -4.62399198220873e-06
-1.0863297748066573e-06   4.106592825974865e-07   -4.62399198220873e-06
-1.0863297748066573e-06   4.106592825974865e-07   -4.62399198220873e-06
-1.0863297748066573e-06   4.106592825974865e-07   -4.62399198220873e-06
-1.2873076385807786e-06   4.03894424715718e-07   -4.28496996118946e-06
-1.2873076385807786e-06   4.03894424715718e-07   -4.28496996118946e-06
-1.2873076385807786e-06   4.03894424715718e-07   -4.28496996118946e-06
-1.2873076385807786e-06   4.03894424715718e-07   -4.28496996118946e-06
-1.548387481214535e-06   8.885260745238911e-08   -4.8737101321651404e-06
-1.548387481214535e-06   8.885260745238911e-08   -4.8737101321651404e-06
-1.548387481214535e-06   8.885260745238911e-08   -4.8737101321651404e-06
-1.548387481214535e-06   8.885260745238911e-08   -4.8737101321651404e-06
-1.8278056117173412e-06   1.2523416205402135e-07   -5.317578083575519e-06
-1.8278056117173412e-06   1.2523416205402135e-07   -5.317578083575519e-06
-1.8278056117173412e-06   1.2523416205402135e-07   -5.317578083575519e-06
-1.8278056117173412e-06   1.2523416205402135e-07   -5.317578083575519e-06
-1.785005891474392e-06   2.5217848092685285e-07   -4.794562675611272e-06
-1.785005891474392e-06   2.5217848092685285e-07   -4.794562675611272e-06
-1.785005891474392e-06   2.5217848092685285e-07   -4.794562675611272e-06
-1.785005891474392e-06   2.5217848092685285e-07   -4.794562675611272e-06
-1.5042668400818684e-06   2.708082568895272e-07   -5.273638960176404e-06
-1.5042668400818684e-06   2.708082568895272e-07   -5.273638960176404e-06
-1.5042668400818684e-06   2.708082568895272e-07   -5.273638960176404e-06
-1.5042668400818684e-06   2.708082568895272e-07   -5.273638960176404e-06
-1.6562652813398045e-06   2.0749563297152007e-07   -4.982320650395749e-06
-1.6562652813398045e-06   2.0749563297152007e-07   -4.982320650395749e-06
-1.6562652813398045e-06   2.0749563297152007e-07   -4.982320650395749e-06
-1.6562652813398045e-06   2.0749563297152007e-07   -4.982320650395749e-06
-1.5042668400818633e-06   2.5217848092687995e-07   -4.805740541188869e-06
-1.5042668400818633e-06   2.5217848092687995e-07   -4.805740541188869e-06
-1.5042668400818633e-06   2.5217848092687995e-07   -4.805740541188869e-06
-1.5042668400818633e-06   2.5217848092687995e-07   -4.805740541188869e-06
-1.785005891474395e-06   2.708082568895543e-07   -5.2624610945988274e-06
-1.785005891474395e-06   2.708082568895543e-07   -5.2624610945988274e-06
-1.785005891474395e-06   2.708082568895543e-07   -5.2624610945988274e-06
-1.785005891474395e-06   2.708082568895543e-07   -5.2624610945988274e-06
-1.7391442997724962e-06   4.168532306698914e-07   -4.806847320314953e-06
-1.7391442997724962e-06   4.168532306698914e-07   -4.806847320314953e-06
-1.7391442997724962e-06   4.168532306698914e-07   -4.806847320314953e-06
-1.7391442997724962e-06   4.168532306698914e-07   -4.806847320314953e-06
-1.4581700197629646e-06   4.192871399136364e-07   -5.276598132543747e-06
-1.4581700197629646e-06   4.192871399136364e-07   -5.276598132543747e-06
-1.4581700197629646e-06   4.192871399136364e-07   -5.276598132543747e-06
-1.4581700197629646e-06   4.192871399136364e-07   -5.276598132543747e-06
-1.6216035188643341e-06   3.3331006468528346e-07   -4.952622722237873e-06
-1.6216035188643341e-06   3.3331006468528346e-07   -4.952622722237873e-06
-1.6216035188643341e-06   3.3331006468528346e-07   -4.952622722237873e-06
-1.6216035188643341e-06   3.3331006468528346e-07   -4.952622722237873e-06
-1.4581700197629578e-06   4.168532306698643e-07   -4.808307665861197e-06
-1.4581700197629578e-06   4.168532306698643e-07   -4.808307665861197e-06
-1.4581700197629578e-06   4.168532306698643e-07   -4.808307665861197e-06
-1.4581700197629578e-06   4.168532306698643e-07   -4.808307665861197e-06
-1.7391442997724962e-06   4.192871399136364e-07   -5.275137786997489e-06
-1.7391442997724962e-06   4.192871399136364e-07   -5.275137786997489e-06
-1.7391442997724962e-06   4.192871399136364e-07   -5.275137786997489e-06
-1.7391442997724962e-06   4.192871399136364e-07   -5.275137786997489e-06
-1.69611139379256e-06   5.841082121657972e-07   -4.900233638694394e-06
-1.69611139379256e-06   5.841082121657972e-07   -4.900233638694394e-06
-1.69611139379256e-06   5.841082121657972e-07   -4.900233638694394e-06
-1.69611139379256e-06   5.841082121657972e-07   -4.900233638694394e-06
-1.4155841938404847e-06   5.699641853283265e-07   -5.359292555845364e-06
-1.4155841938404847e-06   5.699641853283265e-07   -5.359292555845364e-06
-1.4155841938404847e-06   5.699641853283265e-07   -5.359292555845364e-06
-1.4155841938404847e-06   5.699641853283265e-07   -5.359292555845364e-06
-1.5904863983954054e-06   4.6094710966140123e-07   -5.002378636187017e-06
-1.5904863983954054e-06   4.6094710966140123e-07   -5.002378636187017e-06
-1.5904863983954054e-06   4.6094710966140123e-07   -5.002378636187017e-06
-1.5904863983954054e-06   4.6094710966140123e-07   -5.002378636187017e-06
-1.827805611717335e-06   5.0193342711172834e-08   -4.195136984770406e-06
-1.827805611717335e-06   5.0193342711172834e-08   -4.195136984770406e-06
-1.827805611717335e-06   5.0193342711172834e-08   -4.195136984770406e-06
-1.827805611717335e-06   5.0193342711172834e-08   -4.195136984770406e-06
-2.130771184808456e-06   2.743654326787506e-07   -4.565576352608374e-06
-2.130771184808456e-06   2.743654326787506e-07   -4.565576352608374e-06
-2.130771184808456e-06   2.743654326787506e-07   -4.565576352608374e-06
-2.130771184808456e-06   2.743654326787506e-07   -4.565576352608374e-06
-2.077327529927939e-06   2.0978533353706308e-07   -4.003242925551049e-06
-2.077327529927939e-06   2.0978533353706308e-07   -4.003242925551049e-06
-2.077327529927939e-06   2.0978533353706308e-07   -4.003242925551049e-06
-2.077327529927939e-06   2.0978533353706308e-07   -4.003242925551049e-06
-1.785005891474392e-06   4.214163064599689e-07   -4.61742424006065e-06
-1.785005891474392e-06   4.214163064599689e-07   -4.61742424006065e-06
-1.785005891474392e-06   4.214163064599689e-07   -4.61742424006065e-06
-1.785005891474392e-06   4.214163064599689e-07   -4.61742424006065e-06
-1.9398560803161624e-06   2.545941360666132e-07   -4.2592472897551076e-06
-1.9398560803161624e-06   2.545941360666132e-07   -4.2592472897551076e-06
-1.9398560803161624e-06   2.545941360666132e-07   -4.2592472897551076e-06
-1.9398560803161624e-06   2.545941360666132e-07   -4.2592472897551076e-06
-1.785005891474389e-06   2.0978533353706308e-07   -4.130221509304771e-06
-1.785005891474389e-06   2.0978533353706308e-07   -4.130221509304771e-06
-1.785005891474389e-06   2.0978533353706308e-07   -4.130221509304771e-06
-1.785005891474389e-06   2.0978533353706308e-07   -4.130221509304771e-06
-2.077327529927939e-06   4.214163064599418e-07   -4.490445656306962e-06
-2.077327529927939e-06   4.214163064599418e-07   -4.490445656306962e-06
-2.077327529927939e-06   4.214163064599418e-07   -4.490445656306962e-06
-2.077327529927939e-06   4.214163064599418e-07   -4.490445656306962e-06
-2.004457065584775e-06   3.588051493393432e-07   -4.014983586364583e-06
-2.004457065584775e-06   3.588051493393432e-07   -4.014983586364583e-06
-2.004457065584775e-06   3.588051493393432e-07   -4.014983586364583e-06
-2.004457065584775e-06   3.588051493393432e-07   -4.014983586364583e-06
-1.739144299772493e-06   5.558790689554429e-07   -4.575415881154692e-06
-1.739144299772493e-06   5.558790689554429e-07   -4.575415881154692e-06
-1.739144299772493e-06   5.558790689554429e-07   -4.575415881154692e-06
-1.739144299772493e-06   5.558790689554429e-07   -4.575415881154692e-06
-1.8918459627044702e-06   3.7231152215185426e-07   -4.210772581519296e-06
-1.8918459627044702e-06   3.7231152215185426e-07   -4.210772581519296e-06
-1.8918459627044702e-06   3.7231152215185426e-07   -4.210772581519296e-06
-1.8918459627044702e-06   3.7231152215185426e-07   -4.210772581519296e-06
-1.7391442997724884e-06   3.588051493393432e-07   -4.133227938134211e-06
-1.7391442997724884e-06   3.588051493393432e-07   -4.133227938134211e-06
-1.7391442997724884e-06   3.588051493393432e-07   -4.133227938134211e-06
-1.7391442997724884e-06   3.588051493393432e-07   -4.133227938134211e-06
-2.0044570655847785e-06   5.5587906895547e-07   -4.4571715293850305e-06
-2.0044570655847785e-06   5.5587906895547e-07   -4.4571715293850305e-06
-2.0044570655847785e-06   5.5587906895547e-07   -4.4571715293850305e-06
-2.0044570655847785e-06   5.5587906895547e-07   -4.4571715293850305e-06
-1.948174797502904e-06   5.255592297624049e-07   -4.126073326275723e-06
-1.948174797502904e-06   5.255592297624049e-07   -4.126073326275723e-06
-1.948174797502904e-06   5.255592297624049e-07   -4.126073326275723e-06
-1.948174797502904e-06   5.255592297624049e-07   -4.126073326275723e-06
-1.69611139379256e-06   7.046928260778654e-07   -4.653659156915545e-06
-1.69611139379256e-06   7.046928260778654e-07   -4.653659156915545e-06
-1.69611139379256e-06   7.046928260778654e-07   -4.653659156915545e-06
-1.69611139379256e-06   7.046928260778654e-07   -4.653659156915545e-06
-1.8590870085207351e-06   4.909984213302752e-07   -4.2538164895199984e-06
-1.8590870085207351e-06   4.909984213302752e-07   -4.2538164895199984e-06
-1.8590870085207351e-06   4.909984213302752e-07   -4.2538164895199984e-06
-1.8590870085207351e-06   4.909984213302752e-07   -4.2538164895199984e-06
-2.1307711848084494e-06   8.324898043303767e-08   -2.2181579179432194e-06
-2.1307711848084494e-06   8.324898043303767e-08   -2.2181579179432194e-06
-2.1307711848084494e-06   8.324898043303767e-08   -2.2181579179432194e-06
-2.1307711848084494e-06   8.324898043303767e-08   -2.2181579179432194e-06
-2.651541674964542e-06   4.684156762863837e-07   -2.8550087173580382e-06
-2.651541674964542e-06   4.684156762863837e-07   -2.8550087173580382e-06
-2.651541674964542e-06   4.684156762863837e-07   -2.8550087173580382e-06
-2.651541674964542e-06   4.684156762863837e-07   -2.8550087173580382e-06
-2.4372778404486975e-06   2.111144690230887e-07   -1.7886031990137316e-06
-2.4372778404486975e-06   2.111144690230887e-07   -1.7886031990137316e-06
-2.4372778404486975e-06   2.111144690230887e-07   -1.7886031990137316e-06
-2.4372778404486975e-06   2.111144690230887e-07   -1.7886031990137316e-06
-2.0773275299279354e-06   6.033838763140446e-07   -2.6238820275895583e-06
-2.0773275299279354e-06   6.033838763140446e-07   -2.6238820275895583e-06
-2.0773275299279354e-06   6.033838763140446e-07   -2.6238820275895583e-06
-2.0773275299279354e-06   6.033838763140446e-07   -2.6238820275895583e-06
-2.230273341327265e-06   3.558351813322475e-07   -2.220443124934982e-06
-2.230273341327265e-06   3.558351813322475e-07   -2.220443124934982e-06
-2.230273341327265e-06   3.558351813322475e-07   -2.220443124934982e-06
-2.230273341327265e-06   3.558351813322475e-07   -2.220443124934982e-06
-2.0773275299279286e-06   2.1111446902306158e-07   -2.023964843388281e-06
-2.0773275299279286e-06   2.1111446902306158e-07   -2.023964843388281e-06
-2.0773275299279286e-06   2.1111446902306158e-07   -2.023964843388281e-06
-2.0773275299279286e-06   2.1111446902306158e-07   -2.023964843388281e-06
-2.437277840448694e-06   6.033838763140446e-07   -2.3885203832149854e-06
-2.437277840448694e-06   6.033838763140446e-07   -2.3885203832149854e-06
-2.437277840448694e-06   6.033838763140446e-07   -2.3885203832149854e-06
-2.437277840448694e-06   6.033838763140446e-07   -2.3885203832149854e-06
-2.263006846618604e-06   2.821320074895969e-07   -1.7385028371822954e-06
-2.263006846618604e-06   2.821320074895969e-07   -1.7385028371822954e-06
-2.263006846618604e-06   2.821320074895969e-07   -1.7385028371822954e-06
-2.263006846618604e-06   2.821320074895969e-07   -1.7385028371822954e-06
-2.004457065584775e-06   6.650311823044408e-07   -2.399158643794216e-06
-2.004457065584775e-06   6.650311823044408e-07   -2.399158643794216e-06
-2.004457065584775e-06   6.650311823044408e-07   -2.399158643794216e-06
-2.004457065584775e-06   6.650311823044408e-07   -2.399158643794216e-06
-2.1470427238089724e-06   4.202736199160036e-07   -2.014661342654161e-06
-2.1470427238089724e-06   4.202736199160036e-07   -2.014661342654161e-06
-2.1470427238089724e-06   4.202736199160036e-07   -2.014661342654161e-06
-2.1470427238089724e-06   4.202736199160036e-07   -2.014661342654161e-06
-2.0044570655847717e-06   2.821320074895969e-07   -1.9682423420712072e-06
-2.0044570655847717e-06   2.821320074895969e-07   -1.9682423420712072e-06
-2.0044570655847717e-06   2.821320074895969e-07   -1.9682423420712072e-06
-2.0044570655847717e-06   2.821320074895969e-07   -1.9682423420712072e-06
-2.263006846618604e-06   6.650311823044408e-07   -2.1694191389053043e-06
-2.263006846618604e-06   6.650311823044408e-07   -2.1694191389053043e-06
-2.263006846618604e-06   6.650311823044408e-07   -2.1694191389053043e-06
-2.263006846618604e-06   6.650311823044408e-07   -2.1694191389053043e-06
-2.0457414459139884e-06   4.038998316436074e-07   -1.7662303855265704e-06
-2.0457414459139884e-06   4.038998316436074e-07   -1.7662303855265704e-06
-2.0457414459139884e-06   4.038998316436074e-07   -1.7662303855265704e-06
-2.0457414459139884e-06   4.038998316436074e-07   -1.7662303855265704e-06
-1.9481747975029023e-06   7.55968486948911e-07   -2.1400826593948587e-06
-1.9481747975029023e-06   7.55968486948911e-07   -2.1400826593948587e-06
-1.9481747975029023e-06   7.55968486948911e-07   -2.1400826593948587e-06
-1.9481747975029023e-06   7.55968486948911e-07   -2.1400826593948587e-06
-2.0099685646506383e-06   4.6932951919061877e-07   -1.8651096668269941e-06
-2.0099685646506383e-06   4.6932951919061877e-07   -1.8651096668269941e-06
-2.0099685646506383e-06   4.6932951919061877e-07   -1.8651096668269941e-06
-2.0099685646506383e-06   4.6932951919061877e-07   -1.8651096668269941e-06
1.2745496841649136e-06   -1.2387133554788853e-07   -1.0263964628195782e-06
1.2745496841649136e-06   -1.2387133554788853e-07   -1.0263964628195782e-06
1.2745496841649136e-06   -1.2387133554788853e-07   -1.0263964628195782e-06
1.2745496841649136e-06   -1.2387133554788853e-07   -1.0263964628195782e-06
1.5037454932482716e-07   -4.7580514152468405e-07   -3.11118197113913e-06
1.5037454932482716e-07   -4.7580514152468405e-07   -3.11118197113913e-06
1.5037454932482716e-07   -4.7580514152468405e-07   -3.11118197113913e-06
1.5037454932482716e-07   -4.7580514152468405e-07   -3.11118197113913e-06
2.277898150718544e-07   -1.4802952702297001e-08   -1.157255362651112e-06
2.277898150718544e-07   -1.4802952702297001e-08   -1.157255362651112e-06
2.277898150718544e-07   -1.4802952702297001e-08   -1.157255362651112e-06
2.277898150718544e-07   -1.4802952702297001e-08   -1.157255362651112e-06
1.5110558939367293e-06   -3.93629598845072e-07   -3.0687361730735968e-06
1.5110558939367293e-06   -3.93629598845072e-07   -3.0687361730735968e-06
1.5110558939367293e-06   -3.93629598845072e-07   -3.0687361730735968e-06
1.5110558939367293e-06   -3.93629598845072e-07   -3.0687361730735968e-06
7.60084780921117e-07   -2.0315020315896343e-07   -1.9314052887925496e-06
7.60084780921117e-07   -2.0315020315896343e-07   -1.9314052887925496e-06
7.60084780921117e-07   -2.0315020315896343e-07   -1.9314052887925496e-06
7.60084780921117e-07   -2.0315020315896343e-07   -1.9314052887925496e-06
1.5110558939367293e-06   -1.4802952702297001e-08   -9.299593749654742e-07
1.5110558939367293e-06   -1.4802952702297001e-08   -9.299593749654742e-07
1.5110558939367293e-06   -1.4802952702297001e-08   -9.299593749654742e-07
1.5110558939367293e-06   -1.4802952702297001e-08   -9.299593749654742e-07
2.2778981507185102e-07   -3.93629598845072e-07   -3.2960321607592618e-06
2.2778981507185102e-07   -3.93629598845072e-07   -3.2960321607592618e-06
2.2778981507185102e-07   -3.93629598845072e-07   -3.2960321607592618e-06
2.2778981507185102e-07   -3.93629598845072e-07   -3.2960321607592618e-06
3.201863582715509e-07   4.908457412346038e-08   -1.1738891130342113e-06
3.201863582715509e-07   4.908457412346038e-08   -1.1738891130342113e-06
3.201863582715509e-07   4.908457412346038e-08   -1.1738891130342113e-06
3.201863582715509e-07   4.908457412346038e-08   -1.1738891130342113e-06
1.7071749919668152e-06   -3.3630269899811473e-07   -3.2543044719867054e-06
1.7071749919668152e-06   -3.3630269899811473e-07   -3.2543044719867054e-06
1.7071749919668152e-06   -3.3630269899811473e-07   -3.2543044719867054e-06
1.7071749919668152e-06   -3.3630269899811473e-07   -3.2543044719867054e-06
9.073555654597861e-07   -1.6317408033471987e-07   -2.0251492656731335e-06
9.073555654597861e-07   -1.6317408033471987e-07   -2.0251492656731335e-06
9.073555654597861e-07   -1.6317408033471987e-07   -2.0251492656731335e-06
9.073555654597861e-07   -1.6317408033471987e-07   -2.0251492656731335e-06
1.7071749919668152e-06   4.908457412346038e-08   -9.426567491612717e-07
1.7071749919668152e-06   4.908457412346038e-08   -9.426567491612717e-07
1.7071749919668152e-06   4.908457412346038e-08   -9.426567491612717e-07
1.7071749919668152e-06   4.908457412346038e-08   -9.426567491612717e-07
3.201863582715509e-07   -3.3630269899811473e-07   -3.4855368358596586e-06
3.201863582715509e-07   -3.3630269899811473e-07   -3.4855368358596586e-06
3.201863582715509e-07   -3.3630269899811473e-07   -3.4855368358596586e-06
3.201863582715509e-07   -3.3630269899811473e-07   -3.4855368358596586e-06
3.9332642510911875e-07   1.7574493700565365e-07   -1.3068644026745918e-06
3.9332642510911875e-07   1.7574493700565365e-07   -1.3068644026745918e-06
3.9332642510911875e-07   1.7574493700565365e-07   -1.3068644026745918e-06
3.9332642510911875e-07   1.7574493700565365e-07   -1.3068644026745918e-06
1.9430909831132467e-06   -1.943343291883762e-07   -3.6677577729650945e-06
1.9430909831132467e-06   -1.943343291883762e-07   -3.6677577729650945e-06
1.9430909831132467e-06   -1.943343291883762e-07   -3.6677577729650945e-06
1.9430909831132467e-06   -1.943343291883762e-07   -3.6677577729650945e-06
1.0182653744537225e-06   -1.0224347212931884e-07   -2.1816362727680597e-06
1.0182653744537225e-06   -1.0224347212931884e-07   -2.1816362727680597e-06
1.0182653744537225e-06   -1.0224347212931884e-07   -2.1816362727680597e-06
1.0182653744537225e-06   -1.0224347212931884e-07   -2.1816362727680597e-06
1.5037454932482716e-07   -1.96850469676396e-08   -3.224374016556802e-06
1.5037454932482716e-07   -1.96850469676396e-08   -3.224374016556802e-06
1.5037454932482716e-07   -1.96850469676396e-08   -3.224374016556802e-06
1.5037454932482716e-07   -1.96850469676396e-08   -3.224374016556802e-06
-1.1144489928742826e-06   -1.777517242469457e-07   -5.427253259922881e-06
-1.1144489928742826e-06   -1.777517242469457e-07   -5.427253259922881e-06
-1.1144489928742826e-06   -1.777517242469457e-07   -5.427253259922881e-06
-1.1144489928742826e-06   -1.777517242469457e-07   -5.427253259922881e-06
-1.0487360935489284e-06   1.1935663854652483e-07   -3.240865111484053e-06
-1.0487360935489284e-06   1.1935663854652483e-07   -3.240865111484053e-06
-1.0487360935489284e-06   1.1935663854652483e-07   -3.240865111484053e-06
-1.0487360935489284e-06   1.1935663854652483e-07   -3.240865111484053e-06
2.2778981507185102e-07   -6.231348142663557e-08   -5.259406220534815e-06
2.2778981507185102e-07   -6.231348142663557e-08   -5.259406220534815e-06
2.2778981507185102e-07   -6.231348142663557e-08   -5.259406220534815e-06
2.2778981507185102e-07   -6.231348142663557e-08   -5.259406220534815e-06
-4.366028628186961e-07   1.1545797573759599e-09   -4.19016592742764e-06
-4.366028628186961e-07   1.1545797573759599e-09   -4.19016592742764e-06
-4.366028628186961e-07   1.1545797573759599e-09   -4.19016592742764e-06
-4.366028628186961e-07   1.1545797573759599e-09   -4.19016592742764e-06
2.2778981507185102e-07   1.1935663854652483e-07   -3.1318630395001703e-06
2.2778981507185102e-07   1.1935663854652483e-07   -3.1318630395001703e-06
2.2778981507185102e-07   1.1935663854652483e-07   -3.1318630395001703e-06
2.2778981507185102e-07   1.1935663854652483e-07   -3.1318630395001703e-06
-1.0487360935489284e-06   -6.231348142663557e-08   -5.368408292518711e-06
-1.0487360935489284e-06   -6.231348142663557e-08   -5.368408292518711e-06
-1.0487360935489284e-06   -6.231348142663557e-08   -5.368408292518711e-06
-1.0487360935489284e-06   -6.231348142663557e-08   -5.368408292518711e-06
-9.825561747125895e-07   2.546664017213636e-07   -3.2470507676135606e-06
-9.825561747125895e-07   2.546664017213636e-07   -3.2470507676135606e-06
-9.825561747125895e-07   2.546664017213636e-07   -3.2470507676135606e-06
-9.825561747125895e-07   2.546664017213636e-07   -3.2470507676135606e-06
3.201863582715509e-07   5.794552780999515e-08   -5.300255798240303e-06
3.201863582715509e-07   5.794552780999515e-08   -5.300255798240303e-06
3.201863582715509e-07   5.794552780999515e-08   -5.300255798240303e-06
3.201863582715509e-07   5.794552780999515e-08   -5.300255798240303e-06
-3.798051764797513e-07   9.774951520430527e-08   -4.157485632758082e-06
-3.798051764797513e-07   9.774951520430527e-08   -4.157485632758082e-06
-3.798051764797513e-07   9.774951520430527e-08   -4.157485632758082e-06
-3.798051764797513e-07   9.774951520430527e-08   -4.157485632758082e-06
3.201863582715509e-07   2.546664017213365e-07   -3.1290182432667233e-06
3.201863582715509e-07   2.546664017213365e-07   -3.1290182432667233e-06
3.201863582715509e-07   2.546664017213365e-07   -3.1290182432667233e-06
3.201863582715509e-07   2.546664017213365e-07   -3.1290182432667233e-06
-9.825561747125895e-07   5.794552780994094e-08   -5.4182883225871404e-06
-9.825561747125895e-07   5.794552780994094e-08   -5.4182883225871404e-06
-9.825561747125895e-07   5.794552780994094e-08   -5.4182883225871404e-06
-9.825561747125895e-07   5.794552780994094e-08   -5.4182883225871404e-06
-9.200942655296011e-07   4.106592825974865e-07   -3.330922108403208e-06
-9.200942655296011e-07   4.106592825974865e-07   -3.330922108403208e-06
-9.200942655296011e-07   4.106592825974865e-07   -3.330922108403208e-06
-9.200942655296011e-07   4.106592825974865e-07   -3.330922108403208e-06
3.9332642510911875e-07   2.0173614128027794e-07   -5.394602708010734e-06
3.9332642510911875e-07   2.0173614128027794e-07   -5.394602708010734e-06
3.9332642510911875e-07   2.0173614128027794e-07   -5.394602708010734e-06
3.9332642510911875e-07   2.0173614128027794e-07   -5.394602708010734e-06
-3.150116949249911e-07   2.0623668036770537e-07   -4.216739498073103e-06
-3.150116949249911e-07   2.0623668036770537e-07   -4.216739498073103e-06
-3.150116949249911e-07   2.0623668036770537e-07   -4.216739498073103e-06
-3.150116949249911e-07   2.0623668036770537e-07   -4.216739498073103e-06
-1.1144489928742826e-06   1.2523416205402135e-07   -3.9351996407790285e-06
-1.1144489928742826e-06   1.2523416205402135e-07   -3.9351996407790285e-06
-1.1144489928742826e-06   1.2523416205402135e-07   -3.9351996407790285e-06
-1.1144489928742826e-06   1.2523416205402135e-07   -3.9351996407790285e-06
-2.364245547032096e-06   1.5722592338501297e-07   -5.998998840910094e-06
-2.364245547032096e-06   1.5722592338501297e-07   -5.998998840910094e-06
-2.364245547032096e-06   1.5722592338501297e-07   -5.998998840910094e-06
-2.364245547032096e-06   1.5722592338501297e-07   -5.998998840910094e-06
-2.298558166278154e-06   2.708082568895272e-07   -3.86000322530672e-06
-2.298558166278154e-06   2.708082568895272e-07   -3.86000322530672e-06
-2.298558166278154e-06   2.708082568895272e-07   -3.86000322530672e-06
-2.298558166278154e-06   2.708082568895272e-07   -3.86000322530672e-06
-1.0487360935489317e-06   2.8114834546257494e-07   -5.949244066332618e-06
-1.0487360935489317e-06   2.8114834546257494e-07   -5.949244066332618e-06
-1.0487360935489317e-06   2.8114834546257494e-07   -5.949244066332618e-06
-1.0487360935489317e-06   2.8114834546257494e-07   -5.949244066332618e-06
-1.696732635016423e-06   2.3354337636588454e-07   -4.8406868490954565e-06
-1.696732635016423e-06   2.3354337636588454e-07   -4.8406868490954565e-06
-1.696732635016423e-06   2.3354337636588454e-07   -4.8406868490954565e-06
-1.696732635016423e-06   2.3354337636588454e-07   -4.8406868490954565e-06
-1.0487360935489317e-06   2.708082568895272e-07   -3.866207278450568e-06
-1.0487360935489317e-06   2.708082568895272e-07   -3.866207278450568e-06
-1.0487360935489317e-06   2.708082568895272e-07   -3.866207278450568e-06
-1.0487360935489317e-06   2.708082568895272e-07   -3.866207278450568e-06
-2.298558166278154e-06   2.8114834546262915e-07   -5.9430400131887874e-06
-2.298558166278154e-06   2.8114834546262915e-07   -5.9430400131887874e-06
-2.298558166278154e-06   2.8114834546262915e-07   -5.9430400131887874e-06
-2.298558166278154e-06   2.8114834546262915e-07   -5.9430400131887874e-06
-2.2311154168571937e-06   4.192871399136364e-07   -3.86902344156191e-06
-2.2311154168571937e-06   4.192871399136364e-07   -3.86902344156191e-06
-2.2311154168571937e-06   4.192871399136364e-07   -3.86902344156191e-06
-2.2311154168571937e-06   4.192871399136364e-07   -3.86902344156191e-06
-9.825561747125895e-07   4.1153388708983123e-07   -5.945303560108607e-06
-9.825561747125895e-07   4.1153388708983123e-07   -5.945303560108607e-06
-9.825561747125895e-07   4.1153388708983123e-07   -5.945303560108607e-06
-9.825561747125895e-07   4.1153388708983123e-07   -5.945303560108607e-06
-1.639941318448717e-06   3.427441270466205e-07   -4.808387797855906e-06
-1.639941318448717e-06   3.427441270466205e-07   -4.808387797855906e-06
-1.639941318448717e-06   3.427441270466205e-07   -4.808387797855906e-06
-1.639941318448717e-06   3.427441270466205e-07   -4.808387797855906e-06
-9.825561747125895e-07   4.192871399136364e-07   -3.864371489867624e-06
-9.825561747125895e-07   4.192871399136364e-07   -3.864371489867624e-06
-9.825561747125895e-07   4.192871399136364e-07   -3.864371489867624e-06
-9.825561747125895e-07   4.192871399136364e-07   -3.864371489867624e-06
-2.23111541685719e-06   4.1153388708983123e-07   -5.949955511802907e-06
-2.23111541685719e-06   4.1153388708983123e-07   -5.949955511802907e-06
-2.23111541685719e-06   4.1153388708983123e-07   -5.949955511802907e-06
-2.23111541685719e-06   4.1153388708983123e-07   -5.949955511802907e-06
-2.1669381136987904e-06   5.699641853283265e-07   -3.957210755924475e-06
-2.1669381136987904e-06   5.699641853283265e-07   -3.957210755924475e-06
-2.1669381136987904e-06   5.699641853283265e-07   -3.957210755924475e-06
-2.1669381136987904e-06   5.699641853283265e-07   -3.957210755924475e-06
-9.200942655296011e-07   5.442643670660534e-07   -6.019863945249079e-06
-9.200942655296011e-07   5.442643670660534e-07   -6.019863945249079e-06
-9.200942655296011e-07   5.442643670660534e-07   -6.019863945249079e-06
-9.200942655296011e-07   5.442643670660534e-07   -6.019863945249079e-06
-1.5878692957946048e-06   4.537100286537959e-07   -4.852572958426811e-06
-1.5878692957946048e-06   4.537100286537959e-07   -4.852572958426811e-06
-1.5878692957946048e-06   4.537100286537959e-07   -4.852572958426811e-06
-1.5878692957946048e-06   4.537100286537959e-07   -4.852572958426811e-06
-2.3642455470321008e-06   2.743654326787506e-07   -3.2985061069938193e-06
-2.3642455470321008e-06   2.743654326787506e-07   -3.2985061069938193e-06
-2.3642455470321008e-06   2.743654326787506e-07   -3.2985061069938193e-06
-2.3642455470321008e-06   2.743654326787506e-07   -3.2985061069938193e-06
-3.614820789539779e-06   4.868870461224362e-07   -5.2552852097737565e-06
-3.614820789539779e-06   4.868870461224362e-07   -5.2552852097737565e-06
-3.614820789539779e-06   4.868870461224362e-07   -5.2552852097737565e-06
-3.614820789539779e-06   4.868870461224362e-07   -5.2552852097737565e-06
-3.5385364756836754e-06   4.214163064599689e-07   -3.09623324803887e-06
-3.5385364756836754e-06   4.214163064599689e-07   -3.09623324803887e-06
-3.5385364756836754e-06   4.214163064599689e-07   -3.09623324803887e-06
-3.5385364756836754e-06   4.214163064599689e-07   -3.09623324803887e-06
-2.298558166278154e-06   6.193048443427912e-07   -5.281596886444468e-06
-2.298558166278154e-06   6.193048443427912e-07   -5.281596886444468e-06
-2.298558166278154e-06   6.193048443427912e-07   -5.281596886444468e-06
-2.298558166278154e-06   6.193048443427912e-07   -5.281596886444468e-06
-2.9333585535326224e-06   4.6636142473941247e-07   -4.131830189258313e-06
-2.9333585535326224e-06   4.6636142473941247e-07   -4.131830189258313e-06
-2.9333585535326224e-06   4.6636142473941247e-07   -4.131830189258313e-06
-2.9333585535326224e-06   4.6636142473941247e-07   -4.131830189258313e-06
-2.298558166278158e-06   4.214163064599418e-07   -3.214966370768604e-06
-2.298558166278158e-06   4.214163064599418e-07   -3.214966370768604e-06
-2.298558166278158e-06   4.214163064599418e-07   -3.214966370768604e-06
-2.298558166278158e-06   4.214163064599418e-07   -3.214966370768604e-06
-3.5385364756836805e-06   6.193048443427912e-07   -5.162863763714785e-06
-3.5385364756836805e-06   6.193048443427912e-07   -5.162863763714785e-06
-3.5385364756836805e-06   6.193048443427912e-07   -5.162863763714785e-06
-3.5385364756836805e-06   6.193048443427912e-07   -5.162863763714785e-06
-3.4437552607782148e-06   5.5587906895547e-07   -3.060257008110582e-06
-3.4437552607782148e-06   5.5587906895547e-07   -3.060257008110582e-06
-3.4437552607782148e-06   5.5587906895547e-07   -3.060257008110582e-06
-3.4437552607782148e-06   5.5587906895547e-07   -3.060257008110582e-06
-2.2311154168571937e-06   7.376199483029831e-07   -5.190367942254152e-06
-2.2311154168571937e-06   7.376199483029831e-07   -5.190367942254152e-06
-2.2311154168571937e-06   7.376199483029831e-07   -5.190367942254152e-06
-2.2311154168571937e-06   7.376199483029831e-07   -5.190367942254152e-06
-2.8547667613824424e-06   5.720445117400044e-07   -4.051603772774336e-06
-2.8547667613824424e-06   5.720445117400044e-07   -4.051603772774336e-06
-2.8547667613824424e-06   5.720445117400044e-07   -4.051603772774336e-06
-2.8547667613824424e-06   5.720445117400044e-07   -4.051603772774336e-06
-2.231115416857192e-06   5.5587906895547e-07   -3.169301535719106e-06
-2.231115416857192e-06   5.5587906895547e-07   -3.169301535719106e-06
-2.231115416857192e-06   5.5587906895547e-07   -3.169301535719106e-06
-2.231115416857192e-06   5.5587906895547e-07   -3.169301535719106e-06
-3.4437552607782148e-06   7.376199483029831e-07   -5.081323414645665e-06
-3.4437552607782148e-06   7.376199483029831e-07   -5.081323414645665e-06
-3.4437552607782148e-06   7.376199483029831e-07   -5.081323414645665e-06
-3.4437552607782148e-06   7.376199483029831e-07   -5.081323414645665e-06
-3.3656772672988845e-06   7.046928260778654e-07   -3.145164933469251e-06
-3.3656772672988845e-06   7.046928260778654e-07   -3.145164933469251e-06
-3.3656772672988845e-06   7.046928260778654e-07   -3.145164933469251e-06
-3.3656772672988845e-06   7.046928260778654e-07   -3.145164933469251e-06
-2.1669381136987904e-06   8.679028384493367e-07   -5.240989530225665e-06
-2.1669381136987904e-06   8.679028384493367e-07   -5.240989530225665e-06
-2.1669381136987904e-06   8.679028384493367e-07   -5.240989530225665e-06
-2.1669381136987904e-06   8.679028384493367e-07   -5.240989530225665e-06
-2.807199120910106e-06   6.748519461471339e-07   -4.058057316158812e-06
-2.807199120910106e-06   6.748519461471339e-07   -4.058057316158812e-06
-2.807199120910106e-06   6.748519461471339e-07   -4.058057316158812e-06
-2.807199120910106e-06   6.748519461471339e-07   -4.058057316158812e-06
-3.614820789539779e-06   4.684156762863837e-07   -1.6915255211893038e-06
-3.614820789539779e-06   4.684156762863837e-07   -1.6915255211893038e-06
-3.614820789539779e-06   4.684156762863837e-07   -1.6915255211893038e-06
-3.614820789539779e-06   4.684156762863837e-07   -1.6915255211893038e-06
-5.057165393948949e-06   8.400625067533256e-07   -3.872445096924412e-06
-5.057165393948949e-06   8.400625067533256e-07   -3.872445096924412e-06
-5.057165393948949e-06   8.400625067533256e-07   -3.872445096924412e-06
-5.057165393948949e-06   8.400625067533256e-07   -3.872445096924412e-06
-4.826009629928898e-06   6.033838763140446e-07   -1.0041517279337577e-06
-4.826009629928898e-06   6.033838763140446e-07   -1.0041517279337577e-06
-4.826009629928898e-06   6.033838763140446e-07   -1.0041517279337577e-06
-4.826009629928898e-06   6.033838763140446e-07   -1.0041517279337577e-06
-3.5385364756836754e-06   9.792470286270108e-07   -3.3754582097302098e-06
-3.5385364756836754e-06   9.792470286270108e-07   -3.3754582097302098e-06
-3.5385364756836754e-06   9.792470286270108e-07   -3.3754582097302098e-06
-3.5385364756836754e-06   9.792470286270108e-07   -3.3754582097302098e-06
-4.086253948615361e-06   7.360411009048936e-07   -2.316672198210827e-06
-4.086253948615361e-06   7.360411009048936e-07   -2.316672198210827e-06
-4.086253948615361e-06   7.360411009048936e-07   -2.316672198210827e-06
-4.086253948615361e-06   7.360411009048936e-07   -2.316672198210827e-06
-3.538536475683678e-06   6.033838763140446e-07   -1.2296696193214967e-06
-3.538536475683678e-06   6.033838763140446e-07   -1.2296696193214967e-06
-3.538536475683678e-06   6.033838763140446e-07   -1.2296696193214967e-06
-3.538536475683678e-06   6.033838763140446e-07   -1.2296696193214967e-06
-4.826009629928881e-06   9.792470286270108e-07   -3.149940318342457e-06
-4.826009629928881e-06   9.792470286270108e-07   -3.149940318342457e-06
-4.826009629928881e-06   9.792470286270108e-07   -3.149940318342457e-06
-4.826009629928881e-06   9.792470286270108e-07   -3.149940318342457e-06
-4.635099792387836e-06   6.650311823044408e-07   -7.834551492600874e-07
-4.635099792387836e-06   6.650311823044408e-07   -7.834551492600874e-07
-4.635099792387836e-06   6.650311823044408e-07   -7.834551492600874e-07
-4.635099792387836e-06   6.650311823044408e-07   -7.834551492600874e-07
-3.443755260778209e-06   1.0296794710706013e-06   -2.9878183418691735e-06
-3.443755260778209e-06   1.0296794710706013e-06   -2.9878183418691735e-06
-3.443755260778209e-06   1.0296794710706013e-06   -2.9878183418691735e-06
-3.443755260778209e-06   1.0296794710706013e-06   -2.9878183418691735e-06
-4.0129934048279905e-06   8.009842287831832e-07   -1.9018709564137413e-06
-4.0129934048279905e-06   8.009842287831832e-07   -1.9018709564137413e-06
-4.0129934048279905e-06   8.009842287831832e-07   -1.9018709564137413e-06
-4.0129934048279905e-06   8.009842287831832e-07   -1.9018709564137413e-06
-3.4437552607782148e-06   6.650311823044137e-07   -1.0022441225197675e-06
-3.4437552607782148e-06   6.650311823044137e-07   -1.0022441225197675e-06
-3.4437552607782148e-06   6.650311823044137e-07   -1.0022441225197675e-06
-3.4437552607782148e-06   6.650311823044137e-07   -1.0022441225197675e-06
-4.635099792387829e-06   1.0296794710706013e-06   -2.769029368609473e-06
-4.635099792387829e-06   1.0296794710706013e-06   -2.769029368609473e-06
-4.635099792387829e-06   1.0296794710706013e-06   -2.769029368609473e-06
-4.635099792387829e-06   1.0296794710706013e-06   -2.769029368609473e-06
-4.4048574306766174e-06   7.55968486948911e-07   -5.394454522481972e-07
-4.4048574306766174e-06   7.55968486948911e-07   -5.394454522481972e-07
-4.4048574306766174e-06   7.55968486948911e-07   -5.394454522481972e-07
-4.4048574306766174e-06   7.55968486948911e-07   -5.394454522481972e-07
-3.3656772672988845e-06   1.08867372276505e-06   -2.47103553270075e-06
-3.3656772672988845e-06   1.08867372276505e-06   -2.47103553270075e-06
-3.3656772672988845e-06   1.08867372276505e-06   -2.47103553270075e-06
-3.3656772672988845e-06   1.08867372276505e-06   -2.47103553270075e-06
-3.82868408831729e-06   8.305480114914685e-07   -1.544482070905971e-06
-3.82868408831729e-06   8.305480114914685e-07   -1.544482070905971e-06
-3.82868408831729e-06   8.305480114914685e-07   -1.544482070905971e-06
-3.82868408831729e-06   8.305480114914685e-07   -1.544482070905971e-06
3.680966166636759e-06   -4.7580514152473826e-07   1.424434517733079e-07
3.680966166636759e-06   -4.7580514152473826e-07   1.424434517733079e-07
3.680966166636759e-06   -4.7580514152473826e-07   1.424434517733079e-07
3.680966166636759e-06   -4.7580514152473826e-07   1.424434517733079e-07
1.5390743851350822e-06   -8.356897013670644e-07   -3.6433069199682194e-06
1.5390743851350822e-06   -8.356897013670644e-07   -3.6433069199682194e-06
1.5390743851350822e-06   -8.356897013670644e-07   -3.6433069199682194e-06
1.5390743851350822e-06   -8.356897013670644e-07   -3.6433069199682194e-06
1.632408858861034e-06   -3.936295988450178e-07   -2.4087323255000135e-07
1.632408858861034e-06   -3.936295988450178e-07   -2.4087323255000135e-07
1.632408858861034e-06   -3.936295988450178e-07   -2.4087323255000135e-07
1.632408858861034e-06   -3.936295988450178e-07   -2.4087323255000135e-07
3.9324885551918014e-06   -7.797913287911368e-07   -3.842642355133624e-06
3.9324885551918014e-06   -7.797913287911368e-07   -3.842642355133624e-06
3.9324885551918014e-06   -7.797913287911368e-07   -3.842642355133624e-06
3.9324885551918014e-06   -7.797913287911368e-07   -3.842642355133624e-06
2.586057072039232e-06   -5.579522718164023e-07   -1.7316933173975533e-06
2.586057072039232e-06   -5.579522718164023e-07   -1.7316933173975533e-06
2.586057072039232e-06   -5.579522718164023e-07   -1.7316933173975533e-06
2.586057072039232e-06   -5.579522718164023e-07   -1.7316933173975533e-06
3.932488555191808e-06   -3.936295988450178e-07   -9.176194582340754e-09
3.932488555191808e-06   -3.936295988450178e-07   -9.176194582340754e-09
3.932488555191808e-06   -3.936295988450178e-07   -9.176194582340754e-09
3.932488555191808e-06   -3.936295988450178e-07   -9.176194582340754e-09
1.632408858861034e-06   -7.797913287911368e-07   -4.0743393931012714e-06
1.632408858861034e-06   -7.797913287911368e-07   -4.0743393931012714e-06
1.632408858861034e-06   -7.797913287911368e-07   -4.0743393931012714e-06
1.632408858861034e-06   -7.797913287911368e-07   -4.0743393931012714e-06
1.7366523589959532e-06   -3.3630269899811473e-07   -4.135324733206688e-07
1.7366523589959532e-06   -3.3630269899811473e-07   -4.135324733206688e-07
1.7366523589959532e-06   -3.3630269899811473e-07   -4.135324733206688e-07
1.7366523589959532e-06   -3.3630269899811473e-07   -4.135324733206688e-07
4.140348967819191e-06   -7.285047235425527e-07   -4.184372273299412e-06
4.140348967819191e-06   -7.285047235425527e-07   -4.184372273299412e-06
4.140348967819191e-06   -7.285047235425527e-07   -4.184372273299412e-06
4.140348967819191e-06   -7.285047235425527e-07   -4.184372273299412e-06
2.7744436190343286e-06   -5.349107199269405e-07   -2.024019760827299e-06
2.7744436190343286e-06   -5.349107199269405e-07   -2.024019760827299e-06
2.7744436190343286e-06   -5.349107199269405e-07   -2.024019760827299e-06
2.7744436190343286e-06   -5.349107199269405e-07   -2.024019760827299e-06
4.140348967819198e-06   -3.3630269899811473e-07   -1.782112585940168e-07
4.140348967819198e-06   -3.3630269899811473e-07   -1.782112585940168e-07
4.140348967819198e-06   -3.3630269899811473e-07   -1.782112585940168e-07
4.140348967819198e-06   -3.3630269899811473e-07   -1.782112585940168e-07
1.7366523589959498e-06   -7.285047235425527e-07   -4.4196934880260915e-06
1.7366523589959498e-06   -7.285047235425527e-07   -4.4196934880260915e-06
1.7366523589959498e-06   -7.285047235425527e-07   -4.4196934880260915e-06
1.7366523589959498e-06   -7.285047235425527e-07   -4.4196934880260915e-06
1.820122457816473e-06   -1.943343291883762e-07   -8.013779824936741e-07
1.820122457816473e-06   -1.943343291883762e-07   -8.013779824936741e-07
1.820122457816473e-06   -1.943343291883762e-07   -8.013779824936741e-07
1.820122457816473e-06   -1.943343291883762e-07   -8.013779824936741e-07
4.382186116122717e-06   -5.699643350545866e-07   -4.84610607615101e-06
4.382186116122717e-06   -5.699643350545866e-07   -4.84610607615101e-06
4.382186116122717e-06   -5.699643350545866e-07   -4.84610607615101e-06
4.382186116122717e-06   -5.699643350545866e-07   -4.84610607615101e-06
2.8668624165791593e-06   -4.696982944579135e-07   -2.3807262012699024e-06
2.8668624165791593e-06   -4.696982944579135e-07   -2.3807262012699024e-06
2.8668624165791593e-06   -4.696982944579135e-07   -2.3807262012699024e-06
2.8668624165791593e-06   -4.696982944579135e-07   -2.3807262012699024e-06
1.5390743851350856e-06   -1.777517242468915e-07   -2.294718566548266e-06
1.5390743851350856e-06   -1.777517242468915e-07   -2.294718566548266e-06
1.5390743851350856e-06   -1.777517242468915e-07   -2.294718566548266e-06
1.5390743851350856e-06   -1.777517242468915e-07   -2.294718566548266e-06
-6.964748442637168e-07   -3.744856870962609e-07   -6.138674326589184e-06
-6.964748442637168e-07   -3.744856870962609e-07   -6.138674326589184e-06
-6.964748442637168e-07   -3.744856870962609e-07   -6.138674326589184e-06
-6.964748442637168e-07   -3.744856870962609e-07   -6.138674326589184e-06
-6.115579045350851e-07   -6.231348142663557e-08   -2.3418391164688787e-06
-6.115579045350851e-07   -6.231348142663557e-08   -2.3418391164688787e-06
-6.115579045350851e-07   -6.231348142663557e-08   -2.3418391164688787e-06
-6.115579045350851e-07   -6.231348142663557e-08   -2.3418391164688787e-06
1.632408858861034e-06   -2.9163318833208985e-07   -5.944191897985752e-06
1.632408858861034e-06   -2.9163318833208985e-07   -5.944191897985752e-06
1.632408858861034e-06   -2.9163318833208985e-07   -5.944191897985752e-06
1.632408858861034e-06   -2.9163318833208985e-07   -5.944191897985752e-06
4.7048496638251826e-07   -1.7798507799982478e-07   -4.0758409433875955e-06
4.7048496638251826e-07   -1.7798507799982478e-07   -4.0758409433875955e-06
4.7048496638251826e-07   -1.7798507799982478e-07   -4.0758409433875955e-06
4.7048496638251826e-07   -1.7798507799982478e-07   -4.0758409433875955e-06
1.632408858861034e-06   -6.231348142663557e-08   -2.204247292325568e-06
1.632408858861034e-06   -6.231348142663557e-08   -2.204247292325568e-06
1.632408858861034e-06   -6.231348142663557e-08   -2.204247292325568e-06
1.632408858861034e-06   -6.231348142663557e-08   -2.204247292325568e-06
-6.115579045350851e-07   -2.9163318833208985e-07   -6.081783722129049e-06
-6.115579045350851e-07   -2.9163318833208985e-07   -6.081783722129049e-06
-6.115579045350851e-07   -2.9163318833208985e-07   -6.081783722129049e-06
-6.115579045350851e-07   -2.9163318833208985e-07   -6.081783722129049e-06
-5.305494772953664e-07   5.794552780994094e-08   -2.3775246066937736e-06
-5.305494772953664e-07   5.794552780994094e-08   -2.3775246066937736e-06
-5.305494772953664e-07   5.794552780994094e-08   -2.3775246066937736e-06
-5.305494772953664e-07   5.794552780994094e-08   -2.3775246066937736e-06
1.7366523589959498e-06   -1.9084309051082627e-07   -6.006921162853525e-06
1.7366523589959498e-06   -1.9084309051082627e-07   -6.006921162853525e-06
1.7366523589959498e-06   -1.9084309051082627e-07   -6.006921162853525e-06
1.7366523589959498e-06   -1.9084309051082627e-07   -6.006921162853525e-06
5.353993819417695e-07   -1.0344199200104567e-07   -4.057273526868966e-06
5.353993819417695e-07   -1.0344199200104567e-07   -4.057273526868966e-06
5.353993819417695e-07   -1.0344199200104567e-07   -4.057273526868966e-06
5.353993819417695e-07   -1.0344199200104567e-07   -4.057273526868966e-06
1.7366523589959532e-06   5.794552780999515e-08   -2.2282514357013132e-06
1.7366523589959532e-06   5.794552780999515e-08   -2.2282514357013132e-06
1.7366523589959532e-06   5.794552780999515e-08   -2.2282514357013132e-06
1.7366523589959532e-06   5.794552780999515e-08   -2.2282514357013132e-06
-5.305494772953664e-07   -1.9084309051077206e-07   -6.156194333845999e-06
-5.305494772953664e-07   -1.9084309051077206e-07   -6.156194333845999e-06
-5.305494772953664e-07   -1.9084309051077206e-07   -6.156194333845999e-06
-5.305494772953664e-07   -1.9084309051077206e-07   -6.156194333845999e-06
-4.551555201535839e-07   2.0173614128027794e-07   -2.4649608038342346e-06
-4.551555201535839e-07   2.0173614128027794e-07   -2.4649608038342346e-06
-4.551555201535839e-07   2.0173614128027794e-07   -2.4649608038342346e-06
-4.551555201535839e-07   2.0173614128027794e-07   -2.4649608038342346e-06
1.820122457816473e-06   -6.290626873865692e-08   -6.098305321106337e-06
1.820122457816473e-06   -6.290626873865692e-08   -6.098305321106337e-06
1.820122457816473e-06   -6.290626873865692e-08   -6.098305321106337e-06
1.820122457816473e-06   -6.290626873865692e-08   -6.098305321106337e-06
6.203515992979255e-07   -1.0759138556752819e-08   -4.1299755016846595e-06
6.203515992979255e-07   -1.0759138556752819e-08   -4.1299755016846595e-06
6.203515992979255e-07   -1.0759138556752819e-08   -4.1299755016846595e-06
6.203515992979255e-07   -1.0759138556752819e-08   -4.1299755016846595e-06
-6.964748442637168e-07   1.5722592338501297e-07   -3.003699582043674e-06
-6.964748442637168e-07   1.5722592338501297e-07   -3.003699582043674e-06
-6.964748442637168e-07   1.5722592338501297e-07   -3.003699582043674e-06
-6.964748442637168e-07   1.5722592338501297e-07   -3.003699582043674e-06
-2.8925175688470245e-06   1.0149163271296535e-07   -6.697211364085773e-06
-2.8925175688470245e-06   1.0149163271296535e-07   -6.697211364085773e-06
-2.8925175688470245e-06   1.0149163271296535e-07   -6.697211364085773e-06
-2.8925175688470245e-06   1.0149163271296535e-07   -6.697211364085773e-06
-2.8013678895994027e-06   2.8114834546262915e-07   -2.973878316008655e-06
-2.8013678895994027e-06   2.8114834546262915e-07   -2.973878316008655e-06
-2.8013678895994027e-06   2.8114834546262915e-07   -2.973878316008655e-06
-2.8013678895994027e-06   2.8114834546262915e-07   -2.973878316008655e-06
-6.115579045350851e-07   1.9580930258613575e-07   -6.572358198723308e-06
-6.115579045350851e-07   1.9580930258613575e-07   -6.572358198723308e-06
-6.115579045350851e-07   1.9580930258613575e-07   -6.572358198723308e-06
-6.115579045350851e-07   1.9580930258613575e-07   -6.572358198723308e-06
-1.739163181657467e-06   2.169321192471707e-07   -4.705689760182635e-06
-1.739163181657467e-06   2.169321192471707e-07   -4.705689760182635e-06
-1.739163181657467e-06   2.169321192471707e-07   -4.705689760182635e-06
-1.739163181657467e-06   2.169321192471707e-07   -4.705689760182635e-06
-6.115579045350851e-07   2.8114834546257494e-07   -2.9226748902827482e-06
-6.115579045350851e-07   2.8114834546257494e-07   -2.9226748902827482e-06
-6.115579045350851e-07   2.8114834546257494e-07   -2.9226748902827482e-06
-6.115579045350851e-07   2.8114834546257494e-07   -2.9226748902827482e-06
-2.8013678895994027e-06   1.9580930258613575e-07   -6.623561624449184e-06
-2.8013678895994027e-06   1.9580930258613575e-07   -6.623561624449184e-06
-2.8013678895994027e-06   1.9580930258613575e-07   -6.623561624449184e-06
-2.8013678895994027e-06   1.9580930258613575e-07   -6.623561624449184e-06
-2.7130107728495916e-06   4.1153388708983123e-07   -2.9695479126952407e-06
-2.7130107728495916e-06   4.1153388708983123e-07   -2.9695479126952407e-06
-2.7130107728495916e-06   4.1153388708983123e-07   -2.9695479126952407e-06
-2.7130107728495916e-06   4.1153388708983123e-07   -2.9695479126952407e-06
-5.305494772953698e-07   3.0318710628993465e-07   -6.541975336805654e-06
-5.305494772953698e-07   3.0318710628993465e-07   -6.541975336805654e-06
-5.305494772953698e-07   3.0318710628993465e-07   -6.541975336805654e-06
-5.305494772953698e-07   3.0318710628993465e-07   -6.541975336805654e-06
-1.66166848664568e-06   3.055695641362294e-07   -4.658206462596241e-06
-1.66166848664568e-06   3.055695641362294e-07   -4.658206462596241e-06
-1.66166848664568e-06   3.055695641362294e-07   -4.658206462596241e-06
-1.66166848664568e-06   3.055695641362294e-07   -4.658206462596241e-06
-5.305494772953698e-07   4.1153388708983123e-07   -2.904539844215254e-06
-5.305494772953698e-07   4.1153388708983123e-07   -2.904539844215254e-06
-5.305494772953698e-07   4.1153388708983123e-07   -2.904539844215254e-06
-5.305494772953698e-07   4.1153388708983123e-07   -2.904539844215254e-06
-2.7130107728495916e-06   3.0318710628988044e-07   -6.6069834052856e-06
-2.7130107728495916e-06   3.0318710628988044e-07   -6.6069834052856e-06
-2.7130107728495916e-06   3.0318710628988044e-07   -6.6069834052856e-06
-2.7130107728495916e-06   3.0318710628988044e-07   -6.6069834052856e-06
-2.631439771532091e-06   5.442643670659992e-07   -3.04314116782647e-06
-2.631439771532091e-06   5.442643670659992e-07   -3.04314116782647e-06
-2.631439771532091e-06   5.442643670659992e-07   -3.04314116782647e-06
-2.631439771532091e-06   5.442643670659992e-07   -3.04314116782647e-06
-4.551555201535839e-07   4.1380934782568124e-07   -6.592008575246443e-06
-4.551555201535839e-07   4.1380934782568124e-07   -6.592008575246443e-06
-4.551555201535839e-07   4.1380934782568124e-07   -6.592008575246443e-06
-4.551555201535839e-07   4.1380934782568124e-07   -6.592008575246443e-06
-1.5932590790149382e-06   3.964659535162776e-07   -4.684763273891964e-06
-1.5932590790149382e-06   3.964659535162776e-07   -4.684763273891964e-06
-1.5932590790149382e-06   3.964659535162776e-07   -4.684763273891964e-06
-1.5932590790149382e-06   3.964659535162776e-07   -4.684763273891964e-06
-2.8925175688470296e-06   4.868870461224362e-07   -2.4209394933767518e-06
-2.8925175688470296e-06   4.868870461224362e-07   -2.4209394933767518e-06
-2.8925175688470296e-06   4.868870461224362e-07   -2.4209394933767518e-06
-2.8925175688470296e-06   4.868870461224362e-07   -2.4209394933767518e-06
-5.0670935275546245e-06   5.951678050570577e-07   -5.9802643025286685e-06
-5.0670935275546245e-06   5.951678050570577e-07   -5.9802643025286685e-06
-5.0670935275546245e-06   5.951678050570577e-07   -5.9802643025286685e-06
-5.0670935275546245e-06   5.951678050570577e-07   -5.9802643025286685e-06
-4.95601585445605e-06   6.193048443427912e-07   -2.2564399967254286e-06
-4.95601585445605e-06   6.193048443427912e-07   -2.2564399967254286e-06
-4.95601585445605e-06   6.193048443427912e-07   -2.2564399967254286e-06
-4.95601585445605e-06   6.193048443427912e-07   -2.2564399967254286e-06
-2.801367889599407e-06   7.126301652409959e-07   -5.903515130692127e-06
-2.801367889599407e-06   7.126301652409959e-07   -5.903515130692127e-06
-2.801367889599407e-06   7.126301652409959e-07   -5.903515130692127e-06
-2.801367889599407e-06   7.126301652409959e-07   -5.903515130692127e-06
-3.900935787275203e-06   6.25370735841198e-07   -4.018546310259198e-06
-3.900935787275203e-06   6.25370735841198e-07   -4.018546310259198e-06
-3.900935787275203e-06   6.25370735841198e-07   -4.018546310259198e-06
-3.900935787275203e-06   6.25370735841198e-07   -4.018546310259198e-06
-2.801367889599407e-06   6.193048443427912e-07   -2.312435189264346e-06
-2.801367889599407e-06   6.193048443427912e-07   -2.312435189264346e-06
-2.801367889599407e-06   6.193048443427912e-07   -2.312435189264346e-06
-2.801367889599407e-06   6.193048443427912e-07   -2.312435189264346e-06
-4.956015854456059e-06   7.126301652409959e-07   -5.847519938153201e-06
-4.956015854456059e-06   7.126301652409959e-07   -5.847519938153201e-06
-4.956015854456059e-06   7.126301652409959e-07   -5.847519938153201e-06
-4.956015854456059e-06   7.126301652409959e-07   -5.847519938153201e-06
-4.830425959270063e-06   7.376199483029831e-07   -2.164469547693399e-06
-4.830425959270063e-06   7.376199483029831e-07   -2.164469547693399e-06
-4.830425959270063e-06   7.376199483029831e-07   -2.164469547693399e-06
-4.830425959270063e-06   7.376199483029831e-07   -2.164469547693399e-06
-2.713010772849596e-06   8.134379407247075e-07   -5.7389856538472404e-06
-2.713010772849596e-06   8.134379407247075e-07   -5.7389856538472404e-06
-2.713010772849596e-06   8.134379407247075e-07   -5.7389856538472404e-06
-2.713010772849596e-06   8.134379407247075e-07   -5.7389856538472404e-06
-3.78583773954674e-06   7.182693618320224e-07   -3.8938395620163825e-06
-3.78583773954674e-06   7.182693618320224e-07   -3.8938395620163825e-06
-3.78583773954674e-06   7.182693618320224e-07   -3.8938395620163825e-06
-3.78583773954674e-06   7.182693618320224e-07   -3.8938395620163825e-06
-2.7130107728495933e-06   7.376199483029831e-07   -2.2099603431464552e-06
-2.7130107728495933e-06   7.376199483029831e-07   -2.2099603431464552e-06
-2.7130107728495933e-06   7.376199483029831e-07   -2.2099603431464552e-06
-2.7130107728495933e-06   7.376199483029831e-07   -2.2099603431464552e-06
-4.830425959270063e-06   8.134379407247617e-07   -5.693494858394199e-06
-4.830425959270063e-06   8.134379407247617e-07   -5.693494858394199e-06
-4.830425959270063e-06   8.134379407247617e-07   -5.693494858394199e-06
-4.830425959270063e-06   8.134379407247617e-07   -5.693494858394199e-06
-4.725006608025687e-06   8.679028384493367e-07   -2.2157085197375005e-06
-4.725006608025687e-06   8.679028384493367e-07   -2.2157085197375005e-06
-4.725006608025687e-06   8.679028384493367e-07   -2.2157085197375005e-06
-4.725006608025687e-06   8.679028384493367e-07   -2.2157085197375005e-06
-2.6314397715320962e-06   9.231334086296883e-07   -5.738124922668325e-06
-2.6314397715320962e-06   9.231334086296883e-07   -5.738124922668325e-06
-2.6314397715320962e-06   9.231334086296883e-07   -5.738124922668325e-06
-2.6314397715320962e-06   9.231334086296883e-07   -5.738124922668325e-06
-3.720861124109243e-06   8.031168953046464e-07   -3.850412760378081e-06
-3.720861124109243e-06   8.031168953046464e-07   -3.850412760378081e-06
-3.720861124109243e-06   8.031168953046464e-07   -3.850412760378081e-06
-3.720861124109243e-06   8.031168953046464e-07   -3.850412760378081e-06
-5.0670935275546245e-06   8.400625067533527e-07   -1.1961190234469077e-06
-5.0670935275546245e-06   8.400625067533527e-07   -1.1961190234469077e-06
-5.0670935275546245e-06   8.400625067533527e-07   -1.1961190234469077e-06
-5.0670935275546245e-06   8.400625067533527e-07   -1.1961190234469077e-06
-7.383909689009683e-06   1.1428200592922115e-06   -4.875824761015366e-06
-7.383909689009683e-06   1.1428200592922115e-06   -4.875824761015366e-06
-7.383909689009683e-06   1.1428200592922115e-06   -4.875824761015366e-06
-7.383909689009683e-06   1.1428200592922115e-06   -4.875824761015366e-06
-7.110073723087691e-06   9.792470286270108e-07   -2.7704226043278094e-07
-7.110073723087691e-06   9.792470286270108e-07   -2.7704226043278094e-07
-7.110073723087691e-06   9.792470286270108e-07   -2.7704226043278094e-07
-7.110073723087691e-06   9.792470286270108e-07   -2.7704226043278094e-07
-4.95601585445605e-06   1.2992339991405553e-06   -4.059130890460303e-06
-4.95601585445605e-06   1.2992339991405553e-06   -4.059130890460303e-06
-4.95601585445605e-06   1.2992339991405553e-06   -4.059130890460303e-06
-4.95601585445605e-06   1.2992339991405553e-06   -4.059130890460303e-06
-5.876986639120191e-06   1.0877826640881463e-06   -2.397308781655299e-06
-5.876986639120191e-06   1.0877826640881463e-06   -2.397308781655299e-06
-5.876986639120191e-06   1.0877826640881463e-06   -2.397308781655299e-06
-5.876986639120191e-06   1.0877826640881463e-06   -2.397308781655299e-06
-4.956015854456055e-06   9.79247028627038e-07   -4.6903444274090764e-07
-4.956015854456055e-06   9.79247028627038e-07   -4.6903444274090764e-07
-4.956015854456055e-06   9.79247028627038e-07   -4.6903444274090764e-07
-4.956015854456055e-06   9.79247028627038e-07   -4.6903444274090764e-07
-7.110073723087679e-06   1.2992339991405553e-06   -3.867138708152178e-06
-7.110073723087679e-06   1.2992339991405553e-06   -3.867138708152178e-06
-7.110073723087679e-06   1.2992339991405553e-06   -3.867138708152178e-06
-7.110073723087679e-06   1.2992339991405553e-06   -3.867138708152178e-06
-6.885112022818091e-06   1.0296794710705742e-06   1.1608214949251406e-07
-6.885112022818091e-06   1.0296794710705742e-06   1.1608214949251406e-07
-6.885112022818091e-06   1.0296794710705742e-06   1.1608214949251406e-07
-6.885112022818091e-06   1.0296794710705742e-06   1.1608214949251406e-07
-4.830425959270063e-06   1.3414238450863876e-06   -3.495441247496992e-06
-4.830425959270063e-06   1.3414238450863876e-06   -3.495441247496992e-06
-4.830425959270063e-06   1.3414238450863876e-06   -3.495441247496992e-06
-4.830425959270063e-06   1.3414238450863876e-06   -3.495441247496992e-06
-5.798674898111512e-06   1.153479741916705e-06   -1.7689265541927598e-06
-5.798674898111512e-06   1.153479741916705e-06   -1.7689265541927598e-06
-5.798674898111512e-06   1.153479741916705e-06   -1.7689265541927598e-06
-5.798674898111512e-06   1.153479741916705e-06   -1.7689265541927598e-06
-4.830425959270063e-06   1.0296794710705742e-06   -7.096447491694146e-08
-4.830425959270063e-06   1.0296794710705742e-06   -7.096447491694146e-08
-4.830425959270063e-06   1.0296794710705742e-06   -7.096447491694146e-08
-4.830425959270063e-06   1.0296794710705742e-06   -7.096447491694146e-08
-6.885112022818065e-06   1.3414238450863334e-06   -3.3083946230875604e-06
-6.885112022818065e-06   1.3414238450863334e-06   -3.3083946230875604e-06
-6.885112022818065e-06   1.3414238450863334e-06   -3.3083946230875604e-06
-6.885112022818065e-06   1.3414238450863334e-06   -3.3083946230875604e-06
-6.637687204412134e-06   1.08867372276505e-06   6.264038065521512e-07
-6.637687204412134e-06   1.08867372276505e-06   6.264038065521512e-07
-6.637687204412134e-06   1.08867372276505e-06   6.264038065521512e-07
-6.637687204412134e-06   1.08867372276505e-06   6.264038065521512e-07
-4.725006608025687e-06   1.3721476164111463e-06   -2.731481523612903e-06
-4.725006608025687e-06   1.3721476164111463e-06   -2.731481523612903e-06
-4.725006608025687e-06   1.3721476164111463e-06   -2.731481523612903e-06
-4.725006608025687e-06   1.3721476164111463e-06   -2.731481523612903e-06
-5.5623521403150335e-06   1.1633600494584439e-06   -1.2106330962924556e-06
-5.5623521403150335e-06   1.1633600494584439e-06   -1.2106330962924556e-06
-5.5623521403150335e-06   1.1633600494584439e-06   -1.2106330962924556e-06
-5.5623521403150335e-06   1.1633600494584439e-06   -1.2106330962924556e-06
6.0635880919524885e-06   -8.356897013670102e-07   1.370740028502909e-06
6.0635880919524885e-06   -8.356897013670102e-07   1.370740028502909e-06
6.0635880919524885e-06   -8.356897013670102e-07   1.370740028502909e-06
6.0635880919524885e-06   -8.356897013670102e-07   1.370740028502909e-06
2.884390475583953e-06   -1.2119043422986774e-06   -4.1536514500036545e-06
2.884390475583953e-06   -1.2119043422986774e-06   -4.1536514500036545e-06
2.884390475583953e-06   -1.2119043422986774e-06   -4.1536514500036545e-06
2.884390475583953e-06   -1.2119043422986774e-06   -4.1536514500036545e-06
2.986784410086403e-06   -7.797913287911368e-07   7.497713871579552e-07
2.986784410086403e-06   -7.797913287911368e-07   7.497713871579552e-07
2.986784410086403e-06   -7.797913287911368e-07   7.497713871579552e-07
2.986784410086403e-06   -7.797913287911368e-07   7.497713871579552e-07
6.316252698908123e-06   -1.1866079190986042e-06   -4.555252473360496e-06
6.316252698908123e-06   -1.1866079190986042e-06   -4.555252473360496e-06
6.316252698908123e-06   -1.1866079190986042e-06   -4.555252473360496e-06
6.316252698908123e-06   -1.1866079190986042e-06   -4.555252473360496e-06
4.375461852895234e-06   -9.093132769660015e-07   -1.4869778486185573e-06
4.375461852895234e-06   -9.093132769660015e-07   -1.4869778486185573e-06
4.375461852895234e-06   -9.093132769660015e-07   -1.4869778486185573e-06
4.375461852895234e-06   -9.093132769660015e-07   -1.4869778486185573e-06
6.316252698908123e-06   -7.797913287911368e-07   9.93861341342403e-07
6.316252698908123e-06   -7.797913287911368e-07   9.93861341342403e-07
6.316252698908123e-06   -7.797913287911368e-07   9.93861341342403e-07
6.316252698908123e-06   -7.797913287911368e-07   9.93861341342403e-07
2.9867844100864e-06   -1.1866079190986042e-06   -4.7993424275449435e-06
2.9867844100864e-06   -1.1866079190986042e-06   -4.7993424275449435e-06
2.9867844100864e-06   -1.1866079190986042e-06   -4.7993424275449435e-06
2.9867844100864e-06   -1.1866079190986042e-06   -4.7993424275449435e-06
3.0890506104877012e-06   -7.285047235425527e-07   4.3893249767167487e-07
3.0890506104877012e-06   -7.285047235425527e-07   4.3893249767167487e-07
3.0890506104877012e-06   -7.285047235425527e-07   4.3893249767167487e-07
3.0890506104877012e-06   -7.285047235425527e-07   4.3893249767167487e-07
6.507901205058588e-06   -1.144400234165757e-06   -5.009614520239219e-06
6.507901205058588e-06   -1.144400234165757e-06   -5.009614520239219e-06
6.507901205058588e-06   -1.144400234165757e-06   -5.009614520239219e-06
6.507901205058588e-06   -1.144400234165757e-06   -5.009614520239219e-06
4.590716360392128e-06   -9.056573561541485e-07   -1.957552172602084e-06
4.590716360392128e-06   -9.056573561541485e-07   -1.957552172602084e-06
4.590716360392128e-06   -9.056573561541485e-07   -1.957552172602084e-06
4.590716360392128e-06   -9.056573561541485e-07   -1.957552172602084e-06
6.507901205058588e-06   -7.285047235425527e-07   6.88469804045592e-07
6.507901205058588e-06   -7.285047235425527e-07   6.88469804045592e-07
6.507901205058588e-06   -7.285047235425527e-07   6.88469804045592e-07
6.507901205058588e-06   -7.285047235425527e-07   6.88469804045592e-07
3.0890506104877012e-06   -1.144400234165757e-06   -5.259151826613156e-06
3.0890506104877012e-06   -1.144400234165757e-06   -5.259151826613156e-06
3.0890506104877012e-06   -1.144400234165757e-06   -5.259151826613156e-06
3.0890506104877012e-06   -1.144400234165757e-06   -5.259151826613156e-06
3.155938388801996e-06   -5.699643350545866e-07   -1.752516884004449e-07
3.155938388801996e-06   -5.699643350545866e-07   -1.752516884004449e-07
3.155938388801996e-06   -5.699643350545866e-07   -1.752516884004449e-07
3.155938388801996e-06   -5.699643350545866e-07   -1.752516884004449e-07
6.711403774932916e-06   -9.83442116453718e-07   -5.852940663112478e-06
6.711403774932916e-06   -9.83442116453718e-07   -5.852940663112478e-06
6.711403774932916e-06   -9.83442116453718e-07   -5.852940663112478e-06
6.711403774932916e-06   -9.83442116453718e-07   -5.852940663112478e-06
4.639362975950121e-06   -8.341223813921423e-07   -2.4891311725115694e-06
4.639362975950121e-06   -8.341223813921423e-07   -2.4891311725115694e-06
4.639362975950121e-06   -8.341223813921423e-07   -2.4891311725115694e-06
4.639362975950121e-06   -8.341223813921423e-07   -2.4891311725115694e-06
2.8843904755839565e-06   -3.744856870962609e-07   -1.2323157849674477e-06
2.8843904755839565e-06   -3.744856870962609e-07   -1.2323157849674477e-06
2.8843904755839565e-06   -3.744856870962609e-07   -1.2323157849674477e-06
2.8843904755839565e-06   -3.744856870962609e-07   -1.2323157849674477e-06
-2.4242336661972134e-07   -7.445221613421645e-07   -6.665694073187831e-06
-2.4242336661972134e-07   -7.445221613421645e-07   -6.665694073187831e-06
-2.4242336661972134e-07   -7.445221613421645e-07   -6.665694073187831e-06
-2.4242336661972134e-07   -7.445221613421645e-07   -6.665694073187831e-06
-1.3879711912472272e-07   -2.9163318833208985e-07   -1.3670154510795457e-06
-1.3879711912472272e-07   -2.9163318833208985e-07   -1.3670154510795457e-06
-1.3879711912472272e-07   -2.9163318833208985e-07   -1.3670154510795457e-06
-1.3879711912472272e-07   -2.9163318833208985e-07   -1.3670154510795457e-06
2.986784410086403e-06   -7.031904105870472e-07   -6.3293836664117645e-06
2.986784410086403e-06   -7.031904105870472e-07   -6.3293836664117645e-06
2.986784410086403e-06   -7.031904105870472e-07   -6.3293836664117645e-06
2.986784410086403e-06   -7.031904105870472e-07   -6.3293836664117645e-06
1.3753146373134766e-06   -4.523034902627755e-07   -3.7941328639848267e-06
1.3753146373134766e-06   -4.523034902627755e-07   -3.7941328639848267e-06
1.3753146373134766e-06   -4.523034902627755e-07   -3.7941328639848267e-06
1.3753146373134766e-06   -4.523034902627755e-07   -3.7941328639848267e-06
2.9867844100864e-06   -2.9163318833208985e-07   -1.1200811177265659e-06
2.9867844100864e-06   -2.9163318833208985e-07   -1.1200811177265659e-06
2.9867844100864e-06   -2.9163318833208985e-07   -1.1200811177265659e-06
2.9867844100864e-06   -2.9163318833208985e-07   -1.1200811177265659e-06
-1.3879711912472272e-07   -7.031904105870472e-07   -6.576317999764758e-06
-1.3879711912472272e-07   -7.031904105870472e-07   -6.576317999764758e-06
-1.3879711912472272e-07   -7.031904105870472e-07   -6.576317999764758e-06
-1.3879711912472272e-07   -7.031904105870472e-07   -6.576317999764758e-06
-4.787129208926334e-08   -1.9084309051077206e-07   -1.4120380479848264e-06
-4.787129208926334e-08   -1.9084309051077206e-07   -1.4120380479848264e-06
-4.787129208926334e-08   -1.9084309051077206e-07   -1.4120380479848264e-06
-4.787129208926334e-08   -1.9084309051077206e-07   -1.4120380479848264e-06
3.0890506104877012e-06   -6.304145418925653e-07   -6.376498348117372e-06
3.0890506104877012e-06   -6.304145418925653e-07   -6.376498348117372e-06
3.0890506104877012e-06   -6.304145418925653e-07   -6.376498348117372e-06
3.0890506104877012e-06   -6.304145418925653e-07   -6.376498348117372e-06
1.442308713709907e-06   -4.091248999458976e-07   -3.7647023053222824e-06
1.442308713709907e-06   -4.091248999458976e-07   -3.7647023053222824e-06
1.442308713709907e-06   -4.091248999458976e-07   -3.7647023053222824e-06
1.442308713709907e-06   -4.091248999458976e-07   -3.7647023053222824e-06
3.0890506104877012e-06   -1.9084309051077206e-07   -1.1482951771557722e-06
3.0890506104877012e-06   -1.9084309051077206e-07   -1.1482951771557722e-06
3.0890506104877012e-06   -1.9084309051077206e-07   -1.1482951771557722e-06
3.0890506104877012e-06   -1.9084309051077206e-07   -1.1482951771557722e-06
-4.787129208926334e-08   -6.304145418925653e-07   -6.640241218946433e-06
-4.787129208926334e-08   -6.304145418925653e-07   -6.640241218946433e-06
-4.787129208926334e-08   -6.304145418925653e-07   -6.640241218946433e-06
-4.787129208926334e-08   -6.304145418925653e-07   -6.640241218946433e-06
1.5571472888493694e-08   -6.290626873860271e-08   -1.4802570881813026e-06
1.5571472888493694e-08   -6.290626873860271e-08   -1.4802570881813026e-06
1.5571472888493694e-08   -6.290626873860271e-08   -1.4802570881813026e-06
1.5571472888493694e-08   -6.290626873860271e-08   -1.4802570881813026e-06
3.155938388802006e-06   -5.265465326473057e-07   -6.436017789691938e-06
3.155938388802006e-06   -5.265465326473057e-07   -6.436017789691938e-06
3.155938388802006e-06   -5.265465326473057e-07   -6.436017789691938e-06
3.155938388802006e-06   -5.265465326473057e-07   -6.436017789691938e-06
1.5278761507254713e-06   -3.3563490836098237e-07   -3.837127700802892e-06
1.5278761507254713e-06   -3.3563490836098237e-07   -3.837127700802892e-06
1.5278761507254713e-06   -3.3563490836098237e-07   -3.837127700802892e-06
1.5278761507254713e-06   -3.3563490836098237e-07   -3.837127700802892e-06
-2.4242336661972134e-07   1.0149163271296535e-07   -1.9794341326083507e-06
-2.4242336661972134e-07   1.0149163271296535e-07   -1.9794341326083507e-06
-2.4242336661972134e-07   1.0149163271296535e-07   -1.9794341326083507e-06
-2.4242336661972134e-07   1.0149163271296535e-07   -1.9794341326083507e-06
-3.323244781654463e-06   -3.275511391730352e-07   -7.371562154131182e-06
-3.323244781654463e-06   -3.275511391730352e-07   -7.371562154131182e-06
-3.323244781654463e-06   -3.275511391730352e-07   -7.371562154131182e-06
-3.323244781654463e-06   -3.275511391730352e-07   -7.371562154131182e-06
-3.19836197821318e-06   1.9580930258613575e-07   -2.1413174383764664e-06
-3.19836197821318e-06   1.9580930258613575e-07   -2.1413174383764664e-06
-3.19836197821318e-06   1.9580930258613575e-07   -2.1413174383764664e-06
-3.19836197821318e-06   1.9580930258613575e-07   -2.1413174383764664e-06
-1.3879711912472272e-07   -2.7706988191831053e-07   -6.956864692821217e-06
-1.3879711912472272e-07   -2.7706988191831053e-07   -6.956864692821217e-06
-1.3879711912472272e-07   -2.7706988191831053e-07   -6.956864692821217e-06
-1.3879711912472272e-07   -2.7706988191831053e-07   -6.956864692821217e-06
-1.7075181173828603e-06   -2.201494002829381e-08   -4.495362660858325e-06
-1.7075181173828603e-06   -2.201494002829381e-08   -4.495362660858325e-06
-1.7075181173828603e-06   -2.201494002829381e-08   -4.495362660858325e-06
-1.7075181173828603e-06   -2.201494002829381e-08   -4.495362660858325e-06
-1.3879711912472272e-07   1.9580930258608154e-07   -1.8575899276737878e-06
-1.3879711912472272e-07   1.9580930258608154e-07   -1.8575899276737878e-06
-1.3879711912472272e-07   1.9580930258608154e-07   -1.8575899276737878e-06
-1.3879711912472272e-07   1.9580930258608154e-07   -1.8575899276737878e-06
-3.19836197821318e-06   -2.7706988191836474e-07   -7.240592203523895e-06
-3.19836197821318e-06   -2.7706988191836474e-07   -7.240592203523895e-06
-3.19836197821318e-06   -2.7706988191836474e-07   -7.240592203523895e-06
-3.19836197821318e-06   -2.7706988191836474e-07   -7.240592203523895e-06
-3.0838551233553407e-06   3.0318710628988044e-07   -2.1024275335381414e-06
-3.0838551233553407e-06   3.0318710628988044e-07   -2.1024275335381414e-06
-3.0838551233553407e-06   3.0318710628988044e-07   -2.1024275335381414e-06
-3.0838551233553407e-06   3.0318710628988044e-07   -2.1024275335381414e-06
-4.787129208926334e-08   -2.044936980328269e-07   -6.857792103054621e-06
-4.787129208926334e-08   -2.044936980328269e-07   -6.857792103054621e-06
-4.787129208926334e-08   -2.044936980328269e-07   -6.857792103054621e-06
-4.787129208926334e-08   -2.044936980328269e-07   -6.857792103054621e-06
-1.6070359244383272e-06   3.354965287966647e-08   -4.402010393020337e-06
-1.6070359244383272e-06   3.354965287966647e-08   -4.402010393020337e-06
-1.6070359244383272e-06   3.354965287966647e-08   -4.402010393020337e-06
-1.6070359244383272e-06   3.354965287966647e-08   -4.402010393020337e-06
-4.787129208926334e-08   3.0318710628988044e-07   -1.7978190509444953e-06
-4.787129208926334e-08   3.0318710628988044e-07   -1.7978190509444953e-06
-4.787129208926334e-08   3.0318710628988044e-07   -1.7978190509444953e-06
-4.787129208926334e-08   3.0318710628988044e-07   -1.7978190509444953e-06
-3.0838551233553458e-06   -2.044936980328811e-07   -7.162400585648295e-06
-3.0838551233553458e-06   -2.044936980328811e-07   -7.162400585648295e-06
-3.0838551233553458e-06   -2.044936980328811e-07   -7.162400585648295e-06
-3.0838551233553458e-06   -2.044936980328811e-07   -7.162400585648295e-06
-3.0071571652787875e-06   4.1380934782562703e-07   -2.1443534700720445e-06
-3.0071571652787875e-06   4.1380934782562703e-07   -2.1443534700720445e-06
-3.0071571652787875e-06   4.1380934782562703e-07   -2.1443534700720445e-06
-3.0071571652787875e-06   4.1380934782562703e-07   -2.1443534700720445e-06
1.5571472888493694e-08   -1.3482160844436068e-07   -6.853055959922172e-06
1.5571472888493694e-08   -1.3482160844436068e-07   -6.853055959922172e-06
1.5571472888493694e-08   -1.3482160844436068e-07   -6.853055959922172e-06
1.5571472888493694e-08   -1.3482160844436068e-07   -6.853055959922172e-06
-1.5366901611973742e-06   9.520824587733439e-08   -4.403971149038809e-06
-1.5366901611973742e-06   9.520824587733439e-08   -4.403971149038809e-06
-1.5366901611973742e-06   9.520824587733439e-08   -4.403971149038809e-06
-1.5366901611973742e-06   9.520824587733439e-08   -4.403971149038809e-06
-3.323244781654458e-06   5.951678050570034e-07   -1.584881189543592e-06
-3.323244781654458e-06   5.951678050570034e-07   -1.584881189543592e-06
-3.323244781654458e-06   5.951678050570034e-07   -1.584881189543592e-06
-3.323244781654458e-06   5.951678050570034e-07   -1.584881189543592e-06
-6.455410345545919e-06   2.1911973619695609e-07   -7.030785970678778e-06
-6.455410345545919e-06   2.1911973619695609e-07   -7.030785970678778e-06
-6.455410345545919e-06   2.1911973619695609e-07   -7.030785970678778e-06
-6.455410345545919e-06   2.1911973619695609e-07   -7.030785970678778e-06
-6.276952372588907e-06   7.126301652409959e-07   -1.6664336952455902e-06
-6.276952372588907e-06   7.126301652409959e-07   -1.6664336952455902e-06
-6.276952372588907e-06   7.126301652409959e-07   -1.6664336952455902e-06
-6.276952372588907e-06   7.126301652409959e-07   -1.6664336952455902e-06
-3.198361978213175e-06   3.040255808639406e-07   -6.552254935245597e-06
-3.198361978213175e-06   3.040255808639406e-07   -6.552254935245597e-06
-3.198361978213175e-06   3.040255808639406e-07   -6.552254935245597e-06
-3.198361978213175e-06   3.040255808639406e-07   -6.552254935245597e-06
-4.7668036558198695e-06   4.93452671225655e-07   -4.051841726784768e-06
-4.7668036558198695e-06   4.93452671225655e-07   -4.051841726784768e-06
-4.7668036558198695e-06   4.93452671225655e-07   -4.051841726784768e-06
-4.7668036558198695e-06   4.93452671225655e-07   -4.051841726784768e-06
-3.198361978213175e-06   7.126301652409959e-07   -1.4212709446193733e-06
-3.198361978213175e-06   7.126301652409959e-07   -1.4212709446193733e-06
-3.198361978213175e-06   7.126301652409959e-07   -1.4212709446193733e-06
-3.198361978213175e-06   7.126301652409959e-07   -1.4212709446193733e-06
-6.276952372588918e-06   3.040255808639948e-07   -6.7974176858717934e-06
-6.276952372588918e-06   3.040255808639948e-07   -6.7974176858717934e-06
-6.276952372588918e-06   3.040255808639948e-07   -6.7974176858717934e-06
-6.276952372588918e-06   3.040255808639948e-07   -6.7974176858717934e-06
-6.1016012598361915e-06   8.134379407247617e-07   -1.4937091745471107e-06
-6.1016012598361915e-06   8.134379407247617e-07   -1.4937091745471107e-06
-6.1016012598361915e-06   8.134379407247617e-07   -1.4937091745471107e-06
-6.1016012598361915e-06   8.134379407247617e-07   -1.4937091745471107e-06
-3.0838551233553458e-06   3.813056199792296e-07   -6.264006676234509e-06
-3.0838551233553458e-06   3.813056199792296e-07   -6.264006676234509e-06
-3.0838551233553458e-06   3.813056199792296e-07   -6.264006676234509e-06
-3.0838551233553458e-06   3.813056199792296e-07   -6.264006676234509e-06
-4.601306044918596e-06   5.674589333039401e-07   -3.846613794957287e-06
-4.601306044918596e-06   5.674589333039401e-07   -3.846613794957287e-06
-4.601306044918596e-06   5.674589333039401e-07   -3.846613794957287e-06
-4.601306044918596e-06   5.674589333039401e-07   -3.846613794957287e-06
-3.0838551233553373e-06   8.134379407247617e-07   -1.2344297820997697e-06
-3.0838551233553373e-06   8.134379407247617e-07   -1.2344297820997697e-06
-3.0838551233553373e-06   8.134379407247617e-07   -1.2344297820997697e-06
-3.0838551233553373e-06   8.134379407247617e-07   -1.2344297820997697e-06
-6.101601259836202e-06   3.813056199792296e-07   -6.523286068681877e-06
-6.101601259836202e-06   3.813056199792296e-07   -6.523286068681877e-06
-6.101601259836202e-06   3.813056199792296e-07   -6.523286068681877e-06
-6.101601259836202e-06   3.813056199792296e-07   -6.523286068681877e-06
-5.972709148312068e-06   9.231334086297425e-07   -1.4992037984041986e-06
-5.972709148312068e-06   9.231334086297425e-07   -1.4992037984041986e-06
-5.972709148312068e-06   9.231334086297425e-07   -1.4992037984041986e-06
-5.972709148312068e-06   9.231334086297425e-07   -1.4992037984041986e-06
-3.0071571652787926e-06   4.447884212055984e-07   -6.15478344433854e-06
-3.0071571652787926e-06   4.447884212055984e-07   -6.15478344433854e-06
-3.0071571652787926e-06   4.447884212055984e-07   -6.15478344433854e-06
-3.0071571652787926e-06   4.447884212055984e-07   -6.15478344433854e-06
-4.518210394541866e-06   6.196636019461144e-07   -3.7412865040110168e-06
-4.518210394541866e-06   6.196636019461144e-07   -3.7412865040110168e-06
-4.518210394541866e-06   6.196636019461144e-07   -3.7412865040110168e-06
-4.518210394541866e-06   6.196636019461144e-07   -3.7412865040110168e-06
-6.455410345545919e-06   1.1428200592922115e-06   -8.877250208696823e-07
-6.455410345545919e-06   1.1428200592922115e-06   -8.877250208696823e-07
-6.455410345545919e-06   1.1428200592922115e-06   -8.877250208696823e-07
-6.455410345545919e-06   1.1428200592922115e-06   -8.877250208696823e-07
-9.752303978146522e-06   1.1052964520656921e-06   -6.405061906206632e-06
-9.752303978146522e-06   1.1052964520656921e-06   -6.405061906206632e-06
-9.752303978146522e-06   1.1052964520656921e-06   -6.405061906206632e-06
-9.752303978146522e-06   1.1052964520656921e-06   -6.405061906206632e-06
-9.37759221380091e-06   1.2992339991405011e-06   1.6030962884144482e-07
-9.37759221380091e-06   1.2992339991405011e-06   1.6030962884144482e-07
-9.37759221380091e-06   1.2992339991405011e-06   1.6030962884144482e-07
-9.37759221380091e-06   1.2992339991405011e-06   1.6030962884144482e-07
-6.276952372588895e-06   1.3631577931307688e-06   -5.045777716239404e-06
-6.276952372588895e-06   1.3631577931307688e-06   -5.045777716239404e-06
-6.276952372588895e-06   1.3631577931307688e-06   -5.045777716239404e-06
-6.276952372588895e-06   1.3631577931307688e-06   -5.045777716239404e-06
-7.623525147060737e-06   1.2805666467181963e-06   -2.7519350709388117e-06
-7.623525147060737e-06   1.2805666467181963e-06   -2.7519350709388117e-06
-7.623525147060737e-06   1.2805666467181963e-06   -2.7519350709388117e-06
-7.623525147060737e-06   1.2805666467181963e-06   -2.7519350709388117e-06
-6.276952372588912e-06   1.2992339991405553e-06   1.219553524473059e-07
-6.276952372588912e-06   1.2992339991405553e-06   1.219553524473059e-07
-6.276952372588912e-06   1.2992339991405553e-06   1.219553524473059e-07
-6.276952372588912e-06   1.2992339991405553e-06   1.219553524473059e-07
-9.37759221380091e-06   1.3631577931307688e-06   -5.007423439845268e-06
-9.37759221380091e-06   1.3631577931307688e-06   -5.007423439845268e-06
-9.37759221380091e-06   1.3631577931307688e-06   -5.007423439845268e-06
-9.37759221380091e-06   1.3631577931307688e-06   -5.007423439845268e-06
-9.070232803402467e-06   1.3414238450863334e-06   7.531366841059665e-07
-9.070232803402467e-06   1.3414238450863334e-06   7.531366841059665e-07
-9.070232803402467e-06   1.3414238450863334e-06   7.531366841059665e-07
-9.070232803402467e-06   1.3414238450863334e-06   7.531366841059665e-07
-6.1016012598361915e-06   1.4227442580128048e-06   -4.243374802927044e-06
-6.1016012598361915e-06   1.4227442580128048e-06   -4.243374802927044e-06
-6.1016012598361915e-06   1.4227442580128048e-06   -4.243374802927044e-06
-6.1016012598361915e-06   1.4227442580128048e-06   -4.243374802927044e-06
-7.502017644928313e-06   1.369716301086296e-06   -1.8775307202841625e-06
-7.502017644928313e-06   1.369716301086296e-06   -1.8775307202841625e-06
-7.502017644928313e-06   1.369716301086296e-06   -1.8775307202841625e-06
-7.502017644928313e-06   1.369716301086296e-06   -1.8775307202841625e-06
-6.101601259836202e-06   1.3414238450863876e-06   7.043444363500728e-07
-6.101601259836202e-06   1.3414238450863876e-06   7.043444363500728e-07
-6.101601259836202e-06   1.3414238450863876e-06   7.043444363500728e-07
-6.101601259836202e-06   1.3414238450863876e-06   7.043444363500728e-07
-9.070232803402454e-06   1.4227442580128048e-06   -4.194582555171184e-06
-9.070232803402454e-06   1.4227442580128048e-06   -4.194582555171184e-06
-9.070232803402454e-06   1.4227442580128048e-06   -4.194582555171184e-06
-9.070232803402454e-06   1.4227442580128048e-06   -4.194582555171184e-06
-8.745144751109514e-06   1.3721476164111463e-06   1.5595778062344888e-06
-8.745144751109514e-06   1.3721476164111463e-06   1.5595778062344888e-06
-8.745144751109514e-06   1.3721476164111463e-06   1.5595778062344888e-06
-8.745144751109514e-06   1.3721476164111463e-06   1.5595778062344888e-06
-5.972709148312068e-06   1.5142751958968723e-06   -3.1464247461193747e-06
-5.972709148312068e-06   1.5142751958968723e-06   -3.1464247461193747e-06
-5.972709148312068e-06   1.5142751958968723e-06   -3.1464247461193747e-06
-5.972709148312068e-06   1.5142751958968723e-06   -3.1464247461193747e-06
-7.180665830366005e-06   1.395293608133204e-06   -1.0617746567047315e-06
-7.180665830366005e-06   1.395293608133204e-06   -1.0617746567047315e-06
-7.180665830366005e-06   1.395293608133204e-06   -1.0617746567047315e-06
-7.180665830366005e-06   1.395293608133204e-06   -1.0617746567047315e-06
8.193118907275683e-06   -1.2119043422986774e-06   2.928268936349071e-06
8.193118907275683e-06   -1.2119043422986774e-06   2.928268936349071e-06
8.193118907275683e-06   -1.2119043422986774e-06   2.928268936349071e-06
8.193118907275683e-06   -1.2119043422986774e-06   2.928268936349071e-06
4.077868940374778e-06   -1.5127167944780566e-06   -4.110968479793364e-06
4.077868940374778e-06   -1.5127167944780566e-06   -4.110968479793364e-06
4.077868940374778e-06   -1.5127167944780566e-06   -4.110968479793364e-06
4.077868940374778e-06   -1.5127167944780566e-06   -4.110968479793364e-06
4.164041627523253e-06   -1.1866079190986042e-06   2.133154567953978e-06
4.164041627523253e-06   -1.1866079190986042e-06   2.133154567953978e-06
4.164041627523253e-06   -1.1866079190986042e-06   2.133154567953978e-06
4.164041627523253e-06   -1.1866079190986042e-06   2.133154567953978e-06
8.379826754190867e-06   -1.5506965923077726e-06   -4.674700772566531e-06
8.379826754190867e-06   -1.5506965923077726e-06   -4.674700772566531e-06
8.379826754190867e-06   -1.5506965923077726e-06   -4.674700772566531e-06
8.379826754190867e-06   -1.5506965923077726e-06   -4.674700772566531e-06
5.953720533048664e-06   -1.2372410644979144e-06   -8.192637206821263e-07
5.953720533048664e-06   -1.2372410644979144e-06   -8.192637206821263e-07
5.953720533048664e-06   -1.2372410644979144e-06   -8.192637206821263e-07
5.953720533048664e-06   -1.2372410644979144e-06   -8.192637206821263e-07
8.379826754190867e-06   -1.1866079190986042e-06   2.3516077718795006e-06
8.379826754190867e-06   -1.1866079190986042e-06   2.3516077718795006e-06
8.379826754190867e-06   -1.1866079190986042e-06   2.3516077718795006e-06
8.379826754190867e-06   -1.1866079190986042e-06   2.3516077718795006e-06
4.164041627523253e-06   -1.5506965923077726e-06   -4.893153976492047e-06
4.164041627523253e-06   -1.5506965923077726e-06   -4.893153976492047e-06
4.164041627523253e-06   -1.5506965923077726e-06   -4.893153976492047e-06
4.164041627523253e-06   -1.5506965923077726e-06   -4.893153976492047e-06
4.2365627450709586e-06   -1.144400234165757e-06   1.7004146537689903e-06
4.2365627450709586e-06   -1.144400234165757e-06   1.7004146537689903e-06
4.2365627450709586e-06   -1.144400234165757e-06   1.7004146537689903e-06
4.2365627450709586e-06   -1.144400234165757e-06   1.7004146537689903e-06
8.494814710923806e-06   -1.5340213242103309e-06   -5.162899301959028e-06
8.494814710923806e-06   -1.5340213242103309e-06   -5.162899301959028e-06
8.494814710923806e-06   -1.5340213242103309e-06   -5.162899301959028e-06
8.494814710923806e-06   -1.5340213242103309e-06   -5.162899301959028e-06
6.151568302450545e-06   -1.273091544001044e-06   -1.414046489295822e-06
6.151568302450545e-06   -1.273091544001044e-06   -1.414046489295822e-06
6.151568302450545e-06   -1.273091544001044e-06   -1.414046489295822e-06
6.151568302450545e-06   -1.273091544001044e-06   -1.414046489295822e-06
8.494814710923806e-06   -1.144400234165757e-06   1.9341873077957238e-06
8.494814710923806e-06   -1.144400234165757e-06   1.9341873077957238e-06
8.494814710923806e-06   -1.144400234165757e-06   1.9341873077957238e-06
8.494814710923806e-06   -1.144400234165757e-06   1.9341873077957238e-06
4.2365627450709586e-06   -1.5340213242103309e-06   -5.396671955985768e-06
4.2365627450709586e-06   -1.5340213242103309e-06   -5.396671955985768e-06
4.2365627450709586e-06   -1.5340213242103309e-06   -5.396671955985768e-06
4.2365627450709586e-06   -1.5340213242103309e-06   -5.396671955985768e-06
4.310351863881491e-06   -9.834421164537721e-07   8.76148279188078e-07
4.310351863881491e-06   -9.834421164537721e-07   8.76148279188078e-07
4.310351863881491e-06   -9.834421164537721e-07   8.76148279188078e-07
4.310351863881491e-06   -9.834421164537721e-07   8.76148279188078e-07
8.608199659741163e-06   -1.4410482882851834e-06   -6.012367677479225e-06
8.608199659741163e-06   -1.4410482882851834e-06   -6.012367677479225e-06
8.608199659741163e-06   -1.4410482882851834e-06   -6.012367677479225e-06
8.608199659741163e-06   -1.4410482882851834e-06   -6.012367677479225e-06
6.141719070642452e-06   -1.2209975414822702e-06   -2.0335971437297805e-06
6.141719070642452e-06   -1.2209975414822702e-06   -2.0335971437297805e-06
6.141719070642452e-06   -1.2209975414822702e-06   -2.0335971437297805e-06
6.141719070642452e-06   -1.2209975414822702e-06   -2.0335971437297805e-06
4.077868940374778e-06   -7.445221613421645e-07   4.577607264048421e-07
4.077868940374778e-06   -7.445221613421645e-07   4.577607264048421e-07
4.077868940374778e-06   -7.445221613421645e-07   4.577607264048421e-07
4.077868940374778e-06   -7.445221613421645e-07   4.577607264048421e-07
3.7537832911817496e-07   -1.4195104753584437e-06   -6.118049947432581e-06
3.7537832911817496e-07   -1.4195104753584437e-06   -6.118049947432581e-06
3.7537832911817496e-07   -1.4195104753584437e-06   -6.118049947432581e-06
3.7537832911817496e-07   -1.4195104753584437e-06   -6.118049947432581e-06
4.7452656058039213e-07   -7.031904105871014e-07   1.8081556598943237e-07
4.7452656058039213e-07   -7.031904105871014e-07   1.8081556598943237e-07
4.7452656058039213e-07   -7.031904105871014e-07   1.8081556598943237e-07
4.7452656058039213e-07   -7.031904105871014e-07   1.8081556598943237e-07
4.1640416275232595e-06   -1.4070200157498898e-06   -5.546078449150954e-06
4.1640416275232595e-06   -1.4070200157498898e-06   -5.546078449150954e-06
4.1640416275232595e-06   -1.4070200157498898e-06   -5.546078449150954e-06
4.1640416275232595e-06   -1.4070200157498898e-06   -5.546078449150954e-06
2.2793318660577208e-06   -9.633497962556383e-07   -2.67109764507165e-06
2.2793318660577208e-06   -9.633497962556383e-07   -2.67109764507165e-06
2.2793318660577208e-06   -9.633497962556383e-07   -2.67109764507165e-06
2.2793318660577208e-06   -9.633497962556383e-07   -2.67109764507165e-06
4.164041627523253e-06   -7.031904105870472e-07   6.031133290871433e-07
4.164041627523253e-06   -7.031904105870472e-07   6.031133290871433e-07
4.164041627523253e-06   -7.031904105870472e-07   6.031133290871433e-07
4.164041627523253e-06   -7.031904105870472e-07   6.031133290871433e-07
4.7452656058039213e-07   -1.4070200157498898e-06   -5.968376212248658e-06
4.7452656058039213e-07   -1.4070200157498898e-06   -5.968376212248658e-06
4.7452656058039213e-07   -1.4070200157498898e-06   -5.968376212248658e-06
4.7452656058039213e-07   -1.4070200157498898e-06   -5.968376212248658e-06
5.638625043754475e-07   -6.304145418925653e-07   1.3264711113108313e-07
5.638625043754475e-07   -6.304145418925653e-07   1.3264711113108313e-07
5.638625043754475e-07   -6.304145418925653e-07   1.3264711113108313e-07
5.638625043754475e-07   -6.304145418925653e-07   1.3264711113108313e-07
4.2365627450709586e-06   -1.3811162437820214e-06   -5.538098935561112e-06
4.2365627450709586e-06   -1.3811162437820214e-06   -5.538098935561112e-06
4.2365627450709586e-06   -1.3811162437820214e-06   -5.538098935561112e-06
4.2365627450709586e-06   -1.3811162437820214e-06   -5.538098935561112e-06
2.331134033977773e-06   -9.676964579488677e-07   -2.6104362885723037e-06
2.331134033977773e-06   -9.676964579488677e-07   -2.6104362885723037e-06
2.331134033977773e-06   -9.676964579488677e-07   -2.6104362885723037e-06
2.331134033977773e-06   -9.676964579488677e-07   -2.6104362885723037e-06
4.2365627450709586e-06   -6.304145418925653e-07   5.830681322647677e-07
4.2365627450709586e-06   -6.304145418925653e-07   5.830681322647677e-07
4.2365627450709586e-06   -6.304145418925653e-07   5.830681322647677e-07
4.2365627450709586e-06   -6.304145418925653e-07   5.830681322647677e-07
5.638625043754441e-07   -1.3811162437820214e-06   -5.98851995669479e-06
5.638625043754441e-07   -1.3811162437820214e-06   -5.98851995669479e-06
5.638625043754441e-07   -1.3811162437820214e-06   -5.98851995669479e-06
5.638625043754441e-07   -1.3811162437820214e-06   -5.98851995669479e-06
6.982802271065602e-07   -5.265465326473057e-07   5.673788337353064e-08
6.982802271065602e-07   -5.265465326473057e-07   5.673788337353064e-08
6.982802271065602e-07   -5.265465326473057e-07   5.673788337353064e-08
6.982802271065602e-07   -5.265465326473057e-07   5.673788337353064e-08
4.3103518638814875e-06   -1.3339130961049746e-06   -5.478961573176753e-06
4.3103518638814875e-06   -1.3339130961049746e-06   -5.478961573176753e-06
4.3103518638814875e-06   -1.3339130961049746e-06   -5.478961573176753e-06
4.3103518638814875e-06   -1.3339130961049746e-06   -5.478961573176753e-06
2.441264088457861e-06   -9.444296401489886e-07   -2.5975053543776232e-06
2.441264088457861e-06   -9.444296401489886e-07   -2.5975053543776232e-06
2.441264088457861e-06   -9.444296401489886e-07   -2.5975053543776232e-06
2.441264088457861e-06   -9.444296401489886e-07   -2.5975053543776232e-06
3.7537832911817496e-07   -3.275511391730352e-07   -3.956746798166927e-07
3.7537832911817496e-07   -3.275511391730352e-07   -3.956746798166927e-07
3.7537832911817496e-07   -3.275511391730352e-07   -3.956746798166927e-07
3.7537832911817496e-07   -3.275511391730352e-07   -3.956746798166927e-07
-3.284306366007568e-06   -1.6084870864227388e-06   -7.263710740042749e-06
-3.284306366007568e-06   -1.6084870864227388e-06   -7.263710740042749e-06
-3.284306366007568e-06   -1.6084870864227388e-06   -7.263710740042749e-06
-3.284306366007568e-06   -1.6084870864227388e-06   -7.263710740042749e-06
-3.1286839790753205e-06   -2.7706988191836474e-07   -1.0151345362287994e-06
-3.1286839790753205e-06   -2.7706988191836474e-07   -1.0151345362287994e-06
-3.1286839790753205e-06   -2.7706988191836474e-07   -1.0151345362287994e-06
-3.1286839790753205e-06   -2.7706988191836474e-07   -1.0151345362287994e-06
4.7452656058039213e-07   -1.636075563854662e-06   -6.2050820264932255e-06
4.7452656058039213e-07   -1.636075563854662e-06   -6.2050820264932255e-06
4.7452656058039213e-07   -1.636075563854662e-06   -6.2050820264932255e-06
4.7452656058039213e-07   -1.636075563854662e-06   -6.2050820264932255e-06
-1.3531499919718428e-06   -8.838127047966601e-07   -3.610312154340924e-06
-1.3531499919718428e-06   -8.838127047966601e-07   -3.610312154340924e-06
-1.3531499919718428e-06   -8.838127047966601e-07   -3.610312154340924e-06
-1.3531499919718428e-06   -8.838127047966601e-07   -3.610312154340924e-06
4.7452656058039213e-07   -2.7706988191836474e-07   -1.9973112706702647e-07
4.7452656058039213e-07   -2.7706988191836474e-07   -1.9973112706702647e-07
4.7452656058039213e-07   -2.7706988191836474e-07   -1.9973112706702647e-07
4.7452656058039213e-07   -2.7706988191836474e-07   -1.9973112706702647e-07
-3.1286839790753273e-06   -1.636075563854662e-06   -7.020485435655022e-06
-3.1286839790753273e-06   -1.636075563854662e-06   -7.020485435655022e-06
-3.1286839790753273e-06   -1.636075563854662e-06   -7.020485435655022e-06
-3.1286839790753273e-06   -1.636075563854662e-06   -7.020485435655022e-06
-2.9932271497185886e-06   -2.044936980328811e-07   -9.334815765287355e-07
-2.9932271497185886e-06   -2.044936980328811e-07   -9.334815765287355e-07
-2.9932271497185886e-06   -2.044936980328811e-07   -9.334815765287355e-07
-2.9932271497185886e-06   -2.044936980328811e-07   -9.334815765287355e-07
5.638625043754441e-07   -1.6187900372855888e-06   -6.0133865298005084e-06
5.638625043754441e-07   -1.6187900372855888e-06   -6.0133865298005084e-06
5.638625043754441e-07   -1.6187900372855888e-06   -6.0133865298005084e-06
5.638625043754441e-07   -1.6187900372855888e-06   -6.0133865298005084e-06
-1.2432695838562062e-06   -8.969091387295357e-07   -3.4346282552147193e-06
-1.2432695838562062e-06   -8.969091387295357e-07   -3.4346282552147193e-06
-1.2432695838562062e-06   -8.969091387295357e-07   -3.4346282552147193e-06
-1.2432695838562062e-06   -8.969091387295357e-07   -3.4346282552147193e-06
5.638625043754441e-07   -2.044936980328269e-07   -8.490377297710539e-08
5.638625043754441e-07   -2.044936980328269e-07   -8.490377297710539e-08
5.638625043754441e-07   -2.044936980328269e-07   -8.490377297710539e-08
5.638625043754441e-07   -2.044936980328269e-07   -8.490377297710539e-08
-2.993227149718597e-06   -1.6187900372855888e-06   -6.861964333352145e-06
-2.993227149718597e-06   -1.6187900372855888e-06   -6.861964333352145e-06
-2.993227149718597e-06   -1.6187900372855888e-06   -6.861964333352145e-06
-2.993227149718597e-06   -1.6187900372855888e-06   -6.861964333352145e-06
-2.7586668838013666e-06   -1.3482160844436068e-07   -9.316701935785799e-07
-2.7586668838013666e-06   -1.3482160844436068e-07   -9.316701935785799e-07
-2.7586668838013666e-06   -1.3482160844436068e-07   -9.316701935785799e-07
-2.7586668838013666e-06   -1.3482160844436068e-07   -9.316701935785799e-07
6.982802271065636e-07   -1.550745050222862e-06   -5.8436946466913965e-06
6.982802271065636e-07   -1.550745050222862e-06   -5.8436946466913965e-06
6.982802271065636e-07   -1.550745050222862e-06   -5.8436946466913965e-06
6.982802271065636e-07   -1.550745050222862e-06   -5.8436946466913965e-06
-1.0999505256769162e-06   -8.682176260621966e-07   -3.2561598465486466e-06
-1.0999505256769162e-06   -8.682176260621966e-07   -3.2561598465486466e-06
-1.0999505256769162e-06   -8.682176260621966e-07   -3.2561598465486466e-06
-1.0999505256769162e-06   -8.682176260621966e-07   -3.2561598465486466e-06
-3.284306366007563e-06   2.1911973619690188e-07   -5.978312233980224e-07
-3.284306366007563e-06   2.1911973619690188e-07   -5.978312233980224e-07
-3.284306366007563e-06   2.1911973619690188e-07   -5.978312233980224e-07
-3.284306366007563e-06   2.1911973619690188e-07   -5.978312233980224e-07
-7.325490504993212e-06   -1.9040460282138474e-06   -8.607037580353889e-06
-7.325490504993212e-06   -1.9040460282138474e-06   -8.607037580353889e-06
-7.325490504993212e-06   -1.9040460282138474e-06   -8.607037580353889e-06
-7.325490504993212e-06   -1.9040460282138474e-06   -8.607037580353889e-06
-7.1316304402769035e-06   3.040255808639948e-07   -1.8097078929090002e-06
-7.1316304402769035e-06   3.040255808639948e-07   -1.8097078929090002e-06
-7.1316304402769035e-06   3.040255808639948e-07   -1.8097078929090002e-06
-7.1316304402769035e-06   3.040255808639948e-07   -1.8097078929090002e-06
-3.1286839790753205e-06   -2.1674921274001595e-06   -6.9983747032864615e-06
-3.1286839790753205e-06   -2.1674921274001595e-06   -6.9983747032864615e-06
-3.1286839790753205e-06   -2.1674921274001595e-06   -6.9983747032864615e-06
-3.1286839790753205e-06   -2.1674921274001595e-06   -6.9983747032864615e-06
-5.147885897082554e-06   -9.152204162277372e-07   -4.3844011999778255e-06
-5.147885897082554e-06   -9.152204162277372e-07   -4.3844011999778255e-06
-5.147885897082554e-06   -9.152204162277372e-07   -4.3844011999778255e-06
-5.147885897082554e-06   -9.152204162277372e-07   -4.3844011999778255e-06
-3.1286839790753205e-06   3.040255808639948e-07   -3.267972679505077e-07
-3.1286839790753205e-06   3.040255808639948e-07   -3.267972679505077e-07
-3.1286839790753205e-06   3.040255808639948e-07   -3.267972679505077e-07
-3.1286839790753205e-06   3.040255808639948e-07   -3.267972679505077e-07
-7.1316304402769035e-06   -2.1674921274001595e-06   -8.481285328244934e-06
-7.1316304402769035e-06   -2.1674921274001595e-06   -8.481285328244934e-06
-7.1316304402769035e-06   -2.1674921274001595e-06   -8.481285328244934e-06
-7.1316304402769035e-06   -2.1674921274001595e-06   -8.481285328244934e-06
-6.946690370611466e-06   3.813056199791754e-07   -1.5657732277836434e-06
-6.946690370611466e-06   3.813056199791754e-07   -1.5657732277836434e-06
-6.946690370611466e-06   3.813056199791754e-07   -1.5657732277836434e-06
-6.946690370611466e-06   3.813056199791754e-07   -1.5657732277836434e-06
-2.993227149718592e-06   -2.169836981135223e-06   -6.624193035269789e-06
-2.993227149718592e-06   -2.169836981135223e-06   -6.624193035269789e-06
-2.993227149718592e-06   -2.169836981135223e-06   -6.624193035269789e-06
-2.993227149718592e-06   -2.169836981135223e-06   -6.624193035269789e-06
-4.958589471789866e-06   -9.095302079214053e-07   -4.104773229079289e-06
-4.958589471789866e-06   -9.095302079214053e-07   -4.104773229079289e-06
-4.958589471789866e-06   -9.095302079214053e-07   -4.104773229079289e-06
-4.958589471789866e-06   -9.095302079214053e-07   -4.104773229079289e-06
-2.9932271497185903e-06   3.813056199791754e-07   -3.5087667114977244e-08
-2.9932271497185903e-06   3.813056199791754e-07   -3.5087667114977244e-08
-2.9932271497185903e-06   3.813056199791754e-07   -3.5087667114977244e-08
-2.9932271497185903e-06   3.813056199791754e-07   -3.5087667114977244e-08
-6.946690370611478e-06   -2.169836981135223e-06   -8.154878595938452e-06
-6.946690370611478e-06   -2.169836981135223e-06   -8.154878595938452e-06
-6.946690370611478e-06   -2.169836981135223e-06   -8.154878595938452e-06
-6.946690370611478e-06   -2.169836981135223e-06   -8.154878595938452e-06
-6.637370820869383e-06   4.447884212055984e-07   -1.3243532280630944e-06
-6.637370820869383e-06   4.447884212055984e-07   -1.3243532280630944e-06
-6.637370820869383e-06   4.447884212055984e-07   -1.3243532280630944e-06
-6.637370820869383e-06   4.447884212055984e-07   -1.3243532280630944e-06
-2.758666883801375e-06   -1.9221017851780097e-06   -6.368725666012944e-06
-2.758666883801375e-06   -1.9221017851780097e-06   -6.368725666012944e-06
-2.758666883801375e-06   -1.9221017851780097e-06   -6.368725666012944e-06
-2.758666883801375e-06   -1.9221017851780097e-06   -6.368725666012944e-06
-4.77913016727836e-06   -7.618098857966119e-07   -3.697461999846693e-06
-4.77913016727836e-06   -7.618098857966119e-07   -3.697461999846693e-06
-4.77913016727836e-06   -7.618098857966119e-07   -3.697461999846693e-06
-4.77913016727836e-06   -7.618098857966119e-07   -3.697461999846693e-06
-7.325490504993212e-06   1.1052964520657464e-06   -1.2234924532364584e-06
-7.325490504993212e-06   1.1052964520657464e-06   -1.2234924532364584e-06
-7.325490504993212e-06   1.1052964520657464e-06   -1.2234924532364584e-06
-7.325490504993212e-06   1.1052964520657464e-06   -1.2234924532364584e-06
-1.2387208762958724e-05   0.0   -1.0322867421085102e-05
-1.2387208762958724e-05   0.0   -1.0322867421085102e-05
-1.2387208762958724e-05   0.0   -1.0322867421085102e-05
-1.2387208762958724e-05   0.0   -1.0322867421085102e-05
-1.2110883604841884e-05   1.3631577931307688e-06   -8.759625991550427e-07
-1.2110883604841884e-05   1.3631577931307688e-06   -8.759625991550427e-07
-1.2110883604841884e-05   1.3631577931307688e-06   -8.759625991550427e-07
-1.2110883604841884e-05   1.3631577931307688e-06   -8.759625991550427e-07
-7.13163044027689e-06   0.0   -8.356823197551557e-06
-7.13163044027689e-06   0.0   -8.356823197551557e-06
-7.13163044027689e-06   0.0   -8.356823197551557e-06
-7.13163044027689e-06   0.0   -8.356823197551557e-06
-9.327084026610555e-06   4.374380334800352e-07   -4.960196707083463e-06
-9.327084026610555e-06   4.374380334800352e-07   -4.960196707083463e-06
-9.327084026610555e-06   4.374380334800352e-07   -4.960196707083463e-06
-9.327084026610555e-06   4.374380334800352e-07   -4.960196707083463e-06
-7.1316304402768975e-06   1.3631577931307146e-06   -5.806792327655978e-08
-7.1316304402768975e-06   1.3631577931307146e-06   -5.806792327655978e-08
-7.1316304402768975e-06   1.3631577931307146e-06   -5.806792327655978e-08
-7.1316304402768975e-06   1.3631577931307146e-06   -5.806792327655978e-08
-1.2110883604841863e-05   0.0   -9.174717873430003e-06
-1.2110883604841863e-05   0.0   -9.174717873430003e-06
-1.2110883604841863e-05   0.0   -9.174717873430003e-06
-1.2110883604841863e-05   0.0   -9.174717873430003e-06
-1.1872425845010123e-05   1.4227442580128048e-06   -1.3950851683654252e-07
-1.1872425845010123e-05   1.4227442580128048e-06   -1.3950851683654252e-07
-1.1872425845010123e-05   1.4227442580128048e-06   -1.3950851683654252e-07
-1.1872425845010123e-05   1.4227442580128048e-06   -1.3950851683654252e-07
-6.946690370611478e-06   0.0   -7.495421086026611e-06
-6.946690370611478e-06   0.0   -7.495421086026611e-06
-6.946690370611478e-06   0.0   -7.495421086026611e-06
-6.946690370611478e-06   0.0   -7.495421086026611e-06
-9.264449050753255e-06   6.651419423545253e-07   -4.031575117869563e-06
-9.264449050753255e-06   6.651419423545253e-07   -4.031575117869563e-06
-9.264449050753255e-06   6.651419423545253e-07   -4.031575117869563e-06
-9.264449050753255e-06   6.651419423545253e-07   -4.031575117869563e-06
-6.946690370611478e-06   1.4227442580127506e-06   7.141380379711566e-07
-6.946690370611478e-06   1.4227442580127506e-06   7.141380379711566e-07
-6.946690370611478e-06   1.4227442580127506e-06   7.141380379711566e-07
-6.946690370611478e-06   1.4227442580127506e-06   7.141380379711566e-07
-1.18724258450101e-05   0.0   -8.349067640834283e-06
-1.18724258450101e-05   0.0   -8.349067640834283e-06
-1.18724258450101e-05   0.0   -8.349067640834283e-06
-1.18724258450101e-05   0.0   -8.349067640834283e-06
-1.1391855755313372e-05   1.5142751958968181e-06   1.0624473450724411e-06
-1.1391855755313372e-05   1.5142751958968181e-06   1.0624473450724411e-06
-1.1391855755313372e-05   1.5142751958968181e-06   1.0624473450724411e-06
-1.1391855755313372e-05   1.5142751958968181e-06   1.0624473450724411e-06
-6.6373708208693936e-06   0.0   -5.953129094796141e-06
-6.6373708208693936e-06   0.0   -5.953129094796141e-06
-6.6373708208693936e-06   0.0   -5.953129094796141e-06
-6.6373708208693936e-06   0.0   -5.953129094796141e-06
-8.828467917471155e-06   8.1208652317463e-07   -2.7885525143646106e-06
-8.828467917471155e-06   8.1208652317463e-07   -2.7885525143646106e-06
-8.828467917471155e-06   8.1208652317463e-07   -2.7885525143646106e-06
-8.828467917471155e-06   8.1208652317463e-07   -2.7885525143646106e-06
9.060968009607508e-06   -1.5127167944780566e-06   5.329427323181874e-06
9.060968009607508e-06   -1.5127167944780566e-06   5.329427323181874e-06
9.060968009607508e-06   -1.5127167944780566e-06   5.329427323181874e-06
9.060968009607508e-06   -1.5127167944780566e-06   5.329427323181874e-06
4.649787394960606e-06   -1.2053136020137687e-06   -1.8380984524177593e-06
4.649787394960606e-06   -1.2053136020137687e-06   -1.8380984524177593e-06
4.649787394960606e-06   -1.2053136020137687e-06   -1.8380984524177593e-06
4.649787394960606e-06   -1.2053136020137687e-06   -1.8380984524177593e-06
4.543286135188504e-06   -1.5506965923077726e-06   4.660623087816287e-06
4.543286135188504e-06   -1.5506965923077726e-06   4.660623087816287e-06
4.543286135188504e-06   -1.5506965923077726e-06   4.660623087816287e-06
4.543286135188504e-06   -1.5506965923077726e-06   4.660623087816287e-06
8.978572636545433e-06   -1.31778538232073e-06   -2.871267807104157e-06
8.978572636545433e-06   -1.31778538232073e-06   -2.871267807104157e-06
8.978572636545433e-06   -1.31778538232073e-06   -2.871267807104157e-06
8.978572636545433e-06   -1.31778538232073e-06   -2.871267807104157e-06
6.526999758163847e-06   -1.3248010166581978e-06   1.2188963708009904e-06
6.526999758163847e-06   -1.3248010166581978e-06   1.2188963708009904e-06
6.526999758163847e-06   -1.3248010166581978e-06   1.2188963708009904e-06
6.526999758163847e-06   -1.3248010166581978e-06   1.2188963708009904e-06
8.978572636545433e-06   -1.5506965923077726e-06   4.520876361824056e-06
8.978572636545433e-06   -1.5506965923077726e-06   4.520876361824056e-06
8.978572636545433e-06   -1.5506965923077726e-06   4.520876361824056e-06
8.978572636545433e-06   -1.5506965923077726e-06   4.520876361824056e-06
4.543286135188504e-06   -1.31778538232073e-06   -2.731521081111919e-06
4.543286135188504e-06   -1.31778538232073e-06   -2.731521081111919e-06
4.543286135188504e-06   -1.31778538232073e-06   -2.731521081111919e-06
4.543286135188504e-06   -1.31778538232073e-06   -2.731521081111919e-06
4.445960767300379e-06   -1.5340213242103309e-06   4.1610729968904634e-06
4.445960767300379e-06   -1.5340213242103309e-06   4.1610729968904634e-06
4.445960767300379e-06   -1.5340213242103309e-06   4.1610729968904634e-06
4.445960767300379e-06   -1.5340213242103309e-06   4.1610729968904634e-06
8.879506581200939e-06   -1.3251328087749824e-06   -3.353503135538342e-06
8.879506581200939e-06   -1.3251328087749824e-06   -3.353503135538342e-06
8.879506581200939e-06   -1.3251328087749824e-06   -3.353503135538342e-06
8.879506581200939e-06   -1.3251328087749824e-06   -3.353503135538342e-06
6.534406835149922e-06   -1.3481399102231923e-06   5.688007020822865e-07
6.534406835149922e-06   -1.3481399102231923e-06   5.688007020822865e-07
6.534406835149922e-06   -1.3481399102231923e-06   5.688007020822865e-07
6.534406835149922e-06   -1.3481399102231923e-06   5.688007020822865e-07
8.879506581200952e-06   -1.5340213242103309e-06   4.0357398876292435e-06
8.879506581200952e-06   -1.5340213242103309e-06   4.0357398876292435e-06
8.879506581200952e-06   -1.5340213242103309e-06   4.0357398876292435e-06
8.879506581200952e-06   -1.5340213242103309e-06   4.0357398876292435e-06
4.445960767300379e-06   -1.3251328087749824e-06   -3.2281700262771324e-06
4.445960767300379e-06   -1.3251328087749824e-06   -3.2281700262771324e-06
4.445960767300379e-06   -1.3251328087749824e-06   -3.2281700262771324e-06
4.445960767300379e-06   -1.3251328087749824e-06   -3.2281700262771324e-06
4.326690905273823e-06   -1.4410482882851834e-06   3.3482279243019864e-06
4.326690905273823e-06   -1.4410482882851834e-06   3.3482279243019864e-06
4.326690905273823e-06   -1.4410482882851834e-06   3.3482279243019864e-06
4.326690905273823e-06   -1.4410482882851834e-06   3.3482279243019864e-06
8.723940912378228e-06   -1.2872737830110087e-06   -4.07278679070317e-06
8.723940912378228e-06   -1.2872737830110087e-06   -4.07278679070317e-06
8.723940912378228e-06   -1.2872737830110087e-06   -4.07278679070317e-06
8.723940912378228e-06   -1.2872737830110087e-06   -4.07278679070317e-06
6.322436611473777e-06   -1.2808444096771513e-06   -7.41372465294486e-08
6.322436611473777e-06   -1.2808444096771513e-06   -7.41372465294486e-08
6.322436611473777e-06   -1.2808444096771513e-06   -7.41372465294486e-08
6.322436611473777e-06   -1.2808444096771513e-06   -7.41372465294486e-08
4.649787394960606e-06   -1.4195104753584437e-06   3.911780759430954e-06
4.649787394960606e-06   -1.4195104753584437e-06   3.911780759430954e-06
4.649787394960606e-06   -1.4195104753584437e-06   3.911780759430954e-06
4.649787394960606e-06   -1.4195104753584437e-06   3.911780759430954e-06
8.452105816071339e-07   -6.998128690766841e-07   -1.9973620323890677e-06
8.452105816071339e-07   -6.998128690766841e-07   -1.9973620323890677e-06
8.452105816071339e-07   -6.998128690766841e-07   -1.9973620323890677e-06
8.452105816071339e-07   -6.998128690766841e-07   -1.9973620323890677e-06
6.768910777085125e-07   -1.4070200157498898e-06   4.408462598360106e-06
6.768910777085125e-07   -1.4070200157498898e-06   4.408462598360106e-06
6.768910777085125e-07   -1.4070200157498898e-06   4.408462598360106e-06
6.768910777085125e-07   -1.4070200157498898e-06   4.408462598360106e-06
4.543286135188504e-06   -7.390800437453754e-07   -2.436293147309265e-06
4.543286135188504e-06   -7.390800437453754e-07   -2.436293147309265e-06
4.543286135188504e-06   -7.390800437453754e-07   -2.436293147309265e-06
4.543286135188504e-06   -7.390800437453754e-07   -2.436293147309265e-06
2.6729611240715663e-06   -1.0260911790493368e-06   8.531218857346732e-07
2.6729611240715663e-06   -1.0260911790493368e-06   8.531218857346732e-07
2.6729611240715663e-06   -1.0260911790493368e-06   8.531218857346732e-07
2.6729611240715663e-06   -1.0260911790493368e-06   8.531218857346732e-07
4.543286135188504e-06   -1.4070200157498898e-06   4.007698615157387e-06
4.543286135188504e-06   -1.4070200157498898e-06   4.007698615157387e-06
4.543286135188504e-06   -1.4070200157498898e-06   4.007698615157387e-06
4.543286135188504e-06   -1.4070200157498898e-06   4.007698615157387e-06
6.768910777085125e-07   -7.390800437453754e-07   -2.0355291641065522e-06
6.768910777085125e-07   -7.390800437453754e-07   -2.0355291641065522e-06
6.768910777085125e-07   -7.390800437453754e-07   -2.0355291641065522e-06
6.768910777085125e-07   -7.390800437453754e-07   -2.0355291641065522e-06
5.552608698150556e-07   -1.3811162437820214e-06   4.396793037752752e-06
5.552608698150556e-07   -1.3811162437820214e-06   4.396793037752752e-06
5.552608698150556e-07   -1.3811162437820214e-06   4.396793037752752e-06
5.552608698150556e-07   -1.3811162437820214e-06   4.396793037752752e-06
4.445960767300379e-06   -7.525378763859774e-07   -2.4648538118271024e-06
4.445960767300379e-06   -7.525378763859774e-07   -2.4648538118271024e-06
4.445960767300379e-06   -7.525378763859774e-07   -2.4648538118271024e-06
4.445960767300379e-06   -7.525378763859774e-07   -2.4648538118271024e-06
2.5248628836538708e-06   -1.0020155030255684e-06   8.866625702343188e-07
2.5248628836538708e-06   -1.0020155030255684e-06   8.866625702343188e-07
2.5248628836538708e-06   -1.0020155030255684e-06   8.866625702343188e-07
2.5248628836538708e-06   -1.0020155030255684e-06   8.866625702343188e-07
4.445960767300389e-06   -1.3811162437820214e-06   4.019646017315126e-06
4.445960767300389e-06   -1.3811162437820214e-06   4.019646017315126e-06
4.445960767300389e-06   -1.3811162437820214e-06   4.019646017315126e-06
4.445960767300389e-06   -1.3811162437820214e-06   4.019646017315126e-06
5.552608698150556e-07   -7.525378763859774e-07   -2.087706791389422e-06
5.552608698150556e-07   -7.525378763859774e-07   -2.087706791389422e-06
5.552608698150556e-07   -7.525378763859774e-07   -2.087706791389422e-06
5.552608698150556e-07   -7.525378763859774e-07   -2.087706791389422e-06
4.2061812397774923e-07   -1.3339130961049746e-06   4.519479902529339e-06
4.2061812397774923e-07   -1.3339130961049746e-06   4.519479902529339e-06
4.2061812397774923e-07   -1.3339130961049746e-06   4.519479902529339e-06
4.2061812397774923e-07   -1.3339130961049746e-06   4.519479902529339e-06
4.326690905273818e-06   -7.284428113949436e-07   -2.3539235704568296e-06
4.326690905273818e-06   -7.284428113949436e-07   -2.3539235704568296e-06
4.326690905273818e-06   -7.284428113949436e-07   -2.3539235704568296e-06
4.326690905273818e-06   -7.284428113949436e-07   -2.3539235704568296e-06
2.437446349968461e-06   -9.525333887355509e-07   9.292717014565036e-07
2.437446349968461e-06   -9.525333887355509e-07   9.292717014565036e-07
2.437446349968461e-06   -9.525333887355509e-07   9.292717014565036e-07
2.437446349968461e-06   -9.525333887355509e-07   9.292717014565036e-07
8.452105816071373e-07   -1.6084870864227388e-06   3.966500098939713e-06
8.452105816071373e-07   -1.6084870864227388e-06   3.966500098939713e-06
8.452105816071373e-07   -1.6084870864227388e-06   3.966500098939713e-06
8.452105816071373e-07   -1.6084870864227388e-06   3.966500098939713e-06
-2.819964596617592e-06   -2.2410075583651152e-07   -1.311493399749783e-06
-2.819964596617592e-06   -2.2410075583651152e-07   -1.311493399749783e-06
-2.819964596617592e-06   -2.2410075583651152e-07   -1.311493399749783e-06
-2.819964596617592e-06   -2.2410075583651152e-07   -1.311493399749783e-06
-3.0806037310296833e-06   -1.636075563854662e-06   5.012756881955723e-06
-3.0806037310296833e-06   -1.636075563854662e-06   5.012756881955723e-06
-3.0806037310296833e-06   -1.636075563854662e-06   5.012756881955723e-06
-3.0806037310296833e-06   -1.636075563854662e-06   5.012756881955723e-06
6.768910777085125e-07   -2.3440873412109136e-07   -2.0907345637814195e-06
6.768910777085125e-07   -2.3440873412109136e-07   -2.0907345637814195e-06
6.768910777085125e-07   -2.3440873412109136e-07   -2.0907345637814195e-06
6.768910777085125e-07   -2.3440873412109136e-07   -2.0907345637814195e-06
-1.0659566639695297e-06   -8.941226469079107e-07   1.2098400200207817e-06
-1.0659566639695297e-06   -8.941226469079107e-07   1.2098400200207817e-06
-1.0659566639695297e-06   -8.941226469079107e-07   1.2098400200207817e-06
-1.0659566639695297e-06   -8.941226469079107e-07   1.2098400200207817e-06
6.768910777085125e-07   -1.636075563854662e-06   4.1717567841155696e-06
6.768910777085125e-07   -1.636075563854662e-06   4.1717567841155696e-06
6.768910777085125e-07   -1.636075563854662e-06   4.1717567841155696e-06
6.768910777085125e-07   -1.636075563854662e-06   4.1717567841155696e-06
-3.080603731029678e-06   -2.3440873412103715e-07   -1.2497344659412866e-06
-3.080603731029678e-06   -2.3440873412103715e-07   -1.2497344659412866e-06
-3.080603731029678e-06   -2.3440873412103715e-07   -1.2497344659412866e-06
-3.080603731029678e-06   -2.3440873412103715e-07   -1.2497344659412866e-06
-3.2425619367813346e-06   -1.6187900372855888e-06   5.1943317161150845e-06
-3.2425619367813346e-06   -1.6187900372855888e-06   5.1943317161150845e-06
-3.2425619367813346e-06   -1.6187900372855888e-06   5.1943317161150845e-06
-3.2425619367813346e-06   -1.6187900372855888e-06   5.1943317161150845e-06
5.552608698150556e-07   -2.4811461817221417e-07   -1.9577782130135904e-06
5.552608698150556e-07   -2.4811461817221417e-07   -1.9577782130135904e-06
5.552608698150556e-07   -2.4811461817221417e-07   -1.9577782130135904e-06
5.552608698150556e-07   -2.4811461817221417e-07   -1.9577782130135904e-06
-1.2436942760426774e-06   -8.840124502753352e-07   1.422019062677856e-06
-1.2436942760426774e-06   -8.840124502753352e-07   1.422019062677856e-06
-1.2436942760426774e-06   -8.840124502753352e-07   1.422019062677856e-06
-1.2436942760426774e-06   -8.840124502753352e-07   1.422019062677856e-06
5.552608698150522e-07   -1.6187900372855888e-06   4.371926464647054e-06
5.552608698150522e-07   -1.6187900372855888e-06   4.371926464647054e-06
5.552608698150522e-07   -1.6187900372855888e-06   4.371926464647054e-06
5.552608698150522e-07   -1.6187900372855888e-06   4.371926464647054e-06
-3.242561936781328e-06   -2.4811461817221417e-07   -1.1353729615455534e-06
-3.242561936781328e-06   -2.4811461817221417e-07   -1.1353729615455534e-06
-3.242561936781328e-06   -2.4811461817221417e-07   -1.1353729615455534e-06
-3.242561936781328e-06   -2.4811461817221417e-07   -1.1353729615455534e-06
-3.4298929660570503e-06   -1.550745050222862e-06   5.4250677182751705e-06
-3.4298929660570503e-06   -1.550745050222862e-06   5.4250677182751705e-06
-3.4298929660570503e-06   -1.550745050222862e-06   5.4250677182751705e-06
-3.4298929660570503e-06   -1.550745050222862e-06   5.4250677182751705e-06
4.2061812397774923e-07   -2.409101315797315e-07   -1.7783517163020405e-06
4.2061812397774923e-07   -2.409101315797315e-07   -1.7783517163020405e-06
4.2061812397774923e-07   -2.409101315797315e-07   -1.7783517163020405e-06
4.2061812397774923e-07   -2.409101315797315e-07   -1.7783517163020405e-06
-1.3897931124918951e-06   -8.39157986922735e-07   1.597949057686516e-06
-1.3897931124918951e-06   -8.39157986922735e-07   1.597949057686516e-06
-1.3897931124918951e-06   -8.39157986922735e-07   1.597949057686516e-06
-1.3897931124918951e-06   -8.39157986922735e-07   1.597949057686516e-06
-2.819964596617597e-06   -1.9040460282138474e-06   4.727704515626743e-06
-2.819964596617597e-06   -1.9040460282138474e-06   4.727704515626743e-06
-2.819964596617597e-06   -1.9040460282138474e-06   4.727704515626743e-06
-2.819964596617597e-06   -1.9040460282138474e-06   4.727704515626743e-06
-6.914857369101235e-06   4.415089378569776e-07   -6.89783792203483e-07
-6.914857369101235e-06   4.415089378569776e-07   -6.89783792203483e-07
-6.914857369101235e-06   4.415089378569776e-07   -6.89783792203483e-07
-6.914857369101235e-06   4.415089378569776e-07   -6.89783792203483e-07
-7.237945325823018e-06   -2.1674921274001595e-06   6.595382547700847e-06
-7.237945325823018e-06   -2.1674921274001595e-06   6.595382547700847e-06
-7.237945325823018e-06   -2.1674921274001595e-06   6.595382547700847e-06
-7.237945325823018e-06   -2.1674921274001595e-06   6.595382547700847e-06
-3.080603731029678e-06   4.3336609489418726e-07   -1.8940350436646313e-06
-3.080603731029678e-06   4.3336609489418726e-07   -1.8940350436646313e-06
-3.080603731029678e-06   4.3336609489418726e-07   -1.8940350436646313e-06
-3.080603731029678e-06   4.3336609489418726e-07   -1.8940350436646313e-06
-4.949753616268602e-06   -6.993744537222625e-07   1.900859094236727e-06
-4.949753616268602e-06   -6.993744537222625e-07   1.900859094236727e-06
-4.949753616268602e-06   -6.993744537222625e-07   1.900859094236727e-06
-4.949753616268602e-06   -6.993744537222625e-07   1.900859094236727e-06
-3.0806037310296833e-06   -2.1674921274001595e-06   5.0348676143242225e-06
-3.0806037310296833e-06   -2.1674921274001595e-06   5.0348676143242225e-06
-3.0806037310296833e-06   -2.1674921274001595e-06   5.0348676143242225e-06
-3.0806037310296833e-06   -2.1674921274001595e-06   5.0348676143242225e-06
-7.237945325823018e-06   4.3336609489418726e-07   -3.335201102880477e-07
-7.237945325823018e-06   4.3336609489418726e-07   -3.335201102880477e-07
-7.237945325823018e-06   4.3336609489418726e-07   -3.335201102880477e-07
-7.237945325823018e-06   4.3336609489418726e-07   -3.335201102880477e-07
-7.43290420523502e-06   -2.169836981135223e-06   6.977434224004543e-06
-7.43290420523502e-06   -2.169836981135223e-06   6.977434224004543e-06
-7.43290420523502e-06   -2.169836981135223e-06   6.977434224004543e-06
-7.43290420523502e-06   -2.169836981135223e-06   6.977434224004543e-06
-3.242561936781328e-06   4.057150352100038e-07   -1.5518007665587128e-06
-3.242561936781328e-06   4.057150352100038e-07   -1.5518007665587128e-06
-3.242561936781328e-06   4.057150352100038e-07   -1.5518007665587128e-06
-3.242561936781328e-06   4.057150352100038e-07   -1.5518007665587128e-06
-5.152914644924466e-06   -8.383016106671272e-07   2.378530401206093e-06
-5.152914644924466e-06   -8.383016106671272e-07   2.378530401206093e-06
-5.152914644924466e-06   -8.383016106671272e-07   2.378530401206093e-06
-5.152914644924466e-06   -8.383016106671272e-07   2.378530401206093e-06
-3.242561936781326e-06   -2.169836981135223e-06   5.432103014197417e-06
-3.242561936781326e-06   -2.169836981135223e-06   5.432103014197417e-06
-3.242561936781326e-06   -2.169836981135223e-06   5.432103014197417e-06
-3.242561936781326e-06   -2.169836981135223e-06   5.432103014197417e-06
-7.4329042052350046e-06   4.057150352100038e-07   -6.469556751594312e-09
-7.4329042052350046e-06   4.057150352100038e-07   -6.469556751594312e-09
-7.4329042052350046e-06   4.057150352100038e-07   -6.469556751594312e-09
-7.4329042052350046e-06   4.057150352100038e-07   -6.469556751594312e-09
-7.645233413255486e-06   -1.9221017851780097e-06   7.12651150833879e-06
-7.645233413255486e-06   -1.9221017851780097e-06   7.12651150833879e-06
-7.645233413255486e-06   -1.9221017851780097e-06   7.12651150833879e-06
-7.645233413255486e-06   -1.9221017851780097e-06   7.12651150833879e-06
-3.429892966057035e-06   3.727661220188005e-07   -1.2759766479766847e-06
-3.429892966057035e-06   3.727661220188005e-07   -1.2759766479766847e-06
-3.429892966057035e-06   3.727661220188005e-07   -1.2759766479766847e-06
-3.429892966057035e-06   3.727661220188005e-07   -1.2759766479766847e-06
-5.370349215090338e-06   -8.382635822834082e-07   2.684734922993559e-06
-5.370349215090338e-06   -8.382635822834082e-07   2.684734922993559e-06
-5.370349215090338e-06   -8.382635822834082e-07   2.684734922993559e-06
-5.370349215090338e-06   -8.382635822834082e-07   2.684734922993559e-06
-6.9148573691012114e-06   0.0   5.082385525777402e-06
-6.9148573691012114e-06   0.0   5.082385525777402e-06
-6.9148573691012114e-06   0.0   5.082385525777402e-06
-6.9148573691012114e-06   0.0   5.082385525777402e-06
-1.1944347197639875e-05   1.5930653551296027e-06   -2.3442583087092644e-06
-1.1944347197639875e-05   1.5930653551296027e-06   -2.3442583087092644e-06
-1.1944347197639875e-05   1.5930653551296027e-06   -2.3442583087092644e-06
-1.1944347197639875e-05   1.5930653551296027e-06   -2.3442583087092644e-06
-1.2371269832292117e-05   0.0   7.655748785597295e-06
-1.2371269832292117e-05   0.0   7.655748785597295e-06
-1.2371269832292117e-05   0.0   7.655748785597295e-06
-1.2371269832292117e-05   0.0   7.655748785597295e-06
-7.237945325823006e-06   1.559840178671796e-06   -1.8356961657210364e-06
-7.237945325823006e-06   1.559840178671796e-06   -1.8356961657210364e-06
-7.237945325823006e-06   1.559840178671796e-06   -1.8356961657210364e-06
-7.237945325823006e-06   1.559840178671796e-06   -1.8356961657210364e-06
-9.210728025689418e-06   9.435372303852807e-07   1.8220567696949127e-06
-9.210728025689418e-06   9.435372303852807e-07   1.8220567696949127e-06
-9.210728025689418e-06   9.435372303852807e-07   1.8220567696949127e-06
-9.210728025689418e-06   9.435372303852807e-07   1.8220567696949127e-06
-7.237945325822999e-06   0.0   6.71984467839418e-06
-7.237945325822999e-06   0.0   6.71984467839418e-06
-7.237945325822999e-06   0.0   6.71984467839418e-06
-7.237945325822999e-06   0.0   6.71984467839418e-06
-1.237126983229214e-05   1.559840178671796e-06   -8.997920585179277e-07
-1.237126983229214e-05   1.559840178671796e-06   -8.997920585179277e-07
-1.237126983229214e-05   1.559840178671796e-06   -8.997920585179277e-07
-1.237126983229214e-05   1.559840178671796e-06   -8.997920585179277e-07
-1.258398935346101e-05   0.0   8.553758010100066e-06
-1.258398935346101e-05   0.0   8.553758010100066e-06
-1.258398935346101e-05   0.0   8.553758010100066e-06
-1.258398935346101e-05   0.0   8.553758010100066e-06
-7.4329042052350046e-06   1.5281104603062016e-06   -9.482501797936755e-07
-7.4329042052350046e-06   1.5281104603062016e-06   -9.482501797936755e-07
-7.4329042052350046e-06   1.5281104603062016e-06   -9.482501797936755e-07
-7.4329042052350046e-06   1.5281104603062016e-06   -9.482501797936755e-07
-9.646629402668593e-06   7.939890626064644e-07   3.181764654548876e-06
-9.646629402668593e-06   7.939890626064644e-07   3.181764654548876e-06
-9.646629402668593e-06   7.939890626064644e-07   3.181764654548876e-06
-9.646629402668593e-06   7.939890626064644e-07   3.181764654548876e-06
-7.4329042052350046e-06   0.0   7.636891733916383e-06
-7.4329042052350046e-06   0.0   7.636891733916383e-06
-7.4329042052350046e-06   0.0   7.636891733916383e-06
-7.4329042052350046e-06   0.0   7.636891733916383e-06
-1.2583989353461054e-05   1.5281104603062016e-06   -3.1383903609965343e-08
-1.2583989353461054e-05   1.5281104603062016e-06   -3.1383903609965343e-08
-1.2583989353461054e-05   1.5281104603062016e-06   -3.1383903609965343e-08
-1.2583989353461054e-05   1.5281104603062016e-06   -3.1383903609965343e-08
-1.2812086978113675e-05   0.0   9.746642872810905e-06
-1.2812086978113675e-05   0.0   9.746642872810905e-06
-1.2812086978113675e-05   0.0   9.746642872810905e-06
-1.2812086978113675e-05   0.0   9.746642872810905e-06
-7.645233413255486e-06   1.3073344490418994e-06   3.5081959528870284e-07
-7.645233413255486e-06   1.3073344490418994e-06   3.5081959528870284e-07
-7.645233413255486e-06   1.3073344490418994e-06   3.5081959528870284e-07
-7.645233413255486e-06   1.3073344490418994e-06   3.5081959528870284e-07
-9.696065176205751e-06   5.735970172215444e-07   4.209114992631411e-06
-9.696065176205751e-06   5.735970172215444e-07   4.209114992631411e-06
-9.696065176205751e-06   5.735970172215444e-07   4.209114992631411e-06
-9.696065176205751e-06   5.735970172215444e-07   4.209114992631411e-06
8.142488052038061e-06   -1.2053136020138229e-06   5.629245596551176e-06
8.142488052038061e-06   -1.2053136020138229e-06   5.629245596551176e-06
8.142488052038061e-06   -1.2053136020138229e-06   5.629245596551176e-06
8.142488052038061e-06   -1.2053136020138229e-06   5.629245596551176e-06
4.0820832437534525e-06   -9.416026021793274e-07   -9.79869150689156e-07
4.0820832437534525e-06   -9.416026021793274e-07   -9.79869150689156e-07
4.0820832437534525e-06   -9.416026021793274e-07   -9.79869150689156e-07
4.0820832437534525e-06   -9.416026021793274e-07   -9.79869150689156e-07
3.9844487028829135e-06   -1.31778538232073e-06   4.880022112253374e-06
3.9844487028829135e-06   -1.31778538232073e-06   4.880022112253374e-06
3.9844487028829135e-06   -1.31778538232073e-06   4.880022112253374e-06
3.9844487028829135e-06   -1.31778538232073e-06   4.880022112253374e-06
7.972592386992793e-06   -1.058484988117228e-06   -1.922464264451813e-06
7.972592386992793e-06   -1.058484988117228e-06   -1.922464264451813e-06
7.972592386992793e-06   -1.058484988117228e-06   -1.922464264451813e-06
7.972592386992793e-06   -1.058484988117228e-06   -1.922464264451813e-06
5.776288119871318e-06   -1.0881794580010857e-06   1.7558595293475982e-06
5.776288119871318e-06   -1.0881794580010857e-06   1.7558595293475982e-06
5.776288119871318e-06   -1.0881794580010857e-06   1.7558595293475982e-06
5.776288119871318e-06   -1.0881794580010857e-06   1.7558595293475982e-06
7.97259238699278e-06   -1.31778538232073e-06   4.724441875731295e-06
7.97259238699278e-06   -1.31778538232073e-06   4.724441875731295e-06
7.97259238699278e-06   -1.31778538232073e-06   4.724441875731295e-06
7.97259238699278e-06   -1.31778538232073e-06   4.724441875731295e-06
3.98444870288292e-06   -1.058484988117228e-06   -1.7668840279297133e-06
3.98444870288292e-06   -1.058484988117228e-06   -1.7668840279297133e-06
3.98444870288292e-06   -1.058484988117228e-06   -1.7668840279297133e-06
3.98444870288292e-06   -1.058484988117228e-06   -1.7668840279297133e-06
3.858837618349151e-06   -1.3251328087749824e-06   4.359845380797351e-06
3.858837618349151e-06   -1.3251328087749824e-06   4.359845380797351e-06
3.858837618349151e-06   -1.3251328087749824e-06   4.359845380797351e-06
3.858837618349151e-06   -1.3251328087749824e-06   4.359845380797351e-06
7.79870002326667e-06   -1.0737603330365298e-06   -2.3574154461749233e-06
7.79870002326667e-06   -1.0737603330365298e-06   -2.3574154461749233e-06
7.79870002326667e-06   -1.0737603330365298e-06   -2.3574154461749233e-06
7.79870002326667e-06   -1.0737603330365298e-06   -2.3574154461749233e-06
5.738725479626164e-06   -1.1336519439794916e-06   1.111810426458347e-06
5.738725479626164e-06   -1.1336519439794916e-06   1.111810426458347e-06
5.738725479626164e-06   -1.1336519439794916e-06   1.111810426458347e-06
5.738725479626164e-06   -1.1336519439794916e-06   1.111810426458347e-06
7.79870002326667e-06   -1.3251328087749824e-06   4.209021895354263e-06
7.79870002326667e-06   -1.3251328087749824e-06   4.209021895354263e-06
7.79870002326667e-06   -1.3251328087749824e-06   4.209021895354263e-06
7.79870002326667e-06   -1.3251328087749824e-06   4.209021895354263e-06
3.858837618349151e-06   -1.0737603330365298e-06   -2.2065919607318558e-06
3.858837618349151e-06   -1.0737603330365298e-06   -2.2065919607318558e-06
3.858837618349151e-06   -1.0737603330365298e-06   -2.2065919607318558e-06
3.858837618349151e-06   -1.0737603330365298e-06   -2.2065919607318558e-06
3.7262847116514796e-06   -1.2872737830110087e-06   3.5803865590283202e-06
3.7262847116514796e-06   -1.2872737830110087e-06   3.5803865590283202e-06
3.7262847116514796e-06   -1.2872737830110087e-06   3.5803865590283202e-06
3.7262847116514796e-06   -1.2872737830110087e-06   3.5803865590283202e-06
7.5803888185497085e-06   -1.0576462648160222e-06   -2.9808967967190593e-06
7.5803888185497085e-06   -1.0576462648160222e-06   -2.9808967967190593e-06
7.5803888185497085e-06   -1.0576462648160222e-06   -2.9808967967190593e-06
7.5803888185497085e-06   -1.0576462648160222e-06   -2.9808967967190593e-06
5.4999781390935585e-06   -1.1008598862602588e-06   5.12382508574495e-07
5.4999781390935585e-06   -1.1008598862602588e-06   5.12382508574495e-07
5.4999781390935585e-06   -1.1008598862602588e-06   5.12382508574495e-07
5.4999781390935585e-06   -1.1008598862602588e-06   5.12382508574495e-07
4.082083243753463e-06   -6.998128690766298e-07   5.196390052711439e-06
4.082083243753463e-06   -6.998128690766298e-07   5.196390052711439e-06
4.082083243753463e-06   -6.998128690766298e-07   5.196390052711439e-06
4.082083243753463e-06   -6.998128690766298e-07   5.196390052711439e-06
3.602746471202217e-07   -3.208832297743624e-07   -7.792664914292526e-07
3.602746471202217e-07   -3.208832297743624e-07   -7.792664914292526e-07
3.602746471202217e-07   -3.208832297743624e-07   -7.792664914292526e-07
3.602746471202217e-07   -3.208832297743624e-07   -7.792664914292526e-07
2.6226158399091006e-07   -7.390800437453754e-07   5.389708980948967e-06
2.6226158399091006e-07   -7.390800437453754e-07   5.389708980948967e-06
2.6226158399091006e-07   -7.390800437453754e-07   5.389708980948967e-06
2.6226158399091006e-07   -7.390800437453754e-07   5.389708980948967e-06
3.98444870288292e-06   -3.8164848559051187e-07   -1.0283951520973e-06
3.98444870288292e-06   -3.8164848559051187e-07   -1.0283951520973e-06
3.98444870288292e-06   -3.8164848559051187e-07   -1.0283951520973e-06
3.98444870288292e-06   -3.8164848559051187e-07   -1.0283951520973e-06
2.1508851795459243e-06   -4.992161430846008e-07   2.0980846479608066e-06
2.1508851795459243e-06   -4.992161430846008e-07   2.0980846479608066e-06
2.1508851795459243e-06   -4.992161430846008e-07   2.0980846479608066e-06
2.1508851795459243e-06   -4.992161430846008e-07   2.0980846479608066e-06
3.984448702882917e-06   -7.390800437453754e-07   5.175250046056076e-06
3.984448702882917e-06   -7.390800437453754e-07   5.175250046056076e-06
3.984448702882917e-06   -7.390800437453754e-07   5.175250046056076e-06
3.984448702882917e-06   -7.390800437453754e-07   5.175250046056076e-06
2.6226158399091006e-07   -3.8164848559051187e-07   -8.139362172043818e-07
2.6226158399091006e-07   -3.8164848559051187e-07   -8.139362172043818e-07
2.6226158399091006e-07   -3.8164848559051187e-07   -8.139362172043818e-07
2.6226158399091006e-07   -3.8164848559051187e-07   -8.139362172043818e-07
1.382469264048919e-07   -7.525378763859774e-07   5.3234752073589805e-06
1.382469264048919e-07   -7.525378763859774e-07   5.3234752073589805e-06
1.382469264048919e-07   -7.525378763859774e-07   5.3234752073589805e-06
1.382469264048919e-07   -7.525378763859774e-07   5.3234752073589805e-06
3.858837618349151e-06   -4.186818561999965e-07   -1.077822891326379e-06
3.858837618349151e-06   -4.186818561999965e-07   -1.077822891326379e-06
3.858837618349151e-06   -4.186818561999965e-07   -1.077822891326379e-06
3.858837618349151e-06   -4.186818561999965e-07   -1.077822891326379e-06
2.024784775793331e-06   -5.207239955060724e-07   2.0401571298503916e-06
2.024784775793331e-06   -5.207239955060724e-07   2.0401571298503916e-06
2.024784775793331e-06   -5.207239955060724e-07   2.0401571298503916e-06
2.024784775793331e-06   -5.207239955060724e-07   2.0401571298503916e-06
3.8588376183491445e-06   -7.525378763859232e-07   5.123161595247381e-06
3.8588376183491445e-06   -7.525378763859232e-07   5.123161595247381e-06
3.8588376183491445e-06   -7.525378763859232e-07   5.123161595247381e-06
3.8588376183491445e-06   -7.525378763859232e-07   5.123161595247381e-06
1.382469264048919e-07   -4.186818561999965e-07   -8.775092792147863e-07
1.382469264048919e-07   -4.186818561999965e-07   -8.775092792147863e-07
1.382469264048919e-07   -4.186818561999965e-07   -8.775092792147863e-07
1.382469264048919e-07   -4.186818561999965e-07   -8.775092792147863e-07
1.3747253047702952e-09   -7.284428113948894e-07   5.385780831994037e-06
1.3747253047702952e-09   -7.284428113948894e-07   5.385780831994037e-06
1.3747253047702952e-09   -7.284428113948894e-07   5.385780831994037e-06
1.3747253047702952e-09   -7.284428113948894e-07   5.385780831994037e-06
3.7262847116514746e-06   -4.3044988492184485e-07   -1.0011982344676757e-06
3.7262847116514746e-06   -4.3044988492184485e-07   -1.0011982344676757e-06
3.7262847116514746e-06   -4.3044988492184485e-07   -1.0011982344676757e-06
3.7262847116514746e-06   -4.3044988492184485e-07   -1.0011982344676757e-06
1.926576634250982e-06   -5.118367088904549e-07   2.047147322247706e-06
1.926576634250982e-06   -5.118367088904549e-07   2.047147322247706e-06
1.926576634250982e-06   -5.118367088904549e-07   2.047147322247706e-06
1.926576634250982e-06   -5.118367088904549e-07   2.047147322247706e-06
3.6027464712021833e-07   -2.2410075583651152e-07   5.2789846705803966e-06
3.6027464712021833e-07   -2.2410075583651152e-07   5.2789846705803966e-06
3.6027464712021833e-07   -2.2410075583651152e-07   5.2789846705803966e-06
3.6027464712021833e-07   -2.2410075583651152e-07   5.2789846705803966e-06
-3.2537653963207565e-06   3.098272698123729e-07   -4.240585864318566e-07
-3.2537653963207565e-06   3.098272698123729e-07   -4.240585864318566e-07
-3.2537653963207565e-06   3.098272698123729e-07   -4.240585864318566e-07
-3.2537653963207565e-06   3.098272698123729e-07   -4.240585864318566e-07
-3.364616070356727e-06   -2.3440873412109136e-07   5.635365382104438e-06
-3.364616070356727e-06   -2.3440873412109136e-07   5.635365382104438e-06
-3.364616070356727e-06   -2.3440873412109136e-07   5.635365382104438e-06
-3.364616070356727e-06   -2.3440873412109136e-07   5.635365382104438e-06
2.6226158399091006e-07   2.670276005961548e-07   -7.102925093053025e-07
2.6226158399091006e-07   2.670276005961548e-07   -7.102925093053025e-07
2.6226158399091006e-07   2.670276005961548e-07   -7.102925093053025e-07
2.6226158399091006e-07   2.670276005961548e-07   -7.102925093053025e-07
-1.4965906161332409e-06   5.222891605506262e-08   2.350007034959613e-06
-1.4965906161332409e-06   5.222891605506262e-08   2.350007034959613e-06
-1.4965906161332409e-06   5.222891605506262e-08   2.350007034959613e-06
-1.4965906161332409e-06   5.222891605506262e-08   2.350007034959613e-06
2.6226158399091345e-07   -2.3440873412109136e-07   5.334503581274133e-06
2.6226158399091345e-07   -2.3440873412109136e-07   5.334503581274133e-06
2.6226158399091345e-07   -2.3440873412109136e-07   5.334503581274133e-06
2.6226158399091345e-07   -2.3440873412109136e-07   5.334503581274133e-06
-3.364616070356727e-06   2.670276005961006e-07   -4.094307084749778e-07
-3.364616070356727e-06   2.670276005961006e-07   -4.094307084749778e-07
-3.364616070356727e-06   2.670276005961006e-07   -4.094307084749778e-07
-3.364616070356727e-06   2.670276005961006e-07   -4.094307084749778e-07
-3.510738194740895e-06   -2.4811461817221417e-07   5.7386022952716045e-06
-3.510738194740895e-06   -2.4811461817221417e-07   5.7386022952716045e-06
-3.510738194740895e-06   -2.4811461817221417e-07   5.7386022952716045e-06
-3.510738194740895e-06   -2.4811461817221417e-07   5.7386022952716045e-06
1.382469264048919e-07   2.27216231055735e-07   -6.282380828414883e-07
1.382469264048919e-07   2.27216231055735e-07   -6.282380828414883e-07
1.382469264048919e-07   2.27216231055735e-07   -6.282380828414883e-07
1.382469264048919e-07   2.27216231055735e-07   -6.282380828414883e-07
-1.6052611508103552e-06   4.277293394949408e-08   2.388274690781004e-06
-1.6052611508103552e-06   4.277293394949408e-08   2.388274690781004e-06
-1.6052611508103552e-06   4.277293394949408e-08   2.388274690781004e-06
-1.6052611508103552e-06   4.277293394949408e-08   2.388274690781004e-06
1.382469264048919e-07   -2.4811461817221417e-07   5.453403785734819e-06
1.382469264048919e-07   -2.4811461817221417e-07   5.453403785734819e-06
1.382469264048919e-07   -2.4811461817221417e-07   5.453403785734819e-06
1.382469264048919e-07   -2.4811461817221417e-07   5.453403785734819e-06
-3.5107381947408882e-06   2.27216231055735e-07   -3.430395733047093e-07
-3.5107381947408882e-06   2.27216231055735e-07   -3.430395733047093e-07
-3.5107381947408882e-06   2.27216231055735e-07   -3.430395733047093e-07
-3.5107381947408882e-06   2.27216231055735e-07   -3.430395733047093e-07
-3.666357638103799e-06   -2.409101315797315e-07   5.86229343525215e-06
-3.666357638103799e-06   -2.409101315797315e-07   5.86229343525215e-06
-3.666357638103799e-06   -2.409101315797315e-07   5.86229343525215e-06
-3.666357638103799e-06   -2.409101315797315e-07   5.86229343525215e-06
1.3747253047736833e-09   1.9946140163585452e-07   -5.148167570248115e-07
1.3747253047736833e-09   1.9946140163585452e-07   -5.148167570248115e-07
1.3747253047736833e-09   1.9946140163585452e-07   -5.148167570248115e-07
1.3747253047736833e-09   1.9946140163585452e-07   -5.148167570248115e-07
-1.742876561939556e-06   3.739901663888951e-08   2.489506152714003e-06
-1.742876561939556e-06   3.739901663888951e-08   2.489506152714003e-06
-1.742876561939556e-06   3.739901663888951e-08   2.489506152714003e-06
-1.742876561939556e-06   3.739901663888951e-08   2.489506152714003e-06
-3.2537653963207497e-06   4.415089378570318e-07   4.813718113873565e-06
-3.2537653963207497e-06   4.415089378570318e-07   4.813718113873565e-06
-3.2537653963207497e-06   4.415089378570318e-07   4.813718113873565e-06
-3.2537653963207497e-06   4.415089378570318e-07   4.813718113873565e-06
-6.823069189190227e-06   9.771699007696017e-07   -8.137249631613144e-07
-6.823069189190227e-06   9.771699007696017e-07   -8.137249631613144e-07
-6.823069189190227e-06   9.771699007696017e-07   -8.137249631613144e-07
-6.823069189190227e-06   9.771699007696017e-07   -8.137249631613144e-07
-6.979224456995459e-06   4.3336609489418726e-07   5.29284032118246e-06
-6.979224456995459e-06   4.3336609489418726e-07   5.29284032118246e-06
-6.979224456995459e-06   4.3336609489418726e-07   5.29284032118246e-06
-6.979224456995459e-06   4.3336609489418726e-07   5.29284032118246e-06
-3.364616070356717e-06   9.363252895631816e-07   -1.0332825066834876e-06
-3.364616070356717e-06   9.363252895631816e-07   -1.0332825066834876e-06
-3.364616070356717e-06   9.363252895631816e-07   -1.0332825066834876e-06
-3.364616070356717e-06   9.363252895631816e-07   -1.0332825066834876e-06
-5.0685179928612435e-06   7.034367619195014e-07   1.9462871474102583e-06
-5.0685179928612435e-06   7.034367619195014e-07   1.9462871474102583e-06
-5.0685179928612435e-06   7.034367619195014e-07   1.9462871474102583e-06
-5.0685179928612435e-06   7.034367619195014e-07   1.9462871474102583e-06
-3.3646160703567237e-06   4.3336609489418726e-07   4.9910648043810795e-06
-3.3646160703567237e-06   4.3336609489418726e-07   4.9910648043810795e-06
-3.3646160703567237e-06   4.3336609489418726e-07   4.9910648043810795e-06
-3.3646160703567237e-06   4.3336609489418726e-07   4.9910648043810795e-06
-6.979224456995449e-06   9.363252895631816e-07   -7.315069898820869e-07
-6.979224456995449e-06   9.363252895631816e-07   -7.315069898820869e-07
-6.979224456995449e-06   9.363252895631816e-07   -7.315069898820869e-07
-6.979224456995449e-06   9.363252895631816e-07   -7.315069898820869e-07
-7.17241014853479e-06   4.057150352100038e-07   5.616738325550609e-06
-7.17241014853479e-06   4.057150352100038e-07   5.616738325550609e-06
-7.17241014853479e-06   4.057150352100038e-07   5.616738325550609e-06
-7.17241014853479e-06   4.057150352100038e-07   5.616738325550609e-06
-3.5107381947408882e-06   8.966547606969544e-07   -7.806120993980391e-07
-3.5107381947408882e-06   8.966547606969544e-07   -7.806120993980391e-07
-3.5107381947408882e-06   8.966547606969544e-07   -7.806120993980391e-07
-3.5107381947408882e-06   8.966547606969544e-07   -7.806120993980391e-07
-5.181174123068057e-06   6.983268705330675e-07   2.1224445152455396e-06
-5.181174123068057e-06   6.983268705330675e-07   2.1224445152455396e-06
-5.181174123068057e-06   6.983268705330675e-07   2.1224445152455396e-06
-5.181174123068057e-06   6.983268705330675e-07   2.1224445152455396e-06
-3.510738194740885e-06   4.057150352100038e-07   5.322174490258438e-06
-3.510738194740885e-06   4.057150352100038e-07   5.322174490258438e-06
-3.510738194740885e-06   4.057150352100038e-07   5.322174490258438e-06
-3.510738194740885e-06   4.057150352100038e-07   5.322174490258438e-06
-7.17241014853479e-06   8.966547606969544e-07   -4.860482641058823e-07
-7.17241014853479e-06   8.966547606969544e-07   -4.860482641058823e-07
-7.17241014853479e-06   8.966547606969544e-07   -4.860482641058823e-07
-7.17241014853479e-06   8.966547606969544e-07   -4.860482641058823e-07
-7.374773858918763e-06   3.727661220188005e-07   5.859805436201959e-06
-7.374773858918763e-06   3.727661220188005e-07   5.859805436201959e-06
-7.374773858918763e-06   3.727661220188005e-07   5.859805436201959e-06
-7.374773858918763e-06   3.727661220188005e-07   5.859805436201959e-06
-3.6663576381037887e-06   8.411625950360824e-07   -6.019261489666642e-07
-3.6663576381037887e-06   8.411625950360824e-07   -6.019261489666642e-07
-3.6663576381037887e-06   8.411625950360824e-07   -6.019261489666642e-07
-3.6663576381037887e-06   8.411625950360824e-07   -6.019261489666642e-07
-5.381706656274139e-06   6.676847820239308e-07   2.361075569124729e-06
-5.381706656274139e-06   6.676847820239308e-07   2.361075569124729e-06
-5.381706656274139e-06   6.676847820239308e-07   2.361075569124729e-06
-5.381706656274139e-06   6.676847820239308e-07   2.361075569124729e-06
-6.823069189190227e-06   1.5930653551296027e-06   2.5248009620376123e-06
-6.823069189190227e-06   1.5930653551296027e-06   2.5248009620376123e-06
-6.823069189190227e-06   1.5930653551296027e-06   2.5248009620376123e-06
-6.823069189190227e-06   1.5930653551296027e-06   2.5248009620376123e-06
-1.0276939063213665e-05   1.589283657494982e-06   -3.2339178465822676e-06
-1.0276939063213665e-05   1.589283657494982e-06   -3.2339178465822676e-06
-1.0276939063213665e-05   1.589283657494982e-06   -3.2339178465822676e-06
-1.0276939063213665e-05   1.589283657494982e-06   -3.2339178465822676e-06
-1.0560297409058261e-05   1.559840178671796e-06   3.832369610118824e-06
-1.0560297409058261e-05   1.559840178671796e-06   3.832369610118824e-06
-1.0560297409058261e-05   1.559840178671796e-06   3.832369610118824e-06
-1.0560297409058261e-05   1.559840178671796e-06   3.832369610118824e-06
-6.979224456995449e-06   1.6293490859540529e-06   -2.17779065435527e-06
-6.979224456995449e-06   1.6293490859540529e-06   -2.17779065435527e-06
-6.979224456995449e-06   1.6293490859540529e-06   -2.17779065435527e-06
-6.979224456995449e-06   1.6293490859540529e-06   -2.17779065435527e-06
-8.311265063082227e-06   1.6093759846294077e-06   5.4260883250830316e-08
-8.311265063082227e-06   1.6093759846294077e-06   5.4260883250830316e-08
-8.311265063082227e-06   1.6093759846294077e-06   5.4260883250830316e-08
-8.311265063082227e-06   1.6093759846294077e-06   5.4260883250830316e-08
-6.979224456995442e-06   1.5598401786718502e-06   3.7906642657494372e-06
-6.979224456995442e-06   1.5598401786718502e-06   3.7906642657494372e-06
-6.979224456995442e-06   1.5598401786718502e-06   3.7906642657494372e-06
-6.979224456995442e-06   1.5598401786718502e-06   3.7906642657494372e-06
-1.0560297409058261e-05   1.6293490859540529e-06   -2.1360853099859037e-06
-1.0560297409058261e-05   1.6293490859540529e-06   -2.1360853099859037e-06
-1.0560297409058261e-05   1.6293490859540529e-06   -2.1360853099859037e-06
-1.0560297409058261e-05   1.6293490859540529e-06   -2.1360853099859037e-06
-1.0837957306655095e-05   1.5281104603061474e-06   4.730544038126063e-06
-1.0837957306655095e-05   1.5281104603061474e-06   4.730544038126063e-06
-1.0837957306655095e-05   1.5281104603061474e-06   4.730544038126063e-06
-1.0837957306655095e-05   1.5281104603061474e-06   4.730544038126063e-06
-7.1724101485347794e-06   1.6207543530020758e-06   -1.4342875610253865e-06
-7.1724101485347794e-06   1.6207543530020758e-06   -1.4342875610253865e-06
-7.1724101485347794e-06   1.6207543530020758e-06   -1.4342875610253865e-06
-7.1724101485347794e-06   1.6207543530020758e-06   -1.4342875610253865e-06
-8.653133265730297e-06   1.617603973983492e-06   1.0354745283784166e-06
-8.653133265730297e-06   1.617603973983492e-06   1.0354745283784166e-06
-8.653133265730297e-06   1.617603973983492e-06   1.0354745283784166e-06
-8.653133265730297e-06   1.617603973983492e-06   1.0354745283784166e-06
-7.1724101485347794e-06   1.5281104603062016e-06   4.6749577025085e-06
-7.1724101485347794e-06   1.5281104603062016e-06   4.6749577025085e-06
-7.1724101485347794e-06   1.5281104603062016e-06   4.6749577025085e-06
-7.1724101485347794e-06   1.5281104603062016e-06   4.6749577025085e-06
-1.0837957306655095e-05   1.6207543530020758e-06   -1.3787012254078308e-06
-1.0837957306655095e-05   1.6207543530020758e-06   -1.3787012254078308e-06
-1.0837957306655095e-05   1.6207543530020758e-06   -1.3787012254078308e-06
-1.0837957306655095e-05   1.6207543530020758e-06   -1.3787012254078308e-06
-1.116702643945548e-05   1.3073344490419536e-06   6.226230686288476e-06
-1.116702643945548e-05   1.3073344490419536e-06   6.226230686288476e-06
-1.116702643945548e-05   1.3073344490419536e-06   6.226230686288476e-06
-1.116702643945548e-05   1.3073344490419536e-06   6.226230686288476e-06
-7.374773858918739e-06   1.5015840342739572e-06   -2.1074003241197724e-07
-7.374773858918739e-06   1.5015840342739572e-06   -2.1074003241197724e-07
-7.374773858918739e-06   1.5015840342739572e-06   -2.1074003241197724e-07
-7.374773858918739e-06   1.5015840342739572e-06   -2.1074003241197724e-07
-8.751172086842643e-06   1.5478215879561057e-06   2.0555144819186356e-06
-8.751172086842643e-06   1.5478215879561057e-06   2.0555144819186356e-06
-8.751172086842643e-06   1.5478215879561057e-06   2.0555144819186356e-06
-8.751172086842643e-06   1.5478215879561057e-06   2.0555144819186356e-06
6.793915726178272e-06   -9.416026021793274e-07   5.0863318579144785e-06
6.793915726178272e-06   -9.416026021793274e-07   5.0863318579144785e-06
6.793915726178272e-06   -9.416026021793274e-07   5.0863318579144785e-06
6.793915726178272e-06   -9.416026021793274e-07   5.0863318579144785e-06
3.334244013577052e-06   -7.155818515151391e-07   -5.441752126890843e-07
3.334244013577052e-06   -7.155818515151391e-07   -5.441752126890843e-07
3.334244013577052e-06   -7.155818515151391e-07   -5.441752126890843e-07
3.334244013577052e-06   -7.155818515151391e-07   -5.441752126890843e-07
3.2212294926051665e-06   -1.058484988117228e-06   4.399662239722407e-06
3.2212294926051665e-06   -1.058484988117228e-06   4.399662239722407e-06
3.2212294926051665e-06   -1.058484988117228e-06   4.399662239722407e-06
3.2212294926051665e-06   -1.058484988117228e-06   4.399662239722407e-06
6.587473593723521e-06   -8.224425810962155e-07   -1.3523700396874096e-06
6.587473593723521e-06   -8.224425810962155e-07   -1.3523700396874096e-06
6.587473593723521e-06   -8.224425810962155e-07   -1.3523700396874096e-06
6.587473593723521e-06   -8.224425810962155e-07   -1.3523700396874096e-06
4.756522913889912e-06   -8.749082116921506e-07   1.730693805059491e-06
4.756522913889912e-06   -8.749082116921506e-07   1.730693805059491e-06
4.756522913889912e-06   -8.749082116921506e-07   1.730693805059491e-06
4.756522913889912e-06   -8.749082116921506e-07   1.730693805059491e-06
6.58747359372351e-06   -1.058484988117228e-06   4.258036795509821e-06
6.58747359372351e-06   -1.058484988117228e-06   4.258036795509821e-06
6.58747359372351e-06   -1.058484988117228e-06   4.258036795509821e-06
6.58747359372351e-06   -1.058484988117228e-06   4.258036795509821e-06
3.2212294926051784e-06   -8.224425810962155e-07   -1.2107445954748198e-06
3.2212294926051784e-06   -8.224425810962155e-07   -1.2107445954748198e-06
3.2212294926051784e-06   -8.224425810962155e-07   -1.2107445954748198e-06
3.2212294926051784e-06   -8.224425810962155e-07   -1.2107445954748198e-06
3.0947951901921064e-06   -1.0737603330365298e-06   3.927517343353925e-06
3.0947951901921064e-06   -1.0737603330365298e-06   3.927517343353925e-06
3.0947951901921064e-06   -1.0737603330365298e-06   3.927517343353925e-06
3.0947951901921064e-06   -1.0737603330365298e-06   3.927517343353925e-06
6.398752016666028e-06   -8.424830339369351e-07   -1.7178437468956632e-06
6.398752016666028e-06   -8.424830339369351e-07   -1.7178437468956632e-06
6.398752016666028e-06   -8.424830339369351e-07   -1.7178437468956632e-06
6.398752016666028e-06   -8.424830339369351e-07   -1.7178437468956632e-06
4.688285508509185e-06   -9.169753055717671e-07   1.1776291296799172e-06
4.688285508509185e-06   -9.169753055717671e-07   1.1776291296799172e-06
4.688285508509185e-06   -9.169753055717671e-07   1.1776291296799172e-06
4.688285508509185e-06   -9.169753055717671e-07   1.1776291296799172e-06
6.398752016666005e-06   -1.0737603330364756e-06   3.78875096389419e-06
6.398752016666005e-06   -1.0737603330364756e-06   3.78875096389419e-06
6.398752016666005e-06   -1.0737603330364756e-06   3.78875096389419e-06
6.398752016666005e-06   -1.0737603330364756e-06   3.78875096389419e-06
3.094795190192113e-06   -8.424830339369351e-07   -1.5790773674359234e-06
3.094795190192113e-06   -8.424830339369351e-07   -1.5790773674359234e-06
3.094795190192113e-06   -8.424830339369351e-07   -1.5790773674359234e-06
3.094795190192113e-06   -8.424830339369351e-07   -1.5790773674359234e-06
2.9723935444732407e-06   -1.057646264815968e-06   3.257263629074462e-06
2.9723935444732407e-06   -1.057646264815968e-06   3.257263629074462e-06
2.9723935444732407e-06   -1.057646264815968e-06   3.257263629074462e-06
2.9723935444732407e-06   -1.057646264815968e-06   3.257263629074462e-06
6.183329261126549e-06   -8.433098747118195e-07   -2.2228977327435253e-06
6.183329261126549e-06   -8.433098747118195e-07   -2.2228977327435253e-06
6.183329261126549e-06   -8.433098747118195e-07   -2.2228977327435253e-06
6.183329261126549e-06   -8.433098747118195e-07   -2.2228977327435253e-06
4.465937701213752e-06   -8.985119686206458e-07   6.725427901231742e-07
4.465937701213752e-06   -8.985119686206458e-07   6.725427901231742e-07
4.465937701213752e-06   -8.985119686206458e-07   6.725427901231742e-07
4.465937701213752e-06   -8.985119686206458e-07   6.725427901231742e-07
3.334244013577052e-06   -3.208832297743624e-07   5.195189183991518e-06
3.334244013577052e-06   -3.208832297743624e-07   5.195189183991518e-06
3.334244013577052e-06   -3.208832297743624e-07   5.195189183991518e-06
3.334244013577052e-06   -3.208832297743624e-07   5.195189183991518e-06
8.535846954474814e-08   -1.3974032750228458e-07   -1.1093431469909169e-07
8.535846954474814e-08   -1.3974032750228458e-07   -1.1093431469909169e-07
8.535846954474814e-08   -1.3974032750228458e-07   -1.1093431469909169e-07
8.535846954474814e-08   -1.3974032750228458e-07   -1.1093431469909169e-07
-2.4033952623016053e-08   -3.8164848559051187e-07   5.238927099506831e-06
-2.4033952623016053e-08   -3.8164848559051187e-07   5.238927099506831e-06
-2.4033952623016053e-08   -3.8164848559051187e-07   5.238927099506831e-06
-2.4033952623016053e-08   -3.8164848559051187e-07   5.238927099506831e-06
3.2212294926051784e-06   -2.1368851233719705e-07   -2.706212931587785e-07
3.2212294926051784e-06   -2.1368851233719705e-07   -2.706212931587785e-07
3.2212294926051784e-06   -2.1368851233719705e-07   -2.706212931587785e-07
3.2212294926051784e-06   -2.1368851233719705e-07   -2.706212931587785e-07
1.633628535021373e-06   -2.5516066293174676e-07   2.4002635931709356e-06
1.633628535021373e-06   -2.5516066293174676e-07   2.4002635931709356e-06
1.633628535021373e-06   -2.5516066293174676e-07   2.4002635931709356e-06
1.633628535021373e-06   -2.5516066293174676e-07   2.4002635931709356e-06
3.221229492605175e-06   -3.8164848559051187e-07   5.138151115554847e-06
3.221229492605175e-06   -3.8164848559051187e-07   5.138151115554847e-06
3.221229492605175e-06   -3.8164848559051187e-07   5.138151115554847e-06
3.221229492605175e-06   -3.8164848559051187e-07   5.138151115554847e-06
-2.403395262301944e-08   -2.1368851233719705e-07   -1.698453092068052e-07
-2.403395262301944e-08   -2.1368851233719705e-07   -1.698453092068052e-07
-2.403395262301944e-08   -2.1368851233719705e-07   -1.698453092068052e-07
-2.403395262301944e-08   -2.1368851233719705e-07   -1.698453092068052e-07
-1.3780724165719856e-07   -4.186818561999965e-07   5.1477062244381655e-06
-1.3780724165719856e-07   -4.186818561999965e-07   5.1477062244381655e-06
-1.3780724165719856e-07   -4.186818561999965e-07   5.1477062244381655e-06
-1.3780724165719856e-07   -4.186818561999965e-07   5.1477062244381655e-06
3.094795190192113e-06   -2.663155034020098e-07   -3.313843069894238e-07
3.094795190192113e-06   -2.663155034020098e-07   -3.313843069894238e-07
3.094795190192113e-06   -2.663155034020098e-07   -3.313843069894238e-07
3.094795190192113e-06   -2.663155034020098e-07   -3.313843069894238e-07
1.505946300097287e-06   -2.928558430016553e-07   2.3326213802617835e-06
1.505946300097287e-06   -2.928558430016553e-07   2.3326213802617835e-06
1.505946300097287e-06   -2.928558430016553e-07   2.3326213802617835e-06
1.505946300097287e-06   -2.928558430016553e-07   2.3326213802617835e-06
3.0947951901921064e-06   -4.186818561999965e-07   5.056286412759449e-06
3.0947951901921064e-06   -4.186818561999965e-07   5.056286412759449e-06
3.0947951901921064e-06   -4.186818561999965e-07   5.056286412759449e-06
3.0947951901921064e-06   -4.186818561999965e-07   5.056286412759449e-06
-1.3780724165719856e-07   -2.663155034020098e-07   -2.3996449531065345e-07
-1.3780724165719856e-07   -2.663155034020098e-07   -2.3996449531065345e-07
-1.3780724165719856e-07   -2.663155034020098e-07   -2.3996449531065345e-07
-1.3780724165719856e-07   -2.663155034020098e-07   -2.3996449531065345e-07
-2.5627861330608024e-07   -4.3044988492184485e-07   5.174420764163842e-06
-2.5627861330608024e-07   -4.3044988492184485e-07   5.174420764163842e-06
-2.5627861330608024e-07   -4.3044988492184485e-07   5.174420764163842e-06
-2.5627861330608024e-07   -4.3044988492184485e-07   5.174420764163842e-06
2.972393544473249e-06   -3.050580786635466e-07   -2.8193458255669047e-07
2.972393544473249e-06   -3.050580786635466e-07   -2.8193458255669047e-07
2.972393544473249e-06   -3.050580786635466e-07   -2.8193458255669047e-07
2.972393544473249e-06   -3.050580786635466e-07   -2.8193458255669047e-07
1.4135691036658057e-06   -3.103172866759387e-07   2.319261676929924e-06
1.4135691036658057e-06   -3.103172866759387e-07   2.319261676929924e-06
1.4135691036658057e-06   -3.103172866759387e-07   2.319261676929924e-06
1.4135691036658057e-06   -3.103172866759387e-07   2.319261676929924e-06
8.535846954474814e-08   3.098272698124271e-07   5.3387260149627435e-06
8.535846954474814e-08   3.098272698124271e-07   5.3387260149627435e-06
8.535846954474814e-08   3.098272698124271e-07   5.3387260149627435e-06
8.535846954474814e-08   3.098272698124271e-07   5.3387260149627435e-06
-3.074886013024353e-06   4.3115435255451076e-07   1.4444812699286082e-07
-3.074886013024353e-06   4.3115435255451076e-07   1.4444812699286082e-07
-3.074886013024353e-06   4.3115435255451076e-07   1.4444812699286082e-07
-3.074886013024353e-06   4.3115435255451076e-07   1.4444812699286082e-07
-3.189712901865497e-06   2.670276005961548e-07   5.405722407838946e-06
-3.189712901865497e-06   2.670276005961548e-07   5.405722407838946e-06
-3.189712901865497e-06   2.670276005961548e-07   5.405722407838946e-06
-3.189712901865497e-06   2.670276005961548e-07   5.405722407838946e-06
-2.403395262301944e-08   3.722802679844957e-07   6.643922533510762e-08
-2.403395262301944e-08   3.722802679844957e-07   6.643922533510762e-08
-2.403395262301944e-08   3.722802679844957e-07   6.643922533510762e-08
-2.403395262301944e-08   3.722802679844957e-07   6.643922533510762e-08
-1.5530159261286937e-06   3.465875125131671e-07   2.630158167794109e-06
-1.5530159261286937e-06   3.465875125131671e-07   2.630158167794109e-06
-1.5530159261286937e-06   3.465875125131671e-07   2.630158167794109e-06
-1.5530159261286937e-06   3.465875125131671e-07   2.630158167794109e-06
-2.4033952623016053e-08   2.670276005961548e-07   5.34257080740593e-06
-2.4033952623016053e-08   2.670276005961548e-07   5.34257080740593e-06
-2.4033952623016053e-08   2.670276005961548e-07   5.34257080740593e-06
-2.4033952623016053e-08   2.670276005961548e-07   5.34257080740593e-06
-3.189712901865497e-06   3.722802679844957e-07   1.2959082576813655e-07
-3.189712901865497e-06   3.722802679844957e-07   1.2959082576813655e-07
-3.189712901865497e-06   3.722802679844957e-07   1.2959082576813655e-07
-3.189712901865497e-06   3.722802679844957e-07   1.2959082576813655e-07
-3.310262178863923e-06   2.27216231055735e-07   5.449788021825807e-06
-3.310262178863923e-06   2.27216231055735e-07   5.449788021825807e-06
-3.310262178863923e-06   2.27216231055735e-07   5.449788021825807e-06
-3.310262178863923e-06   2.27216231055735e-07   5.449788021825807e-06
-1.3780724165719517e-07   3.152338994128856e-07   1.0955252546693647e-07
-1.3780724165719517e-07   3.152338994128856e-07   1.0955252546693647e-07
-1.3780724165719517e-07   3.152338994128856e-07   1.0955252546693647e-07
-1.3780724165719517e-07   3.152338994128856e-07   1.0955252546693647e-07
-1.6592246445779087e-06   3.1446009127146166e-07   2.645712481886314e-06
-1.6592246445779087e-06   3.1446009127146166e-07   2.645712481886314e-06
-1.6592246445779087e-06   3.1446009127146166e-07   2.645712481886314e-06
-1.6592246445779087e-06   3.1446009127146166e-07   2.645712481886314e-06
-1.3780724165719856e-07   2.27216231055735e-07   5.396977420811511e-06
-1.3780724165719856e-07   2.27216231055735e-07   5.396977420811511e-06
-1.3780724165719856e-07   2.27216231055735e-07   5.396977420811511e-06
-1.3780724165719856e-07   2.27216231055735e-07   5.396977420811511e-06
-3.3102621788639297e-06   3.152338994128856e-07   1.6236312648125256e-07
-3.3102621788639297e-06   3.152338994128856e-07   1.6236312648125256e-07
-3.3102621788639297e-06   3.152338994128856e-07   1.6236312648125256e-07
-3.3102621788639297e-06   3.152338994128856e-07   1.6236312648125256e-07
-3.434256991440672e-06   1.9946140163585452e-07   5.521103462220077e-06
-3.434256991440672e-06   1.9946140163585452e-07   5.521103462220077e-06
-3.434256991440672e-06   1.9946140163585452e-07   5.521103462220077e-06
-3.434256991440672e-06   1.9946140163585452e-07   5.521103462220077e-06
-2.5627861330608363e-07   2.646230291312524e-07   1.853758554984841e-07
-2.5627861330608363e-07   2.646230291312524e-07   1.853758554984841e-07
-2.5627861330608363e-07   2.646230291312524e-07   1.853758554984841e-07
-2.5627861330608363e-07   2.646230291312524e-07   1.853758554984841e-07
-1.774226943770434e-06   2.8398503757950944e-07   2.703672534536949e-06
-1.774226943770434e-06   2.8398503757950944e-07   2.703672534536949e-06
-1.774226943770434e-06   2.8398503757950944e-07   2.703672534536949e-06
-1.774226943770434e-06   2.8398503757950944e-07   2.703672534536949e-06
-3.0748860130243666e-06   9.771699007696559e-07   4.700459310130978e-06
-3.0748860130243666e-06   9.771699007696559e-07   4.700459310130978e-06
-3.0748860130243666e-06   9.771699007696559e-07   4.700459310130978e-06
-3.0748860130243666e-06   9.771699007696559e-07   4.700459310130978e-06
-6.162762337072825e-06   9.901736924497213e-07   -4.3819895494172584e-07
-6.162762337072825e-06   9.901736924497213e-07   -4.3819895494172584e-07
-6.162762337072825e-06   9.901736924497213e-07   -4.3819895494172584e-07
-6.162762337072825e-06   9.901736924497213e-07   -4.3819895494172584e-07
-6.295721651331947e-06   9.363252895631816e-07   4.7818691088381544e-06
-6.295721651331947e-06   9.363252895631816e-07   4.7818691088381544e-06
-6.295721651331947e-06   9.363252895631816e-07   4.7818691088381544e-06
-6.295721651331947e-06   9.363252895631816e-07   4.7818691088381544e-06
-3.189712901865507e-06   9.363227882426876e-07   -3.948106394803297e-07
-3.189712901865507e-06   9.363227882426876e-07   -3.948106394803297e-07
-3.189712901865507e-06   9.363227882426876e-07   -3.948106394803297e-07
-3.189712901865507e-06   9.363227882426876e-07   -3.948106394803297e-07
-4.659979195265909e-06   9.542428804439518e-07   2.0448811275329526e-06
-4.659979195265909e-06   9.542428804439518e-07   2.0448811275329526e-06
-4.659979195265909e-06   9.542428804439518e-07   2.0448811275329526e-06
-4.659979195265909e-06   9.542428804439518e-07   2.0448811275329526e-06
-3.189712901865507e-06   9.363252895631816e-07   4.781870609630402e-06
-3.189712901865507e-06   9.363252895631816e-07   4.781870609630402e-06
-3.189712901865507e-06   9.363252895631816e-07   4.781870609630402e-06
-3.189712901865507e-06   9.363252895631816e-07   4.781870609630402e-06
-6.2957216513319365e-06   9.363227882426876e-07   -3.948121402725909e-07
-6.2957216513319365e-06   9.363227882426876e-07   -3.948121402725909e-07
-6.2957216513319365e-06   9.363227882426876e-07   -3.948121402725909e-07
-6.2957216513319365e-06   9.363227882426876e-07   -3.948121402725909e-07
-6.4417694604488636e-06   8.966547606969544e-07   5.005006709768765e-06
-6.4417694604488636e-06   8.966547606969544e-07   5.005006709768765e-06
-6.4417694604488636e-06   8.966547606969544e-07   5.005006709768765e-06
-6.4417694604488636e-06   8.966547606969544e-07   5.005006709768765e-06
-3.3102621788639297e-06   8.846401174241142e-07   -2.0696330690909206e-07
-3.3102621788639297e-06   8.846401174241142e-07   -2.0696330690909206e-07
-3.3102621788639297e-06   8.846401174241142e-07   -2.0696330690909206e-07
-3.3102621788639297e-06   8.846401174241142e-07   -2.0696330690909206e-07
-4.7519339783570655e-06   9.251945452450755e-07   2.171490368886925e-06
-4.7519339783570655e-06   9.251945452450755e-07   2.171490368886925e-06
-4.7519339783570655e-06   9.251945452450755e-07   2.171490368886925e-06
-4.7519339783570655e-06   9.251945452450755e-07   2.171490368886925e-06
-3.3102621788639263e-06   8.966547606969544e-07   5.012215495732463e-06
-3.3102621788639263e-06   8.966547606969544e-07   5.012215495732463e-06
-3.3102621788639263e-06   8.966547606969544e-07   5.012215495732463e-06
-3.3102621788639263e-06   8.966547606969544e-07   5.012215495732463e-06
-6.441769460448853e-06   8.846401174241142e-07   -2.14172092872784e-07
-6.441769460448853e-06   8.846401174241142e-07   -2.14172092872784e-07
-6.441769460448853e-06   8.846401174241142e-07   -2.14172092872784e-07
-6.441769460448853e-06   8.846401174241142e-07   -2.14172092872784e-07
-6.580174847056241e-06   8.411625950360824e-07   5.156877972885125e-06
-6.580174847056241e-06   8.411625950360824e-07   5.156877972885125e-06
-6.580174847056241e-06   8.411625950360824e-07   5.156877972885125e-06
-6.580174847056241e-06   8.411625950360824e-07   5.156877972885125e-06
-3.4342569914406857e-06   8.196739659297706e-07   -7.342527567703037e-08
-3.4342569914406857e-06   8.196739659297706e-07   -7.342527567703037e-08
-3.4342569914406857e-06   8.196739659297706e-07   -7.342527567703037e-08
-3.4342569914406857e-06   8.196739659297706e-07   -7.342527567703037e-08
-4.9075412759149285e-06   8.848017503685019e-07   2.3429718611170673e-06
-4.9075412759149285e-06   8.848017503685019e-07   2.3429718611170673e-06
-4.9075412759149285e-06   8.848017503685019e-07   2.3429718611170673e-06
-4.9075412759149285e-06   8.848017503685019e-07   2.3429718611170673e-06
-6.162762337072815e-06   1.589283657494982e-06   2.2903377202988632e-06
-6.162762337072815e-06   1.589283657494982e-06   2.2903377202988632e-06
-6.162762337072815e-06   1.589283657494982e-06   2.2903377202988632e-06
-6.162762337072815e-06   1.589283657494982e-06   2.2903377202988632e-06
-9.144911877438751e-06   1.4488507347970928e-06   -2.7641712672630696e-06
-9.144911877438751e-06   1.4488507347970928e-06   -2.7641712672630696e-06
-9.144911877438751e-06   1.4488507347970928e-06   -2.7641712672630696e-06
-9.144911877438751e-06   1.4488507347970928e-06   -2.7641712672630696e-06
-9.354859979568384e-06   1.6293490859540529e-06   3.240996390055102e-06
-9.354859979568384e-06   1.6293490859540529e-06   3.240996390055102e-06
-9.354859979568384e-06   1.6293490859540529e-06   3.240996390055102e-06
-9.354859979568384e-06   1.6293490859540529e-06   3.240996390055102e-06
-6.295721651331947e-06   1.471700662104196e-06   -1.7629784360291185e-06
-6.295721651331947e-06   1.471700662104196e-06   -1.7629784360291185e-06
-6.295721651331947e-06   1.471700662104196e-06   -1.7629784360291185e-06
-6.295721651331947e-06   1.471700662104196e-06   -1.7629784360291185e-06
-7.441994461298269e-06   1.5214855492370893e-06   1.1760531496839578e-07
-7.441994461298269e-06   1.5214855492370893e-06   1.1760531496839578e-07
-7.441994461298269e-06   1.5214855492370893e-06   1.1760531496839578e-07
-7.441994461298269e-06   1.5214855492370893e-06   1.1760531496839578e-07
-6.295721651331933e-06   1.6293490859540529e-06   3.335585444364978e-06
-6.295721651331933e-06   1.6293490859540529e-06   3.335585444364978e-06
-6.295721651331933e-06   1.6293490859540529e-06   3.335585444364978e-06
-6.295721651331933e-06   1.6293490859540529e-06   3.335585444364978e-06
-9.354859979568418e-06   1.471700662104196e-06   -1.8575674903390421e-06
-9.354859979568418e-06   1.471700662104196e-06   -1.8575674903390421e-06
-9.354859979568418e-06   1.471700662104196e-06   -1.8575674903390421e-06
-9.354859979568418e-06   1.471700662104196e-06   -1.8575674903390421e-06
-9.557909132019934e-06   1.6207543530020758e-06   3.958875131533055e-06
-9.557909132019934e-06   1.6207543530020758e-06   3.958875131533055e-06
-9.557909132019934e-06   1.6207543530020758e-06   3.958875131533055e-06
-9.557909132019934e-06   1.6207543530020758e-06   3.958875131533055e-06
-6.4417694604488636e-06   1.45760055080842e-06   -1.1367987064358662e-06
-6.4417694604488636e-06   1.45760055080842e-06   -1.1367987064358662e-06
-6.4417694604488636e-06   1.45760055080842e-06   -1.1367987064358662e-06
-6.4417694604488636e-06   1.45760055080842e-06   -1.1367987064358662e-06
-7.71359487860971e-06   1.5521805891564639e-06   9.261623008235351e-07
-7.71359487860971e-06   1.5521805891564639e-06   9.261623008235351e-07
-7.71359487860971e-06   1.5521805891564639e-06   9.261623008235351e-07
-7.71359487860971e-06   1.5521805891564639e-06   9.261623008235351e-07
-6.4417694604488636e-06   1.6207543530020758e-06   4.056767412849308e-06
-6.4417694604488636e-06   1.6207543530020758e-06   4.056767412849308e-06
-6.4417694604488636e-06   1.6207543530020758e-06   4.056767412849308e-06
-6.4417694604488636e-06   1.6207543530020758e-06   4.056767412849308e-06
-9.557909132019968e-06   1.45760055080842e-06   -1.2346909877520787e-06
-9.557909132019968e-06   1.45760055080842e-06   -1.2346909877520787e-06
-9.557909132019968e-06   1.45760055080842e-06   -1.2346909877520787e-06
-9.557909132019968e-06   1.45760055080842e-06   -1.2346909877520787e-06
-9.793079307877471e-06   1.5015840342739572e-06   5.176399029856757e-06
-9.793079307877471e-06   1.5015840342739572e-06   5.176399029856757e-06
-9.793079307877471e-06   1.5015840342739572e-06   5.176399029856757e-06
-9.793079307877471e-06   1.5015840342739572e-06   5.176399029856757e-06
-6.580174847056241e-06   1.3505387413195193e-06   -8.781456240600525e-08
-6.580174847056241e-06   1.3505387413195193e-06   -8.781456240600525e-08
-6.580174847056241e-06   1.3505387413195193e-06   -8.781456240600525e-08
-6.580174847056241e-06   1.3505387413195193e-06   -8.781456240600525e-08
-7.762230888218868e-06   1.507546941299147e-06   1.7880739195440872e-06
-7.762230888218868e-06   1.507546941299147e-06   1.7880739195440872e-06
-7.762230888218868e-06   1.507546941299147e-06   1.7880739195440872e-06
-7.762230888218868e-06   1.507546941299147e-06   1.7880739195440872e-06
5.338262463500362e-06   -7.155818515151391e-07   4.376530185369213e-06
5.338262463500362e-06   -7.155818515151391e-07   4.376530185369213e-06
5.338262463500362e-06   -7.155818515151391e-07   4.376530185369213e-06
5.338262463500362e-06   -7.155818515151391e-07   4.376530185369213e-06
2.4969306814264967e-06   -4.952010831042568e-07   -2.267943237074029e-07
2.4969306814264967e-06   -4.952010831042568e-07   -2.267943237074029e-07
2.4969306814264967e-06   -4.952010831042568e-07   -2.267943237074029e-07
2.4969306814264967e-06   -4.952010831042568e-07   -2.267943237074029e-07
2.3944633586326074e-06   -8.224425810962155e-07   3.8262812640682835e-06
2.3944633586326074e-06   -8.224425810962155e-07   3.8262812640682835e-06
2.3944633586326074e-06   -8.224425810962155e-07   3.8262812640682835e-06
2.3944633586326074e-06   -8.224425810962155e-07   3.8262812640682835e-06
5.138755821938318e-06   -5.92886669823281e-07   -8.852730548716355e-07
5.138755821938318e-06   -5.92886669823281e-07   -8.852730548716355e-07
5.138755821938318e-06   -5.92886669823281e-07   -8.852730548716355e-07
5.138755821938318e-06   -5.92886669823281e-07   -8.852730548716355e-07
3.6620270213061197e-06   -6.599532902776305e-07   1.6161815851213081e-06
3.6620270213061197e-06   -6.599532902776305e-07   1.6161815851213081e-06
3.6620270213061197e-06   -6.599532902776305e-07   1.6161815851213081e-06
3.6620270213061197e-06   -6.599532902776305e-07   1.6161815851213081e-06
5.138755821938318e-06   -8.224425810962697e-07   3.6885477173045445e-06
5.138755821938318e-06   -8.224425810962697e-07   3.6885477173045445e-06
5.138755821938318e-06   -8.224425810962697e-07   3.6885477173045445e-06
5.138755821938318e-06   -8.224425810962697e-07   3.6885477173045445e-06
2.39446335863261e-06   -5.92886669823281e-07   -7.475395081078915e-07
2.39446335863261e-06   -5.92886669823281e-07   -7.475395081078915e-07
2.39446335863261e-06   -5.92886669823281e-07   -7.475395081078915e-07
2.39446335863261e-06   -5.92886669823281e-07   -7.475395081078915e-07
2.280145652115541e-06   -8.424830339369893e-07   3.4415001665380387e-06
2.280145652115541e-06   -8.424830339369893e-07   3.4415001665380387e-06
2.280145652115541e-06   -8.424830339369893e-07   3.4415001665380387e-06
2.280145652115541e-06   -8.424830339369893e-07   3.4415001665380387e-06
4.9623621292399884e-06   -6.177680589921231e-07   -1.163689613636258e-06
4.9623621292399884e-06   -6.177680589921231e-07   -1.163689613636258e-06
4.9623621292399884e-06   -6.177680589921231e-07   -1.163689613636258e-06
4.9623621292399884e-06   -6.177680589921231e-07   -1.163689613636258e-06
3.5877454909005168e-06   -7.002656383596874e-07   1.1768366645501042e-06
3.5877454909005168e-06   -7.002656383596874e-07   1.1768366645501042e-06
3.5877454909005168e-06   -7.002656383596874e-07   1.1768366645501042e-06
3.5877454909005168e-06   -7.002656383596874e-07   1.1768366645501042e-06
4.96236212923998e-06   -8.424830339369351e-07   3.3066711815711624e-06
4.96236212923998e-06   -8.424830339369351e-07   3.3066711815711624e-06
4.96236212923998e-06   -8.424830339369351e-07   3.3066711815711624e-06
4.96236212923998e-06   -8.424830339369351e-07   3.3066711815711624e-06
2.280145652115544e-06   -6.177680589921231e-07   -1.0288606286693546e-06
2.280145652115544e-06   -6.177680589921231e-07   -1.0288606286693546e-06
2.280145652115544e-06   -6.177680589921231e-07   -1.0288606286693546e-06
2.280145652115544e-06   -6.177680589921231e-07   -1.0288606286693546e-06
2.1739013252293436e-06   -8.433098747118737e-07   2.9089951849802474e-06
2.1739013252293436e-06   -8.433098747118737e-07   2.9089951849802474e-06
2.1739013252293436e-06   -8.433098747118737e-07   2.9089951849802474e-06
2.1739013252293436e-06   -8.433098747118737e-07   2.9089951849802474e-06
4.763017236172911e-06   -6.353835451247203e-07   -1.5309537976779747e-06
4.763017236172911e-06   -6.353835451247203e-07   -1.5309537976779747e-06
4.763017236172911e-06   -6.353835451247203e-07   -1.5309537976779747e-06
4.763017236172911e-06   -6.353835451247203e-07   -1.5309537976779747e-06
3.395007202789092e-06   -6.933916613567907e-07   7.838677943677056e-07
3.395007202789092e-06   -6.933916613567907e-07   7.838677943677056e-07
3.395007202789092e-06   -6.933916613567907e-07   7.838677943677056e-07
3.395007202789092e-06   -6.933916613567907e-07   7.838677943677056e-07
2.4969306814264874e-06   -1.397403275023388e-07   4.833313803042456e-06
2.4969306814264874e-06   -1.397403275023388e-07   4.833313803042456e-06
2.4969306814264874e-06   -1.397403275023388e-07   4.833313803042456e-06
2.4969306814264874e-06   -1.397403275023388e-07   4.833313803042456e-06
-1.8324993163971334e-07   -1.4267343326950302e-08   4.416299051039933e-07
-1.8324993163971334e-07   -1.4267343326950302e-08   4.416299051039933e-07
-1.8324993163971334e-07   -1.4267343326950302e-08   4.416299051039933e-07
-1.8324993163971334e-07   -1.4267343326950302e-08   4.416299051039933e-07
-2.802650562461918e-07   -2.1368851233719705e-07   4.836354397616619e-06
-2.802650562461918e-07   -2.1368851233719705e-07   4.836354397616619e-06
-2.802650562461918e-07   -2.1368851233719705e-07   4.836354397616619e-06
-2.802650562461918e-07   -2.1368851233719705e-07   4.836354397616619e-06
2.39446335863261e-06   -9.710546028336492e-08   3.08523874919664e-07
2.39446335863261e-06   -9.710546028336492e-08   3.08523874919664e-07
2.39446335863261e-06   -9.710546028336492e-08   3.08523874919664e-07
2.39446335863261e-06   -9.710546028336492e-08   3.08523874919664e-07
1.088667366536563e-06   -1.1955435207024624e-07   2.4983198634851746e-06
1.088667366536563e-06   -1.1955435207024624e-07   2.4983198634851746e-06
1.088667366536563e-06   -1.1955435207024624e-07   2.4983198634851746e-06
1.088667366536563e-06   -1.1955435207024624e-07   2.4983198634851746e-06
2.394463358632604e-06   -2.1368851233719705e-07   4.7664045663843146e-06
2.394463358632604e-06   -2.1368851233719705e-07   4.7664045663843146e-06
2.394463358632604e-06   -2.1368851233719705e-07   4.7664045663843146e-06
2.394463358632604e-06   -2.1368851233719705e-07   4.7664045663843146e-06
-2.802650562461918e-07   -9.710546028336492e-08   3.7847370615198394e-07
-2.802650562461918e-07   -9.710546028336492e-08   3.7847370615198394e-07
-2.802650562461918e-07   -9.710546028336492e-08   3.7847370615198394e-07
-2.802650562461918e-07   -9.710546028336492e-08   3.7847370615198394e-07
-3.796229844527053e-07   -2.663155034020098e-07   4.752763531174929e-06
-3.796229844527053e-07   -2.663155034020098e-07   4.752763531174929e-06
-3.796229844527053e-07   -2.663155034020098e-07   4.752763531174929e-06
-3.796229844527053e-07   -2.663155034020098e-07   4.752763531174929e-06
2.280145652115544e-06   -1.6036499641809785e-07   2.5624549937078715e-07
2.280145652115544e-06   -1.6036499641809785e-07   2.5624549937078715e-07
2.280145652115544e-06   -1.6036499641809785e-07   2.5624549937078715e-07
2.280145652115544e-06   -1.6036499641809785e-07   2.5624549937078715e-07
9.779858684026928e-07   -1.6960754085709132e-07   2.432057332222472e-06
9.779858684026928e-07   -1.6960754085709132e-07   2.432057332222472e-06
9.779858684026928e-07   -1.6960754085709132e-07   2.432057332222472e-06
9.779858684026928e-07   -1.6960754085709132e-07   2.432057332222472e-06
2.280145652115541e-06   -2.663155034020098e-07   4.689193226984511e-06
2.280145652115541e-06   -2.663155034020098e-07   4.689193226984511e-06
2.280145652115541e-06   -2.663155034020098e-07   4.689193226984511e-06
2.280145652115541e-06   -2.663155034020098e-07   4.689193226984511e-06
-3.796229844527053e-07   -1.6036499641804364e-07   3.1981580356116074e-07
-3.796229844527053e-07   -1.6036499641804364e-07   3.1981580356116074e-07
-3.796229844527053e-07   -1.6036499641804364e-07   3.1981580356116074e-07
-3.796229844527053e-07   -1.6036499641804364e-07   3.1981580356116074e-07
-4.796905916259244e-07   -3.050580786635466e-07   4.774534002817529e-06
-4.796905916259244e-07   -3.050580786635466e-07   4.774534002817529e-06
-4.796905916259244e-07   -3.050580786635466e-07   4.774534002817529e-06
-4.796905916259244e-07   -3.050580786635466e-07   4.774534002817529e-06
2.1739013252293453e-06   -2.1642890914202106e-07   2.987033063457683e-07
2.1739013252293453e-06   -2.1642890914202106e-07   2.987033063457683e-07
2.1739013252293453e-06   -2.1642890914202106e-07   2.987033063457683e-07
2.1739013252293453e-06   -2.1642890914202106e-07   2.987033063457683e-07
8.965034825025903e-07   -2.0422490077678067e-07   2.420377305871368e-06
8.965034825025903e-07   -2.0422490077678067e-07   2.420377305871368e-06
8.965034825025903e-07   -2.0422490077678067e-07   2.420377305871368e-06
8.965034825025903e-07   -2.0422490077678067e-07   2.420377305871368e-06
-1.8324993163971334e-07   4.3115435255451076e-07   5.091183785594337e-06
-1.8324993163971334e-07   4.3115435255451076e-07   5.091183785594337e-06
-1.8324993163971334e-07   4.3115435255451076e-07   5.091183785594337e-06
-1.8324993163971334e-07   4.3115435255451076e-07   5.091183785594337e-06
-2.8069232583519757e-06   4.483534480604853e-07   7.287143650441395e-07
-2.8069232583519757e-06   4.483534480604853e-07   7.287143650441395e-07
-2.8069232583519757e-06   4.483534480604853e-07   7.287143650441395e-07
-2.8069232583519757e-06   4.483534480604853e-07   7.287143650441395e-07
-2.9051473002997823e-06   3.722802679844957e-07   5.07597875280103e-06
-2.9051473002997823e-06   3.722802679844957e-07   5.07597875280103e-06
-2.9051473002997823e-06   3.722802679844957e-07   5.07597875280103e-06
-2.9051473002997823e-06   3.722802679844957e-07   5.07597875280103e-06
-2.802650562461884e-07   3.7784663572195147e-07   6.978351920692484e-07
-2.802650562461884e-07   3.7784663572195147e-07   6.978351920692484e-07
-2.802650562461884e-07   3.7784663572195147e-07   6.978351920692484e-07
-2.802650562461884e-07   3.7784663572195147e-07   6.978351920692484e-07
-1.5477545592747536e-06   3.9892406990011276e-07   2.7976712366099626e-06
-1.5477545592747536e-06   3.9892406990011276e-07   2.7976712366099626e-06
-1.5477545592747536e-06   3.9892406990011276e-07   2.7976712366099626e-06
-1.5477545592747536e-06   3.9892406990011276e-07   2.7976712366099626e-06
-2.802650562461884e-07   3.722802679845499e-07   5.072638932158573e-06
-2.802650562461884e-07   3.722802679845499e-07   5.072638932158573e-06
-2.802650562461884e-07   3.722802679845499e-07   5.072638932158573e-06
-2.802650562461884e-07   3.722802679845499e-07   5.072638932158573e-06
-2.9051473002997823e-06   3.778466357220057e-07   7.011750127117124e-07
-2.9051473002997823e-06   3.778466357220057e-07   7.011750127117124e-07
-2.9051473002997823e-06   3.778466357220057e-07   7.011750127117124e-07
-2.9051473002997823e-06   3.778466357220057e-07   7.011750127117124e-07
-3.005450758457699e-06   3.152338994128856e-07   5.0982794638643875e-06
-3.005450758457699e-06   3.152338994128856e-07   5.0982794638643875e-06
-3.005450758457699e-06   3.152338994128856e-07   5.0982794638643875e-06
-3.005450758457699e-06   3.152338994128856e-07   5.0982794638643875e-06
-3.796229844527087e-07   3.0856541926606567e-07   7.259009286108591e-07
-3.796229844527087e-07   3.0856541926606567e-07   7.259009286108591e-07
-3.796229844527087e-07   3.0856541926606567e-07   7.259009286108591e-07
-3.796229844527087e-07   3.0856541926606567e-07   7.259009286108591e-07
-1.6383224801685065e-06   3.525257846108496e-07   2.79735720226376e-06
-1.6383224801685065e-06   3.525257846108496e-07   2.79735720226376e-06
-1.6383224801685065e-06   3.525257846108496e-07   2.79735720226376e-06
-1.6383224801685065e-06   3.525257846108496e-07   2.79735720226376e-06
-3.796229844527087e-07   3.152338994129398e-07   5.102280551952539e-06
-3.796229844527087e-07   3.152338994129398e-07   5.102280551952539e-06
-3.796229844527087e-07   3.152338994129398e-07   5.102280551952539e-06
-3.796229844527087e-07   3.152338994129398e-07   5.102280551952539e-06
-3.005450758457699e-06   3.0856541926601146e-07   7.218998405227549e-07
-3.005450758457699e-06   3.0856541926601146e-07   7.218998405227549e-07
-3.005450758457699e-06   3.0856541926601146e-07   7.218998405227549e-07
-3.005450758457699e-06   3.0856541926601146e-07   7.218998405227549e-07
-3.1053728900296433e-06   2.646230291312524e-07   5.153635274536843e-06
-3.1053728900296433e-06   2.646230291312524e-07   5.153635274536843e-06
-3.1053728900296433e-06   2.646230291312524e-07   5.153635274536843e-06
-3.1053728900296433e-06   2.646230291312524e-07   5.153635274536843e-06
-4.79690591625921e-07   2.4299955816314313e-07   7.904721931115336e-07
-4.79690591625921e-07   2.4299955816314313e-07   7.904721931115336e-07
-4.79690591625921e-07   2.4299955816314313e-07   7.904721931115336e-07
-4.79690591625921e-07   2.4299955816314313e-07   7.904721931115336e-07
-1.7334544849266084e-06   3.076033655520288e-07   2.841316397512772e-06
-1.7334544849266084e-06   3.076033655520288e-07   2.841316397512772e-06
-1.7334544849266084e-06   3.076033655520288e-07   2.841316397512772e-06
-1.7334544849266084e-06   3.076033655520288e-07   2.841316397512772e-06
-2.8069232583519723e-06   9.901736924497213e-07   4.51105388595528e-06
-2.8069232583519723e-06   9.901736924497213e-07   4.51105388595528e-06
-2.8069232583519723e-06   9.901736924497213e-07   4.51105388595528e-06
-2.8069232583519723e-06   9.901736924497213e-07   4.51105388595528e-06
-5.392091354551025e-06   8.967944736818965e-07   1.464128610294572e-07
-5.392091354551025e-06   8.967944736818965e-07   1.464128610294572e-07
-5.392091354551025e-06   8.967944736818965e-07   1.464128610294572e-07
-5.392091354551025e-06   8.967944736818965e-07   1.464128610294572e-07
-5.498364026211634e-06   9.363227882426876e-07   4.4885307848376065e-06
-5.498364026211634e-06   9.363227882426876e-07   4.4885307848376065e-06
-5.498364026211634e-06   9.363227882426876e-07   4.4885307848376065e-06
-5.498364026211634e-06   9.363227882426876e-07   4.4885307848376065e-06
-2.9051473002997857e-06   8.312452837177815e-07   2.2954941103287067e-07
-2.9051473002997857e-06   8.312452837177815e-07   2.2954941103287067e-07
-2.9051473002997857e-06   8.312452837177815e-07   2.2954941103287067e-07
-2.9051473002997857e-06   8.312452837177815e-07   2.2954941103287067e-07
-4.13638521807855e-06   8.993166999614007e-07   2.240769757584617e-06
-4.13638521807855e-06   8.993166999614007e-07   2.240769757584617e-06
-4.13638521807855e-06   8.993166999614007e-07   2.240769757584617e-06
-4.13638521807855e-06   8.993166999614007e-07   2.240769757584617e-06
-2.9051473002997823e-06   9.363227882426876e-07   4.551577287552604e-06
-2.9051473002997823e-06   9.363227882426876e-07   4.551577287552604e-06
-2.9051473002997823e-06   9.363227882426876e-07   4.551577287552604e-06
-2.9051473002997823e-06   9.363227882426876e-07   4.551577287552604e-06
-5.498364026211634e-06   8.312452837177815e-07   1.6650290831787958e-07
-5.498364026211634e-06   8.312452837177815e-07   1.6650290831787958e-07
-5.498364026211634e-06   8.312452837177815e-07   1.6650290831787958e-07
-5.498364026211634e-06   8.312452837177815e-07   1.6650290831787958e-07
-5.614421064801574e-06   8.846401174241142e-07   4.659163166272008e-06
-5.614421064801574e-06   8.846401174241142e-07   4.659163166272008e-06
-5.614421064801574e-06   8.846401174241142e-07   4.659163166272008e-06
-5.614421064801574e-06   8.846401174241142e-07   4.659163166272008e-06
-3.0054507584577025e-06   7.683236770873606e-07   3.80669186567636e-07
-3.0054507584577025e-06   7.683236770873606e-07   3.80669186567636e-07
-3.0054507584577025e-06   7.683236770873606e-07   3.80669186567636e-07
-3.0054507584577025e-06   7.683236770873606e-07   3.80669186567636e-07
-4.2087262458097985e-06   8.583087497083738e-07   2.332137288581942e-06
-4.2087262458097985e-06   8.583087497083738e-07   2.332137288581942e-06
-4.2087262458097985e-06   8.583087497083738e-07   2.332137288581942e-06
-4.2087262458097985e-06   8.583087497083738e-07   2.332137288581942e-06
-3.005450758457699e-06   8.846401174241142e-07   4.728953030474104e-06
-3.005450758457699e-06   8.846401174241142e-07   4.728953030474104e-06
-3.005450758457699e-06   8.846401174241142e-07   4.728953030474104e-06
-3.005450758457699e-06   8.846401174241142e-07   4.728953030474104e-06
-5.614421064801574e-06   7.683236770873606e-07   3.108793223655608e-07
-5.614421064801574e-06   7.683236770873606e-07   3.108793223655608e-07
-5.614421064801574e-06   7.683236770873606e-07   3.108793223655608e-07
-5.614421064801574e-06   7.683236770873606e-07   3.108793223655608e-07
-5.719433584201614e-06   8.196739659297706e-07   4.779945654757276e-06
-5.719433584201614e-06   8.196739659297706e-07   4.779945654757276e-06
-5.719433584201614e-06   8.196739659297706e-07   4.779945654757276e-06
-5.719433584201614e-06   8.196739659297706e-07   4.779945654757276e-06
-3.1053728900296467e-06   6.933547790851399e-07   4.989693432441218e-07
-3.1053728900296467e-06   6.933547790851399e-07   4.989693432441218e-07
-3.1053728900296467e-06   6.933547790851399e-07   4.989693432441218e-07
-3.1053728900296467e-06   6.933547790851399e-07   4.989693432441218e-07
-4.3319702212998036e-06   8.100065896079968e-07   2.473307142380873e-06
-4.3319702212998036e-06   8.100065896079968e-07   2.473307142380873e-06
-4.3319702212998036e-06   8.100065896079968e-07   2.473307142380873e-06
-4.3319702212998036e-06   8.100065896079968e-07   2.473307142380873e-06
-5.392091354551025e-06   1.4488507347970928e-06   2.2133137959918906e-06
-5.392091354551025e-06   1.4488507347970928e-06   2.2133137959918906e-06
-5.392091354551025e-06   1.4488507347970928e-06   2.2133137959918906e-06
-5.392091354551025e-06   1.4488507347970928e-06   2.2133137959918906e-06
-7.891714657848175e-06   1.2601583653405334e-06   -2.0659404645106044e-06
-7.891714657848175e-06   1.2601583653405334e-06   -2.0659404645106044e-06
-7.891714657848175e-06   1.2601583653405334e-06   -2.0659404645106044e-06
-7.891714657848175e-06   1.2601583653405334e-06   -2.0659404645106044e-06
-8.084909405904577e-06   1.471700662104196e-06   2.9939346425556684e-06
-8.084909405904577e-06   1.471700662104196e-06   2.9939346425556684e-06
-8.084909405904577e-06   1.471700662104196e-06   2.9939346425556684e-06
-8.084909405904577e-06   1.471700662104196e-06   2.9939346425556684e-06
-5.498364026211634e-06   1.260984251228532e-06   -1.1905444770738674e-06
-5.498364026211634e-06   1.260984251228532e-06   -1.1905444770738674e-06
-5.498364026211634e-06   1.260984251228532e-06   -1.1905444770738674e-06
-5.498364026211634e-06   1.260984251228532e-06   -1.1905444770738674e-06
-6.46017807714073e-06   1.337675562011894e-06   3.6646415467129817e-07
-6.46017807714073e-06   1.337675562011894e-06   3.6646415467129817e-07
-6.46017807714073e-06   1.337675562011894e-06   3.6646415467129817e-07
-6.46017807714073e-06   1.337675562011894e-06   3.6646415467129817e-07
-5.498364026211627e-06   1.471700662104196e-06   3.120364489081072e-06
-5.498364026211627e-06   1.471700662104196e-06   3.120364489081072e-06
-5.498364026211627e-06   1.471700662104196e-06   3.120364489081072e-06
-5.498364026211627e-06   1.471700662104196e-06   3.120364489081072e-06
-8.084909405904584e-06   1.260984251228532e-06   -1.3169743235992711e-06
-8.084909405904584e-06   1.260984251228532e-06   -1.3169743235992711e-06
-8.084909405904584e-06   1.260984251228532e-06   -1.3169743235992711e-06
-8.084909405904584e-06   1.260984251228532e-06   -1.3169743235992711e-06
-8.255837338626355e-06   1.45760055080842e-06   3.6045706072914394e-06
-8.255837338626355e-06   1.45760055080842e-06   3.6045706072914394e-06
-8.255837338626355e-06   1.45760055080842e-06   3.6045706072914394e-06
-8.255837338626355e-06   1.45760055080842e-06   3.6045706072914394e-06
-5.614421064801574e-06   1.2376573084459694e-06   -6.658239036657726e-07
-5.614421064801574e-06   1.2376573084459694e-06   -6.658239036657726e-07
-5.614421064801574e-06   1.2376573084459694e-06   -6.658239036657726e-07
-5.614421064801574e-06   1.2376573084459694e-06   -6.658239036657726e-07
-6.6923808410200695e-06   1.35504503441259e-06   1.0603430877853477e-06
-6.6923808410200695e-06   1.35504503441259e-06   1.0603430877853477e-06
-6.6923808410200695e-06   1.35504503441259e-06   1.0603430877853477e-06
-6.6923808410200695e-06   1.35504503441259e-06   1.0603430877853477e-06
-5.614421064801574e-06   1.45760055080842e-06   3.736536552708899e-06
-5.614421064801574e-06   1.45760055080842e-06   3.736536552708899e-06
-5.614421064801574e-06   1.45760055080842e-06   3.736536552708899e-06
-5.614421064801574e-06   1.45760055080842e-06   3.736536552708899e-06
-8.255837338626362e-06   1.2376573084459694e-06   -7.977898490832321e-07
-8.255837338626362e-06   1.2376573084459694e-06   -7.977898490832321e-07
-8.255837338626362e-06   1.2376573084459694e-06   -7.977898490832321e-07
-8.255837338626362e-06   1.2376573084459694e-06   -7.977898490832321e-07
-8.450278357393486e-06   1.3505387413195193e-06   4.64556587928338e-06
-8.450278357393486e-06   1.3505387413195193e-06   4.64556587928338e-06
-8.450278357393486e-06   1.3505387413195193e-06   4.64556587928338e-06
-8.450278357393486e-06   1.3505387413195193e-06   4.64556587928338e-06
-5.719433584201614e-06   1.1290659643049773e-06   2.2704159017227464e-07
-5.719433584201614e-06   1.1290659643049773e-06   2.2704159017227464e-07
-5.719433584201614e-06   1.1290659643049773e-06   2.2704159017227464e-07
-5.719433584201614e-06   1.1290659643049773e-06   2.2704159017227464e-07
-6.72553860977832e-06   1.3093410256560757e-06   1.7957182626562125e-06
-6.72553860977832e-06   1.3093410256560757e-06   1.7957182626562125e-06
-6.72553860977832e-06   1.3093410256560757e-06   1.7957182626562125e-06
-6.72553860977832e-06   1.3093410256560757e-06   1.7957182626562125e-06
3.8493864633696965e-06   -4.95201083104311e-07   3.6799179720684255e-06
3.8493864633696965e-06   -4.95201083104311e-07   3.6799179720684255e-06
3.8493864633696965e-06   -4.95201083104311e-07   3.6799179720684255e-06
3.8493864633696965e-06   -4.95201083104311e-07   3.6799179720684255e-06
1.6080249541370332e-06   -2.6802768375534455e-07   8.061949629002674e-08
1.6080249541370332e-06   -2.6802768375534455e-07   8.061949629002674e-08
1.6080249541370332e-06   -2.6802768375534455e-07   8.061949629002674e-08
1.6080249541370332e-06   -2.6802768375534455e-07   8.061949629002674e-08
1.5234344494056166e-06   -5.92886669823281e-07   3.2886986895519607e-06
1.5234344494056166e-06   -5.92886669823281e-07   3.2886986895519607e-06
1.5234344494056166e-06   -5.92886669823281e-07   3.2886986895519607e-06
1.5234344494056166e-06   -5.92886669823281e-07   3.2886986895519607e-06
3.6665220467399376e-06   -3.581118333929683e-07   -4.2397887453007566e-07
3.6665220467399376e-06   -3.581118333929683e-07   -4.2397887453007566e-07
3.6665220467399376e-06   -3.581118333929683e-07   -4.2397887453007566e-07
3.6665220467399376e-06   -3.581118333929683e-07   -4.2397887453007566e-07
2.530594226011371e-06   -4.372370830710531e-07   1.5167093098244214e-06
2.530594226011371e-06   -4.372370830710531e-07   1.5167093098244214e-06
2.530594226011371e-06   -4.372370830710531e-07   1.5167093098244214e-06
2.530594226011371e-06   -4.372370830710531e-07   1.5167093098244214e-06
3.6665220467399435e-06   -5.92886669823281e-07   3.147833787693811e-06
3.6665220467399435e-06   -5.92886669823281e-07   3.147833787693811e-06
3.6665220467399435e-06   -5.92886669823281e-07   3.147833787693811e-06
3.6665220467399435e-06   -5.92886669823281e-07   3.147833787693811e-06
1.5234344494056106e-06   -3.581118333929683e-07   -2.8311397267188703e-07
1.5234344494056106e-06   -3.581118333929683e-07   -2.8311397267188703e-07
1.5234344494056106e-06   -3.581118333929683e-07   -2.8311397267188703e-07
1.5234344494056106e-06   -3.581118333929683e-07   -2.8311397267188703e-07
1.4270425297883798e-06   -6.177680589921231e-07   3.000846088812393e-06
1.4270425297883798e-06   -6.177680589921231e-07   3.000846088812393e-06
1.4270425297883798e-06   -6.177680589921231e-07   3.000846088812393e-06
1.4270425297883798e-06   -6.177680589921231e-07   3.000846088812393e-06
3.5081254615265456e-06   -3.876715723297511e-07   -6.056833560819362e-07
3.5081254615265456e-06   -3.876715723297511e-07   -6.056833560819362e-07
3.5081254615265456e-06   -3.876715723297511e-07   -6.056833560819362e-07
3.5081254615265456e-06   -3.876715723297511e-07   -6.056833560819362e-07
2.4561150352283847e-06   -4.7596363282045515e-07   1.2006425907094728e-06
2.4561150352283847e-06   -4.7596363282045515e-07   1.2006425907094728e-06
2.4561150352283847e-06   -4.7596363282045515e-07   1.2006425907094728e-06
2.4561150352283847e-06   -4.7596363282045515e-07   1.2006425907094728e-06
3.5081254615265515e-06   -6.177680589921231e-07   2.862788196814986e-06
3.5081254615265515e-06   -6.177680589921231e-07   2.862788196814986e-06
3.5081254615265515e-06   -6.177680589921231e-07   2.862788196814986e-06
3.5081254615265515e-06   -6.177680589921231e-07   2.862788196814986e-06
1.4270425297883773e-06   -3.876715723297511e-07   -4.6762546408453095e-07
1.4270425297883773e-06   -3.876715723297511e-07   -4.6762546408453095e-07
1.4270425297883773e-06   -3.876715723297511e-07   -4.6762546408453095e-07
1.4270425297883773e-06   -3.876715723297511e-07   -4.6762546408453095e-07
1.3400516087305218e-06   -6.353835451247203e-07   2.616334520634002e-06
1.3400516087305218e-06   -6.353835451247203e-07   2.616334520634002e-06
1.3400516087305218e-06   -6.353835451247203e-07   2.616334520634002e-06
1.3400516087305218e-06   -6.353835451247203e-07   2.616334520634002e-06
3.326056508741837e-06   -4.220823216741123e-07   -8.21654380121895e-07
3.326056508741837e-06   -4.220823216741123e-07   -8.21654380121895e-07
3.326056508741837e-06   -4.220823216741123e-07   -8.21654380121895e-07
3.326056508741837e-06   -4.220823216741123e-07   -8.21654380121895e-07
2.2975142937734056e-06   -4.803587506672707e-07   9.275485022213441e-07
2.2975142937734056e-06   -4.803587506672707e-07   9.275485022213441e-07
2.2975142937734056e-06   -4.803587506672707e-07   9.275485022213441e-07
2.2975142937734056e-06   -4.803587506672707e-07   9.275485022213441e-07
1.6080249541370383e-06   -1.4267343326950302e-08   4.409362449983985e-06
1.6080249541370383e-06   -1.4267343326950302e-08   4.409362449983985e-06
1.6080249541370383e-06   -1.4267343326950302e-08   4.409362449983985e-06
1.6080249541370383e-06   -1.4267343326950302e-08   4.409362449983985e-06
-4.823936969083393e-07   1.050516101934408e-07   9.96922737020624e-07
-4.823936969083393e-07   1.050516101934408e-07   9.96922737020624e-07
-4.823936969083393e-07   1.050516101934408e-07   9.96922737020624e-07
-4.823936969083393e-07   1.050516101934408e-07   9.96922737020624e-07
-5.607254472518086e-07   -9.710546028336492e-08   4.412880141954812e-06
-5.607254472518086e-07   -9.710546028336492e-08   4.412880141954812e-06
-5.607254472518086e-07   -9.710546028336492e-08   4.412880141954812e-06
-5.607254472518086e-07   -9.710546028336492e-08   4.412880141954812e-06
1.5234344494056106e-06   1.6424655342175618e-08   8.711622448171387e-07
1.5234344494056106e-06   1.6424655342175618e-08   8.711622448171387e-07
1.5234344494056106e-06   1.6424655342175618e-08   8.711622448171387e-07
1.5234344494056106e-06   1.6424655342175618e-08   8.711622448171387e-07
5.0671040648273e-07   -5.701250274127694e-09   2.5789778597251335e-06
5.0671040648273e-07   -5.701250274127694e-09   2.5789778597251335e-06
5.0671040648273e-07   -5.701250274127694e-09   2.5789778597251335e-06
5.0671040648273e-07   -5.701250274127694e-09   2.5789778597251335e-06
1.5234344494056149e-06   -9.710546028336492e-08   4.344762072579477e-06
1.5234344494056149e-06   -9.710546028336492e-08   4.344762072579477e-06
1.5234344494056149e-06   -9.710546028336492e-08   4.344762072579477e-06
1.5234344494056149e-06   -9.710546028336492e-08   4.344762072579477e-06
-5.60725447251812e-07   1.6424655342202723e-08   9.392803141924433e-07
-5.60725447251812e-07   1.6424655342202723e-08   9.392803141924433e-07
-5.60725447251812e-07   1.6424655342202723e-08   9.392803141924433e-07
-5.60725447251812e-07   1.6424655342202723e-08   9.392803141924433e-07
-6.411254294926449e-07   -1.6036499641804364e-07   4.349670281094661e-06
-6.411254294926449e-07   -1.6036499641804364e-07   4.349670281094661e-06
-6.411254294926449e-07   -1.6036499641804364e-07   4.349670281094661e-06
-6.411254294926449e-07   -1.6036499641804364e-07   4.349670281094661e-06
1.4270425297883773e-06   -5.416822268121055e-08   8.390056180508548e-07
1.4270425297883773e-06   -5.416822268121055e-08   8.390056180508548e-07
1.4270425297883773e-06   -5.416822268121055e-08   8.390056180508548e-07
1.4270425297883773e-06   -5.416822268121055e-08   8.390056180508548e-07
4.1920008042450456e-07   -6.366052811019717e-08   2.5244384169148646e-06
4.1920008042450456e-07   -6.366052811019717e-08   2.5244384169148646e-06
4.1920008042450456e-07   -6.366052811019717e-08   2.5244384169148646e-06
4.1920008042450456e-07   -6.366052811019717e-08   2.5244384169148646e-06
1.4270425297883823e-06   -1.6036499641809785e-07   4.285952216852545e-06
1.4270425297883823e-06   -1.6036499641809785e-07   4.285952216852545e-06
1.4270425297883823e-06   -1.6036499641809785e-07   4.285952216852545e-06
1.4270425297883823e-06   -1.6036499641809785e-07   4.285952216852545e-06
-6.411254294926449e-07   -5.416822268121055e-08   9.027236822929641e-07
-6.411254294926449e-07   -5.416822268121055e-08   9.027236822929641e-07
-6.411254294926449e-07   -5.416822268121055e-08   9.027236822929641e-07
-6.411254294926449e-07   -5.416822268121055e-08   9.027236822929641e-07
-7.210867832370182e-07   -2.1642890914202106e-07   4.378319978972143e-06
-7.210867832370182e-07   -2.1642890914202106e-07   4.378319978972143e-06
-7.210867832370182e-07   -2.1642890914202106e-07   4.378319978972143e-06
-7.210867832370182e-07   -2.1642890914202106e-07   4.378319978972143e-06
1.3400516087305158e-06   -1.2128865569752405e-07   8.860051736262738e-07
1.3400516087305158e-06   -1.2128865569752405e-07   8.860051736262738e-07
1.3400516087305158e-06   -1.2128865569752405e-07   8.860051736262738e-07
1.3400516087305158e-06   -1.2128865569752405e-07   8.860051736262738e-07
3.5234218538995155e-07   -1.0965801799776463e-07   2.5252091632406898e-06
3.5234218538995155e-07   -1.0965801799776463e-07   2.5252091632406898e-06
3.5234218538995155e-07   -1.0965801799776463e-07   2.5252091632406898e-06
3.5234218538995155e-07   -1.0965801799776463e-07   2.5252091632406898e-06
-4.823936969083427e-07   4.4835344806043106e-07   4.757718824732792e-06
-4.823936969083427e-07   4.4835344806043106e-07   4.757718824732792e-06
-4.823936969083427e-07   4.4835344806043106e-07   4.757718824732792e-06
-4.823936969083427e-07   4.4835344806043106e-07   4.757718824732792e-06
-2.533519911340072e-06   4.4778753971697017e-07   1.3388355890071727e-06
-2.533519911340072e-06   4.4778753971697017e-07   1.3388355890071727e-06
-2.533519911340072e-06   4.4778753971697017e-07   1.3388355890071727e-06
-2.533519911340072e-06   4.4778753971697017e-07   1.3388355890071727e-06
-2.611479907923916e-06   3.7784663572195147e-07   4.727173757717521e-06
-2.611479907923916e-06   3.7784663572195147e-07   4.727173757717521e-06
-2.611479907923916e-06   3.7784663572195147e-07   4.727173757717521e-06
-2.611479907923916e-06   3.7784663572195147e-07   4.727173757717521e-06
-5.607254472518086e-07   3.6940018546433875e-07   1.3143175267519566e-06
-5.607254472518086e-07   3.6940018546433875e-07   1.3143175267519566e-06
-5.607254472518086e-07   3.6940018546433875e-07   1.3143175267519566e-06
-5.607254472518086e-07   3.6940018546433875e-07   1.3143175267519566e-06
-1.5510972043917975e-06   3.992024915332464e-07   2.9470557383439846e-06
-1.5510972043917975e-06   3.992024915332464e-07   2.9470557383439846e-06
-1.5510972043917975e-06   3.992024915332464e-07   2.9470557383439846e-06
-1.5510972043917975e-06   3.992024915332464e-07   2.9470557383439846e-06
-5.607254472518086e-07   3.7784663572195147e-07   4.732241627872111e-06
-5.607254472518086e-07   3.7784663572195147e-07   4.732241627872111e-06
-5.607254472518086e-07   3.7784663572195147e-07   4.732241627872111e-06
-5.607254472518086e-07   3.7784663572195147e-07   4.732241627872111e-06
-2.611479907923916e-06   3.6940018546433875e-07   1.3092496565973808e-06
-2.611479907923916e-06   3.6940018546433875e-07   1.3092496565973808e-06
-2.611479907923916e-06   3.6940018546433875e-07   1.3092496565973808e-06
-2.611479907923916e-06   3.6940018546433875e-07   1.3092496565973808e-06
-2.6910399789284575e-06   3.0856541926606567e-07   4.74580411364707e-06
-2.6910399789284575e-06   3.0856541926606567e-07   4.74580411364707e-06
-2.6910399789284575e-06   3.0856541926606567e-07   4.74580411364707e-06
-2.6910399789284575e-06   3.0856541926606567e-07   4.74580411364707e-06
-6.411254294926449e-07   2.919799317705493e-07   1.3392311570847068e-06
-6.411254294926449e-07   2.919799317705493e-07   1.3392311570847068e-06
-6.411254294926449e-07   2.919799317705493e-07   1.3392311570847068e-06
-6.411254294926449e-07   2.919799317705493e-07   1.3392311570847068e-06
-1.621820050882394e-06   3.432229261740279e-07   2.942976396092308e-06
-1.621820050882394e-06   3.432229261740279e-07   2.942976396092308e-06
-1.621820050882394e-06   3.432229261740279e-07   2.942976396092308e-06
-1.621820050882394e-06   3.432229261740279e-07   2.942976396092308e-06
-6.411254294926449e-07   3.0856541926606567e-07   4.755755406144353e-06
-6.411254294926449e-07   3.0856541926606567e-07   4.755755406144353e-06
-6.411254294926449e-07   3.0856541926606567e-07   4.755755406144353e-06
-6.411254294926449e-07   3.0856541926606567e-07   4.755755406144353e-06
-2.6910399789284575e-06   2.919799317705493e-07   1.329279864587397e-06
-2.6910399789284575e-06   2.919799317705493e-07   1.329279864587397e-06
-2.6910399789284575e-06   2.919799317705493e-07   1.329279864587397e-06
-2.6910399789284575e-06   2.919799317705493e-07   1.329279864587397e-06
-2.769399406265819e-06   2.4299955816314313e-07   4.801764321197611e-06
-2.769399406265819e-06   2.4299955816314313e-07   4.801764321197611e-06
-2.769399406265819e-06   2.4299955816314313e-07   4.801764321197611e-06
-2.769399406265819e-06   2.4299955816314313e-07   4.801764321197611e-06
-7.210867832370148e-07   2.1775448678422135e-07   1.4030569923103088e-06
-7.210867832370148e-07   2.1775448678422135e-07   1.4030569923103088e-06
-7.210867832370148e-07   2.1775448678422135e-07   1.4030569923103088e-06
-7.210867832370148e-07   2.1775448678422135e-07   1.4030569923103088e-06
-1.6961462277640235e-06   2.8880050093900824e-07   2.9855284580291466e-06
-1.6961462277640235e-06   2.8880050093900824e-07   2.9855284580291466e-06
-1.6961462277640235e-06   2.8880050093900824e-07   2.9855284580291466e-06
-1.6961462277640235e-06   2.8880050093900824e-07   2.9855284580291466e-06
-2.533519911340072e-06   8.967944736818965e-07   4.231105306972771e-06
-2.533519911340072e-06   8.967944736818965e-07   4.231105306972771e-06
-2.533519911340072e-06   8.967944736818965e-07   4.231105306972771e-06
-2.533519911340072e-06   8.967944736818965e-07   4.231105306972771e-06
-4.564458292642042e-06   7.828640637337105e-07   7.77849758833919e-07
-4.564458292642042e-06   7.828640637337105e-07   7.77849758833919e-07
-4.564458292642042e-06   7.828640637337105e-07   7.77849758833919e-07
-4.564458292642042e-06   7.828640637337105e-07   7.77849758833919e-07
-4.648892062646232e-06   8.312452837177815e-07   4.18147507032083e-06
-4.648892062646232e-06   8.312452837177815e-07   4.18147507032083e-06
-4.648892062646232e-06   8.312452837177815e-07   4.18147507032083e-06
-4.648892062646232e-06   8.312452837177815e-07   4.18147507032083e-06
-2.611479907923906e-06   7.077901408547279e-07   8.598612315014652e-07
-2.611479907923906e-06   7.077901408547279e-07   8.598612315014652e-07
-2.611479907923906e-06   7.077901408547279e-07   8.598612315014652e-07
-2.611479907923906e-06   7.077901408547279e-07   8.598612315014652e-07
-3.578971877646295e-06   7.886777110820706e-07   2.423815305569138e-06
-3.578971877646295e-06   7.886777110820706e-07   2.423815305569138e-06
-3.578971877646295e-06   7.886777110820706e-07   2.423815305569138e-06
-3.578971877646295e-06   7.886777110820706e-07   2.423815305569138e-06
-2.611479907923916e-06   8.312452837177273e-07   4.2555481560387e-06
-2.611479907923916e-06   8.312452837177273e-07   4.2555481560387e-06
-2.611479907923916e-06   8.312452837177273e-07   4.2555481560387e-06
-2.611479907923916e-06   8.312452837177273e-07   4.2555481560387e-06
-4.648892062646225e-06   7.077901408547008e-07   7.857881457836493e-07
-4.648892062646225e-06   7.077901408547008e-07   7.857881457836493e-07
-4.648892062646225e-06   7.077901408547008e-07   7.857881457836493e-07
-4.648892062646225e-06   7.077901408547008e-07   7.857881457836493e-07
-4.743171289869182e-06   7.683236770873606e-07   4.325616486935567e-06
-4.743171289869182e-06   7.683236770873606e-07   4.325616486935567e-06
-4.743171289869182e-06   7.683236770873606e-07   4.325616486935567e-06
-4.743171289869182e-06   7.683236770873606e-07   4.325616486935567e-06
-2.6910399789284473e-06   6.367287224934119e-07   9.84354608124097e-07
-2.6910399789284473e-06   6.367287224934119e-07   9.84354608124097e-07
-2.6910399789284473e-06   6.367287224934119e-07   9.84354608124097e-07
-2.6910399789284473e-06   6.367287224934119e-07   9.84354608124097e-07
-3.634144452371681e-06   7.382271269144088e-07   2.4952963545436433e-06
-3.634144452371681e-06   7.382271269144088e-07   2.4952963545436433e-06
-3.634144452371681e-06   7.382271269144088e-07   2.4952963545436433e-06
-3.634144452371681e-06   7.382271269144088e-07   2.4952963545436433e-06
-2.691039978928454e-06   7.683236770873606e-07   4.404573459691904e-06
-2.691039978928454e-06   7.683236770873606e-07   4.404573459691904e-06
-2.691039978928454e-06   7.683236770873606e-07   4.404573459691904e-06
-2.691039978928454e-06   7.683236770873606e-07   4.404573459691904e-06
-4.743171289869175e-06   6.367287224934119e-07   9.053976353677265e-07
-4.743171289869175e-06   6.367287224934119e-07   9.053976353677265e-07
-4.743171289869175e-06   6.367287224934119e-07   9.053976353677265e-07
-4.743171289869175e-06   6.367287224934119e-07   9.053976353677265e-07
-4.8258056761272695e-06   6.933547790851399e-07   4.440653130260709e-06
-4.8258056761272695e-06   6.933547790851399e-07   4.440653130260709e-06
-4.8258056761272695e-06   6.933547790851399e-07   4.440653130260709e-06
-4.8258056761272695e-06   6.933547790851399e-07   4.440653130260709e-06
-2.769399406265809e-06   5.557174063344902e-07   1.0958917708087093e-06
-2.769399406265809e-06   5.557174063344902e-07   1.0958917708087093e-06
-2.769399406265809e-06   5.557174063344902e-07   1.0958917708087093e-06
-2.769399406265809e-06   5.557174063344902e-07   1.0958917708087093e-06
-3.730496071412057e-06   6.833312976830467e-07   2.6211512112433836e-06
-3.730496071412057e-06   6.833312976830467e-07   2.6211512112433836e-06
-3.730496071412057e-06   6.833312976830467e-07   2.6211512112433836e-06
-3.730496071412057e-06   6.833312976830467e-07   2.6211512112433836e-06
-4.564458292642042e-06   1.2601583653405334e-06   2.063609157137747e-06
-4.564458292642042e-06   1.2601583653405334e-06   2.063609157137747e-06
-4.564458292642042e-06   1.2601583653405334e-06   2.063609157137747e-06
-4.564458292642042e-06   1.2601583653405334e-06   2.063609157137747e-06
-6.5112092154716674e-06   1.0502074571683317e-06   -1.3069462591483124e-06
-6.5112092154716674e-06   1.0502074571683317e-06   -1.3069462591483124e-06
-6.5112092154716674e-06   1.0502074571683317e-06   -1.3069462591483124e-06
-6.5112092154716674e-06   1.0502074571683317e-06   -1.3069462591483124e-06
-6.690816884537978e-06   1.260984251228532e-06   2.685956145691233e-06
-6.690816884537978e-06   1.260984251228532e-06   2.685956145691233e-06
-6.690816884537978e-06   1.260984251228532e-06   2.685956145691233e-06
-6.690816884537978e-06   1.260984251228532e-06   2.685956145691233e-06
-4.648892062646218e-06   1.0301983524987684e-06   -5.787803515571832e-07
-4.648892062646218e-06   1.0301983524987684e-06   -5.787803515571832e-07
-4.648892062646218e-06   1.0301983524987684e-06   -5.787803515571832e-07
-4.648892062646218e-06   1.0301983524987684e-06   -5.787803515571832e-07
-5.392776323700849e-06   1.1268013962760027e-06   6.03064923934319e-07
-5.392776323700849e-06   1.1268013962760027e-06   6.03064923934319e-07
-5.392776323700849e-06   1.1268013962760027e-06   6.03064923934319e-07
-5.392776323700849e-06   1.1268013962760027e-06   6.03064923934319e-07
-4.648892062646232e-06   1.260984251228532e-06   2.8244276849290965e-06
-4.648892062646232e-06   1.260984251228532e-06   2.8244276849290965e-06
-4.648892062646232e-06   1.260984251228532e-06   2.8244276849290965e-06
-4.648892062646232e-06   1.260984251228532e-06   2.8244276849290965e-06
-6.6908168845379915e-06   1.0301983524987955e-06   -7.172518907950061e-07
-6.6908168845379915e-06   1.0301983524987955e-06   -7.172518907950061e-07
-6.6908168845379915e-06   1.0301983524987955e-06   -7.172518907950061e-07
-6.6908168845379915e-06   1.0301983524987955e-06   -7.172518907950061e-07
-6.845479166479037e-06   1.2376573084459694e-06   3.2061493985715943e-06
-6.845479166479037e-06   1.2376573084459694e-06   3.2061493985715943e-06
-6.845479166479037e-06   1.2376573084459694e-06   3.2061493985715943e-06
-6.845479166479037e-06   1.2376573084459694e-06   3.2061493985715943e-06
-4.743171289869162e-06   9.997175378915796e-07   -1.5493320011220914e-07
-4.743171289869162e-06   9.997175378915796e-07   -1.5493320011220914e-07
-4.743171289869162e-06   9.997175378915796e-07   -1.5493320011220914e-07
-4.743171289869162e-06   9.997175378915796e-07   -1.5493320011220914e-07
-5.589901220229632e-06   1.1305211125034204e-06   1.1778012057216738e-06
-5.589901220229632e-06   1.1305211125034204e-06   1.1778012057216738e-06
-5.589901220229632e-06   1.1305211125034204e-06   1.1778012057216738e-06
-5.589901220229632e-06   1.1305211125034204e-06   1.1778012057216738e-06
-4.743171289869182e-06   1.2376573084459694e-06   3.3489132609042607e-06
-4.743171289869182e-06   1.2376573084459694e-06   3.3489132609042607e-06
-4.743171289869182e-06   1.2376573084459694e-06   3.3489132609042607e-06
-4.743171289869182e-06   1.2376573084459694e-06   3.3489132609042607e-06
-6.845479166479037e-06   9.997175378915796e-07   -2.9769706244483487e-07
-6.845479166479037e-06   9.997175378915796e-07   -2.9769706244483487e-07
-6.845479166479037e-06   9.997175378915796e-07   -2.9769706244483487e-07
-6.845479166479037e-06   9.997175378915796e-07   -2.9769706244483487e-07
-7.023105678480246e-06   1.1290659643049773e-06   4.102718808122151e-06
-7.023105678480246e-06   1.1290659643049773e-06   4.102718808122151e-06
-7.023105678480246e-06   1.1290659643049773e-06   4.102718808122151e-06
-7.023105678480246e-06   1.1290659643049773e-06   4.102718808122151e-06
-4.825805676127249e-06   8.92735829015833e-07   5.823502187073218e-07
-4.825805676127249e-06   8.92735829015833e-07   5.823502187073218e-07
-4.825805676127249e-06   8.92735829015833e-07   5.823502187073218e-07
-4.825805676127249e-06   8.92735829015833e-07   5.823502187073218e-07
-5.6210416325390495e-06   1.0834861156247262e-06   1.7932933074283274e-06
-5.6210416325390495e-06   1.0834861156247262e-06   1.7932933074283274e-06
-5.6210416325390495e-06   1.0834861156247262e-06   1.7932933074283274e-06
-5.6210416325390495e-06   1.0834861156247262e-06   1.7932933074283274e-06
2.322014608139943e-06   -2.6802768375534455e-07   2.999980145500247e-06
2.322014608139943e-06   -2.6802768375534455e-07   2.999980145500247e-06
2.322014608139943e-06   -2.6802768375534455e-07   2.999980145500247e-06
2.322014608139943e-06   -2.6802768375534455e-07   2.999980145500247e-06
6.78721994661431e-07   -3.506292549053792e-08   4.0093797799495355e-07
6.78721994661431e-07   -3.506292549053792e-08   4.0093797799495355e-07
6.78721994661431e-07   -3.506292549053792e-08   4.0093797799495355e-07
6.78721994661431e-07   -3.506292549053792e-08   4.0093797799495355e-07
6.124981551371133e-07   -3.581118333929683e-07   2.772475112509048e-06
6.124981551371133e-07   -3.581118333929683e-07   2.772475112509048e-06
6.124981551371133e-07   -3.581118333929683e-07   2.772475112509048e-06
6.124981551371133e-07   -3.581118333929683e-07   2.772475112509048e-06
2.156208371112334e-06   -1.1756351072167242e-07   5.529575894760137e-08
2.156208371112334e-06   -1.1756351072167242e-07   5.529575894760137e-08
2.156208371112334e-06   -1.1756351072167242e-07   5.529575894760137e-08
2.156208371112334e-06   -1.1756351072167242e-07   5.529575894760137e-08
1.3605771072114116e-06   -2.0632596821351266e-07   1.4346053399443424e-06
1.3605771072114116e-06   -2.0632596821351266e-07   1.4346053399443424e-06
1.3605771072114116e-06   -2.0632596821351266e-07   1.4346053399443424e-06
1.3605771072114116e-06   -2.0632596821351266e-07   1.4346053399443424e-06
2.1562083711123375e-06   -3.581118333929683e-07   2.6281461189062974e-06
2.1562083711123375e-06   -3.581118333929683e-07   2.6281461189062974e-06
2.1562083711123375e-06   -3.581118333929683e-07   2.6281461189062974e-06
2.1562083711123375e-06   -3.581118333929683e-07   2.6281461189062974e-06
6.124981551371124e-07   -1.1756351072167242e-07   1.9962475255038228e-07
6.124981551371124e-07   -1.1756351072167242e-07   1.9962475255038228e-07
6.124981551371124e-07   -1.1756351072167242e-07   1.9962475255038228e-07
6.124981551371124e-07   -1.1756351072167242e-07   1.9962475255038228e-07
5.34015940194251e-07   -3.876715723297782e-07   2.585684185467426e-06
5.34015940194251e-07   -3.876715723297782e-07   2.585684185467426e-06
5.34015940194251e-07   -3.876715723297782e-07   2.585684185467426e-06
5.34015940194251e-07   -3.876715723297782e-07   2.585684185467426e-06
2.014320052642693e-06   -1.510723676087511e-07   -2.344885811256692e-08
2.014320052642693e-06   -1.510723676087511e-07   -2.344885811256692e-08
2.014320052642693e-06   -1.510723676087511e-07   -2.344885811256692e-08
2.014320052642693e-06   -1.510723676087511e-07   -2.344885811256692e-08
1.2854472354155958e-06   -2.425407578445513e-07   1.2462202047407482e-06
1.2854472354155958e-06   -2.425407578445513e-07   1.2462202047407482e-06
1.2854472354155958e-06   -2.425407578445513e-07   1.2462202047407482e-06
1.2854472354155958e-06   -2.425407578445513e-07   1.2462202047407482e-06
2.0143200526426962e-06   -3.876715723297782e-07   2.443724662634834e-06
2.0143200526426962e-06   -3.876715723297782e-07   2.443724662634834e-06
2.0143200526426962e-06   -3.876715723297782e-07   2.443724662634834e-06
2.0143200526426962e-06   -3.876715723297782e-07   2.443724662634834e-06
5.340159401942493e-07   -1.510723676087511e-07   1.1851066472005206e-07
5.340159401942493e-07   -1.510723676087511e-07   1.1851066472005206e-07
5.340159401942493e-07   -1.510723676087511e-07   1.1851066472005206e-07
5.340159401942493e-07   -1.510723676087511e-07   1.1851066472005206e-07
4.653384996235446e-07   -4.220823216741123e-07   2.357180410217762e-06
4.653384996235446e-07   -4.220823216741123e-07   2.357180410217762e-06
4.653384996235446e-07   -4.220823216741123e-07   2.357180410217762e-06
4.653384996235446e-07   -4.220823216741123e-07   2.357180410217762e-06
1.846013675034887e-06   -2.0298777389223064e-07   -7.540161080355799e-08
1.846013675034887e-06   -2.0298777389223064e-07   -7.540161080355799e-08
1.846013675034887e-06   -2.0298777389223064e-07   -7.540161080355799e-08
1.846013675034887e-06   -2.0298777389223064e-07   -7.540161080355799e-08
1.1607940506414146e-06   -2.574548643168744e-07   1.0993113507737126e-06
1.1607940506414146e-06   -2.574548643168744e-07   1.0993113507737126e-06
1.1607940506414146e-06   -2.574548643168744e-07   1.0993113507737126e-06
1.1607940506414146e-06   -2.574548643168744e-07   1.0993113507737126e-06
6.787219946614318e-07   1.050516101934408e-07   3.984470869077488e-06
6.787219946614318e-07   1.050516101934408e-07   3.984470869077488e-06
6.787219946614318e-07   1.050516101934408e-07   3.984470869077488e-06
6.787219946614318e-07   1.050516101934408e-07   3.984470869077488e-06
-8.063308491555693e-07   2.1476238042632137e-07   1.5752092581888588e-06
-8.063308491555693e-07   2.1476238042632137e-07   1.5752092581888588e-06
-8.063308491555693e-07   2.1476238042632137e-07   1.5752092581888588e-06
-8.063308491555693e-07   2.1476238042632137e-07   1.5752092581888588e-06
-8.652197781813338e-07   1.6424655342175618e-08   3.991464928940273e-06
-8.652197781813338e-07   1.6424655342175618e-08   3.991464928940273e-06
-8.652197781813338e-07   1.6424655342175618e-08   3.991464928940273e-06
-8.652197781813338e-07   1.6424655342175618e-08   3.991464928940273e-06
6.124981551371124e-07   1.2428065357918063e-07   1.4638881078006924e-06
6.124981551371124e-07   1.2428065357918063e-07   1.4638881078006924e-06
6.124981551371124e-07   1.2428065357918063e-07   1.4638881078006924e-06
6.124981551371124e-07   1.2428065357918063e-07   1.4638881078006924e-06
-1.0705886152585495e-07   1.049275431145376e-07   2.674761668517884e-06
-1.0705886152585495e-07   1.049275431145376e-07   2.674761668517884e-06
-1.0705886152585495e-07   1.049275431145376e-07   2.674761668517884e-06
-1.0705886152585495e-07   1.049275431145376e-07   2.674761668517884e-06
6.124981551371133e-07   1.6424655342175618e-08   3.92675132999807e-06
6.124981551371133e-07   1.6424655342175618e-08   3.92675132999807e-06
6.124981551371133e-07   1.6424655342175618e-08   3.92675132999807e-06
6.124981551371133e-07   1.6424655342175618e-08   3.92675132999807e-06
-8.652197781813338e-07   1.2428065357918063e-07   1.5286017067429056e-06
-8.652197781813338e-07   1.2428065357918063e-07   1.5286017067429056e-06
-8.652197781813338e-07   1.2428065357918063e-07   1.5286017067429056e-06
-8.652197781813338e-07   1.2428065357918063e-07   1.5286017067429056e-06
-9.261277276781733e-07   -5.416822268121055e-08   3.954594693241967e-06
-9.261277276781733e-07   -5.416822268121055e-08   3.954594693241967e-06
-9.261277276781733e-07   -5.416822268121055e-08   3.954594693241967e-06
-9.261277276781733e-07   -5.416822268121055e-08   3.954594693241967e-06
5.340159401942493e-07   4.963082005074904e-08   1.4587424878154595e-06
5.340159401942493e-07   4.963082005074904e-08   1.4587424878154595e-06
5.340159401942493e-07   4.963082005074904e-08   1.4587424878154595e-06
5.340159401942493e-07   4.963082005074904e-08   1.4587424878154595e-06
-1.7077324711431277e-07   4.310452137758214e-08   2.6373069125336856e-06
-1.7077324711431277e-07   4.310452137758214e-08   2.6373069125336856e-06
-1.7077324711431277e-07   4.310452137758214e-08   2.6373069125336856e-06
-1.7077324711431277e-07   4.310452137758214e-08   2.6373069125336856e-06
5.34015940194251e-07   -5.416822268121055e-08   3.8923152676028185e-06
5.34015940194251e-07   -5.416822268121055e-08   3.8923152676028185e-06
5.34015940194251e-07   -5.416822268121055e-08   3.8923152676028185e-06
5.34015940194251e-07   -5.416822268121055e-08   3.8923152676028185e-06
-9.261277276781767e-07   4.963082005074904e-08   1.5210219134546404e-06
-9.261277276781767e-07   4.963082005074904e-08   1.5210219134546404e-06
-9.261277276781767e-07   4.963082005074904e-08   1.5210219134546404e-06
-9.261277276781767e-07   4.963082005074904e-08   1.5210219134546404e-06
-9.864689215358856e-07   -1.2128865569752405e-07   3.995131735762427e-06
-9.864689215358856e-07   -1.2128865569752405e-07   3.995131735762427e-06
-9.864689215358856e-07   -1.2128865569752405e-07   3.995131735762427e-06
-9.864689215358856e-07   -1.2128865569752405e-07   3.995131735762427e-06
4.653384996235429e-07   -2.4167812586064043e-08   1.5171801946298753e-06
4.653384996235429e-07   -2.4167812586064043e-08   1.5171801946298753e-06
4.653384996235429e-07   -2.4167812586064043e-08   1.5171801946298753e-06
4.653384996235429e-07   -2.4167812586064043e-08   1.5171801946298753e-06
-2.2334739489980545e-07   -1.0045537309052912e-08   2.6565166536693196e-06
-2.2334739489980545e-07   -1.0045537309052912e-08   2.6565166536693196e-06
-2.2334739489980545e-07   -1.0045537309052912e-08   2.6565166536693196e-06
-2.2334739489980545e-07   -1.0045537309052912e-08   2.6565166536693196e-06
-8.063308491555693e-07   4.4778753971697017e-07   4.392549728209847e-06
-8.063308491555693e-07   4.4778753971697017e-07   4.392549728209847e-06
-8.063308491555693e-07   4.4778753971697017e-07   4.392549728209847e-06
-8.063308491555693e-07   4.4778753971697017e-07   4.392549728209847e-06
-2.2582497159006686e-06   4.2858903358703273e-07   1.9611658466233713e-06
-2.2582497159006686e-06   4.2858903358703273e-07   1.9611658466233713e-06
-2.2582497159006686e-06   4.2858903358703273e-07   1.9611658466233713e-06
-2.2582497159006686e-06   4.2858903358703273e-07   1.9611658466233713e-06
-2.315389395948944e-06   3.6940018546433875e-07   4.353210877545749e-06
-2.315389395948944e-06   3.6940018546433875e-07   4.353210877545749e-06
-2.315389395948944e-06   3.6940018546433875e-07   4.353210877545749e-06
-2.315389395948944e-06   3.6940018546433875e-07   4.353210877545749e-06
-8.652197781813304e-07   3.472480788742989e-07   1.949552778553787e-06
-8.652197781813304e-07   3.472480788742989e-07   1.949552778553787e-06
-8.652197781813304e-07   3.472480788742989e-07   1.949552778553787e-06
-8.652197781813304e-07   3.472480788742989e-07   1.949552778553787e-06
-1.5648346476481105e-06   3.868518345259101e-07   3.0918153076075745e-06
-1.5648346476481105e-06   3.868518345259101e-07   3.0918153076075745e-06
-1.5648346476481105e-06   3.868518345259101e-07   3.0918153076075745e-06
-1.5648346476481105e-06   3.868518345259101e-07   3.0918153076075745e-06
-8.652197781813338e-07   3.6940018546433875e-07   4.366502141499773e-06
-8.652197781813338e-07   3.6940018546433875e-07   4.366502141499773e-06
-8.652197781813338e-07   3.6940018546433875e-07   4.366502141499773e-06
-8.652197781813338e-07   3.6940018546433875e-07   4.366502141499773e-06
-2.3153893959489374e-06   3.472480788742989e-07   1.9362615145997463e-06
-2.3153893959489374e-06   3.472480788742989e-07   1.9362615145997463e-06
-2.3153893959489374e-06   3.472480788742989e-07   1.9362615145997463e-06
-2.3153893959489374e-06   3.472480788742989e-07   1.9362615145997463e-06
-2.37415655994177e-06   2.919799317705493e-07   4.375745097008924e-06
-2.37415655994177e-06   2.919799317705493e-07   4.375745097008924e-06
-2.37415655994177e-06   2.919799317705493e-07   4.375745097008924e-06
-2.37415655994177e-06   2.919799317705493e-07   4.375745097008924e-06
-9.261277276781733e-07   2.6638481339589766e-07   1.977720780927746e-06
-9.261277276781733e-07   2.6638481339589766e-07   1.977720780927746e-06
-9.261277276781733e-07   2.6638481339589766e-07   1.977720780927746e-06
-9.261277276781733e-07   2.6638481339589766e-07   1.977720780927746e-06
-1.615205551235662e-06   3.259408053587424e-07   3.090450225012524e-06
-1.615205551235662e-06   3.259408053587424e-07   3.090450225012524e-06
-1.615205551235662e-06   3.259408053587424e-07   3.090450225012524e-06
-1.615205551235662e-06   3.259408053587424e-07   3.090450225012524e-06
-9.261277276781767e-07   2.919799317705493e-07   4.39110216803371e-06
-9.261277276781767e-07   2.919799317705493e-07   4.39110216803371e-06
-9.261277276781767e-07   2.919799317705493e-07   4.39110216803371e-06
-9.261277276781767e-07   2.919799317705493e-07   4.39110216803371e-06
-2.3741565599417597e-06   2.6638481339592477e-07   1.9623637099029808e-06
-2.3741565599417597e-06   2.6638481339592477e-07   1.9623637099029808e-06
-2.3741565599417597e-06   2.6638481339592477e-07   1.9623637099029808e-06
-2.3741565599417597e-06   2.6638481339592477e-07   1.9623637099029808e-06
-2.4318382225338375e-06   2.1775448678422135e-07   4.438145746887785e-06
-2.4318382225338375e-06   2.1775448678422135e-07   4.438145746887785e-06
-2.4318382225338375e-06   2.1775448678422135e-07   4.438145746887785e-06
-2.4318382225338375e-06   2.1775448678422135e-07   4.438145746887785e-06
-9.864689215358856e-07   1.8949839429747918e-07   2.046150567383289e-06
-9.864689215358856e-07   1.8949839429747918e-07   2.046150567383289e-06
-9.864689215358856e-07   1.8949839429747918e-07   2.046150567383289e-06
-9.864689215358856e-07   1.8949839429747918e-07   2.046150567383289e-06
-1.6690658217872945e-06   2.6652254354832174e-07   3.1375975782518226e-06
-1.6690658217872945e-06   2.6652254354832174e-07   3.1375975782518226e-06
-1.6690658217872945e-06   2.6652254354832174e-07   3.1375975782518226e-06
-1.6690658217872945e-06   2.6652254354832174e-07   3.1375975782518226e-06
-2.2582497159006686e-06   7.828640637337105e-07   3.888403040327499e-06
-2.2582497159006686e-06   7.828640637337105e-07   3.888403040327499e-06
-2.2582497159006686e-06   7.828640637337105e-07   3.888403040327499e-06
-2.2582497159006686e-06   7.828640637337105e-07   3.888403040327499e-06
-3.695001622706402e-06   6.509663685518735e-07   1.4146779118754833e-06
-3.695001622706402e-06   6.509663685518735e-07   1.4146779118754833e-06
-3.695001622706402e-06   6.509663685518735e-07   1.4146779118754833e-06
-3.695001622706402e-06   6.509663685518735e-07   1.4146779118754833e-06
-3.757984784870192e-06   7.077901408547279e-07   3.821080090924523e-06
-3.757984784870192e-06   7.077901408547279e-07   3.821080090924523e-06
-3.757984784870192e-06   7.077901408547279e-07   3.821080090924523e-06
-3.757984784870192e-06   7.077901408547279e-07   3.821080090924523e-06
-2.315389395948934e-06   5.69886204979125e-07   1.4994968042477923e-06
-2.315389395948934e-06   5.69886204979125e-07   1.4994968042477923e-06
-2.315389395948934e-06   5.69886204979125e-07   1.4994968042477923e-06
-2.315389395948934e-06   5.69886204979125e-07   1.4994968042477923e-06
-2.9991200277487463e-06   6.642323593566556e-07   2.582440164621111e-06
-2.9991200277487463e-06   6.642323593566556e-07   2.582440164621111e-06
-2.9991200277487463e-06   6.642323593566556e-07   2.582440164621111e-06
-2.9991200277487463e-06   6.642323593566556e-07   2.582440164621111e-06
-2.315389395948944e-06   7.077901408547279e-07   3.903822452449874e-06
-2.315389395948944e-06   7.077901408547279e-07   3.903822452449874e-06
-2.315389395948944e-06   7.077901408547279e-07   3.903822452449874e-06
-2.315389395948944e-06   7.077901408547279e-07   3.903822452449874e-06
-3.757984784870185e-06   5.698862049791521e-07   1.4167544427224618e-06
-3.757984784870185e-06   5.698862049791521e-07   1.4167544427224618e-06
-3.757984784870185e-06   5.698862049791521e-07   1.4167544427224618e-06
-3.757984784870185e-06   5.698862049791521e-07   1.4167544427224618e-06
-3.831732966943316e-06   6.367287224934119e-07   3.945671301090552e-06
-3.831732966943316e-06   6.367287224934119e-07   3.945671301090552e-06
-3.831732966943316e-06   6.367287224934119e-07   3.945671301090552e-06
-3.831732966943316e-06   6.367287224934119e-07   3.945671301090552e-06
-2.3741565599417597e-06   4.948144900682985e-07   1.6015258288763927e-06
-2.3741565599417597e-06   4.948144900682985e-07   1.6015258288763927e-06
-2.3741565599417597e-06   4.948144900682985e-07   1.6015258288763927e-06
-2.3741565599417597e-06   4.948144900682985e-07   1.6015258288763927e-06
-3.0377396130304646e-06   6.076291154978044e-07   2.639808808766516e-06
-3.0377396130304646e-06   6.076291154978044e-07   2.639808808766516e-06
-3.0377396130304646e-06   6.076291154978044e-07   2.639808808766516e-06
-3.0377396130304646e-06   6.076291154978044e-07   2.639808808766516e-06
-2.37415655994177e-06   6.367287224934119e-07   4.030819840545604e-06
-2.37415655994177e-06   6.367287224934119e-07   4.030819840545604e-06
-2.37415655994177e-06   6.367287224934119e-07   4.030819840545604e-06
-2.37415655994177e-06   6.367287224934119e-07   4.030819840545604e-06
-3.831732966943302e-06   4.948144900682985e-07   1.5163772894213274e-06
-3.831732966943302e-06   4.948144900682985e-07   1.5163772894213274e-06
-3.831732966943302e-06   4.948144900682985e-07   1.5163772894213274e-06
-3.831732966943302e-06   4.948144900682985e-07   1.5163772894213274e-06
-3.893956092370569e-06   5.557174063344902e-07   4.060589911179243e-06
-3.893956092370569e-06   5.557174063344902e-07   4.060589911179243e-06
-3.893956092370569e-06   5.557174063344902e-07   4.060589911179243e-06
-3.893956092370569e-06   5.557174063344902e-07   4.060589911179243e-06
-2.4318382225338274e-06   4.1315464461067256e-07   1.7092644518189909e-06
-2.4318382225338274e-06   4.1315464461067256e-07   1.7092644518189909e-06
-2.4318382225338274e-06   4.1315464461067256e-07   1.7092644518189909e-06
-2.4318382225338274e-06   4.1315464461067256e-07   1.7092644518189909e-06
-3.1082670495007207e-06   5.493945770103045e-07   2.7549018706575084e-06
-3.1082670495007207e-06   5.493945770103045e-07   2.7549018706575084e-06
-3.1082670495007207e-06   5.493945770103045e-07   2.7549018706575084e-06
-3.1082670495007207e-06   5.493945770103045e-07   2.7549018706575084e-06
-3.6950016227064225e-06   1.0502074571683317e-06   1.8504389501395192e-06
-3.6950016227064225e-06   1.0502074571683317e-06   1.8504389501395192e-06
-3.6950016227064225e-06   1.0502074571683317e-06   1.8504389501395192e-06
-3.6950016227064225e-06   1.0502074571683317e-06   1.8504389501395192e-06
-5.0341204669986604e-06   8.231511731689287e-07   -5.176595607471728e-07
-5.0341204669986604e-06   8.231511731689287e-07   -5.176595607471728e-07
-5.0341204669986604e-06   8.231511731689287e-07   -5.176595607471728e-07
-5.0341204669986604e-06   8.231511731689287e-07   -5.176595607471728e-07
-5.197466862898436e-06   1.0301983524987955e-06   2.308690657692081e-06
-5.197466862898436e-06   1.0301983524987955e-06   2.308690657692081e-06
-5.197466862898436e-06   1.0301983524987955e-06   2.308690657692081e-06
-5.197466862898436e-06   1.0301983524987955e-06   2.308690657692081e-06
-3.7579847848701715e-06   7.83830126012793e-07   5.7374796869920754e-08
-3.7579847848701715e-06   7.83830126012793e-07   5.7374796869920754e-08
-3.7579847848701715e-06   7.83830126012793e-07   5.7374796869920754e-08
-3.7579847848701715e-06   7.83830126012793e-07   5.7374796869920754e-08
-4.258959927444328e-06   9.018728962439579e-07   8.215077056883337e-07
-4.258959927444328e-06   9.018728962439579e-07   8.215077056883337e-07
-4.258959927444328e-06   9.018728962439579e-07   8.215077056883337e-07
-4.258959927444328e-06   9.018728962439579e-07   8.215077056883337e-07
-3.7579847848701783e-06   1.0301983524987684e-06   2.456511593583677e-06
-3.7579847848701783e-06   1.0301983524987684e-06   2.456511593583677e-06
-3.7579847848701783e-06   1.0301983524987684e-06   2.456511593583677e-06
-3.7579847848701783e-06   1.0301983524987684e-06   2.456511593583677e-06
-5.197466862898456e-06   7.83830126012793e-07   -9.044613902167535e-08
-5.197466862898456e-06   7.83830126012793e-07   -9.044613902167535e-08
-5.197466862898456e-06   7.83830126012793e-07   -9.044613902167535e-08
-5.197466862898456e-06   7.83830126012793e-07   -9.044613902167535e-08
-5.336183876965308e-06   9.997175378915796e-07   2.7344311978931785e-06
-5.336183876965308e-06   9.997175378915796e-07   2.7344311978931785e-06
-5.336183876965308e-06   9.997175378915796e-07   2.7344311978931785e-06
-5.336183876965308e-06   9.997175378915796e-07   2.7344311978931785e-06
-3.831732966943302e-06   7.482020916958765e-07   3.7792228224065006e-07
-3.831732966943302e-06   7.482020916958765e-07   3.7792228224065006e-07
-3.831732966943302e-06   7.482020916958765e-07   3.7792228224065006e-07
-3.831732966943302e-06   7.482020916958765e-07   3.7792228224065006e-07
-4.419991463943791e-06   8.93521873858872e-07   1.2711612412770663e-06
-4.419991463943791e-06   8.93521873858872e-07   1.2711612412770663e-06
-4.419991463943791e-06   8.93521873858872e-07   1.2711612412770663e-06
-4.419991463943791e-06   8.93521873858872e-07   1.2711612412770663e-06
-3.831732966943309e-06   9.997175378916067e-07   2.8853404656106437e-06
-3.831732966943309e-06   9.997175378916067e-07   2.8853404656106437e-06
-3.831732966943309e-06   9.997175378916067e-07   2.8853404656106437e-06
-3.831732966943309e-06   9.997175378916067e-07   2.8853404656106437e-06
-5.336183876965321e-06   7.482020916958765e-07   2.2701301452321193e-07
-5.336183876965321e-06   7.482020916958765e-07   2.2701301452321193e-07
-5.336183876965321e-06   7.482020916958765e-07   2.2701301452321193e-07
-5.336183876965321e-06   7.482020916958765e-07   2.2701301452321193e-07
-5.500071619434306e-06   8.92735829015833e-07   3.4820574750488e-06
-5.500071619434306e-06   8.92735829015833e-07   3.4820574750488e-06
-5.500071619434306e-06   8.92735829015833e-07   3.4820574750488e-06
-5.500071619434306e-06   8.92735829015833e-07   3.4820574750488e-06
-3.893956092370562e-06   6.467803162168138e-07   9.527715709553477e-07
-3.893956092370562e-06   6.467803162168138e-07   9.527715709553477e-07
-3.893956092370562e-06   6.467803162168138e-07   9.527715709553477e-07
-3.893956092370562e-06   6.467803162168138e-07   9.527715709553477e-07
-4.45130150442471e-06   8.473775558631475e-07   1.7613222472578617e-06
-4.45130150442471e-06   8.473775558631475e-07   1.7613222472578617e-06
-4.45130150442471e-06   8.473775558631475e-07   1.7613222472578617e-06
-4.45130150442471e-06   8.473775558631475e-07   1.7613222472578617e-06
7.388443027159779e-07   -3.506292549053792e-08   2.33558247694249e-06
7.388443027159779e-07   -3.506292549053792e-08   2.33558247694249e-06
7.388443027159779e-07   -3.506292549053792e-08   2.33558247694249e-06
7.388443027159779e-07   -3.506292549053792e-08   2.33558247694249e-06
-2.8336952891695733e-07   1.9543469444543147e-07   7.701913295158372e-07
-2.8336952891695733e-07   1.9543469444543147e-07   7.701913295158372e-07
-2.8336952891695733e-07   1.9543469444543147e-07   7.701913295158372e-07
-2.8336952891695733e-07   1.9543469444543147e-07   7.701913295158372e-07
-3.3445488502673116e-07   -1.1756351072167242e-07   2.2687389378031034e-06
-3.3445488502673116e-07   -1.1756351072167242e-07   2.2687389378031034e-06
-3.3445488502673116e-07   -1.1756351072167242e-07   2.2687389378031034e-06
-3.3445488502673116e-07   -1.1756351072167242e-07   2.2687389378031034e-06
5.868042785300881e-07   1.1818656115052182e-07   5.918569554184191e-07
5.868042785300881e-07   1.1818656115052182e-07   5.918569554184191e-07
5.868042785300881e-07   1.1818656115052182e-07   5.918569554184191e-07
5.868042785300881e-07   1.1818656115052182e-07   5.918569554184191e-07
1.453066331691503e-07   2.6006265042984814e-08   1.3829945420178673e-06
1.453066331691503e-07   2.6006265042984814e-08   1.3829945420178673e-06
1.453066331691503e-07   2.6006265042984814e-08   1.3829945420178673e-06
1.453066331691503e-07   2.6006265042984814e-08   1.3829945420178673e-06
5.868042785300881e-07   -1.1756351072167242e-07   2.127288894679787e-06
5.868042785300881e-07   -1.1756351072167242e-07   2.127288894679787e-06
5.868042785300881e-07   -1.1756351072167242e-07   2.127288894679787e-06
5.868042785300881e-07   -1.1756351072167242e-07   2.127288894679787e-06
-3.3445488502673116e-07   1.1818656115052182e-07   7.333069985417492e-07
-3.3445488502673116e-07   1.1818656115052182e-07   7.333069985417492e-07
-3.3445488502673116e-07   1.1818656115052182e-07   7.333069985417492e-07
-3.3445488502673116e-07   1.1818656115052182e-07   7.333069985417492e-07
-3.982635006715076e-07   -1.510723676087511e-07   2.187240409118907e-06
-3.982635006715076e-07   -1.510723676087511e-07   2.187240409118907e-06
-3.982635006715076e-07   -1.510723676087511e-07   2.187240409118907e-06
-3.982635006715076e-07   -1.510723676087511e-07   2.187240409118907e-06
4.530377179070385e-07   7.859157257020808e-08   6.306066807139421e-07
4.530377179070385e-07   7.859157257020808e-08   6.306066807139421e-07
4.530377179070385e-07   7.859157257020808e-08   6.306066807139421e-07
4.530377179070385e-07   7.859157257020808e-08   6.306066807139421e-07
6.630852045498173e-08   -6.686486926209961e-09   1.3263221788318856e-06
6.630852045498173e-08   -6.686486926209961e-09   1.3263221788318856e-06
6.630852045498173e-08   -6.686486926209961e-09   1.3263221788318856e-06
6.630852045498173e-08   -6.686486926209961e-09   1.3263221788318856e-06
4.530377179070385e-07   -1.510723676087511e-07   2.0494420450115097e-06
4.530377179070385e-07   -1.510723676087511e-07   2.0494420450115097e-06
4.530377179070385e-07   -1.510723676087511e-07   2.0494420450115097e-06
4.530377179070385e-07   -1.510723676087511e-07   2.0494420450115097e-06
-3.9826350067150677e-07   7.859157257020808e-08   7.684050448213223e-07
-3.9826350067150677e-07   7.859157257020808e-08   7.684050448213223e-07
-3.9826350067150677e-07   7.859157257020808e-08   7.684050448213223e-07
-3.9826350067150677e-07   7.859157257020808e-08   7.684050448213223e-07
-4.527795764645829e-07   -2.0298777389223064e-07   2.1256402131158492e-06
-4.527795764645829e-07   -2.0298777389223064e-07   2.1256402131158492e-06
-4.527795764645829e-07   -2.0298777389223064e-07   2.1256402131158492e-06
-4.527795764645829e-07   -2.0298777389223064e-07   2.1256402131158492e-06
2.8377178865949e-07   -2.5537152910436005e-09   7.777941694150511e-07
2.8377178865949e-07   -2.5537152910436005e-09   7.777941694150511e-07
2.8377178865949e-07   -2.5537152910436005e-09   7.777941694150511e-07
2.8377178865949e-07   -2.5537152910436005e-09   7.777941694150511e-07
-2.909168625192833e-08   -3.23628279603192e-08   1.3171187618689586e-06
-2.909168625192833e-08   -3.23628279603192e-08   1.3171187618689586e-06
-2.909168625192833e-08   -3.23628279603192e-08   1.3171187618689586e-06
-2.909168625192833e-08   -3.23628279603192e-08   1.3171187618689586e-06
-2.8336952891695733e-07   2.1476238042632137e-07   3.5823258669582484e-06
-2.8336952891695733e-07   2.1476238042632137e-07   3.5823258669582484e-06
-2.8336952891695733e-07   2.1476238042632137e-07   3.5823258669582484e-06
-2.8336952891695733e-07   2.1476238042632137e-07   3.5823258669582484e-06
-1.1331820174545423e-06   2.6582075988017023e-07   2.1966067470679027e-06
-1.1331820174545423e-06   2.6582075988017023e-07   2.1966067470679027e-06
-1.1331820174545423e-06   2.6582075988017023e-07   2.1966067470679027e-06
-1.1331820174545423e-06   2.6582075988017023e-07   2.1966067470679027e-06
-1.173181726938189e-06   1.2428065357918063e-07   3.5671142918512804e-06
-1.173181726938189e-06   1.2428065357918063e-07   3.5671142918512804e-06
-1.173181726938189e-06   1.2428065357918063e-07   3.5671142918512804e-06
-1.173181726938189e-06   1.2428065357918063e-07   3.5671142918512804e-06
-3.3445488502673116e-07   1.8113398490889206e-07   2.1351242232010047e-06
-3.3445488502673116e-07   1.8113398490889206e-07   2.1351242232010047e-06
-3.3445488502673116e-07   1.8113398490889206e-07   2.1351242232010047e-06
-3.3445488502673116e-07   1.8113398490889206e-07   2.1351242232010047e-06
-7.384181424442001e-07   1.8501885584867135e-07   2.8060653963329275e-06
-7.384181424442001e-07   1.8501885584867135e-07   2.8060653963329275e-06
-7.384181424442001e-07   1.8501885584867135e-07   2.8060653963329275e-06
-7.384181424442001e-07   1.8501885584867135e-07   2.8060653963329275e-06
-3.34454885026732e-07   1.2428065357918063e-07   3.5330022930534237e-06
-3.34454885026732e-07   1.2428065357918063e-07   3.5330022930534237e-06
-3.34454885026732e-07   1.2428065357918063e-07   3.5330022930534237e-06
-3.34454885026732e-07   1.2428065357918063e-07   3.5330022930534237e-06
-1.173181726938189e-06   1.8113398490889206e-07   2.1692362219988428e-06
-1.173181726938189e-06   1.8113398490889206e-07   2.1692362219988428e-06
-1.173181726938189e-06   1.8113398490889206e-07   2.1692362219988428e-06
-1.173181726938189e-06   1.8113398490889206e-07   2.1692362219988428e-06
-1.2146504891820188e-06   4.963082005074904e-08   3.561050640168967e-06
-1.2146504891820188e-06   4.963082005074904e-08   3.561050640168967e-06
-1.2146504891820188e-06   4.963082005074904e-08   3.561050640168967e-06
-1.2146504891820188e-06   4.963082005074904e-08   3.561050640168967e-06
-3.9826350067150677e-07   1.0559483330845011e-07   2.1668272513634763e-06
-3.9826350067150677e-07   1.0559483330845011e-07   2.1668272513634763e-06
-3.9826350067150677e-07   1.0559483330845011e-07   2.1668272513634763e-06
-3.9826350067150677e-07   1.0559483330845011e-07   2.1668272513634763e-06
-7.797240152251459e-07   1.2469415974672004e-07   2.7911351797566377e-06
-7.797240152251459e-07   1.2469415974672004e-07   2.7911351797566377e-06
-7.797240152251459e-07   1.2469415974672004e-07   2.7911351797566377e-06
-7.797240152251459e-07   1.2469415974672004e-07   2.7911351797566377e-06
-3.982635006715076e-07   4.963082005074904e-08   3.5274722322143194e-06
-3.982635006715076e-07   4.963082005074904e-08   3.5274722322143194e-06
-3.982635006715076e-07   4.963082005074904e-08   3.5274722322143194e-06
-3.982635006715076e-07   4.963082005074904e-08   3.5274722322143194e-06
-1.2146504891820188e-06   1.0559483330845011e-07   2.200405659318107e-06
-1.2146504891820188e-06   1.0559483330845011e-07   2.200405659318107e-06
-1.2146504891820188e-06   1.0559483330845011e-07   2.200405659318107e-06
-1.2146504891820188e-06   1.0559483330845011e-07   2.200405659318107e-06
-1.2558866308480122e-06   -2.4167812586064043e-08   3.6171989449900014e-06
-1.2558866308480122e-06   -2.4167812586064043e-08   3.6171989449900014e-06
-1.2558866308480122e-06   -2.4167812586064043e-08   3.6171989449900014e-06
-1.2558866308480122e-06   -2.4167812586064043e-08   3.6171989449900014e-06
-4.5277957646458207e-07   2.6554945930276196e-08   2.248253532574466e-06
-4.5277957646458207e-07   2.6554945930276196e-08   2.248253532574466e-06
-4.5277957646458207e-07   2.6554945930276196e-08   2.248253532574466e-06
-4.5277957646458207e-07   2.6554945930276196e-08   2.248253532574466e-06
-8.200278466322502e-07   6.792815569119114e-08   2.8355100569973663e-06
-8.200278466322502e-07   6.792815569119114e-08   2.8355100569973663e-06
-8.200278466322502e-07   6.792815569119114e-08   2.8355100569973663e-06
-8.200278466322502e-07   6.792815569119114e-08   2.8355100569973663e-06
-1.133182017454539e-06   4.285890335870056e-07   4.010436586743033e-06
-1.133182017454539e-06   4.285890335870056e-07   4.010436586743033e-06
-1.133182017454539e-06   4.285890335870056e-07   4.010436586743033e-06
-1.133182017454539e-06   4.285890335870056e-07   4.010436586743033e-06
-1.9653649722262275e-06   3.3618723145939955e-07   2.5680239141803485e-06
-1.9653649722262275e-06   3.3618723145939955e-07   2.5680239141803485e-06
-1.9653649722262275e-06   3.3618723145939955e-07   2.5680239141803485e-06
-1.9653649722262275e-06   3.3618723145939955e-07   2.5680239141803485e-06
-2.0001914456987998e-06   3.472480788742989e-07   3.935594406385571e-06
-2.0001914456987998e-06   3.472480788742989e-07   3.935594406385571e-06
-2.0001914456987998e-06   3.472480788742989e-07   3.935594406385571e-06
-2.0001914456987998e-06   3.472480788742989e-07   3.935594406385571e-06
-1.173181726938189e-06   2.5979648341336106e-07   2.6097158323944535e-06
-1.173181726938189e-06   2.5979648341336106e-07   2.6097158323944535e-06
-1.173181726938189e-06   2.5979648341336106e-07   2.6097158323944535e-06
-1.173181726938189e-06   2.5979648341336106e-07   2.6097158323944535e-06
-1.569786632183782e-06   3.3416090761920637e-07   3.226105353280278e-06
-1.569786632183782e-06   3.3416090761920637e-07   3.226105353280278e-06
-1.569786632183782e-06   3.3416090761920637e-07   3.226105353280278e-06
-1.569786632183782e-06   3.3416090761920637e-07   3.226105353280278e-06
-1.173181726938189e-06   3.472480788742989e-07   3.988065363662145e-06
-1.173181726938189e-06   3.472480788742989e-07   3.988065363662145e-06
-1.173181726938189e-06   3.472480788742989e-07   3.988065363662145e-06
-1.173181726938189e-06   3.472480788742989e-07   3.988065363662145e-06
-2.0001914456987998e-06   2.5979648341336106e-07   2.5572448751178935e-06
-2.0001914456987998e-06   2.5979648341336106e-07   2.5572448751178935e-06
-2.0001914456987998e-06   2.5979648341336106e-07   2.5572448751178935e-06
-2.0001914456987998e-06   2.5979648341336106e-07   2.5572448751178935e-06
-2.0371333395694622e-06   2.6638481339592477e-07   3.967343504163683e-06
-2.0371333395694622e-06   2.6638481339592477e-07   3.967343504163683e-06
-2.0371333395694622e-06   2.6638481339592477e-07   3.967343504163683e-06
-2.0371333395694622e-06   2.6638481339592477e-07   3.967343504163683e-06
-1.2146504891820188e-06   1.8237480759857863e-07   2.6469447569963506e-06
-1.2146504891820188e-06   1.8237480759857863e-07   2.6469447569963506e-06
-1.2146504891820188e-06   1.8237480759857863e-07   2.6469447569963506e-06
-1.2146504891820188e-06   1.8237480759857863e-07   2.6469447569963506e-06
-1.5996045226759323e-06   2.741232005033247e-07   3.23348577707666e-06
-1.5996045226759323e-06   2.741232005033247e-07   3.23348577707666e-06
-1.5996045226759323e-06   2.741232005033247e-07   3.23348577707666e-06
-1.5996045226759323e-06   2.741232005033247e-07   3.23348577707666e-06
-1.2146504891820188e-06   2.6638481339592477e-07   4.017749507642066e-06
-1.2146504891820188e-06   2.6638481339592477e-07   4.017749507642066e-06
-1.2146504891820188e-06   2.6638481339592477e-07   4.017749507642066e-06
-1.2146504891820188e-06   2.6638481339592477e-07   4.017749507642066e-06
-2.0371333395694555e-06   1.8237480759857863e-07   2.5965387535179334e-06
-2.0371333395694555e-06   1.8237480759857863e-07   2.5965387535179334e-06
-2.0371333395694555e-06   1.8237480759857863e-07   2.5965387535179334e-06
-2.0371333395694555e-06   1.8237480759857863e-07   2.5965387535179334e-06
-2.0733358052578736e-06   1.8949839429747918e-07   4.0402102601859934e-06
-2.0733358052578736e-06   1.8949839429747918e-07   4.0402102601859934e-06
-2.0733358052578736e-06   1.8949839429747918e-07   4.0402102601859934e-06
-2.0733358052578736e-06   1.8949839429747918e-07   4.0402102601859934e-06
-1.2558866308480122e-06   1.1002080814662553e-07   2.7254815211934274e-06
-1.2558866308480122e-06   1.1002080814662553e-07   2.7254815211934274e-06
-1.2558866308480122e-06   1.1002080814662553e-07   2.7254815211934274e-06
-1.2558866308480122e-06   1.1002080814662553e-07   2.7254815211934274e-06
-1.6327462282684146e-06   2.154174561012868e-07   3.2903428614546314e-06
-1.6327462282684146e-06   2.154174561012868e-07   3.2903428614546314e-06
-1.6327462282684146e-06   2.154174561012868e-07   3.2903428614546314e-06
-1.6327462282684146e-06   2.154174561012868e-07   3.2903428614546314e-06
-1.9653649722262275e-06   6.509663685518464e-07   3.4876461878277225e-06
-1.9653649722262275e-06   6.509663685518464e-07   3.4876461878277225e-06
-1.9653649722262275e-06   6.509663685518464e-07   3.4876461878277225e-06
-1.9653649722262275e-06   6.509663685518464e-07   3.4876461878277225e-06
-2.7908053770228495e-06   4.65785002408105e-07   2.000803360147077e-06
-2.7908053770228495e-06   4.65785002408105e-07   2.000803360147077e-06
-2.7908053770228495e-06   4.65785002408105e-07   2.000803360147077e-06
-2.7908053770228495e-06   4.65785002408105e-07   2.000803360147077e-06
-2.829404246584723e-06   5.69886204979125e-07   3.3882997420255545e-06
-2.829404246584723e-06   5.69886204979125e-07   3.3882997420255545e-06
-2.829404246584723e-06   5.69886204979125e-07   3.3882997420255545e-06
-2.829404246584723e-06   5.69886204979125e-07   3.3882997420255545e-06
-2.0001914456987998e-06   3.856696149656799e-07   2.1168083612237683e-06
-2.0001914456987998e-06   3.856696149656799e-07   2.1168083612237683e-06
-2.0001914456987998e-06   3.856696149656799e-07   2.1168083612237683e-06
-2.0001914456987998e-06   3.856696149656799e-07   2.1168083612237683e-06
-2.3913091278265416e-06   5.107612442111203e-07   2.6936161872227293e-06
-2.3913091278265416e-06   5.107612442111203e-07   2.6936161872227293e-06
-2.3913091278265416e-06   5.107612442111203e-07   2.6936161872227293e-06
-2.3913091278265416e-06   5.107612442111203e-07   2.6936161872227293e-06
-2.0001914456987998e-06   5.698862049791521e-07   3.4988296960336242e-06
-2.0001914456987998e-06   5.698862049791521e-07   3.4988296960336242e-06
-2.0001914456987998e-06   5.698862049791521e-07   3.4988296960336242e-06
-2.0001914456987998e-06   5.698862049791521e-07   3.4988296960336242e-06
-2.829404246584716e-06   3.856696149656528e-07   2.006278407215678e-06
-2.829404246584716e-06   3.856696149656528e-07   2.006278407215678e-06
-2.829404246584716e-06   3.856696149656528e-07   2.006278407215678e-06
-2.829404246584716e-06   3.856696149656528e-07   2.006278407215678e-06
-2.880751321727407e-06   4.948144900682985e-07   3.4976251175817597e-06
-2.880751321727407e-06   4.948144900682985e-07   3.4976251175817597e-06
-2.880751321727407e-06   4.948144900682985e-07   3.4976251175817597e-06
-2.880751321727407e-06   4.948144900682985e-07   3.4976251175817597e-06
-2.0371333395694622e-06   3.1334698080939566e-07   2.2004756528738717e-06
-2.0371333395694622e-06   3.1334698080939566e-07   2.2004756528738717e-06
-2.0371333395694622e-06   3.1334698080939566e-07   2.2004756528738717e-06
-2.0371333395694622e-06   3.1334698080939566e-07   2.2004756528738717e-06
-2.4121403243375955e-06   4.5264914499295564e-07   2.741905995643965e-06
-2.4121403243375955e-06   4.5264914499295564e-07   2.741905995643965e-06
-2.4121403243375955e-06   4.5264914499295564e-07   2.741905995643965e-06
-2.4121403243375955e-06   4.5264914499295564e-07   2.741905995643965e-06
-2.0371333395694622e-06   4.948144900682714e-07   3.606505623137061e-06
-2.0371333395694622e-06   4.948144900682714e-07   3.606505623137061e-06
-2.0371333395694622e-06   4.948144900682714e-07   3.606505623137061e-06
-2.0371333395694622e-06   4.948144900682714e-07   3.606505623137061e-06
-2.8807513217274e-06   3.1334698080939566e-07   2.0915951473185334e-06
-2.8807513217274e-06   3.1334698080939566e-07   2.0915951473185334e-06
-2.8807513217274e-06   3.1334698080939566e-07   2.0915951473185334e-06
-2.8807513217274e-06   3.1334698080939566e-07   2.0915951473185334e-06
-2.9214509297997813e-06   4.1315464461067256e-07   3.615515294238267e-06
-2.9214509297997813e-06   4.1315464461067256e-07   3.615515294238267e-06
-2.9214509297997813e-06   4.1315464461067256e-07   3.615515294238267e-06
-2.9214509297997813e-06   4.1315464461067256e-07   3.615515294238267e-06
-2.0733358052578668e-06   2.3855046815153677e-07   2.306752592543916e-06
-2.0733358052578668e-06   2.3855046815153677e-07   2.306752592543916e-06
-2.0733358052578668e-06   2.3855046815153677e-07   2.306752592543916e-06
-2.0733358052578668e-06   2.3855046815153677e-07   2.306752592543916e-06
-2.4557735894467727e-06   3.961633342631891e-07   2.8495811798585105e-06
-2.4557735894467727e-06   3.961633342631891e-07   2.8495811798585105e-06
-2.4557735894467727e-06   3.961633342631891e-07   2.8495811798585105e-06
-2.4557735894467727e-06   3.961633342631891e-07   2.8495811798585105e-06
-2.7908053770228495e-06   8.231511731689558e-07   1.580433665918397e-06
-2.7908053770228495e-06   8.231511731689558e-07   1.580433665918397e-06
-2.7908053770228495e-06   8.231511731689558e-07   1.580433665918397e-06
-2.7908053770228495e-06   8.231511731689558e-07   1.580433665918397e-06
-3.4906541638619773e-06   5.699114746798449e-07   2.6207520209307033e-07
-3.4906541638619773e-06   5.699114746798449e-07   2.6207520209307033e-07
-3.4906541638619773e-06   5.699114746798449e-07   2.6207520209307033e-07
-3.4906541638619773e-06   5.699114746798449e-07   2.6207520209307033e-07
-3.630462662105761e-06   7.838301260127659e-07   1.8687594482311935e-06
-3.630462662105761e-06   7.838301260127659e-07   1.8687594482311935e-06
-3.630462662105761e-06   7.838301260127659e-07   1.8687594482311935e-06
-3.630462662105761e-06   7.838301260127659e-07   1.8687594482311935e-06
-2.829404246584723e-06   5.168957127764308e-07   6.938227369712583e-07
-2.829404246584723e-06   5.168957127764308e-07   6.938227369712583e-07
-2.829404246584723e-06   5.168957127764308e-07   6.938227369712583e-07
-2.829404246584723e-06   5.168957127764308e-07   6.938227369712583e-07
-3.0735413210742176e-06   6.629490834901715e-07   1.0130858386921913e-06
-3.0735413210742176e-06   6.629490834901715e-07   1.0130858386921913e-06
-3.0735413210742176e-06   6.629490834901715e-07   1.0130858386921913e-06
-3.0735413210742176e-06   6.629490834901715e-07   1.0130858386921913e-06
-2.829404246584716e-06   7.838301260127659e-07   2.028920096173e-06
-2.829404246584716e-06   7.838301260127659e-07   2.028920096173e-06
-2.829404246584716e-06   7.838301260127659e-07   2.028920096173e-06
-2.829404246584716e-06   7.838301260127659e-07   2.028920096173e-06
-3.6304626621057746e-06   5.168957127764308e-07   5.336620890294654e-07
-3.6304626621057746e-06   5.168957127764308e-07   5.336620890294654e-07
-3.6304626621057746e-06   5.168957127764308e-07   5.336620890294654e-07
-3.6304626621057746e-06   5.168957127764308e-07   5.336620890294654e-07
-3.7489869580381016e-06   7.482020916958765e-07   2.1979622063003743e-06
-3.7489869580381016e-06   7.482020916958765e-07   2.1979622063003743e-06
-3.7489869580381016e-06   7.482020916958765e-07   2.1979622063003743e-06
-3.7489869580381016e-06   7.482020916958765e-07   2.1979622063003743e-06
-2.880751321727407e-06   4.795222515280274e-07   9.121107165498951e-07
-2.880751321727407e-06   4.795222515280274e-07   9.121107165498951e-07
-2.880751321727407e-06   4.795222515280274e-07   9.121107165498951e-07
-2.880751321727407e-06   4.795222515280274e-07   9.121107165498951e-07
-3.194587151334331e-06   6.440832812463766e-07   1.3364338147305054e-06
-3.194587151334331e-06   6.440832812463766e-07   1.3364338147305054e-06
-3.194587151334331e-06   6.440832812463766e-07   1.3364338147305054e-06
-3.194587151334331e-06   6.440832812463766e-07   1.3364338147305054e-06
-2.880751321727407e-06   7.482020916958765e-07   2.359170110401062e-06
-2.880751321727407e-06   7.482020916958765e-07   2.359170110401062e-06
-2.880751321727407e-06   7.482020916958765e-07   2.359170110401062e-06
-2.880751321727407e-06   7.482020916958765e-07   2.359170110401062e-06
-3.7489869580381287e-06   4.795222515280545e-07   7.509028124491768e-07
-3.7489869580381287e-06   4.795222515280545e-07   7.509028124491768e-07
-3.7489869580381287e-06   4.795222515280545e-07   7.509028124491768e-07
-3.7489869580381287e-06   4.795222515280545e-07   7.509028124491768e-07
-3.8965780824887024e-06   6.467803162167867e-07   2.7898624697973522e-06
-3.8965780824887024e-06   6.467803162167867e-07   2.7898624697973522e-06
-3.8965780824887024e-06   6.467803162167867e-07   2.7898624697973522e-06
-3.8965780824887024e-06   6.467803162167867e-07   2.7898624697973522e-06
-2.9214509297997813e-06   3.889509818642573e-07   1.3193481492607145e-06
-2.9214509297997813e-06   3.889509818642573e-07   1.3193481492607145e-06
-2.9214509297997813e-06   3.889509818642573e-07   1.3193481492607145e-06
-2.9214509297997813e-06   3.889509818642573e-07   1.3193481492607145e-06
-3.22489622186483e-06   6.014890583331948e-07   1.6975674568210826e-06
-3.22489622186483e-06   6.014890583331948e-07   1.6975674568210826e-06
-3.22489622186483e-06   6.014890583331948e-07   1.6975674568210826e-06
-3.22489622186483e-06   6.014890583331948e-07   1.6975674568210826e-06
-9.616013811158276e-07   1.9543469444543147e-07   1.7584289099885863e-06
-9.616013811158276e-07   1.9543469444543147e-07   1.7584289099885863e-06
-9.616013811158276e-07   1.9543469444543147e-07   1.7584289099885863e-06
-9.616013811158276e-07   1.9543469444543147e-07   1.7584289099885863e-06
-1.2555977822568374e-06   4.062665710332145e-07   1.3949340340395594e-06
-1.2555977822568374e-06   4.062665710332145e-07   1.3949340340395594e-06
-1.2555977822568374e-06   4.062665710332145e-07   1.3949340340395594e-06
-1.2555977822568374e-06   4.062665710332145e-07   1.3949340340395594e-06
-1.2981483738398454e-06   1.1818656115052182e-07   1.8330865101741812e-06
-1.2981483738398454e-06   1.1818656115052182e-07   1.8330865101741812e-06
-1.2981483738398454e-06   1.1818656115052182e-07   1.8330865101741812e-06
-1.2981483738398454e-06   1.1818656115052182e-07   1.8330865101741812e-06
-1.1204883026649004e-06   3.0999834333311944e-07   1.4218993222397169e-06
-1.1204883026649004e-06   3.0999834333311944e-07   1.4218993222397169e-06
-1.1204883026649004e-06   3.0999834333311944e-07   1.4218993222397169e-06
-1.1204883026649004e-06   3.0999834333311944e-07   1.4218993222397169e-06
-1.1362856191152516e-06   2.3683291027879513e-07   1.4921274428229017e-06
-1.1362856191152516e-06   2.3683291027879513e-07   1.4921274428229017e-06
-1.1362856191152516e-06   2.3683291027879513e-07   1.4921274428229017e-06
-1.1362856191152516e-06   2.3683291027879513e-07   1.4921274428229017e-06
-1.1204883026649037e-06   1.1818656115049472e-07   1.7179994408646063e-06
-1.1204883026649037e-06   1.1818656115049472e-07   1.7179994408646063e-06
-1.1204883026649037e-06   1.1818656115049472e-07   1.7179994408646063e-06
-1.1204883026649037e-06   1.1818656115049472e-07   1.7179994408646063e-06
-1.2981483738398454e-06   3.0999834333311944e-07   1.5369863915492714e-06
-1.2981483738398454e-06   3.0999834333311944e-07   1.5369863915492714e-06
-1.2981483738398454e-06   3.0999834333311944e-07   1.5369863915492714e-06
-1.2981483738398454e-06   3.0999834333311944e-07   1.5369863915492714e-06
-1.3529805668568615e-06   7.859157257023518e-08   1.8587430741728124e-06
-1.3529805668568615e-06   7.859157257023518e-08   1.8587430741728124e-06
-1.3529805668568615e-06   7.859157257023518e-08   1.8587430741728124e-06
-1.3529805668568615e-06   7.859157257023518e-08   1.8587430741728124e-06
-1.2773895630045606e-06   2.4637215158645445e-07   1.6320897203425384e-06
-1.2773895630045606e-06   2.4637215158645445e-07   1.6320897203425384e-06
-1.2773895630045606e-06   2.4637215158645445e-07   1.6320897203425384e-06
-1.2773895630045606e-06   2.4637215158645445e-07   1.6320897203425384e-06
-1.229717330746055e-06   1.9618347235365245e-07   1.58274920745132e-06
-1.229717330746055e-06   1.9618347235365245e-07   1.58274920745132e-06
-1.229717330746055e-06   1.9618347235365245e-07   1.58274920745132e-06
-1.229717330746055e-06   1.9618347235365245e-07   1.58274920745132e-06
-1.2773895630045606e-06   7.859157257020808e-08   1.758074726763005e-06
-1.2773895630045606e-06   7.859157257020808e-08   1.758074726763005e-06
-1.2773895630045606e-06   7.859157257020808e-08   1.758074726763005e-06
-1.2773895630045606e-06   7.859157257020808e-08   1.758074726763005e-06
-1.3529805668568615e-06   2.4637215158645445e-07   1.7327580677522917e-06
-1.3529805668568615e-06   2.4637215158645445e-07   1.7327580677522917e-06
-1.3529805668568615e-06   2.4637215158645445e-07   1.7327580677522917e-06
-1.3529805668568615e-06   2.4637215158645445e-07   1.7327580677522917e-06
-1.3916012873681134e-06   -2.5537152910707055e-09   1.9862700649741317e-06
-1.3916012873681134e-06   -2.5537152910707055e-09   1.9862700649741317e-06
-1.3916012873681134e-06   -2.5537152910707055e-09   1.9862700649741317e-06
-1.3916012873681134e-06   -2.5537152910707055e-09   1.9862700649741317e-06
-1.4459437733371558e-06   9.149520375278312e-08   2.0204115234962094e-06
-1.4459437733371558e-06   9.149520375278312e-08   2.0204115234962094e-06
-1.4459437733371558e-06   9.149520375278312e-08   2.0204115234962094e-06
-1.4459437733371558e-06   9.149520375278312e-08   2.0204115234962094e-06
-1.3063412554322565e-06   1.4997568338738314e-07   1.7526523725405703e-06
-1.3063412554322565e-06   1.4997568338738314e-07   1.7526523725405703e-06
-1.3063412554322565e-06   1.4997568338738314e-07   1.7526523725405703e-06
-1.3063412554322565e-06   1.4997568338738314e-07   1.7526523725405703e-06
-1.2555977822568349e-06   2.6582075988017023e-07   3.2807084258210123e-06
-1.2555977822568349e-06   2.6582075988017023e-07   3.2807084258210123e-06
-1.2555977822568349e-06   2.6582075988017023e-07   3.2807084258210123e-06
-1.2555977822568349e-06   2.6582075988017023e-07   3.2807084258210123e-06
-1.3975306941037678e-06   1.0704853644140399e-07   2.9488902386795332e-06
-1.3975306941037678e-06   1.0704853644140399e-07   2.9488902386795332e-06
-1.3975306941037678e-06   1.0704853644140399e-07   2.9488902386795332e-06
-1.3975306941037678e-06   1.0704853644140399e-07   2.9488902386795332e-06
-1.4161964383923042e-06   1.8113398490889206e-07   3.1536300357130827e-06
-1.4161964383923042e-06   1.8113398490889206e-07   3.1536300357130827e-06
-1.4161964383923042e-06   1.8113398490889206e-07   3.1536300357130827e-06
-1.4161964383923042e-06   1.8113398490889206e-07   3.1536300357130827e-06
-1.2981483738398454e-06   4.5677819708256286e-08   3.0381569605793575e-06
-1.2981483738398454e-06   4.5677819708256286e-08   3.0381569605793575e-06
-1.2981483738398454e-06   4.5677819708256286e-08   3.0381569605793575e-06
-1.2981483738398454e-06   4.5677819708256286e-08   3.0381569605793575e-06
-1.340496801528135e-06   1.3035563398115378e-07   3.057930984829455e-06
-1.340496801528135e-06   1.3035563398115378e-07   3.057930984829455e-06
-1.340496801528135e-06   1.3035563398115378e-07   3.057930984829455e-06
-1.340496801528135e-06   1.3035563398115378e-07   3.057930984829455e-06
-1.2981483738398445e-06   1.8113398490889206e-07   3.2349037348334045e-06
-1.2981483738398445e-06   1.8113398490889206e-07   3.2349037348334045e-06
-1.2981483738398445e-06   1.8113398490889206e-07   3.2349037348334045e-06
-1.2981483738398445e-06   1.8113398490889206e-07   3.2349037348334045e-06
-1.4161964383923009e-06   4.5677819708256286e-08   2.956883261458985e-06
-1.4161964383923009e-06   4.5677819708256286e-08   2.956883261458985e-06
-1.4161964383923009e-06   4.5677819708256286e-08   2.956883261458985e-06
-1.4161964383923009e-06   4.5677819708256286e-08   2.956883261458985e-06
-1.4382492809852468e-06   1.0559483330845011e-07   3.1815932080539358e-06
-1.4382492809852468e-06   1.0559483330845011e-07   3.1815932080539358e-06
-1.4382492809852468e-06   1.0559483330845011e-07   3.1815932080539358e-06
-1.4382492809852468e-06   1.0559483330845011e-07   3.1815932080539358e-06
-1.3529805668568615e-06   -2.0358621126586088e-08   3.115050757167627e-06
-1.3529805668568615e-06   -2.0358621126586088e-08   3.115050757167627e-06
-1.3529805668568615e-06   -2.0358621126586088e-08   3.115050757167627e-06
-1.3529805668568615e-06   -2.0358621126586088e-08   3.115050757167627e-06
-1.3622002288328424e-06   8.2276196293162e-08   3.068835970009059e-06
-1.3622002288328424e-06   8.2276196293162e-08   3.068835970009059e-06
-1.3622002288328424e-06   8.2276196293162e-08   3.068835970009059e-06
-1.3622002288328424e-06   8.2276196293162e-08   3.068835970009059e-06
-1.3529805668568615e-06   1.0559483330845011e-07   3.2571652807149222e-06
-1.3529805668568615e-06   1.0559483330845011e-07   3.2571652807149222e-06
-1.3529805668568615e-06   1.0559483330845011e-07   3.2571652807149222e-06
-1.3529805668568615e-06   1.0559483330845011e-07   3.2571652807149222e-06
-1.4382492809852434e-06   -2.0358621126586088e-08   3.0394786845066066e-06
-1.4382492809852434e-06   -2.0358621126586088e-08   3.0394786845066066e-06
-1.4382492809852434e-06   -2.0358621126586088e-08   3.0394786845066066e-06
-1.4382492809852434e-06   -2.0358621126586088e-08   3.0394786845066066e-06
-1.4574212315906033e-06   2.6554945930276196e-08   3.258147212268893e-06
-1.4574212315906033e-06   2.6554945930276196e-08   3.258147212268893e-06
-1.4574212315906033e-06   2.6554945930276196e-08   3.258147212268893e-06
-1.4574212315906033e-06   2.6554945930276196e-08   3.258147212268893e-06
-1.3916012873681125e-06   -1.039813552429947e-07   3.226769085935334e-06
-1.3916012873681125e-06   -1.039813552429947e-07   3.226769085935334e-06
-1.3916012873681125e-06   -1.039813552429947e-07   3.226769085935334e-06
-1.3916012873681125e-06   -1.039813552429947e-07   3.226769085935334e-06
-1.3915137130326826e-06   2.887320427240542e-08   3.1469103930003153e-06
-1.3915137130326826e-06   2.887320427240542e-08   3.1469103930003153e-06
-1.3915137130326826e-06   2.887320427240542e-08   3.1469103930003153e-06
-1.3915137130326826e-06   2.887320427240542e-08   3.1469103930003153e-06
-1.3975306941037712e-06   3.3618723145942666e-07   3.612303340146762e-06
-1.3975306941037712e-06   3.3618723145942666e-07   3.612303340146762e-06
-1.3975306941037712e-06   3.3618723145942666e-07   3.612303340146762e-06
-1.3975306941037712e-06   3.3618723145942666e-07   3.612303340146762e-06
-1.605723038309403e-06   3.24773215284015e-08   3.0830901538454256e-06
-1.605723038309403e-06   3.24773215284015e-08   3.0830901538454256e-06
-1.605723038309403e-06   3.24773215284015e-08   3.0830901538454256e-06
-1.605723038309403e-06   3.24773215284015e-08   3.0830901538454256e-06
-1.617457352902154e-06   2.5979648341336106e-07   3.428518803532627e-06
-1.617457352902154e-06   2.5979648341336106e-07   3.428518803532627e-06
-1.617457352902154e-06   2.5979648341336106e-07   3.428518803532627e-06
-1.617457352902154e-06   2.5979648341336106e-07   3.428518803532627e-06
-1.4161964383923009e-06   -1.6188254213414088e-08   3.2586747885922804e-06
-1.4161964383923009e-06   -1.6188254213414088e-08   3.2586747885922804e-06
-1.4161964383923009e-06   -1.6188254213414088e-08   3.2586747885922804e-06
-1.4161964383923009e-06   -1.6188254213414088e-08   3.2586747885922804e-06
-1.5080073061045398e-06   1.4626386192899171e-07   3.314221631760554e-06
-1.5080073061045398e-06   1.4626386192899171e-07   3.314221631760554e-06
-1.5080073061045398e-06   1.4626386192899171e-07   3.314221631760554e-06
-1.5080073061045398e-06   1.4626386192899171e-07   3.314221631760554e-06
-1.4161964383923009e-06   2.5979648341336106e-07   3.594109646108673e-06
-1.4161964383923009e-06   2.5979648341336106e-07   3.594109646108673e-06
-1.4161964383923009e-06   2.5979648341336106e-07   3.594109646108673e-06
-1.4161964383923009e-06   2.5979648341336106e-07   3.594109646108673e-06
-1.6174573529021473e-06   -1.618825421342764e-08   3.093083946016197e-06
-1.6174573529021473e-06   -1.618825421342764e-08   3.093083946016197e-06
-1.6174573529021473e-06   -1.618825421342764e-08   3.093083946016197e-06
-1.6174573529021473e-06   -1.618825421342764e-08   3.093083946016197e-06
-1.6324883906961108e-06   1.8237480759857863e-07   3.474173028328103e-06
-1.6324883906961108e-06   1.8237480759857863e-07   3.474173028328103e-06
-1.6324883906961108e-06   1.8237480759857863e-07   3.474173028328103e-06
-1.6324883906961108e-06   1.8237480759857863e-07   3.474173028328103e-06
-1.4382492809852434e-06   -7.42239880748729e-08   3.3044004562140342e-06
-1.4382492809852434e-06   -7.42239880748729e-08   3.3044004562140342e-06
-1.4382492809852434e-06   -7.42239880748729e-08   3.3044004562140342e-06
-1.4382492809852434e-06   -7.42239880748729e-08   3.3044004562140342e-06
-1.5165259697797289e-06   9.942611745402579e-08   3.3306715408873956e-06
-1.5165259697797289e-06   9.942611745402579e-08   3.3306715408873956e-06
-1.5165259697797289e-06   9.942611745402579e-08   3.3306715408873956e-06
-1.5165259697797289e-06   9.942611745402579e-08   3.3306715408873956e-06
-1.4382492809852468e-06   1.8237480759857863e-07   3.628132305732125e-06
-1.4382492809852468e-06   1.8237480759857863e-07   3.628132305732125e-06
-1.4382492809852468e-06   1.8237480759857863e-07   3.628132305732125e-06
-1.4382492809852468e-06   1.8237480759857863e-07   3.628132305732125e-06
-1.6324883906961108e-06   -7.42239880748729e-08   3.150441178809958e-06
-1.6324883906961108e-06   -7.42239880748729e-08   3.150441178809958e-06
-1.6324883906961108e-06   -7.42239880748729e-08   3.150441178809958e-06
-1.6324883906961108e-06   -7.42239880748729e-08   3.150441178809958e-06
-1.6452554892577224e-06   1.1002080814662553e-07   3.5606233638719006e-06
-1.6452554892577224e-06   1.1002080814662553e-07   3.5606233638719006e-06
-1.6452554892577224e-06   1.1002080814662553e-07   3.5606233638719006e-06
-1.6452554892577224e-06   1.1002080814662553e-07   3.5606233638719006e-06
-1.4574212315906033e-06   -1.305094950302451e-07   3.391884449666136e-06
-1.4574212315906033e-06   -1.305094950302451e-07   3.391884449666136e-06
-1.4574212315906033e-06   -1.305094950302451e-07   3.391884449666136e-06
-1.4574212315906033e-06   -1.305094950302451e-07   3.391884449666136e-06
-1.527988628181157e-06   5.1707698154733906e-08   3.4001664614059874e-06
-1.527988628181157e-06   5.1707698154733906e-08   3.4001664614059874e-06
-1.527988628181157e-06   5.1707698154733906e-08   3.4001664614059874e-06
-1.527988628181157e-06   5.1707698154733906e-08   3.4001664614059874e-06
-1.605723038309403e-06   4.65785002408105e-07   2.973965659841139e-06
-1.605723038309403e-06   4.65785002408105e-07   2.973965659841139e-06
-1.605723038309403e-06   4.65785002408105e-07   2.973965659841139e-06
-1.605723038309403e-06   4.65785002408105e-07   2.973965659841139e-06
-1.8623747157810923e-06   1.5839913728993152e-07   2.361781344984112e-06
-1.8623747157810923e-06   1.5839913728993152e-07   2.361781344984112e-06
-1.8623747157810923e-06   1.5839913728993152e-07   2.361781344984112e-06
-1.8623747157810923e-06   1.5839913728993152e-07   2.361781344984112e-06
-1.8736279018137552e-06   3.856696149656799e-07   2.812600145148136e-06
-1.8736279018137552e-06   3.856696149656799e-07   2.812600145148136e-06
-1.8736279018137552e-06   3.856696149656799e-07   2.812600145148136e-06
-1.8736279018137552e-06   3.856696149656799e-07   2.812600145148136e-06
-1.617457352902154e-06   9.319937414837632e-08   2.5611313747858242e-06
-1.617457352902154e-06   9.319937414837632e-08   2.5611313747858242e-06
-1.617457352902154e-06   9.319937414837632e-08   2.5611313747858242e-06
-1.617457352902154e-06   9.319937414837632e-08   2.5611313747858242e-06
-1.7354861865272926e-06   2.7961914773633753e-07   2.645994233341624e-06
-1.7354861865272926e-06   2.7961914773633753e-07   2.645994233341624e-06
-1.7354861865272926e-06   2.7961914773633753e-07   2.645994233341624e-06
-1.7354861865272926e-06   2.7961914773633753e-07   2.645994233341624e-06
-1.617457352902154e-06   3.856696149656799e-07   2.9880822896384746e-06
-1.617457352902154e-06   3.856696149656799e-07   2.9880822896384746e-06
-1.617457352902154e-06   3.856696149656799e-07   2.9880822896384746e-06
-1.617457352902154e-06   3.856696149656799e-07   2.9880822896384746e-06
-1.8736279018137552e-06   9.319937414837632e-08   2.385649230295461e-06
-1.8736279018137552e-06   9.319937414837632e-08   2.385649230295461e-06
-1.8736279018137552e-06   9.319937414837632e-08   2.385649230295461e-06
-1.8736279018137552e-06   9.319937414837632e-08   2.385649230295461e-06
-1.900592250744363e-06   3.1334698080939566e-07   2.9121596149730825e-06
-1.900592250744363e-06   3.1334698080939566e-07   2.9121596149730825e-06
-1.900592250744363e-06   3.1334698080939566e-07   2.9121596149730825e-06
-1.900592250744363e-06   3.1334698080939566e-07   2.9121596149730825e-06
-1.6324883906961108e-06   3.6763126291146906e-08   2.6312701609369115e-06
-1.6324883906961108e-06   3.6763126291146906e-08   2.6312701609369115e-06
-1.6324883906961108e-06   3.6763126291146906e-08   2.6312701609369115e-06
-1.6324883906961108e-06   3.6763126291146906e-08   2.6312701609369115e-06
-1.737896333083758e-06   2.2754921138987724e-07   2.6924784138569724e-06
-1.737896333083758e-06   2.2754921138987724e-07   2.6924784138569724e-06
-1.737896333083758e-06   2.2754921138987724e-07   2.6924784138569724e-06
-1.737896333083758e-06   2.2754921138987724e-07   2.6924784138569724e-06
-1.6324883906961108e-06   3.1334698080936856e-07   3.0781099276839667e-06
-1.6324883906961108e-06   3.1334698080936856e-07   3.0781099276839667e-06
-1.6324883906961108e-06   3.1334698080936856e-07   3.0781099276839667e-06
-1.6324883906961108e-06   3.1334698080936856e-07   3.0781099276839667e-06
-1.900592250744363e-06   3.6763126291146906e-08   2.465319848225988e-06
-1.900592250744363e-06   3.6763126291146906e-08   2.465319848225988e-06
-1.900592250744363e-06   3.6763126291146906e-08   2.465319848225988e-06
-1.900592250744363e-06   3.6763126291146906e-08   2.465319848225988e-06
-1.918908381041493e-06   2.3855046815153677e-07   3.0341351453209715e-06
-1.918908381041493e-06   2.3855046815153677e-07   3.0341351453209715e-06
-1.918908381041493e-06   2.3855046815153677e-07   3.0341351453209715e-06
-1.918908381041493e-06   2.3855046815153677e-07   3.0341351453209715e-06
-1.6452554892577156e-06   -2.0525934501722503e-08   2.733492833939954e-06
-1.6452554892577156e-06   -2.0525934501722503e-08   2.733492833939954e-06
-1.6452554892577156e-06   -2.0525934501722503e-08   2.733492833939954e-06
-1.6452554892577156e-06   -2.0525934501722503e-08   2.733492833939954e-06
-1.754428411822931e-06   1.802198112726603e-07   2.795000257417273e-06
-1.754428411822931e-06   1.802198112726603e-07   2.795000257417273e-06
-1.754428411822931e-06   1.802198112726603e-07   2.795000257417273e-06
-1.754428411822931e-06   1.802198112726603e-07   2.795000257417273e-06
-1.8623747157810855e-06   5.699114746798449e-07   1.2027498018096907e-06
-1.8623747157810855e-06   5.699114746798449e-07   1.2027498018096907e-06
-1.8623747157810855e-06   5.699114746798449e-07   1.2027498018096907e-06
-1.8623747157810855e-06   5.699114746798449e-07   1.2027498018096907e-06
-1.955121077790227e-06   2.747932511631924e-07   8.711015976844642e-07
-1.955121077790227e-06   2.747932511631924e-07   8.711015976844642e-07
-1.955121077790227e-06   2.747932511631924e-07   8.711015976844642e-07
-1.955121077790227e-06   2.747932511631924e-07   8.711015976844642e-07
-2.0562304520257572e-06   5.168957127764308e-07   1.3261552660694315e-06
-2.0562304520257572e-06   5.168957127764308e-07   1.3261552660694315e-06
-2.0562304520257572e-06   5.168957127764308e-07   1.3261552660694315e-06
-2.0562304520257572e-06   5.168957127764308e-07   1.3261552660694315e-06
-1.8736279018137484e-06   2.2691369805265054e-07   1.1958068912170414e-06
-1.8736279018137484e-06   2.2691369805265054e-07   1.1958068912170414e-06
-1.8736279018137484e-06   2.2691369805265054e-07   1.1958068912170414e-06
-1.8736279018137484e-06   2.2691369805265054e-07   1.1958068912170414e-06
-1.872814699754289e-06   4.059973579747931e-07   1.0870013584979884e-06
-1.872814699754289e-06   4.059973579747931e-07   1.0870013584979884e-06
-1.872814699754289e-06   4.059973579747931e-07   1.0870013584979884e-06
-1.872814699754289e-06   4.059973579747931e-07   1.0870013584979884e-06
-1.8736279018137416e-06   5.168957127764308e-07   1.5001444749036753e-06
-1.8736279018137416e-06   5.168957127764308e-07   1.5001444749036753e-06
-1.8736279018137416e-06   5.168957127764308e-07   1.5001444749036753e-06
-1.8736279018137416e-06   5.168957127764308e-07   1.5001444749036753e-06
-2.0562304520257572e-06   2.2691369805265054e-07   1.0218176823827705e-06
-2.0562304520257572e-06   2.2691369805265054e-07   1.0218176823827705e-06
-2.0562304520257572e-06   2.2691369805265054e-07   1.0218176823827705e-06
-2.0562304520257572e-06   2.2691369805265054e-07   1.0218176823827705e-06
-2.1441322233302785e-06   4.795222515280274e-07   1.5625880880985193e-06
-2.1441322233302785e-06   4.795222515280274e-07   1.5625880880985193e-06
-2.1441322233302785e-06   4.795222515280274e-07   1.5625880880985193e-06
-2.1441322233302785e-06   4.795222515280274e-07   1.5625880880985193e-06
-1.9005922507443562e-06   1.9604375801817397e-07   1.3267752298945409e-06
-1.9005922507443562e-06   1.9604375801817397e-07   1.3267752298945409e-06
-1.9005922507443562e-06   1.9604375801817397e-07   1.3267752298945409e-06
-1.9005922507443562e-06   1.9604375801817397e-07   1.3267752298945409e-06
-1.9478602219897674e-06   3.8074576930829365e-07   1.2947339751960557e-06
-1.9478602219897674e-06   3.8074576930829365e-07   1.2947339751960557e-06
-1.9478602219897674e-06   3.8074576930829365e-07   1.2947339751960557e-06
-1.9478602219897674e-06   3.8074576930829365e-07   1.2947339751960557e-06
-1.9005922507443562e-06   4.795222515280545e-07   1.7326751842043934e-06
-1.9005922507443562e-06   4.795222515280545e-07   1.7326751842043934e-06
-1.9005922507443562e-06   4.795222515280545e-07   1.7326751842043934e-06
-1.9005922507443562e-06   4.795222515280545e-07   1.7326751842043934e-06
-2.144132223330292e-06   1.9604375801817397e-07   1.1566881337886194e-06
-2.144132223330292e-06   1.9604375801817397e-07   1.1566881337886194e-06
-2.144132223330292e-06   1.9604375801817397e-07   1.1566881337886194e-06
-2.144132223330292e-06   1.9604375801817397e-07   1.1566881337886194e-06
-2.2678838011310046e-06   3.889509818642573e-07   1.9954539431188227e-06
-2.2678838011310046e-06   3.889509818642573e-07   1.9954539431188227e-06
-2.2678838011310046e-06   3.889509818642573e-07   1.9954539431188227e-06
-2.2678838011310046e-06   3.889509818642573e-07   1.9954539431188227e-06
-1.918908381041486e-06   1.2888554054023868e-07   1.5698675077639864e-06
-1.918908381041486e-06   1.2888554054023868e-07   1.5698675077639864e-06
-1.918908381041486e-06   1.2888554054023868e-07   1.5698675077639864e-06
-1.918908381041486e-06   1.2888554054023868e-07   1.5698675077639864e-06
-1.973915303883562e-06   3.4676691008548536e-07   1.5308168907735112e-06
-1.973915303883562e-06   3.4676691008548536e-07   1.5308168907735112e-06
-1.973915303883562e-06   3.4676691008548536e-07   1.5308168907735112e-06
-1.973915303883562e-06   3.4676691008548536e-07   1.5308168907735112e-06
-3.049469190147469e-06   4.0626657103320094e-07   1.5454684272574114e-06
-3.049469190147469e-06   4.0626657103320094e-07   1.5454684272574114e-06
-3.049469190147469e-06   4.0626657103320094e-07   1.5454684272574114e-06
-3.049469190147469e-06   4.0626657103320094e-07   1.5454684272574114e-06
-2.1533021313269738e-06   5.509457759124881e-07   3.125887714885807e-06
-2.1533021313269738e-06   5.509457759124881e-07   3.125887714885807e-06
-2.1533021313269738e-06   5.509457759124881e-07   3.125887714885807e-06
-2.1533021313269738e-06   5.509457759124881e-07   3.125887714885807e-06
-2.1588456592161477e-06   3.0999834333311944e-07   1.6669203011646352e-06
-2.1588456592161477e-06   3.0999834333311944e-07   1.6669203011646352e-06
-2.1588456592161477e-06   3.0999834333311944e-07   1.6669203011646352e-06
-2.1588456592161477e-06   3.0999834333311944e-07   1.6669203011646352e-06
-3.4118363124534655e-06   1.7619999223297903e-07   3.8355170672202744e-06
-3.4118363124534655e-06   1.7619999223297903e-07   3.8355170672202744e-06
-3.4118363124534655e-06   1.7619999223297903e-07   3.8355170672202744e-06
-3.4118363124534655e-06   1.7619999223297903e-07   3.8355170672202744e-06
-2.5524000013361957e-06   3.155717317013967e-07   2.319500171677109e-06
-2.5524000013361957e-06   3.155717317013967e-07   2.319500171677109e-06
-2.5524000013361957e-06   3.155717317013967e-07   2.319500171677109e-06
-2.5524000013361957e-06   3.155717317013967e-07   2.319500171677109e-06
-3.4118363124534715e-06   3.0999834333311944e-07   1.7471993118247235e-06
-3.4118363124534715e-06   3.0999834333311944e-07   1.7471993118247235e-06
-3.4118363124534715e-06   3.0999834333311944e-07   1.7471993118247235e-06
-3.4118363124534715e-06   3.0999834333311944e-07   1.7471993118247235e-06
-2.1588456592161477e-06   1.7619999223297903e-07   3.7552380565601895e-06
-2.1588456592161477e-06   1.7619999223297903e-07   3.7552380565601895e-06
-2.1588456592161477e-06   1.7619999223297903e-07   3.7552380565601895e-06
-2.1588456592161477e-06   1.7619999223297903e-07   3.7552380565601895e-06
-2.2049785936994644e-06   2.4637215158645445e-07   1.8227149033179718e-06
-2.2049785936994644e-06   2.4637215158645445e-07   1.8227149033179718e-06
-2.2049785936994644e-06   2.4637215158645445e-07   1.8227149033179718e-06
-2.2049785936994644e-06   2.4637215158645445e-07   1.8227149033179718e-06
-3.43897201203601e-06   1.0975603067026664e-07   3.961340273095242e-06
-3.43897201203601e-06   1.0975603067026664e-07   3.961340273095242e-06
-3.43897201203601e-06   1.0975603067026664e-07   3.961340273095242e-06
-3.43897201203601e-06   1.0975603067026664e-07   3.961340273095242e-06
-2.750355815400318e-06   1.7986035793700632e-07   2.7715840156756816e-06
-2.750355815400318e-06   1.7986035793700632e-07   2.7715840156756816e-06
-2.750355815400318e-06   1.7986035793700632e-07   2.7715840156756816e-06
-2.750355815400318e-06   1.7986035793700632e-07   2.7715840156756816e-06
-3.438972012036016e-06   2.4637215158645445e-07   1.9046845758676804e-06
-3.438972012036016e-06   2.4637215158645445e-07   1.9046845758676804e-06
-3.438972012036016e-06   2.4637215158645445e-07   1.9046845758676804e-06
-3.438972012036016e-06   2.4637215158645445e-07   1.9046845758676804e-06
-2.204978593699461e-06   1.0975603067026664e-07   3.879370600545526e-06
-2.204978593699461e-06   1.0975603067026664e-07   3.879370600545526e-06
-2.204978593699461e-06   1.0975603067026664e-07   3.879370600545526e-06
-2.204978593699461e-06   1.0975603067026664e-07   3.879370600545526e-06
-2.1978776861611873e-06   9.149520375278312e-08   2.0919767232938213e-06
-2.1978776861611873e-06   9.149520375278312e-08   2.0919767232938213e-06
-2.1978776861611873e-06   9.149520375278312e-08   2.0919767232938213e-06
-2.1978776861611873e-06   9.149520375278312e-08   2.0919767232938213e-06
-3.5022839333582835e-06   -1.8266313616865703e-07   4.430482139241832e-06
-3.5022839333582835e-06   -1.8266313616865703e-07   4.430482139241832e-06
-3.5022839333582835e-06   -1.8266313616865703e-07   4.430482139241832e-06
-3.5022839333582835e-06   -1.8266313616865703e-07   4.430482139241832e-06
-2.7253039344338495e-06   6.63412597893165e-08   2.9861128367929944e-06
-2.7253039344338495e-06   6.63412597893165e-08   2.9861128367929944e-06
-2.7253039344338495e-06   6.63412597893165e-08   2.9861128367929944e-06
-2.7253039344338495e-06   6.63412597893165e-08   2.9861128367929944e-06
-2.153302131326977e-06   1.0704853644140399e-07   3.281495488888205e-06
-2.153302131326977e-06   1.0704853644140399e-07   3.281495488888205e-06
-2.153302131326977e-06   1.0704853644140399e-07   3.281495488888205e-06
-2.153302131326977e-06   1.0704853644140399e-07   3.281495488888205e-06
-1.366694117435401e-06   -7.732582474600114e-07   4.064324775033314e-06
-1.366694117435401e-06   -7.732582474600114e-07   4.064324775033314e-06
-1.366694117435401e-06   -7.732582474600114e-07   4.064324775033314e-06
-1.366694117435401e-06   -7.732582474600114e-07   4.064324775033314e-06
-1.3801405406368983e-06   4.567781970826984e-08   2.751815854581309e-06
-1.3801405406368983e-06   4.567781970826984e-08   2.751815854581309e-06
-1.3801405406368983e-06   4.567781970826984e-08   2.751815854581309e-06
-1.3801405406368983e-06   4.567781970826984e-08   2.751815854581309e-06
-2.1588456592161477e-06   -6.481138729807652e-07   4.465932734493505e-06
-2.1588456592161477e-06   -6.481138729807652e-07   4.465932734493505e-06
-2.1588456592161477e-06   -6.481138729807652e-07   4.465932734493505e-06
-2.1588456592161477e-06   -6.481138729807652e-07   4.465932734493505e-06
-1.759378603538262e-06   -3.8543299619108427e-07   3.6425457822898967e-06
-1.759378603538262e-06   -3.8543299619108427e-07   3.6425457822898967e-06
-1.759378603538262e-06   -3.8543299619108427e-07   3.6425457822898967e-06
-1.759378603538262e-06   -3.8543299619108427e-07   3.6425457822898967e-06
-2.1588456592161494e-06   4.567781970826984e-08   3.1680908701946976e-06
-2.1588456592161494e-06   4.567781970826984e-08   3.1680908701946976e-06
-2.1588456592161494e-06   4.567781970826984e-08   3.1680908701946976e-06
-2.1588456592161494e-06   4.567781970826984e-08   3.1680908701946976e-06
-1.380140540636895e-06   -6.481138729807652e-07   4.04965771888008e-06
-1.380140540636895e-06   -6.481138729807652e-07   4.04965771888008e-06
-1.380140540636895e-06   -6.481138729807652e-07   4.04965771888008e-06
-1.380140540636895e-06   -6.481138729807652e-07   4.04965771888008e-06
-1.4007746259544079e-06   -2.0358621126586088e-08   2.8225440310164924e-06
-1.4007746259544079e-06   -2.0358621126586088e-08   2.8225440310164924e-06
-1.4007746259544079e-06   -2.0358621126586088e-08   2.8225440310164924e-06
-1.4007746259544079e-06   -2.0358621126586088e-08   2.8225440310164924e-06
-2.204978593699461e-06   -6.5779789065464e-07   4.545347538975061e-06
-2.204978593699461e-06   -6.5779789065464e-07   4.545347538975061e-06
-2.204978593699461e-06   -6.5779789065464e-07   4.545347538975061e-06
-2.204978593699461e-06   -6.5779789065464e-07   4.545347538975061e-06
-1.7574218687935411e-06   -3.374857494459091e-07   3.6072323794065917e-06
-1.7574218687935411e-06   -3.374857494459091e-07   3.6072323794065917e-06
-1.7574218687935411e-06   -3.374857494459091e-07   3.6072323794065917e-06
-1.7574218687935411e-06   -3.374857494459091e-07   3.6072323794065917e-06
-2.2049785936994644e-06   -2.0358621126586088e-08   3.2050075927333207e-06
-2.2049785936994644e-06   -2.0358621126586088e-08   3.2050075927333207e-06
-2.2049785936994644e-06   -2.0358621126586088e-08   3.2050075927333207e-06
-2.2049785936994644e-06   -2.0358621126586088e-08   3.2050075927333207e-06
-1.4007746259544045e-06   -6.5779789065464e-07   4.1628839772582224e-06
-1.4007746259544045e-06   -6.5779789065464e-07   4.1628839772582224e-06
-1.4007746259544045e-06   -6.5779789065464e-07   4.1628839772582224e-06
-1.4007746259544045e-06   -6.5779789065464e-07   4.1628839772582224e-06
-1.4053522612613263e-06   -1.039813552429947e-07   2.914444174604669e-06
-1.4053522612613263e-06   -1.039813552429947e-07   2.914444174604669e-06
-1.4053522612613263e-06   -1.039813552429947e-07   2.914444174604669e-06
-1.4053522612613263e-06   -1.039813552429947e-07   2.914444174604669e-06
-2.1978776861611814e-06   -6.497492880796007e-07   4.562780642473057e-06
-2.1978776861611814e-06   -6.497492880796007e-07   4.562780642473057e-06
-2.1978776861611814e-06   -6.497492880796007e-07   4.562780642473057e-06
-2.1978776861611814e-06   -6.497492880796007e-07   4.562780642473057e-06
-1.7817538563363974e-06   -3.6933831202530857e-07   3.7009943404658427e-06
-1.7817538563363974e-06   -3.6933831202530857e-07   3.7009943404658427e-06
-1.7817538563363974e-06   -3.6933831202530857e-07   3.7009943404658427e-06
-1.7817538563363974e-06   -3.6933831202530857e-07   3.7009943404658427e-06
-1.366694117435401e-06   3.247732152838795e-08   3.069737279671858e-06
-1.366694117435401e-06   3.247732152838795e-08   3.069737279671858e-06
-1.366694117435401e-06   3.247732152838795e-08   3.069737279671858e-06
-1.366694117435401e-06   3.247732152838795e-08   3.069737279671858e-06
-1.0596825444735545e-06   -6.057075654230059e-07   3.1985123024374416e-06
-1.0596825444735545e-06   -6.057075654230059e-07   3.1985123024374416e-06
-1.0596825444735545e-06   -6.057075654230059e-07   3.1985123024374416e-06
-1.0596825444735545e-06   -6.057075654230059e-07   3.1985123024374416e-06
-1.0623963441184047e-06   -1.6188254213414088e-08   2.7063533982805667e-06
-1.0623963441184047e-06   -1.6188254213414088e-08   2.7063533982805667e-06
-1.0623963441184047e-06   -1.6188254213414088e-08   2.7063533982805667e-06
-1.0623963441184047e-06   -1.6188254213414088e-08   2.7063533982805667e-06
-1.380140540636895e-06   -5.949448932701283e-07   3.5831810425787585e-06
-1.380140540636895e-06   -5.949448932701283e-07   3.5831810425787585e-06
-1.380140540636895e-06   -5.949448932701283e-07   3.5831810425787585e-06
-1.380140540636895e-06   -5.949448932701283e-07   3.5831810425787585e-06
-1.2115927985305906e-06   -3.028765681860904e-07   3.1270271440178674e-06
-1.2115927985305906e-06   -3.028765681860904e-07   3.1270271440178674e-06
-1.2115927985305906e-06   -3.028765681860904e-07   3.1270271440178674e-06
-1.2115927985305906e-06   -3.028765681860904e-07   3.1270271440178674e-06
-1.380140540636895e-06   -1.6188254213414088e-08   3.0536073817145844e-06
-1.380140540636895e-06   -1.6188254213414088e-08   3.0536073817145844e-06
-1.380140540636895e-06   -1.6188254213414088e-08   3.0536073817145844e-06
-1.380140540636895e-06   -1.6188254213414088e-08   3.0536073817145844e-06
-1.0623963441184047e-06   -5.949448932701283e-07   3.235927059144745e-06
-1.0623963441184047e-06   -5.949448932701283e-07   3.235927059144745e-06
-1.0623963441184047e-06   -5.949448932701283e-07   3.235927059144745e-06
-1.0623963441184047e-06   -5.949448932701283e-07   3.235927059144745e-06
-1.0688295287192176e-06   -7.42239880748729e-08   2.765870268362926e-06
-1.0688295287192176e-06   -7.42239880748729e-08   2.765870268362926e-06
-1.0688295287192176e-06   -7.42239880748729e-08   2.765870268362926e-06
-1.0688295287192176e-06   -7.42239880748729e-08   2.765870268362926e-06
-1.4007746259544045e-06   -6.102165453431897e-07   3.640707631449211e-06
-1.4007746259544045e-06   -6.102165453431897e-07   3.640707631449211e-06
-1.4007746259544045e-06   -6.102165453431897e-07   3.640707631449211e-06
-1.4007746259544045e-06   -6.102165453431897e-07   3.640707631449211e-06
-1.213157687514088e-06   -3.164519021705387e-07   3.151753948145009e-06
-1.213157687514088e-06   -3.164519021705387e-07   3.151753948145009e-06
-1.213157687514088e-06   -3.164519021705387e-07   3.151753948145009e-06
-1.213157687514088e-06   -3.164519021705387e-07   3.151753948145009e-06
-1.4007746259544045e-06   -7.42239880748729e-08   3.0874658027239065e-06
-1.4007746259544045e-06   -7.42239880748729e-08   3.0874658027239065e-06
-1.4007746259544045e-06   -7.42239880748729e-08   3.0874658027239065e-06
-1.4007746259544045e-06   -7.42239880748729e-08   3.0874658027239065e-06
-1.0688295287192176e-06   -6.102165453431964e-07   3.3191120970882298e-06
-1.0688295287192176e-06   -6.102165453431964e-07   3.3191120970882298e-06
-1.0688295287192176e-06   -6.102165453431964e-07   3.3191120970882298e-06
-1.0688295287192176e-06   -6.102165453431964e-07   3.3191120970882298e-06
-1.0649747994528362e-06   -1.305094950302451e-07   2.8599155248430243e-06
-1.0649747994528362e-06   -1.305094950302451e-07   2.8599155248430243e-06
-1.0649747994528362e-06   -1.305094950302451e-07   2.8599155248430243e-06
-1.0649747994528362e-06   -1.305094950302451e-07   2.8599155248430243e-06
-1.4053522612613229e-06   -6.271191520242788e-07   3.7251770887202366e-06
-1.4053522612613229e-06   -6.271191520242788e-07   3.7251770887202366e-06
-1.4053522612613229e-06   -6.271191520242788e-07   3.7251770887202366e-06
-1.4053522612613229e-06   -6.271191520242788e-07   3.7251770887202366e-06
-1.215908529741422e-06   -3.3912025912607383e-07   3.236638200448151e-06
-1.215908529741422e-06   -3.3912025912607383e-07   3.236638200448151e-06
-1.215908529741422e-06   -3.3912025912607383e-07   3.236638200448151e-06
-1.215908529741422e-06   -3.3912025912607383e-07   3.236638200448151e-06
-1.0596825444735477e-06   1.5839913728993152e-07   2.1499490577105826e-06
-1.0596825444735477e-06   1.5839913728993152e-07   2.1499490577105826e-06
-1.0596825444735477e-06   1.5839913728993152e-07   2.1499490577105826e-06
-1.0596825444735477e-06   1.5839913728993152e-07   2.1499490577105826e-06
-9.472559243106366e-07   -2.5401284952512225e-07   2.0898795658930874e-06
-9.472559243106366e-07   -2.5401284952512225e-07   2.0898795658930874e-06
-9.472559243106366e-07   -2.5401284952512225e-07   2.0898795658930874e-06
-9.472559243106366e-07   -2.5401284952512225e-07   2.0898795658930874e-06
-9.409332626151318e-07   9.319937414837632e-08   1.9431458849857643e-06
-9.409332626151318e-07   9.319937414837632e-08   1.9431458849857643e-06
-9.409332626151318e-07   9.319937414837632e-08   1.9431458849857643e-06
-9.409332626151318e-07   9.319937414837632e-08   1.9431458849857643e-06
-1.0623963441184047e-06   -2.9222552929232727e-07   2.37683929622233e-06
-1.0623963441184047e-06   -2.9222552929232727e-07   2.37683929622233e-06
-1.0623963441184047e-06   -2.9222552929232727e-07   2.37683929622233e-06
-1.0623963441184047e-06   -2.9222552929232727e-07   2.37683929622233e-06
-9.958780557300126e-07   -5.884185436907149e-08   2.1259452772877575e-06
-9.958780557300126e-07   -5.884185436907149e-08   2.1259452772877575e-06
-9.958780557300126e-07   -5.884185436907149e-08   2.1259452772877575e-06
-9.958780557300126e-07   -5.884185436907149e-08   2.1259452772877575e-06
-1.0623963441184047e-06   9.319937414837632e-08   2.174400827050177e-06
-1.0623963441184047e-06   9.319937414837632e-08   2.174400827050177e-06
-1.0623963441184047e-06   9.319937414837632e-08   2.174400827050177e-06
-1.0623963441184047e-06   9.319937414837632e-08   2.174400827050177e-06
-9.409332626151318e-07   -2.9222552929232727e-07   2.1455843541579107e-06
-9.409332626151318e-07   -2.9222552929232727e-07   2.1455843541579107e-06
-9.409332626151318e-07   -2.9222552929232727e-07   2.1455843541579107e-06
-9.409332626151318e-07   -2.9222552929232727e-07   2.1455843541579107e-06
-9.462223443877887e-07   3.6763126291146906e-08   2.031131715542073e-06
-9.462223443877887e-07   3.6763126291146906e-08   2.031131715542073e-06
-9.462223443877887e-07   3.6763126291146906e-08   2.031131715542073e-06
-9.462223443877887e-07   3.6763126291146906e-08   2.031131715542073e-06
-1.0688295287192108e-06   -3.2251609862186834e-07   2.451044557708889e-06
-1.0688295287192108e-06   -3.2251609862186834e-07   2.451044557708889e-06
-1.0688295287192108e-06   -3.2251609862186834e-07   2.451044557708889e-06
-1.0688295287192108e-06   -3.2251609862186834e-07   2.451044557708889e-06
-9.891475310819252e-07   -9.652582373478077e-08   2.1826470633810803e-06
-9.891475310819252e-07   -9.652582373478077e-08   2.1826470633810803e-06
-9.891475310819252e-07   -9.652582373478077e-08   2.1826470633810803e-06
-9.891475310819252e-07   -9.652582373478077e-08   2.1826470633810803e-06
-1.0688295287192176e-06   3.6763126291146906e-08   2.2466992504898523e-06
-1.0688295287192176e-06   3.6763126291146906e-08   2.2466992504898523e-06
-1.0688295287192176e-06   3.6763126291146906e-08   2.2466992504898523e-06
-1.0688295287192176e-06   3.6763126291146906e-08   2.2466992504898523e-06
-9.462223443877887e-07   -3.2251609862186156e-07   2.2354770227610997e-06
-9.462223443877887e-07   -3.2251609862186156e-07   2.2354770227610997e-06
-9.462223443877887e-07   -3.2251609862186156e-07   2.2354770227610997e-06
-9.462223443877887e-07   -3.2251609862186156e-07   2.2354770227610997e-06
-9.460574559223381e-07   -2.0525934501722503e-08   2.1415830448988517e-06
-9.460574559223381e-07   -2.0525934501722503e-08   2.1415830448988517e-06
-9.460574559223381e-07   -2.0525934501722503e-08   2.1415830448988517e-06
-9.460574559223381e-07   -2.0525934501722503e-08   2.1415830448988517e-06
-1.0649747994528362e-06   -3.60957678041893e-07   2.544037663573752e-06
-1.0649747994528362e-06   -3.60957678041893e-07   2.544037663573752e-06
-1.0649747994528362e-06   -3.60957678041893e-07   2.544037663573752e-06
-1.0649747994528362e-06   -3.60957678041893e-07   2.544037663573752e-06
-9.889480341426695e-07   -1.308545148147295e-07   2.27926449012057e-06
-9.889480341426695e-07   -1.308545148147295e-07   2.27926449012057e-06
-9.889480341426695e-07   -1.308545148147295e-07   2.27926449012057e-06
-9.889480341426695e-07   -1.308545148147295e-07   2.27926449012057e-06
-9.472559243106366e-07   2.747932511631924e-07   5.888930524319133e-07
-9.472559243106366e-07   2.747932511631924e-07   5.888930524319133e-07
-9.472559243106366e-07   2.747932511631924e-07   5.888930524319133e-07
-9.472559243106366e-07   2.747932511631924e-07   5.888930524319133e-07
-6.464971455906248e-07   -1.9559864899498043e-08   9.135458139943056e-07
-6.464971455906248e-07   -1.9559864899498043e-08   9.135458139943056e-07
-6.464971455906248e-07   -1.9559864899498043e-08   9.135458139943056e-07
-6.464971455906248e-07   -1.9559864899498043e-08   9.135458139943056e-07
-6.942281648148992e-07   2.2691369805265054e-07   5.985655747200156e-07
-6.942281648148992e-07   2.2691369805265054e-07   5.985655747200156e-07
-6.942281648148992e-07   2.2691369805265054e-07   5.985655747200156e-07
-6.942281648148992e-07   2.2691369805265054e-07   5.985655747200156e-07
-9.409332626151318e-07   -3.09829205929384e-08   1.1644787089077778e-06
-9.409332626151318e-07   -3.09829205929384e-08   1.1644787089077778e-06
-9.409332626151318e-07   -3.09829205929384e-08   1.1644787089077778e-06
-9.409332626151318e-07   -3.09829205929384e-08   1.1644787089077778e-06
-7.791822545150692e-07   1.434700486044251e-07   7.902219138892938e-07
-7.791822545150692e-07   1.434700486044251e-07   7.902219138892938e-07
-7.791822545150692e-07   1.434700486044251e-07   7.902219138892938e-07
-7.791822545150692e-07   1.434700486044251e-07   7.902219138892938e-07
-9.409332626151318e-07   2.2691369805265054e-07   7.533035459073337e-07
-9.409332626151318e-07   2.2691369805265054e-07   7.533035459073337e-07
-9.409332626151318e-07   2.2691369805265054e-07   7.533035459073337e-07
-9.409332626151318e-07   2.2691369805265054e-07   7.533035459073337e-07
-6.942281648148992e-07   -3.09829205929384e-08   1.0097407377204326e-06
-6.942281648148992e-07   -3.09829205929384e-08   1.0097407377204326e-06
-6.942281648148992e-07   -3.09829205929384e-08   1.0097407377204326e-06
-6.942281648148992e-07   -3.09829205929384e-08   1.0097407377204326e-06
-7.352168267526913e-07   1.9604375801817397e-07   7.478325440983568e-07
-7.352168267526913e-07   1.9604375801817397e-07   7.478325440983568e-07
-7.352168267526913e-07   1.9604375801817397e-07   7.478325440983568e-07
-7.352168267526913e-07   1.9604375801817397e-07   7.478325440983568e-07
-9.462223443877887e-07   -4.521383050229942e-08   1.2442629599357852e-06
-9.462223443877887e-07   -4.521383050229942e-08   1.2442629599357852e-06
-9.462223443877887e-07   -4.521383050229942e-08   1.2442629599357852e-06
-9.462223443877887e-07   -4.521383050229942e-08   1.2442629599357852e-06
-8.075239152886222e-07   1.2205531154098836e-07   9.127374262111397e-07
-8.075239152886222e-07   1.2205531154098836e-07   9.127374262111397e-07
-8.075239152886222e-07   1.2205531154098836e-07   9.127374262111397e-07
-8.075239152886222e-07   1.2205531154098836e-07   9.127374262111397e-07
-9.462223443877887e-07   1.9604375801817397e-07   8.925870972106408e-07
-9.462223443877887e-07   1.9604375801817397e-07   8.925870972106408e-07
-9.462223443877887e-07   1.9604375801817397e-07   8.925870972106408e-07
-9.462223443877887e-07   1.9604375801817397e-07   8.925870972106408e-07
-7.352168267526913e-07   -4.521383050229942e-08   1.099508406823474e-06
-7.352168267526913e-07   -4.521383050229942e-08   1.099508406823474e-06
-7.352168267526913e-07   -4.521383050229942e-08   1.099508406823474e-06
-7.352168267526913e-07   -4.521383050229942e-08   1.099508406823474e-06
-8.120417596722905e-07   1.2888554054023868e-07   1.016072802260509e-06
-8.120417596722905e-07   1.2888554054023868e-07   1.016072802260509e-06
-8.120417596722905e-07   1.2888554054023868e-07   1.016072802260509e-06
-8.120417596722905e-07   1.2888554054023868e-07   1.016072802260509e-06
-9.460574559223381e-07   -6.666572288370915e-08   1.3567630540649533e-06
-9.460574559223381e-07   -6.666572288370915e-08   1.3567630540649533e-06
-9.460574559223381e-07   -6.666572288370915e-08   1.3567630540649533e-06
-9.460574559223381e-07   -6.666572288370915e-08   1.3567630540649533e-06
-8.215270537277126e-07   1.0535551931430511e-07   1.0459996384217635e-06
-8.215270537277126e-07   1.0535551931430511e-07   1.0459996384217635e-06
-8.215270537277126e-07   1.0535551931430511e-07   1.0459996384217635e-06
-8.215270537277126e-07   1.0535551931430511e-07   1.0459996384217635e-06
-7.6702631223176e-06   5.509457759124881e-07   3.90483137835855e-06
-7.6702631223176e-06   5.509457759124881e-07   3.90483137835855e-06
-7.6702631223176e-06   5.509457759124881e-07   3.90483137835855e-06
-7.6702631223176e-06   5.509457759124881e-07   3.90483137835855e-06
-1.7320174687932234e-06   -4.505637545754755e-06   1.076795747456551e-05
-1.7320174687932234e-06   -4.505637545754755e-06   1.076795747456551e-05
-1.7320174687932234e-06   -4.505637545754755e-06   1.076795747456551e-05
-1.7320174687932234e-06   -4.505637545754755e-06   1.076795747456551e-05
-2.0816444108327457e-06   1.7619999223297903e-07   2.081349586041785e-06
-2.0816444108327457e-06   1.7619999223297903e-07   2.081349586041785e-06
-2.0816444108327457e-06   1.7619999223297903e-07   2.081349586041785e-06
-2.0816444108327457e-06   1.7619999223297903e-07   2.081349586041785e-06
-6.996000795832908e-06   -3.616423201390646e-06   1.2547517477216209e-05
-6.996000795832908e-06   -3.616423201390646e-06   1.2547517477216209e-05
-6.996000795832908e-06   -3.616423201390646e-06   1.2547517477216209e-05
-6.996000795832908e-06   -3.616423201390646e-06   1.2547517477216209e-05
-4.645784546021139e-06   -1.7953542221746658e-06   7.537849006667004e-06
-4.645784546021139e-06   -1.7953542221746658e-06   7.537849006667004e-06
-4.645784546021139e-06   -1.7953542221746658e-06   7.537849006667004e-06
-4.645784546021139e-06   -1.7953542221746658e-06   7.537849006667004e-06
-6.996000795832896e-06   1.7619999223297903e-07   4.35692350221595e-06
-6.996000795832896e-06   1.7619999223297903e-07   4.35692350221595e-06
-6.996000795832896e-06   1.7619999223297903e-07   4.35692350221595e-06
-6.996000795832896e-06   1.7619999223297903e-07   4.35692350221595e-06
-2.0816444108327508e-06   -3.616423201390646e-06   1.0271943561042036e-05
-2.0816444108327508e-06   -3.616423201390646e-06   1.0271943561042036e-05
-2.0816444108327508e-06   -3.616423201390646e-06   1.0271943561042036e-05
-2.0816444108327508e-06   -3.616423201390646e-06   1.0271943561042036e-05
-2.1530561791228902e-06   1.0975603067027342e-07   2.291539611228353e-06
-2.1530561791228902e-06   1.0975603067027342e-07   2.291539611228353e-06
-2.1530561791228902e-06   1.0975603067027342e-07   2.291539611228353e-06
-2.1530561791228902e-06   1.0975603067027342e-07   2.291539611228353e-06
-6.606286520005611e-06   -3.203213786183776e-06   1.170137206947863e-05
-6.606286520005611e-06   -3.203213786183776e-06   1.170137206947863e-05
-6.606286520005611e-06   -3.203213786183776e-06   1.170137206947863e-05
-6.606286520005611e-06   -3.203213786183776e-06   1.170137206947863e-05
-4.525975467252127e-06   -1.7130447316651683e-06   7.340085548845002e-06
-4.525975467252127e-06   -1.7130447316651683e-06   7.340085548845002e-06
-4.525975467252127e-06   -1.7130447316651683e-06   7.340085548845002e-06
-4.525975467252127e-06   -1.7130447316651683e-06   7.340085548845002e-06
-6.606286520005599e-06   1.0975603067027342e-07   4.279321501340779e-06
-6.606286520005599e-06   1.0975603067027342e-07   4.279321501340779e-06
-6.606286520005599e-06   1.0975603067027342e-07   4.279321501340779e-06
-6.606286520005599e-06   1.0975603067027342e-07   4.279321501340779e-06
-2.1530561791228936e-06   -3.203213786183776e-06   9.713590179366205e-06
-2.1530561791228936e-06   -3.203213786183776e-06   9.713590179366205e-06
-2.1530561791228936e-06   -3.203213786183776e-06   9.713590179366205e-06
-2.1530561791228936e-06   -3.203213786183776e-06   9.713590179366205e-06
-2.40810519306527e-06   -1.8266313616865703e-07   2.8467898550675675e-06
-2.40810519306527e-06   -1.8266313616865703e-07   2.8467898550675675e-06
-2.40810519306527e-06   -1.8266313616865703e-07   2.8467898550675675e-06
-2.40810519306527e-06   -1.8266313616865703e-07   2.8467898550675675e-06
-6.098588996663095e-06   -2.6446857183592893e-06   1.047480974371164e-05
-6.098588996663095e-06   -2.6446857183592893e-06   1.047480974371164e-05
-6.098588996663095e-06   -2.6446857183592893e-06   1.047480974371164e-05
-6.098588996663095e-06   -2.6446857183592893e-06   1.047480974371164e-05
-4.378868527440407e-06   -1.5866947276852764e-06   6.973814367269425e-06
-4.378868527440407e-06   -1.5866947276852764e-06   6.973814367269425e-06
-4.378868527440407e-06   -1.5866947276852764e-06   6.973814367269425e-06
-4.378868527440407e-06   -1.5866947276852764e-06   6.973814367269425e-06
-1.7320174687932217e-06   -7.732582474600114e-07   2.3375025158465594e-06
-1.7320174687932217e-06   -7.732582474600114e-07   2.3375025158465594e-06
-1.7320174687932217e-06   -7.732582474600114e-07   2.3375025158465594e-06
-1.7320174687932217e-06   -7.732582474600114e-07   2.3375025158465594e-06
-5.825103523578191e-07   -1.6060034474675104e-06   3.7537005899010775e-06
-5.825103523578191e-07   -1.6060034474675104e-06   3.7537005899010775e-06
-5.825103523578191e-07   -1.6060034474675104e-06   3.7537005899010775e-06
-5.825103523578191e-07   -1.6060034474675104e-06   3.7537005899010775e-06
-6.79353742321576e-07   -6.481138729807719e-07   1.955812413033037e-06
-6.79353742321576e-07   -6.481138729807719e-07   1.955812413033037e-06
-6.79353742321576e-07   -6.481138729807719e-07   1.955812413033037e-06
-6.79353742321576e-07   -6.481138729807719e-07   1.955812413033037e-06
-2.0816444108327508e-06   -2.0418336245508684e-06   5.129195378160368e-06
-2.0816444108327508e-06   -2.0418336245508684e-06   5.129195378160368e-06
-2.0816444108327508e-06   -2.0418336245508684e-06   5.129195378160368e-06
-2.0816444108327508e-06   -2.0418336245508684e-06   5.129195378160368e-06
-1.2022943207698844e-06   -1.0381813814192218e-06   3.061420548843254e-06
-1.2022943207698844e-06   -1.0381813814192218e-06   3.061420548843254e-06
-1.2022943207698844e-06   -1.0381813814192218e-06   3.061420548843254e-06
-1.2022943207698844e-06   -1.0381813814192218e-06   3.061420548843254e-06
-2.081644410832744e-06   -6.481138729807719e-07   2.792044263975067e-06
-2.081644410832744e-06   -6.481138729807719e-07   2.792044263975067e-06
-2.081644410832744e-06   -6.481138729807719e-07   2.792044263975067e-06
-2.081644410832744e-06   -6.481138729807719e-07   2.792044263975067e-06
-6.793537423215794e-07   -2.0418336245508684e-06   4.292963527218309e-06
-6.793537423215794e-07   -2.0418336245508684e-06   4.292963527218309e-06
-6.793537423215794e-07   -2.0418336245508684e-06   4.292963527218309e-06
-6.793537423215794e-07   -2.0418336245508684e-06   4.292963527218309e-06
-7.645229189743822e-07   -6.5779789065464e-07   2.2026654706240443e-06
-7.645229189743822e-07   -6.5779789065464e-07   2.2026654706240443e-06
-7.645229189743822e-07   -6.5779789065464e-07   2.2026654706240443e-06
-7.645229189743822e-07   -6.5779789065464e-07   2.2026654706240443e-06
-2.1530561791228936e-06   -1.915883022377701e-06   5.271738649905392e-06
-2.1530561791228936e-06   -1.915883022377701e-06   5.271738649905392e-06
-2.1530561791228936e-06   -1.915883022377701e-06   5.271738649905392e-06
-2.1530561791228936e-06   -1.915883022377701e-06   5.271738649905392e-06
-1.387945966528922e-06   -1.2417095939842157e-06   3.592050905212705e-06
-1.387945966528922e-06   -1.2417095939842157e-06   3.592050905212705e-06
-1.387945966528922e-06   -1.2417095939842157e-06   3.592050905212705e-06
-1.387945966528922e-06   -1.2417095939842157e-06   3.592050905212705e-06
-2.1530561791228902e-06   -6.5779789065464e-07   2.9575165496578776e-06
-2.1530561791228902e-06   -6.5779789065464e-07   2.9575165496578776e-06
-2.1530561791228902e-06   -6.5779789065464e-07   2.9575165496578776e-06
-2.1530561791228902e-06   -6.5779789065464e-07   2.9575165496578776e-06
-7.645229189743788e-07   -1.915883022377701e-06   4.516887570871553e-06
-7.645229189743788e-07   -1.915883022377701e-06   4.516887570871553e-06
-7.645229189743788e-07   -1.915883022377701e-06   4.516887570871553e-06
-7.645229189743788e-07   -1.915883022377701e-06   4.516887570871553e-06
-9.078544617467664e-07   -6.497492880796075e-07   2.4346549172812857e-06
-9.078544617467664e-07   -6.497492880796075e-07   2.4346549172812857e-06
-9.078544617467664e-07   -6.497492880796075e-07   2.4346549172812857e-06
-9.078544617467664e-07   -6.497492880796075e-07   2.4346549172812857e-06
-2.408105193065272e-06   -1.8312966963635804e-06   5.644001247782502e-06
-2.408105193065272e-06   -1.8312966963635804e-06   5.644001247782502e-06
-2.408105193065272e-06   -1.8312966963635804e-06   5.644001247782502e-06
-2.408105193065272e-06   -1.8312966963635804e-06   5.644001247782502e-06
-1.5128830207134272e-06   -1.1383035600181714e-06   3.7361684120555206e-06
-1.5128830207134272e-06   -1.1383035600181714e-06   3.7361684120555206e-06
-1.5128830207134272e-06   -1.1383035600181714e-06   3.7361684120555206e-06
-1.5128830207134272e-06   -1.1383035600181714e-06   3.7361684120555206e-06
-5.825103523578191e-07   -6.057075654230059e-07   1.3549538554170229e-06
-5.825103523578191e-07   -6.057075654230059e-07   1.3549538554170229e-06
-5.825103523578191e-07   -6.057075654230059e-07   1.3549538554170229e-06
-5.825103523578191e-07   -6.057075654230059e-07   1.3549538554170229e-06
-3.37880254386709e-07   -5.670278578503088e-07   1.7858785099124916e-06
-3.37880254386709e-07   -5.670278578503088e-07   1.7858785099124916e-06
-3.37880254386709e-07   -5.670278578503088e-07   1.7858785099124916e-06
-3.37880254386709e-07   -5.670278578503088e-07   1.7858785099124916e-06
-3.3963990923188366e-07   -5.949448932701283e-07   1.4242913254490264e-06
-3.3963990923188366e-07   -5.949448932701283e-07   1.4242913254490264e-06
-3.3963990923188366e-07   -5.949448932701283e-07   1.4242913254490264e-06
-3.3963990923188366e-07   -5.949448932701283e-07   1.4242913254490264e-06
-6.793537423215794e-07   -7.033522454079482e-07   2.0555254585478616e-06
-6.793537423215794e-07   -7.033522454079482e-07   2.0555254585478616e-06
-6.793537423215794e-07   -7.033522454079482e-07   2.0555254585478616e-06
-6.793537423215794e-07   -7.033522454079482e-07   2.0555254585478616e-06
-4.5275638677021903e-07   -5.656526266105585e-07   1.5952434280171448e-06
-4.5275638677021903e-07   -5.656526266105585e-07   1.5952434280171448e-06
-4.5275638677021903e-07   -5.656526266105585e-07   1.5952434280171448e-06
-4.5275638677021903e-07   -5.656526266105585e-07   1.5952434280171448e-06
-6.79353742321576e-07   -5.949448932701283e-07   1.4893357367317224e-06
-6.79353742321576e-07   -5.949448932701283e-07   1.4893357367317224e-06
-6.79353742321576e-07   -5.949448932701283e-07   1.4893357367317224e-06
-6.79353742321576e-07   -5.949448932701283e-07   1.4893357367317224e-06
-3.3963990923188366e-07   -7.033522454079482e-07   1.990481047265179e-06
-3.3963990923188366e-07   -7.033522454079482e-07   1.990481047265179e-06
-3.3963990923188366e-07   -7.033522454079482e-07   1.990481047265179e-06
-3.3963990923188366e-07   -7.033522454079482e-07   1.990481047265179e-06
-3.5548349252487844e-07   -6.102165453431964e-07   1.532809065568527e-06
-3.5548349252487844e-07   -6.102165453431964e-07   1.532809065568527e-06
-3.5548349252487844e-07   -6.102165453431964e-07   1.532809065568527e-06
-3.5548349252487844e-07   -6.102165453431964e-07   1.532809065568527e-06
-7.645229189743788e-07   -8.563499774207214e-07   2.362221502230866e-06
-7.645229189743788e-07   -8.563499774207214e-07   2.362221502230866e-06
-7.645229189743788e-07   -8.563499774207214e-07   2.362221502230866e-06
-7.645229189743788e-07   -8.563499774207214e-07   2.362221502230866e-06
-4.98990819900909e-07   -6.175412717268897e-07   1.776382780358772e-06
-4.98990819900909e-07   -6.175412717268897e-07   1.776382780358772e-06
-4.98990819900909e-07   -6.175412717268897e-07   1.776382780358772e-06
-4.98990819900909e-07   -6.175412717268897e-07   1.776382780358772e-06
-7.645229189743788e-07   -6.102165453431897e-07   1.6804891248150432e-06
-7.645229189743788e-07   -6.102165453431897e-07   1.6804891248150432e-06
-7.645229189743788e-07   -6.102165453431897e-07   1.6804891248150432e-06
-7.645229189743788e-07   -6.102165453431897e-07   1.6804891248150432e-06
-3.5548349252487844e-07   -8.563499774207214e-07   2.214541442984343e-06
-3.5548349252487844e-07   -8.563499774207214e-07   2.214541442984343e-06
-3.5548349252487844e-07   -8.563499774207214e-07   2.214541442984343e-06
-3.5548349252487844e-07   -8.563499774207214e-07   2.214541442984343e-06
-3.8845667474830017e-07   -6.271191520242721e-07   1.701112371018919e-06
-3.8845667474830017e-07   -6.271191520242721e-07   1.701112371018919e-06
-3.8845667474830017e-07   -6.271191520242721e-07   1.701112371018919e-06
-3.8845667474830017e-07   -6.271191520242721e-07   1.701112371018919e-06
-9.078544617467664e-07   -9.99452072376812e-07   2.790175101561206e-06
-9.078544617467664e-07   -9.99452072376812e-07   2.790175101561206e-06
-9.078544617467664e-07   -9.99452072376812e-07   2.790175101561206e-06
-9.078544617467664e-07   -9.99452072376812e-07   2.790175101561206e-06
-5.553074316124912e-07   -6.603217136495258e-07   1.9991185027677105e-06
-5.553074316124912e-07   -6.603217136495258e-07   1.9991185027677105e-06
-5.553074316124912e-07   -6.603217136495258e-07   1.9991185027677105e-06
-5.553074316124912e-07   -6.603217136495258e-07   1.9991185027677105e-06
-3.37880254386709e-07   -2.5401284952512225e-07   5.169761355053219e-07
-3.37880254386709e-07   -2.5401284952512225e-07   5.169761355053219e-07
-3.37880254386709e-07   -2.5401284952512225e-07   5.169761355053219e-07
-3.37880254386709e-07   -2.5401284952512225e-07   5.169761355053219e-07
-2.7993152970815595e-07   -3.755543252822539e-08   7.434317935010632e-07
-2.7993152970815595e-07   -3.755543252822539e-08   7.434317935010632e-07
-2.7993152970815595e-07   -3.755543252822539e-08   7.434317935010632e-07
-2.7993152970815595e-07   -3.755543252822539e-08   7.434317935010632e-07
-2.3921124807109434e-07   -2.9222552929232727e-07   6.82371467344858e-07
-2.3921124807109434e-07   -2.9222552929232727e-07   6.82371467344858e-07
-2.3921124807109434e-07   -2.9222552929232727e-07   6.82371467344858e-07
-2.3921124807109434e-07   -2.9222552929232727e-07   6.82371467344858e-07
-3.3963990923188366e-07   -9.694568792859894e-08   7.325846644612465e-07
-3.3963990923188366e-07   -9.694568792859894e-08   7.325846644612465e-07
-3.3963990923188366e-07   -9.694568792859894e-08   7.325846644612465e-07
-3.3963990923188366e-07   -9.694568792859894e-08   7.325846644612465e-07
-2.795976727443936e-07   -1.6014551977720272e-07   6.704341694245661e-07
-2.795976727443936e-07   -1.6014551977720272e-07   6.704341694245661e-07
-2.795976727443936e-07   -1.6014551977720272e-07   6.704341694245661e-07
-2.795976727443936e-07   -1.6014551977720272e-07   6.704341694245661e-07
-3.3963990923188366e-07   -2.9222552929232727e-07   5.652035625266293e-07
-3.3963990923188366e-07   -2.9222552929232727e-07   5.652035625266293e-07
-3.3963990923188366e-07   -2.9222552929232727e-07   5.652035625266293e-07
-3.3963990923188366e-07   -2.9222552929232727e-07   5.652035625266293e-07
-2.3921124807109434e-07   -9.694568792859894e-08   8.497525692794888e-07
-2.3921124807109434e-07   -9.694568792859894e-08   8.497525692794888e-07
-2.3921124807109434e-07   -9.694568792859894e-08   8.497525692794888e-07
-2.3921124807109434e-07   -9.694568792859894e-08   8.497525692794888e-07
-2.2232141368354292e-07   -3.2251609862186156e-07   7.509722834752664e-07
-2.2232141368354292e-07   -3.2251609862186156e-07   7.509722834752664e-07
-2.2232141368354292e-07   -3.2251609862186156e-07   7.509722834752664e-07
-2.2232141368354292e-07   -3.2251609862186156e-07   7.509722834752664e-07
-3.5548349252487844e-07   -1.7879816981174928e-07   8.86678324258069e-07
-3.5548349252487844e-07   -1.7879816981174928e-07   8.86678324258069e-07
-3.5548349252487844e-07   -1.7879816981174928e-07   8.86678324258069e-07
-3.5548349252487844e-07   -1.7879816981174928e-07   8.86678324258069e-07
-2.652467968724638e-07   -1.9626872590335564e-07   7.467661651590221e-07
-2.652467968724638e-07   -1.9626872590335564e-07   7.467661651590221e-07
-2.652467968724638e-07   -1.9626872590335564e-07   7.467661651590221e-07
-2.652467968724638e-07   -1.9626872590335564e-07   7.467661651590221e-07
-3.5548349252487844e-07   -3.2251609862186156e-07   6.647415261891753e-07
-3.5548349252487844e-07   -3.2251609862186156e-07   6.647415261891753e-07
-3.5548349252487844e-07   -3.2251609862186156e-07   6.647415261891753e-07
-3.5548349252487844e-07   -3.2251609862186156e-07   6.647415261891753e-07
-2.2232141368354292e-07   -1.7879816981174928e-07   9.729090815441431e-07
-2.2232141368354292e-07   -1.7879816981174928e-07   9.729090815441431e-07
-2.2232141368354292e-07   -1.7879816981174928e-07   9.729090815441431e-07
-2.2232141368354292e-07   -1.7879816981174928e-07   9.729090815441431e-07
-1.9720127591214782e-07   -3.60957678041893e-07   8.356034911026055e-07
-1.9720127591214782e-07   -3.60957678041893e-07   8.356034911026055e-07
-1.9720127591214782e-07   -3.60957678041893e-07   8.356034911026055e-07
-1.9720127591214782e-07   -3.60957678041893e-07   8.356034911026055e-07
-3.8845667474830017e-07   -3.3151642631895555e-07   1.136697738129085e-06
-3.8845667474830017e-07   -3.3151642631895555e-07   1.136697738129085e-06
-3.8845667474830017e-07   -3.3151642631895555e-07   1.136697738129085e-06
-3.8845667474830017e-07   -3.3151642631895555e-07   1.136697738129085e-06
-2.5969184644087016e-07   -2.456034113974359e-07   8.705418819971697e-07
-2.5969184644087016e-07   -2.456034113974359e-07   8.705418819971697e-07
-2.5969184644087016e-07   -2.456034113974359e-07   8.705418819971697e-07
-2.5969184644087016e-07   -2.456034113974359e-07   8.705418819971697e-07
-2.7993152970815595e-07   -1.9559864899498043e-08   -3.528712965576921e-07
-2.7993152970815595e-07   -1.9559864899498043e-08   -3.528712965576921e-07
-2.7993152970815595e-07   -1.9559864899498043e-08   -3.528712965576921e-07
-2.7993152970815595e-07   -1.9559864899498043e-08   -3.528712965576921e-07
-8.274669131392665e-08   2.7747016145711738e-08   4.154229393127243e-09
-8.274669131392665e-08   2.7747016145711738e-08   4.154229393127243e-09
-8.274669131392665e-08   2.7747016145711738e-08   4.154229393127243e-09
-8.274669131392665e-08   2.7747016145711738e-08   4.154229393127243e-09
-4.389022455527226e-08   -3.09829205929384e-08   -2.542671344324144e-07
-4.389022455527226e-08   -3.09829205929384e-08   -2.542671344324144e-07
-4.389022455527226e-08   -3.09829205929384e-08   -2.542671344324144e-07
-4.389022455527226e-08   -3.09829205929384e-08   -2.542671344324144e-07
-2.3921124807109434e-07   4.312881852849582e-08   2.6800861287743817e-08
-2.3921124807109434e-07   4.312881852849582e-08   2.6800861287743817e-08
-2.3921124807109434e-07   4.312881852849582e-08   2.6800861287743817e-08
-2.3921124807109434e-07   4.312881852849582e-08   2.6800861287743817e-08
-1.4737792754389482e-07   1.6529437947572078e-08   -1.1029504457572305e-07
-1.4737792754389482e-07   1.6529437947572078e-08   -1.1029504457572305e-07
-1.4737792754389482e-07   1.6529437947572078e-08   -1.1029504457572305e-07
-1.4737792754389482e-07   1.6529437947572078e-08   -1.1029504457572305e-07
-2.3921124807109434e-07   -3.09829205929384e-08   -2.9873417790529186e-07
-2.3921124807109434e-07   -3.09829205929384e-08   -2.9873417790529186e-07
-2.3921124807109434e-07   -3.09829205929384e-08   -2.9873417790529186e-07
-2.3921124807109434e-07   -3.09829205929384e-08   -2.9873417790529186e-07
-4.389022455525871e-08   4.312881852849582e-08   7.126790476061112e-08
-4.389022455525871e-08   4.312881852849582e-08   7.126790476061112e-08
-4.389022455525871e-08   4.312881852849582e-08   7.126790476061112e-08
-4.389022455525871e-08   4.312881852849582e-08   7.126790476061112e-08
-2.9247455537678257e-08   -4.521383050229942e-08   -1.9904253464151527e-07
-2.9247455537678257e-08   -4.521383050229942e-08   -1.9904253464151527e-07
-2.9247455537678257e-08   -4.521383050229942e-08   -1.9904253464151527e-07
-2.9247455537678257e-08   -4.521383050229942e-08   -1.9904253464151527e-07
-2.2232141368354292e-07   2.3451577345265735e-08   8.154815089303144e-08
-2.2232141368354292e-07   2.3451577345265735e-08   8.154815089303144e-08
-2.2232141368354292e-07   2.3451577345265735e-08   8.154815089303144e-08
-2.2232141368354292e-07   2.3451577345265735e-08   8.154815089303144e-08
-1.215280124916679e-07   9.696495748034891e-09   -7.818780213504411e-08
-1.215280124916679e-07   9.696495748034891e-09   -7.818780213504411e-08
-1.215280124916679e-07   9.696495748034891e-09   -7.818780213504411e-08
-1.215280124916679e-07   9.696495748034891e-09   -7.818780213504411e-08
-2.2232141368354292e-07   -4.521383050229942e-08   -2.4024177935006165e-07
-2.2232141368354292e-07   -4.521383050229942e-08   -2.4024177935006165e-07
-2.2232141368354292e-07   -4.521383050229942e-08   -2.4024177935006165e-07
-2.2232141368354292e-07   -4.521383050229942e-08   -2.4024177935006165e-07
-2.9247455537678257e-08   2.3451577345265735e-08   1.227473956015812e-07
-2.9247455537678257e-08   2.3451577345265735e-08   1.227473956015812e-07
-2.9247455537678257e-08   2.3451577345265735e-08   1.227473956015812e-07
-2.9247455537678257e-08   2.3451577345265735e-08   1.227473956015812e-07
-1.4791397508239542e-08   -6.666572288370915e-08   -1.1081492708417168e-07
-1.4791397508239542e-08   -6.666572288370915e-08   -1.1081492708417168e-07
-1.4791397508239542e-08   -6.666572288370915e-08   -1.1081492708417168e-07
-1.4791397508239542e-08   -6.666572288370915e-08   -1.1081492708417168e-07
-1.9720127591214782e-07   -5.670480887142781e-09   1.5660439172436125e-07
-1.9720127591214782e-07   -5.670480887142781e-09   1.5660439172436125e-07
-1.9720127591214782e-07   -5.670480887142781e-09   1.5660439172436125e-07
-1.9720127591214782e-07   -5.670480887142781e-09   1.5660439172436125e-07
-9.944631798609589e-08   -1.167643165336308e-09   -9.022240785472747e-09
-9.944631798609589e-08   -1.167643165336308e-09   -9.022240785472747e-09
-9.944631798609589e-08   -1.167643165336308e-09   -9.022240785472747e-09
-9.944631798609589e-08   -1.167643165336308e-09   -9.022240785472747e-09
              </DataArray>   
             <DataArray type="Float64" NumberOfComponents="3" Name="Stress" format="ascii">   
-0.4091415526352139   -0.10228538815880348   -0.10228538815880348
-0.4091415526352139   -0.10228538815880348   -0.10228538815880348
-0.4091415526352139   -0.10228538815880348   -0.10228538815880348
-0.4091415526352139   -0.10228538815880348   -0.10228538815880348
-0.23636122434020876   -0.0083427318971055   -0.005073982425246575
-0.23636122434020876   -0.0083427318971055   -0.005073982425246575
-0.23636122434020876   -0.0083427318971055   -0.005073982425246575
-0.23636122434020876   -0.0083427318971055   -0.005073982425246575
-0.2540218708356497   -0.06350546770891242   -0.06350546770891242
-0.2540218708356497   -0.06350546770891242   -0.06350546770891242
-0.2540218708356497   -0.06350546770891242   -0.06350546770891242
-0.2540218708356497   -0.06350546770891242   -0.06350546770891242
-0.394001546239663   -0.03302892073662516   -0.012842596875893541
-0.394001546239663   -0.03302892073662516   -0.012842596875893541
-0.394001546239663   -0.03302892073662516   -0.012842596875893541
-0.394001546239663   -0.03302892073662516   -0.012842596875893541
-0.3088086599225465   -0.05102624813810698   -0.000899348665185342
-0.3088086599225465   -0.05102624813810698   -0.000899348665185342
-0.3088086599225465   -0.05102624813810698   -0.000899348665185342
-0.3088086599225465   -0.05102624813810698   -0.000899348665185342
-0.4275858252412888   -0.1068964563103222   -0.1068964563103222
-0.4275858252412888   -0.1068964563103222   -0.1068964563103222
-0.4275858252412888   -0.1068964563103222   -0.1068964563103222
-0.4275858252412888   -0.1068964563103222   -0.1068964563103222
-0.22847132187311017   0.002328337825699016   -0.0015865284308262395
-0.22847132187311017   0.002328337825699016   -0.0015865284308262395
-0.22847132187311017   0.002328337825699016   -0.0015865284308262395
-0.22847132187311017   0.002328337825699016   -0.0015865284308262395
-0.25421344631343695   -0.06355336157835924   -0.06355336157835924
-0.25421344631343695   -0.06355336157835924   -0.06355336157835924
-0.25421344631343695   -0.06355336157835924   -0.06355336157835924
-0.25421344631343695   -0.06355336157835924   -0.06355336157835924
-0.40665378009740694   -0.0331808871737108   -0.018746442713410357
-0.40665378009740694   -0.0331808871737108   -0.018746442713410357
-0.40665378009740694   -0.0331808871737108   -0.018746442713410357
-0.40665378009740694   -0.0331808871737108   -0.018746442713410357
-0.3197634491670562   -0.04785259490027553   -0.016916289936875075
-0.3197634491670562   -0.04785259490027553   -0.016916289936875075
-0.3197634491670562   -0.04785259490027553   -0.016916289936875075
-0.3197634491670562   -0.04785259490027553   -0.016916289936875075
-0.4402981267999816   -0.1100745316999954   -0.1100745316999954
-0.4402981267999816   -0.1100745316999954   -0.1100745316999954
-0.4402981267999816   -0.1100745316999954   -0.1100745316999954
-0.4402981267999816   -0.1100745316999954   -0.1100745316999954
-0.2273178385704748   0.006591543988313554   0.0007797715697787817
-0.2273178385704748   0.006591543988313554   0.0007797715697787817
-0.2273178385704748   0.006591543988313554   0.0007797715697787817
-0.2273178385704748   0.006591543988313554   0.0007797715697787817
-0.2534882173687688   -0.0633720543421922   -0.0633720543421922
-0.2534882173687688   -0.0633720543421922   -0.0633720543421922
-0.2534882173687688   -0.0633720543421922   -0.0633720543421922
-0.2534882173687688   -0.0633720543421922   -0.0633720543421922
-0.4294341556755258   -0.028723932364362867   -0.01152549696787446
-0.4294341556755258   -0.028723932364362867   -0.01152549696787446
-0.4294341556755258   -0.028723932364362867   -0.01152549696787446
-0.4294341556755258   -0.028723932364362867   -0.01152549696787446
-0.32768694153333483   -0.046947694774676405   -0.03046773851231212
-0.32768694153333483   -0.046947694774676405   -0.03046773851231212
-0.32768694153333483   -0.046947694774676405   -0.03046773851231212
-0.32768694153333483   -0.046947694774676405   -0.03046773851231212
-0.25964209052859866   -0.06491052263214966   -0.06491052263214966
-0.25964209052859866   -0.06491052263214966   -0.06491052263214966
-0.25964209052859866   -0.06491052263214966   -0.06491052263214966
-0.25964209052859866   -0.06491052263214966   -0.06491052263214966
-0.10902540777447063   -0.00781646697668591   -0.0024886413607088844
-0.10902540777447063   -0.00781646697668591   -0.0024886413607088844
-0.10902540777447063   -0.00781646697668591   -0.0024886413607088844
-0.10902540777447063   -0.00781646697668591   -0.0024886413607088844
-0.11379609149419254   -0.028449022873548134   -0.028449022873548134
-0.11379609149419254   -0.028449022873548134   -0.028449022873548134
-0.11379609149419254   -0.028449022873548134   -0.028449022873548134
-0.11379609149419254   -0.028449022873548134   -0.028449022873548134
-0.2360301204418809   -0.02809414015235083   -0.00895804329663002
-0.2360301204418809   -0.02809414015235083   -0.00895804329663002
-0.2360301204418809   -0.02809414015235083   -0.00895804329663002
-0.2360301204418809   -0.02809414015235083   -0.00895804329663002
-0.1744397555413441   -0.033237982991862404   0.0012751148364204931
-0.1744397555413441   -0.033237982991862404   0.0012751148364204931
-0.1744397555413441   -0.033237982991862404   0.0012751148364204931
-0.1744397555413441   -0.033237982991862404   0.0012751148364204931
-0.2540218708356495   -0.06350546770891237   -0.06350546770891237
-0.2540218708356495   -0.06350546770891237   -0.06350546770891237
-0.2540218708356495   -0.06350546770891237   -0.06350546770891237
-0.2540218708356495   -0.06350546770891237   -0.06350546770891237
-0.1023853081276125   0.0003813376558246956   -0.0002254665700207898
-0.1023853081276125   0.0003813376558246956   -0.0002254665700207898
-0.1023853081276125   0.0003813376558246956   -0.0002254665700207898
-0.1023853081276125   0.0003813376558246956   -0.0002254665700207898
-0.11074351436110773   -0.027685878590276932   -0.027685878590276932
-0.11074351436110773   -0.027685878590276932   -0.027685878590276932
-0.11074351436110773   -0.027685878590276932   -0.027685878590276932
-0.11074351436110773   -0.027685878590276932   -0.027685878590276932
-0.23492781606039614   -0.022779230881742697   -0.007899341009771778
-0.23492781606039614   -0.022779230881742697   -0.007899341009771778
-0.23492781606039614   -0.022779230881742697   -0.007899341009771778
-0.23492781606039614   -0.022779230881742697   -0.007899341009771778
-0.1715017422823964   -0.027875973464101755   -0.008910621255177574
-0.1715017422823964   -0.027875973464101755   -0.008910621255177574
-0.1715017422823964   -0.027875973464101755   -0.008910621255177574
-0.1715017422823964   -0.027875973464101755   -0.008910621255177574
-0.25421344631343695   -0.06355336157835924   -0.06355336157835924
-0.25421344631343695   -0.06355336157835924   -0.06355336157835924
-0.25421344631343695   -0.06355336157835924   -0.06355336157835924
-0.25421344631343695   -0.06355336157835924   -0.06355336157835924
-0.09783300225978894   0.006713133954617593   0.002467669371422475
-0.09783300225978894   0.006713133954617593   0.002467669371422475
-0.09783300225978894   0.006713133954617593   0.002467669371422475
-0.09783300225978894   0.006713133954617593   0.002467669371422475
-0.10787720792812873   -0.026969301982032182   -0.026969301982032182
-0.10787720792812873   -0.026969301982032182   -0.026969301982032182
-0.10787720792812873   -0.026969301982032182   -0.026969301982032182
-0.10787720792812873   -0.026969301982032182   -0.026969301982032182
-0.23264312835922615   -0.0174292237091999   -0.005089439927474251
-0.23264312835922615   -0.0174292237091999   -0.005089439927474251
-0.23264312835922615   -0.0174292237091999   -0.005089439927474251
-0.23264312835922615   -0.0174292237091999   -0.005089439927474251
-0.171800322472083   -0.024522737536248583   -0.01977490278064379
-0.171800322472083   -0.024522737536248583   -0.01977490278064379
-0.171800322472083   -0.024522737536248583   -0.01977490278064379
-0.171800322472083   -0.024522737536248583   -0.01977490278064379
-0.11884931789665763   -0.029712329474164408   -0.029712329474164408
-0.11884931789665763   -0.029712329474164408   -0.029712329474164408
-0.11884931789665763   -0.029712329474164408   -0.029712329474164408
-0.11884931789665763   -0.029712329474164408   -0.029712329474164408
0.01248614684294652   0.0005432421070418548   0.0001255209606919668
0.01248614684294652   0.0005432421070418548   0.0001255209606919668
0.01248614684294652   0.0005432421070418548   0.0001255209606919668
0.01248614684294652   0.0005432421070418548   0.0001255209606919668
0.01719362787436247   0.004298406968590618   0.004298406968590618
0.01719362787436247   0.004298406968590618   0.004298406968590618
0.01719362787436247   0.004298406968590618   0.004298406968590618
0.01719362787436247   0.004298406968590618   0.004298406968590618
-0.10695173232667601   -0.018471364194751486   -0.004204885714763029
-0.10695173232667601   -0.018471364194751486   -0.004204885714763029
-0.10695173232667601   -0.018471364194751486   -0.004204885714763029
-0.10695173232667601   -0.018471364194751486   -0.004204885714763029
-0.04660182903575758   -0.011787817418467484   0.007503974789842741
-0.04660182903575758   -0.011787817418467484   0.007503974789842741
-0.04660182903575758   -0.011787817418467484   0.007503974789842741
-0.04660182903575758   -0.011787817418467484   0.007503974789842741
-0.11379609149419254   -0.028449022873548134   -0.028449022873548134
-0.11379609149419254   -0.028449022873548134   -0.028449022873548134
-0.11379609149419254   -0.028449022873548134   -0.028449022873548134
-0.11379609149419254   -0.028449022873548134   -0.028449022873548134
0.017577583585164813   0.007815662190673206   0.0027009303005196047
0.017577583585164813   0.007815662190673206   0.0027009303005196047
0.017577583585164813   0.007815662190673206   0.0027009303005196047
0.017577583585164813   0.007815662190673206   0.0027009303005196047
0.02000074819462012   0.00500018704865503   0.00500018704865503
0.02000074819462012   0.00500018704865503   0.00500018704865503
0.02000074819462012   0.00500018704865503   0.00500018704865503
0.02000074819462012   0.00500018704865503   0.00500018704865503
-0.10268484828980456   -0.012263987242013028   -0.0028144395820267716
-0.10268484828980456   -0.012263987242013028   -0.0028144395820267716
-0.10268484828980456   -0.012263987242013028   -0.0028144395820267716
-0.10268484828980456   -0.012263987242013028   -0.0028144395820267716
-0.04419604221353152   -0.007212215049596975   -0.0027284735940231305
-0.04419604221353152   -0.007212215049596975   -0.0027284735940231305
-0.04419604221353152   -0.007212215049596975   -0.0027284735940231305
-0.04419604221353152   -0.007212215049596975   -0.0027284735940231305
-0.11074351436110773   -0.027685878590276932   -0.027685878590276932
-0.11074351436110773   -0.027685878590276932   -0.027685878590276932
-0.11074351436110773   -0.027685878590276932   -0.027685878590276932
-0.11074351436110773   -0.027685878590276932   -0.027685878590276932
0.02173024540102305   0.014092909532018968   0.004554950597305589
0.02173024540102305   0.014092909532018968   0.004554950597305589
0.02173024540102305   0.014092909532018968   0.004554950597305589
0.02173024540102305   0.014092909532018968   0.004554950597305589
0.023603527732207426   0.0059008819330518564   0.0059008819330518564
0.023603527732207426   0.0059008819330518564   0.0059008819330518564
0.023603527732207426   0.0059008819330518564   0.0059008819330518564
0.023603527732207426   0.0059008819330518564   0.0059008819330518564
-0.09804981103823207   -0.0049027502828271445   0.00010113076824485277
-0.09804981103823207   -0.0049027502828271445   0.00010113076824485277
-0.09804981103823207   -0.0049027502828271445   0.00010113076824485277
-0.09804981103823207   -0.0049027502828271445   0.00010113076824485277
-0.042346833860139134   -0.002800422096187846   -0.012868777289482599
-0.042346833860139134   -0.002800422096187846   -0.012868777289482599
-0.042346833860139134   -0.002800422096187846   -0.012868777289482599
-0.042346833860139134   -0.002800422096187846   -0.012868777289482599
0.013724882477110864   0.003431220619277716   0.003431220619277716
0.013724882477110864   0.003431220619277716   0.003431220619277716
0.013724882477110864   0.003431220619277716   0.003431220619277716
0.013724882477110864   0.003431220619277716   0.003431220619277716
0.14592236126601138   0.013455527037757667   0.004802276180451532
0.14592236126601138   0.013455527037757667   0.004802276180451532
0.14592236126601138   0.013455527037757667   0.004802276180451532
0.14592236126601138   0.013455527037757667   0.004802276180451532
0.1590166049532659   0.03975415123831647   0.03975415123831647
0.1590166049532659   0.03975415123831647   0.03975415123831647
0.1590166049532659   0.03975415123831647   0.03975415123831647
0.1590166049532659   0.03975415123831647   0.03975415123831647
0.013046733404077786   -0.010222206888126912   -0.001915451526115533
0.013046733404077786   -0.010222206888126912   -0.001915451526115533
0.013046733404077786   -0.010222206888126912   -0.001915451526115533
0.013046733404077786   -0.010222206888126912   -0.001915451526115533
0.08278484037935241   0.010337672197710056   0.014918182980704362
0.08278484037935241   0.010337672197710056   0.014918182980704362
0.08278484037935241   0.010337672197710056   0.014918182980704362
0.08278484037935241   0.010337672197710056   0.014918182980704362
0.01719362787436253   0.0042984069685906325   0.0042984069685906325
0.01719362787436253   0.0042984069685906325   0.0042984069685906325
0.01719362787436253   0.0042984069685906325   0.0042984069685906325
0.01719362787436253   0.0042984069685906325   0.0042984069685906325
0.14828939311089329   0.018653220009511084   0.007219023255258923
0.14828939311089329   0.018653220009511084   0.007219023255258923
0.14828939311089329   0.018653220009511084   0.007219023255258923
0.14828939311089329   0.018653220009511084   0.007219023255258923
0.1589016182727538   0.03972540456818845   0.03972540456818845
0.1589016182727538   0.03972540456818845   0.03972540456818845
0.1589016182727538   0.03972540456818845   0.03972540456818845
0.1589016182727538   0.03972540456818845   0.03972540456818845
0.017222657810356794   -0.004130742109525056   0.0002406642855183245
0.017222657810356794   -0.004130742109525056   0.0002406642855183245
0.017222657810356794   -0.004130742109525056   0.0002406642855183245
0.017222657810356794   -0.004130742109525056   0.0002406642855183245
0.08275043261142745   0.013782219590255326   0.003755639635870278
0.08275043261142745   0.013782219590255326   0.003755639635870278
0.08275043261142745   0.013782219590255326   0.003755639635870278
0.08275043261142745   0.013782219590255326   0.003755639635870278
0.020000748194620138   0.0050001870486550345   0.0050001870486550345
0.020000748194620138   0.0050001870486550345   0.0050001870486550345
0.020000748194620138   0.0050001870486550345   0.0050001870486550345
0.020000748194620138   0.0050001870486550345   0.0050001870486550345
0.1496096609733617   0.02408060849487963   0.008910414144536843
0.1496096609733617   0.02408060849487963   0.008910414144536843
0.1496096609733617   0.02408060849487963   0.008910414144536843
0.1496096609733617   0.02408060849487963   0.008910414144536843
0.1625229714125076   0.0406307428531269   0.0406307428531269
0.1625229714125076   0.0406307428531269   0.0406307428531269
0.1625229714125076   0.0406307428531269   0.0406307428531269
0.1625229714125076   0.0406307428531269   0.0406307428531269
0.022553435164636045   0.0038752453205185083   0.0026760557077281193
0.022553435164636045   0.0038752453205185083   0.0026760557077281193
0.022553435164636045   0.0038752453205185083   0.0026760557077281193
0.022553435164636045   0.0038752453205185083   0.0026760557077281193
0.08458507849492068   0.018838215759400086   -0.006591192400833836
0.08458507849492068   0.018838215759400086   -0.006591192400833836
0.08458507849492068   0.018838215759400086   -0.006591192400833836
0.08458507849492068   0.018838215759400086   -0.006591192400833836
0.1580786673581884   0.0395196668395471   0.0395196668395471
0.1580786673581884   0.0395196668395471   0.0395196668395471
0.1580786673581884   0.0395196668395471   0.0395196668395471
0.1580786673581884   0.0395196668395471   0.0395196668395471
0.33129029116425984   0.02543395426490197   0.009405733864450268
0.33129029116425984   0.02543395426490197   0.009405733864450268
0.33129029116425984   0.02543395426490197   0.009405733864450268
0.33129029116425984   0.02543395426490197   0.009405733864450268
0.3392876729826511   0.08482191824566278   0.08482191824566278
0.3392876729826511   0.08482191824566278   0.08482191824566278
0.3392876729826511   0.08482191824566278   0.08482191824566278
0.3392876729826511   0.08482191824566278   0.08482191824566278
0.14148981670059002   -0.007791917205468381   -0.0003337215812779775
0.14148981670059002   -0.007791917205468381   -0.0003337215812779775
0.14148981670059002   -0.007791917205468381   -0.0003337215812779775
0.14148981670059002   -0.007791917205468381   -0.0003337215812779775
0.23580853624108983   0.03357132497727569   0.02639709046128476
0.23580853624108983   0.03357132497727569   0.02639709046128476
0.23580853624108983   0.03357132497727569   0.02639709046128476
0.23580853624108983   0.03357132497727569   0.02639709046128476
0.15901660495326575   0.03975415123831644   0.03975415123831644
0.15901660495326575   0.03975415123831644   0.03975415123831644
0.15901660495326575   0.03975415123831644   0.03975415123831644
0.15901660495326575   0.03975415123831644   0.03975415123831644
0.3146885193203915   0.03020348439229517   0.016444583787737665
0.3146885193203915   0.03020348439229517   0.016444583787737665
0.3146885193203915   0.03020348439229517   0.016444583787737665
0.3146885193203915   0.03020348439229517   0.016444583787737665
0.3298269068855247   0.08245672672138117   0.08245672672138117
0.3298269068855247   0.08245672672138117   0.08245672672138117
0.3298269068855247   0.08245672672138117   0.08245672672138117
0.3298269068855247   0.08245672672138117   0.08245672672138117
0.14251945980366867   -0.003995313167467061   0.0015353299584183414
0.14251945980366867   -0.003995313167467061   0.0015353299584183414
0.14251945980366867   -0.003995313167467061   0.0015353299584183414
0.14251945980366867   -0.003995313167467061   0.0015353299584183414
0.22944757861191628   0.03471634601629761   0.012623645406005662
0.22944757861191628   0.03471634601629761   0.012623645406005662
0.22944757861191628   0.03471634601629761   0.012623645406005662
0.22944757861191628   0.03471634601629761   0.012623645406005662
0.1589016182727538   0.03972540456818845   0.03972540456818845
0.1589016182727538   0.03972540456818845   0.03972540456818845
0.1589016182727538   0.03972540456818845   0.03972540456818845
0.1589016182727538   0.03972540456818845   0.03972540456818845
0.30517582525216247   0.03046708582144951   0.011190959454506901
0.30517582525216247   0.03046708582144951   0.011190959454506901
0.30517582525216247   0.03046708582144951   0.011190959454506901
0.30517582525216247   0.03046708582144951   0.011190959454506901
0.3153468444539114   0.07883671111347786   0.07883671111347786
0.3153468444539114   0.07883671111347786   0.07883671111347786
0.3153468444539114   0.07883671111347786   0.07883671111347786
0.3153468444539114   0.07883671111347786   0.07883671111347786
0.1483678431906555   0.0055332630899779835   0.004952581507015272
0.1483678431906555   0.0055332630899779835   0.004952581507015272
0.1483678431906555   0.0055332630899779835   0.004952581507015272
0.1483678431906555   0.0055332630899779835   0.004952581507015272
0.22028882293689417   0.03785042514785673   -0.0034653515983837906
0.22028882293689417   0.03785042514785673   -0.0034653515983837906
0.22028882293689417   0.03785042514785673   -0.0034653515983837906
0.22028882293689417   0.03785042514785673   -0.0034653515983837906
-0.3184780131022157   -0.02289345248403491   0.004289203402113818
-0.3184780131022157   -0.02289345248403491   0.004289203402113818
-0.3184780131022157   -0.02289345248403491   0.004289203402113818
-0.3184780131022157   -0.02289345248403491   0.004289203402113818
-0.2034092948784131   -0.005359595832505018   -0.0015622313651310615
-0.2034092948784131   -0.005359595832505018   -0.0015622313651310615
-0.2034092948784131   -0.005359595832505018   -0.0015622313651310615
-0.2034092948784131   -0.005359595832505018   -0.0015622313651310615
-0.20422421399498247   0.008436935720972455   0.0047093531674142226
-0.20422421399498247   0.008436935720972455   0.0047093531674142226
-0.20422421399498247   0.008436935720972455   0.0047093531674142226
-0.20422421399498247   0.008436935720972455   0.0047093531674142226
-0.3229351964131853   -0.022383583752575223   -0.004135070708088332
-0.3229351964131853   -0.022383583752575223   -0.004135070708088332
-0.3229351964131853   -0.022383583752575223   -0.004135070708088332
-0.3229351964131853   -0.022383583752575223   -0.004135070708088332
-0.25201200251336364   -0.00881801351330188   -0.0013605190800890336
-0.25201200251336364   -0.00881801351330188   -0.0013605190800890336
-0.25201200251336364   -0.00881801351330188   -0.0013605190800890336
-0.25201200251336364   -0.00881801351330188   -0.0013605190800890336
-0.32026818429358644   -0.015292039787304194   0.002108445924634975
-0.32026818429358644   -0.015292039787304194   0.002108445924634975
-0.32026818429358644   -0.015292039787304194   0.002108445924634975
-0.32026818429358644   -0.015292039787304194   0.002108445924634975
-0.20719622977389057   0.0010403880963931258   -0.0027541781025432963
-0.20719622977389057   0.0010403880963931258   -0.0027541781025432963
-0.20719622977389057   0.0010403880963931258   -0.0027541781025432963
-0.20719622977389057   0.0010403880963931258   -0.0027541781025432963
-0.20412312861442275   0.012122937704919075   0.00524203019675511
-0.20412312861442275   0.012122937704919075   0.00524203019675511
-0.20412312861442275   0.012122937704919075   0.00524203019675511
-0.20412312861442275   0.012122937704919075   0.00524203019675511
-0.32440922594302546   -0.019588199423644287   -0.00542409604688935
-0.32440922594302546   -0.019588199423644287   -0.00542409604688935
-0.32440922594302546   -0.019588199423644287   -0.00542409604688935
-0.32440922594302546   -0.019588199423644287   -0.00542409604688935
-0.25865770966608836   -0.005763456940185242   -0.002627755782766009
-0.25865770966608836   -0.005763456940185242   -0.002627755782766009
-0.25865770966608836   -0.005763456940185242   -0.002627755782766009
-0.25865770966608836   -0.005763456940185242   -0.002627755782766009
-0.3182282748241992   -0.008806671293056859   0.014699131416651887
-0.3182282748241992   -0.008806671293056859   0.014699131416651887
-0.3182282748241992   -0.008806671293056859   0.014699131416651887
-0.3182282748241992   -0.008806671293056859   0.014699131416651887
-0.207815416094861   0.0038300732127195605   -0.004926542713234595
-0.207815416094861   0.0038300732127195605   -0.004926542713234595
-0.207815416094861   0.0038300732127195605   -0.004926542713234595
-0.207815416094861   0.0038300732127195605   -0.004926542713234595
-0.20002286815666465   0.021299495733291464   0.009180356001536303
-0.20002286815666465   0.021299495733291464   0.009180356001536303
-0.20002286815666465   0.021299495733291464   0.009180356001536303
-0.20002286815666465   0.021299495733291464   0.009180356001536303
-0.3147205160775296   -0.015505067727684008   -0.008707866136770083
-0.3147205160775296   -0.015505067727684008   -0.008707866136770083
-0.3147205160775296   -0.015505067727684008   -0.008707866136770083
-0.3147205160775296   -0.015505067727684008   -0.008707866136770083
-0.24822745658957734   0.002637079429644057   0.005617996655600248
-0.24822745658957734   0.002637079429644057   0.005617996655600248
-0.24822745658957734   0.002637079429644057   0.005617996655600248
-0.24822745658957734   0.002637079429644057   0.005617996655600248
-0.20826293502304927   -0.027836874782019357   -0.003353153138797497
-0.20826293502304927   -0.027836874782019357   -0.003353153138797497
-0.20826293502304927   -0.027836874782019357   -0.003353153138797497
-0.20826293502304927   -0.027836874782019357   -0.003353153138797497
-0.09682354435745466   -0.0025896797096457043   0.0009232917227311116
-0.09682354435745466   -0.0025896797096457043   0.0009232917227311116
-0.09682354435745466   -0.0025896797096457043   0.0009232917227311116
-0.09682354435745466   -0.0025896797096457043   0.0009232917227311116
-0.09786523345981107   0.0016581075863553452   0.0016383084148312776
-0.09786523345981107   0.0016581075863553452   0.0016383084148312776
-0.09786523345981107   0.0016581075863553452   0.0016383084148312776
-0.09786523345981107   0.0016581075863553452   0.0016383084148312776
-0.21217700578574544   -0.02031151307110973   -0.0063061569943184724
-0.21217700578574544   -0.02031151307110973   -0.0063061569943184724
-0.21217700578574544   -0.02031151307110973   -0.0063061569943184724
-0.21217700578574544   -0.02031151307110973   -0.0063061569943184724
-0.15381049904384939   -0.012698179583970015   -0.0037049654843511245
-0.15381049904384939   -0.012698179583970015   -0.0037049654843511245
-0.15381049904384939   -0.012698179583970015   -0.0037049654843511245
-0.15381049904384939   -0.012698179583970015   -0.0037049654843511245
-0.21190786836573092   -0.02211039805905515   -0.0031615849063013632
-0.21190786836573092   -0.02211039805905515   -0.0031615849063013632
-0.21190786836573092   -0.02211039805905515   -0.0031615849063013632
-0.21190786836573092   -0.02211039805905515   -0.0031615849063013632
-0.09776367935614146   0.0038276840979848993   -2.3497578449317887e-05
-0.09776367935614146   0.0038276840979848993   -2.3497578449317887e-05
-0.09776367935614146   0.0038276840979848993   -2.3497578449317887e-05
-0.09776367935614146   0.0038276840979848993   -2.3497578449317887e-05
-0.09718725216355231   0.006767005747818321   0.00209127824118995
-0.09718725216355231   0.006767005747818321   0.00209127824118995
-0.09718725216355231   0.006767005747818321   0.00209127824118995
-0.09718725216355231   0.006767005747818321   0.00209127824118995
-0.21190730386433734   -0.014709531506656097   -0.006846376841242596
-0.21190730386433734   -0.014709531506656097   -0.006846376841242596
-0.21190730386433734   -0.014709531506656097   -0.006846376841242596
-0.21190730386433734   -0.014709531506656097   -0.006846376841242596
-0.1532000279306081   -0.0069937838251583236   -0.0017747473673091286
-0.1532000279306081   -0.0069937838251583236   -0.0017747473673091286
-0.1532000279306081   -0.0069937838251583236   -0.0017747473673091286
-0.1532000279306081   -0.0069937838251583236   -0.0017747473673091286
-0.21102034937792463   -0.01653508043871764   -0.0005860554771175194
-0.21102034937792463   -0.01653508043871764   -0.0005860554771175194
-0.21102034937792463   -0.01653508043871764   -0.0005860554771175194
-0.21102034937792463   -0.01653508043871764   -0.0005860554771175194
-0.09738158922453592   0.009285172105309245   -0.001398573421217299
-0.09738158922453592   0.009285172105309245   -0.001398573421217299
-0.09738158922453592   0.009285172105309245   -0.001398573421217299
-0.09738158922453592   0.009285172105309245   -0.001398573421217299
-0.09526507848171356   0.01186666637397939   0.004011960610909859
-0.09526507848171356   0.01186666637397939   0.004011960610909859
-0.09526507848171356   0.01186666637397939   0.004011960610909859
-0.09526507848171356   0.01186666637397939   0.004011960610909859
-0.2092919463548407   -0.008231396540232291   -0.0076341427158209945
-0.2092919463548407   -0.008231396540232291   -0.0076341427158209945
-0.2092919463548407   -0.008231396540232291   -0.0076341427158209945
-0.2092919463548407   -0.008231396540232291   -0.0076341427158209945
-0.15222317654669865   -0.0015892357823721615   0.0007482438838030299
-0.15222317654669865   -0.0015892357823721615   0.0007482438838030299
-0.15222317654669865   -0.0015892357823721615   0.0007482438838030299
-0.15222317654669865   -0.0015892357823721615   0.0007482438838030299
-0.1019612291401249   -0.023201916384803473   -0.00415289551546325
-0.1019612291401249   -0.023201916384803473   -0.00415289551546325
-0.1019612291401249   -0.023201916384803473   -0.00415289551546325
-0.1019612291401249   -0.023201916384803473   -0.00415289551546325
0.008859877952312627   0.0019961350249901055   0.003969718067141248
0.008859877952312627   0.0019961350249901055   0.003969718067141248
0.008859877952312627   0.0019961350249901055   0.003969718067141248
0.008859877952312627   0.0019961350249901055   0.003969718067141248
0.008691643390366932   0.005572794230586712   0.00037253069488502044
0.008691643390366932   0.005572794230586712   0.00037253069488502044
0.008691643390366932   0.005572794230586712   0.00037253069488502044
0.008691643390366932   0.005572794230586712   0.00037253069488502044
-0.10210748712767892   -0.015249409540640017   -0.002665442797512604
-0.10210748712767892   -0.015249409540640017   -0.002665442797512604
-0.10210748712767892   -0.015249409540640017   -0.002665442797512604
-0.10210748712767892   -0.015249409540640017   -0.002665442797512604
-0.04708585140132814   -0.007812614117622572   -0.0015823397402904976
-0.04708585140132814   -0.007812614117622572   -0.0015823397402904976
-0.04708585140132814   -0.007812614117622572   -0.0015823397402904976
-0.04708585140132814   -0.007812614117622572   -0.0015823397402904976
-0.10282299436175572   -0.01758593096710178   -0.003906457541434799
-0.10282299436175572   -0.01758593096710178   -0.003906457541434799
-0.10282299436175572   -0.01758593096710178   -0.003906457541434799
-0.10282299436175572   -0.01758593096710178   -0.003906457541434799
0.009779101510802692   0.008281266543407445   0.003101348984243097
0.009779101510802692   0.008281266543407445   0.003101348984243097
0.009779101510802692   0.008281266543407445   0.003101348984243097
0.009779101510802692   0.008281266543407445   0.003101348984243097
0.009801815798271978   0.011159127451050953   0.001814469795216587
0.009801815798271978   0.011159127451050953   0.001814469795216587
0.009801815798271978   0.011159127451050953   0.001814469795216587
0.009801815798271978   0.011159127451050953   0.001814469795216587
-0.10145172356246654   -0.009114524805209641   -0.0033495482003532417
-0.10145172356246654   -0.009114524805209641   -0.0033495482003532417
-0.10145172356246654   -0.009114524805209641   -0.0033495482003532417
-0.10145172356246654   -0.009114524805209641   -0.0033495482003532417
-0.04605317839442483   -0.0018969105381241753   0.000476847172436015
-0.04605317839442483   -0.0018969105381241753   0.000476847172436015
-0.04605317839442483   -0.0018969105381241753   0.000476847172436015
-0.04605317839442483   -0.0018969105381241753   0.000476847172436015
-0.10175225624461275   -0.011923273499856751   -0.002043462916437206
-0.10175225624461275   -0.011923273499856751   -0.002043462916437206
-0.10175225624461275   -0.011923273499856751   -0.002043462916437206
-0.10175225624461275   -0.011923273499856751   -0.002043462916437206
0.01050569535272874   0.014371223018008762   0.0021217720005425374
0.01050569535272874   0.014371223018008762   0.0021217720005425374
0.01050569535272874   0.014371223018008762   0.0021217720005425374
0.01050569535272874   0.014371223018008762   0.0021217720005425374
0.010356508899410472   0.017344387322050313   0.002930498854989365
0.010356508899410472   0.017344387322050313   0.002930498854989365
0.010356508899410472   0.017344387322050313   0.002930498854989365
0.010356508899410472   0.017344387322050313   0.002930498854989365
-0.09980835923967588   -0.0025806791330122425   -0.004257097671909587
-0.09980835923967588   -0.0025806791330122425   -0.004257097671909587
-0.09980835923967588   -0.0025806791330122425   -0.004257097671909587
-0.09980835923967588   -0.0025806791330122425   -0.004257097671909587
-0.044593213590990825   0.00428838682679082   0.0027319239762646826
-0.044593213590990825   0.00428838682679082   0.0027319239762646826
-0.044593213590990825   0.00428838682679082   0.0027319239762646826
-0.044593213590990825   0.00428838682679082   0.0027319239762646826
0.0031936311263069004   -0.017103125361544125   -0.005262255676353153
0.0031936311263069004   -0.017103125361544125   -0.005262255676353153
0.0031936311263069004   -0.017103125361544125   -0.005262255676353153
0.0031936311263069004   -0.017103125361544125   -0.005262255676353153
0.11805881147841332   0.007955218396275419   0.0073933539962966
0.11805881147841332   0.007955218396275419   0.0073933539962966
0.11805881147841332   0.007955218396275419   0.0073933539962966
0.11805881147841332   0.007955218396275419   0.0073933539962966
0.11818969056499981   0.010940002266479315   -0.0012473629140064314
0.11818969056499981   0.010940002266479315   -0.0012473629140064314
0.11818969056499981   0.010940002266479315   -0.0012473629140064314
0.11818969056499981   0.010940002266479315   -0.0012473629140064314
0.005674352740168505   -0.01006209528769567   0.0009209669621752683
0.005674352740168505   -0.01006209528769567   0.0009209669621752683
0.005674352740168505   -0.01006209528769567   0.0009209669621752683
0.005674352740168505   -0.01006209528769567   0.0009209669621752683
0.060503938250444256   -0.0016039074576255797   2.3241193759095374e-05
0.060503938250444256   -0.0016039074576255797   2.3241193759095374e-05
0.060503938250444256   -0.0016039074576255797   2.3241193759095374e-05
0.060503938250444256   -0.0016039074576255797   2.3241193759095374e-05
0.004217814306311924   -0.012408053751181355   -0.004015766743621885
0.004217814306311924   -0.012408053751181355   -0.004015766743621885
0.004217814306311924   -0.012408053751181355   -0.004015766743621885
0.004217814306311924   -0.012408053751181355   -0.004015766743621885
0.12033425332900577   0.013973985060114205   0.006441468112387366
0.12033425332900577   0.013973985060114205   0.006441468112387366
0.12033425332900577   0.013973985060114205   0.006441468112387366
0.12033425332900577   0.013973985060114205   0.006441468112387366
0.11951526089767017   0.016485787721850442   0.0010307103550821904
0.11951526089767017   0.016485787721850442   0.0010307103550821904
0.11951526089767017   0.016485787721850442   0.0010307103550821904
0.11951526089767017   0.016485787721850442   0.0010307103550821904
0.006261104781342201   -0.0045595451400424186   -0.00017041269833892618
0.006261104781342201   -0.0045595451400424186   -0.00017041269833892618
0.006261104781342201   -0.0045595451400424186   -0.00017041269833892618
0.006261104781342201   -0.0045595451400424186   -0.00017041269833892618
0.06169047903080767   0.003684176709378253   0.0025566099775010333
0.06169047903080767   0.003684176709378253   0.0025566099775010333
0.06169047903080767   0.003684176709378253   0.0025566099775010333
0.06169047903080767   0.003684176709378253   0.0025566099775010333
0.00516536068835305   -0.007193391709745736   -0.003015286593581329
0.00516536068835305   -0.007193391709745736   -0.003015286593581329
0.00516536068835305   -0.007193391709745736   -0.003015286593581329
0.00516536068835305   -0.007193391709745736   -0.003015286593581329
0.12111209803350705   0.01962072733440096   0.0058799564217140755
0.12111209803350705   0.01962072733440096   0.0058799564217140755
0.12111209803350705   0.01962072733440096   0.0058799564217140755
0.12111209803350705   0.01962072733440096   0.0058799564217140755
0.1179080151060784   0.02287681543925231   0.0023293263599547687
0.1179080151060784   0.02287681543925231   0.0023293263599547687
0.1179080151060784   0.02287681543925231   0.0023293263599547687
0.1179080151060784   0.02287681543925231   0.0023293263599547687
0.006517931129877551   0.002193352314170475   -0.0011113549847954058
0.006517931129877551   0.002193352314170475   -0.0011113549847954058
0.006517931129877551   0.002193352314170475   -0.0011113549847954058
0.006517931129877551   0.002193352314170475   -0.0011113549847954058
0.06297317981936133   0.009717598736109629   0.004921802017683312
0.06297317981936133   0.009717598736109629   0.004921802017683312
0.06297317981936133   0.009717598736109629   0.004921802017683312
0.06297317981936133   0.009717598736109629   0.004921802017683312
0.10838273216068148   -0.023029224289934324   -0.010002599906152803
0.10838273216068148   -0.023029224289934324   -0.010002599906152803
0.10838273216068148   -0.023029224289934324   -0.010002599906152803
0.10838273216068148   -0.023029224289934324   -0.010002599906152803
0.2248081708739678   0.014868417622547411   0.007522750310233721
0.2248081708739678   0.014868417622547411   0.007522750310233721
0.2248081708739678   0.014868417622547411   0.007522750310233721
0.2248081708739678   0.014868417622547411   0.007522750310233721
0.2277623329372163   0.00651250065762992   -0.015084148502412948
0.2277623329372163   0.00651250065762992   -0.015084148502412948
0.2277623329372163   0.00651250065762992   -0.015084148502412948
0.2277623329372163   0.00651250065762992   -0.015084148502412948
0.11632753060580853   -0.004228512155005162   0.004610351711519479
0.11632753060580853   -0.004228512155005162   0.004610351711519479
0.11632753060580853   -0.004228512155005162   0.004610351711519479
0.11632753060580853   -0.004228512155005162   0.004610351711519479
0.16083627164851813   -0.0031697766457965057   -0.004294284652857049
0.16083627164851813   -0.0031697766457965057   -0.004294284652857049
0.16083627164851813   -0.0031697766457965057   -0.004294284652857049
0.16083627164851813   -0.0031697766457965057   -0.004294284652857049
0.11189222643885247   -0.015003022664344213   -0.006791658613920282
0.11189222643885247   -0.015003022664344213   -0.006791658613920282
0.11189222643885247   -0.015003022664344213   -0.006791658613920282
0.11189222643885247   -0.015003022664344213   -0.006791658613920282
0.2343375893558144   0.019426963418611373   0.00487767082959629
0.2343375893558144   0.019426963418611373   0.00487767082959629
0.2343375893558144   0.019426963418611373   0.00487767082959629
0.2343375893558144   0.019426963418611373   0.00487767082959629
0.23086158863747633   0.012597652877239476   -0.0038419686518565994
0.23086158863747633   0.012597652877239476   -0.0038419686518565994
0.23086158863747633   0.012597652877239476   -0.0038419686518565994
0.23086158863747633   0.012597652877239476   -0.0038419686518565994
0.11623038786549676   -0.0014448042429992536   0.0025369371590628718
0.11623038786549676   -0.0014448042429992536   0.0025369371590628718
0.11623038786549676   -0.0014448042429992536   0.0025369371590628718
0.11623038786549676   -0.0014448042429992536   0.0025369371590628718
0.1699031931863852   0.0042791369710115795   0.0028607964310343025
0.1699031931863852   0.0042791369710115795   0.0028607964310343025
0.1699031931863852   0.0042791369710115795   0.0028607964310343025
0.1699031931863852   0.0042791369710115795   0.0028607964310343025
0.11261498173892764   -0.011400211929545843   -0.005584685787235012
0.11261498173892764   -0.011400211929545843   -0.005584685787235012
0.11261498173892764   -0.011400211929545843   -0.005584685787235012
0.11261498173892764   -0.011400211929545843   -0.005584685787235012
0.2342329002500138   0.022308966049754714   0.003303276238315665
0.2342329002500138   0.022308966049754714   0.003303276238315665
0.2342329002500138   0.022308966049754714   0.003303276238315665
0.2342329002500138   0.022308966049754714   0.003303276238315665
0.2311443835547084   0.01995448505367789   -0.005717849038538343
0.2311443835547084   0.01995448505367789   -0.005717849038538343
0.2311443835547084   0.01995448505367789   -0.005717849038538343
0.2311443835547084   0.01995448505367789   -0.005717849038538343
0.11414005363196157   0.004837443628413714   0.0015288908002075328
0.11414005363196157   0.004837443628413714   0.0015288908002075328
0.11414005363196157   0.004837443628413714   0.0015288908002075328
0.11414005363196157   0.004837443628413714   0.0015288908002075328
0.16602275274967088   0.007733244895654093   0.0023361598033634287
0.16602275274967088   0.007733244895654093   0.0023361598033634287
0.16602275274967088   0.007733244895654093   0.0023361598033634287
0.16602275274967088   0.007733244895654093   0.0023361598033634287
-0.24633215140499043   -0.010936739433313684   0.013474907157402946
-0.24633215140499043   -0.010936739433313684   0.013474907157402946
-0.24633215140499043   -0.010936739433313684   0.013474907157402946
-0.24633215140499043   -0.010936739433313684   0.013474907157402946
-0.16482226929401145   -0.006774785129074534   -0.003505789470692208
-0.16482226929401145   -0.006774785129074534   -0.003505789470692208
-0.16482226929401145   -0.006774785129074534   -0.003505789470692208
-0.16482226929401145   -0.006774785129074534   -0.003505789470692208
-0.1584391330812738   0.013586861549566995   0.011221092470711205
-0.1584391330812738   0.013586861549566995   0.011221092470711205
-0.1584391330812738   0.013586861549566995   0.011221092470711205
-0.1584391330812738   0.013586861549566995   0.011221092470711205
-0.24731014430106982   -0.017837802396096156   -0.005444266844695539
-0.24731014430106982   -0.017837802396096156   -0.005444266844695539
-0.24731014430106982   -0.017837802396096156   -0.005444266844695539
-0.24731014430106982   -0.017837802396096156   -0.005444266844695539
-0.19601621446635392   -0.003020326709683309   -0.0007189809606616762
-0.19601621446635392   -0.003020326709683309   -0.0007189809606616762
-0.19601621446635392   -0.003020326709683309   -0.0007189809606616762
-0.19601621446635392   -0.003020326709683309   -0.0007189809606616762
-0.24005807308708943   -0.00198790631659692   0.014966193145707279
-0.24005807308708943   -0.00198790631659692   0.014966193145707279
-0.24005807308708943   -0.00198790631659692   0.014966193145707279
-0.24005807308708943   -0.00198790631659692   0.014966193145707279
-0.16455693805662355   -0.001128768291301284   -0.004652302565169372
-0.16455693805662355   -0.001128768291301284   -0.004652302565169372
-0.16455693805662355   -0.001128768291301284   -0.004652302565169372
-0.16455693805662355   -0.001128768291301284   -0.004652302565169372
-0.15762140114743806   0.016921590359942458   0.01033702807545693
-0.15762140114743806   0.016921590359942458   0.01033702807545693
-0.15762140114743806   0.016921590359942458   0.01033702807545693
-0.15762140114743806   0.016921590359942458   0.01033702807545693
-0.24309757781217656   -0.014796009201908482   -0.007397451105250419
-0.24309757781217656   -0.014796009201908482   -0.007397451105250419
-0.24309757781217656   -0.014796009201908482   -0.007397451105250419
-0.24309757781217656   -0.014796009201908482   -0.007397451105250419
-0.19611722149086838   0.000892673009889898   0.002085096807884889
-0.19611722149086838   0.000892673009889898   0.002085096807884889
-0.19611722149086838   0.000892673009889898   0.002085096807884889
-0.19611722149086838   0.000892673009889898   0.002085096807884889
-0.23636661872343553   0.001164506880800699   0.01029682825574562
-0.23636661872343553   0.001164506880800699   0.01029682825574562
-0.23636661872343553   0.001164506880800699   0.01029682825574562
-0.23636661872343553   0.001164506880800699   0.01029682825574562
-0.1639807237278514   0.0013327107855611933   -0.005870705252227208
-0.1639807237278514   0.0013327107855611933   -0.005870705252227208
-0.1639807237278514   0.0013327107855611933   -0.005870705252227208
-0.1639807237278514   0.0013327107855611933   -0.005870705252227208
-0.15761882722087436   0.019298120161255018   0.008206384451269776
-0.15761882722087436   0.019298120161255018   0.008206384451269776
-0.15761882722087436   0.019298120161255018   0.008206384451269776
-0.15761882722087436   0.019298120161255018   0.008206384451269776
-0.2377332491789991   -0.01146636837743003   -0.009383497698914237
-0.2377332491789991   -0.01146636837743003   -0.009383497698914237
-0.2377332491789991   -0.01146636837743003   -0.009383497698914237
-0.2377332491789991   -0.01146636837743003   -0.009383497698914237
-0.1902130812732034   0.004443352241251829   0.004645006412680605
-0.1902130812732034   0.004443352241251829   0.004645006412680605
-0.1902130812732034   0.004443352241251829   0.004645006412680605
-0.1902130812732034   0.004443352241251829   0.004645006412680605
-0.16507852775052248   -0.01561475675772507   0.004052889875403053
-0.16507852775052248   -0.01561475675772507   0.004052889875403053
-0.16507852775052248   -0.01561475675772507   0.004052889875403053
-0.16507852775052248   -0.01561475675772507   0.004052889875403053
-0.08451156273590063   -0.0033447388438997   0.00010658695798205099
-0.08451156273590063   -0.0033447388438997   0.00010658695798205099
-0.08451156273590063   -0.0033447388438997   0.00010658695798205099
-0.08451156273590063   -0.0033447388438997   0.00010658695798205099
-0.08189917226987738   0.008219276507669512   0.006069957383709658
-0.08189917226987738   0.008219276507669512   0.006069957383709658
-0.08189917226987738   0.008219276507669512   0.006069957383709658
-0.08189917226987738   0.008219276507669512   0.006069957383709658
-0.1676387994537487   -0.015396866137727578   -0.005793511704370271
-0.1676387994537487   -0.015396866137727578   -0.005793511704370271
-0.1676387994537487   -0.015396866137727578   -0.005793511704370271
-0.1676387994537487   -0.015396866137727578   -0.005793511704370271
-0.12437927370697913   -0.0061079110749216806   -0.002690520085349703
-0.12437927370697913   -0.0061079110749216806   -0.002690520085349703
-0.12437927370697913   -0.0061079110749216806   -0.002690520085349703
-0.12437927370697913   -0.0061079110749216806   -0.002690520085349703
-0.16437244050651606   -0.00871757103132249   0.0038589879253883392
-0.16437244050651606   -0.00871757103132249   0.0038589879253883392
-0.16437244050651606   -0.00871757103132249   0.0038589879253883392
-0.16437244050651606   -0.00871757103132249   0.0038589879253883392
-0.08451704446909017   0.0021884681492841326   -0.0009885952539683118
-0.08451704446909017   0.0021884681492841326   -0.0009885952539683118
-0.08451704446909017   0.0021884681492841326   -0.0009885952539683118
-0.08451704446909017   0.0021884681492841326   -0.0009885952539683118
-0.08149073137656415   0.013787676457000929   0.005223090489269349
-0.08149073137656415   0.013787676457000929   0.005223090489269349
-0.08149073137656415   0.013787676457000929   0.005223090489269349
-0.08149073137656415   0.013787676457000929   0.005223090489269349
-0.16649064816945458   -0.010228604787673394   -0.006859011887009906
-0.16649064816945458   -0.010228604787673394   -0.006859011887009906
-0.16649064816945458   -0.010228604787673394   -0.006859011887009906
-0.16649064816945458   -0.010228604787673394   -0.006859011887009906
-0.12285846790183992   -0.0005256716623937008   -0.00010263489537990292
-0.12285846790183992   -0.0005256716623937008   -0.00010263489537990292
-0.12285846790183992   -0.0005256716623937008   -0.00010263489537990292
-0.12285846790183992   -0.0005256716623937008   -0.00010263489537990292
-0.16316132467789393   -0.003066050120412424   0.0026250509035323725
-0.16316132467789393   -0.003066050120412424   0.0026250509035323725
-0.16316132467789393   -0.003066050120412424   0.0026250509035323725
-0.16316132467789393   -0.003066050120412424   0.0026250509035323725
-0.08429308135306447   0.007152095304800862   -0.0021530782410306435
-0.08429308135306447   0.007152095304800862   -0.0021530782410306435
-0.08429308135306447   0.007152095304800862   -0.0021530782410306435
-0.08429308135306447   0.007152095304800862   -0.0021530782410306435
-0.08132135172920399   0.019667540478559058   0.0038899477524990487
-0.08132135172920399   0.019667540478559058   0.0038899477524990487
-0.08132135172920399   0.019667540478559058   0.0038899477524990487
-0.08132135172920399   0.019667540478559058   0.0038899477524990487
-0.16551550379281746   -0.004612229020715286   -0.007366649226475808
-0.16551550379281746   -0.004612229020715286   -0.007366649226475808
-0.16551550379281746   -0.004612229020715286   -0.007366649226475808
-0.16551550379281746   -0.004612229020715286   -0.007366649226475808
-0.12275993142763329   0.00464586791673384   0.0018999326423959281
-0.12275993142763329   0.00464586791673384   0.0018999326423959281
-0.12275993142763329   0.00464586791673384   0.0018999326423959281
-0.12275993142763329   0.00464586791673384   0.0018999326423959281
-0.08756099363267139   -0.018149203482824346   -0.0003361028869479629
-0.08756099363267139   -0.018149203482824346   -0.0003361028869479629
-0.08756099363267139   -0.018149203482824346   -0.0003361028869479629
-0.08756099363267139   -0.018149203482824346   -0.0003361028869479629
-0.00486073854576951   0.0005189022870040108   0.003726689669529614
-0.00486073854576951   0.0005189022870040108   0.003726689669529614
-0.00486073854576951   0.0005189022870040108   0.003726689669529614
-0.00486073854576951   0.0005189022870040108   0.003726689669529614
-0.005038507207648203   0.0050579560509363105   0.0018024052403383234
-0.005038507207648203   0.0050579560509363105   0.0018024052403383234
-0.005038507207648203   0.0050579560509363105   0.0018024052403383234
-0.005038507207648203   0.0050579560509363105   0.0018024052403383234
-0.08747338676378219   -0.011470840416108814   -0.0021109981620360836
-0.08747338676378219   -0.011470840416108814   -0.0021109981620360836
-0.08747338676378219   -0.011470840416108814   -0.0021109981620360836
-0.08747338676378219   -0.011470840416108814   -0.0021109981620360836
-0.046383992813257946   -0.0058017445971725624   -0.0015421600742444937
-0.046383992813257946   -0.0058017445971725624   -0.0015421600742444937
-0.046383992813257946   -0.0058017445971725624   -0.0015421600742444937
-0.046383992813257946   -0.0058017445971725624   -0.0015421600742444937
-0.08737755507639793   -0.011992392165938351   -0.001110287975285263
-0.08737755507639793   -0.011992392165938351   -0.001110287975285263
-0.08737755507639793   -0.011992392165938351   -0.001110287975285263
-0.08737755507639793   -0.011992392165938351   -0.001110287975285263
-0.004653786126858805   0.006060060568939511   0.002723906126282159
-0.004653786126858805   0.006060060568939511   0.002723906126282159
-0.004653786126858805   0.006060060568939511   0.002723906126282159
-0.004653786126858805   0.006060060568939511   0.002723906126282159
-0.004488320848087191   0.011110820435930846   0.0008137752909698481
-0.004488320848087191   0.011110820435930846   0.0008137752909698481
-0.004488320848087191   0.011110820435930846   0.0008137752909698481
-0.004488320848087191   0.011110820435930846   0.0008137752909698481
-0.0871003481193983   -0.005911972628343962   -0.0031253441395555593
-0.0871003481193983   -0.005911972628343962   -0.0031253441395555593
-0.0871003481193983   -0.005911972628343962   -0.0031253441395555593
-0.0871003481193983   -0.005911972628343962   -0.0031253441395555593
-0.04579006049968849   -0.00022635247397918834   0.0005566997958206706
-0.04579006049968849   -0.00022635247397918834   0.0005566997958206706
-0.04579006049968849   -0.00022635247397918834   0.0005566997958206706
-0.04579006049968849   -0.00022635247397918834   0.0005566997958206706
-0.08697363875369199   -0.006024793492714555   -0.002378976446653322
-0.08697363875369199   -0.006024793492714555   -0.002378976446653322
-0.08697363875369199   -0.006024793492714555   -0.002378976446653322
-0.08697363875369199   -0.006024793492714555   -0.002378976446653322
-0.004219468650743656   0.011619202863351474   0.0016496538502669572
-0.004219468650743656   0.011619202863351474   0.0016496538502669572
-0.004219468650743656   0.011619202863351474   0.0016496538502669572
-0.004219468650743656   0.011619202863351474   0.0016496538502669572
-0.004252222210159881   0.01733453810848487   -0.00023714849394001342
-0.004252222210159881   0.01733453810848487   -0.00023714849394001342
-0.004252222210159881   0.01733453810848487   -0.00023714849394001342
-0.004252222210159881   0.01733453810848487   -0.00023714849394001342
-0.08691885344586603   -0.00026780719308445305   -0.004162213159168018
-0.08691885344586603   -0.00026780719308445305   -0.004162213159168018
-0.08691885344586603   -0.00026780719308445305   -0.004162213159168018
-0.08691885344586603   -0.00026780719308445305   -0.004162213159168018
-0.045294862021703415   0.005355201060687433   0.002484061011840742
-0.045294862021703415   0.005355201060687433   0.002484061011840742
-0.045294862021703415   0.005355201060687433   0.002484061011840742
-0.045294862021703415   0.005355201060687433   0.002484061011840742
-0.010604479715358623   -0.02012561118335071   -0.004347502708061165
-0.010604479715358623   -0.02012561118335071   -0.004347502708061165
-0.010604479715358623   -0.02012561118335071   -0.004347502708061165
-0.010604479715358623   -0.02012561118335071   -0.004347502708061165
0.07422596200782124   0.004995504365964382   0.0071067473695238465
0.07422596200782124   0.004995504365964382   0.0071067473695238465
0.07422596200782124   0.004995504365964382   0.0071067473695238465
0.07422596200782124   0.004995504365964382   0.0071067473695238465
0.07175286212295288   0.002372538839183364   -0.0029843717862139446
0.07175286212295288   0.002372538839183364   -0.0029843717862139446
0.07175286212295288   0.002372538839183364   -0.0029843717862139446
0.07175286212295288   0.002372538839183364   -0.0029843717862139446
-0.007511306911143937   -0.007163693971048263   0.0016600567448442744
-0.007511306911143937   -0.007163693971048263   0.0016600567448442744
-0.007511306911143937   -0.007163693971048263   0.0016600567448442744
-0.007511306911143937   -0.007163693971048263   0.0016600567448442744
0.03149745227242095   -0.0048885537938272924   -0.000908783285433631
0.03149745227242095   -0.0048885537938272924   -0.000908783285433631
0.03149745227242095   -0.0048885537938272924   -0.000908783285433631
0.03149745227242095   -0.0048885537938272924   -0.000908783285433631
-0.010426167143993309   -0.014568316945877713   -0.0055096214445731345
-0.010426167143993309   -0.014568316945877713   -0.0055096214445731345
-0.010426167143993309   -0.014568316945877713   -0.0055096214445731345
-0.010426167143993309   -0.014568316945877713   -0.0055096214445731345
0.07521545484204728   0.010324894300257846   0.0063762363481835935
0.07521545484204728   0.010324894300257846   0.0063762363481835935
0.07521545484204728   0.010324894300257846   0.0063762363481835935
0.07521545484204728   0.010324894300257846   0.0063762363481835935
0.073168619750061   0.008019530489879221   -0.004182549517448585
0.073168619750061   0.008019530489879221   -0.004182549517448585
0.073168619750061   0.008019530489879221   -0.004182549517448585
0.073168619750061   0.008019530489879221   -0.004182549517448585
-0.007195204152966745   -0.0021778593373080212   0.0005680385398110645
-0.007195204152966745   -0.0021778593373080212   0.0005680385398110645
-0.007195204152966745   -0.0021778593373080212   0.0005680385398110645
-0.007195204152966745   -0.0021778593373080212   0.0005680385398110645
0.03198529340202243   0.00019290146090880905   0.0011909944666749432
0.03198529340202243   0.00019290146090880905   0.0011909944666749432
0.03198529340202243   0.00019290146090880905   0.0011909944666749432
0.03198529340202243   0.00019290146090880905   0.0011909944666749432
-0.010034515334477103   -0.00912155163712371   -0.006684825067925126
-0.010034515334477103   -0.00912155163712371   -0.006684825067925126
-0.010034515334477103   -0.00912155163712371   -0.006684825067925126
-0.010034515334477103   -0.00912155163712371   -0.006684825067925126
0.07660606094236848   0.015561352800492013   0.005462834133476
0.07660606094236848   0.015561352800492013   0.005462834133476
0.07660606094236848   0.015561352800492013   0.005462834133476
0.07660606094236848   0.015561352800492013   0.005462834133476
0.07411057528577704   0.015047138982674001   -0.00443506579817727
0.07411057528577704   0.015047138982674001   -0.00443506579817727
0.07411057528577704   0.015047138982674001   -0.00443506579817727
0.07411057528577704   0.015047138982674001   -0.00443506579817727
-0.007057096272041301   0.0035956096265005733   -0.000522590321362752
-0.007057096272041301   0.0035956096265005733   -0.000522590321362752
-0.007057096272041301   0.0035956096265005733   -0.000522590321362752
-0.007057096272041301   0.0035956096265005733   -0.000522590321362752
0.03333820764631527   0.005801116310805769   0.003659854304947607
0.03333820764631527   0.005801116310805769   0.003659854304947607
0.03333820764631527   0.005801116310805769   0.003659854304947607
0.03333820764631527   0.005801116310805769   0.003659854304947607
0.06605967445832214   -0.020109724104191463   -0.00861946190781501
0.06605967445832214   -0.020109724104191463   -0.00861946190781501
0.06605967445832214   -0.020109724104191463   -0.00861946190781501
0.06605967445832214   -0.020109724104191463   -0.00861946190781501
0.14722686689632059   0.010968001889013385   0.008148473931869252
0.14722686689632059   0.010968001889013385   0.008148473931869252
0.14722686689632059   0.010968001889013385   0.008148473931869252
0.14722686689632059   0.010968001889013385   0.008148473931869252
0.14613398554245693   -0.0014858807980153536   -0.011482946440180858
0.14613398554245693   -0.0014858807980153536   -0.011482946440180858
0.14613398554245693   -0.0014858807980153536   -0.011482946440180858
0.14613398554245693   -0.0014858807980153536   -0.011482946440180858
0.07271674308728415   -0.0013318590313311125   0.005539430905957331
0.07271674308728415   -0.0013318590313311125   0.005539430905957331
0.07271674308728415   -0.0013318590313311125   0.005539430905957331
0.07271674308728415   -0.0013318590313311125   0.005539430905957331
0.10277726806697636   -0.004119219172378924   -0.003520266706239095
0.10277726806697636   -0.004119219172378924   -0.003520266706239095
0.10277726806697636   -0.004119219172378924   -0.003520266706239095
0.10277726806697636   -0.004119219172378924   -0.003520266706239095
0.0662957351848689   -0.01728036259082224   -0.010617105046627249
0.0662957351848689   -0.01728036259082224   -0.010617105046627249
0.0662957351848689   -0.01728036259082224   -0.010617105046627249
0.0662957351848689   -0.01728036259082224   -0.010617105046627249
0.15301079687845692   0.014918426195060907   0.006496803246742763
0.15301079687845692   0.014918426195060907   0.006496803246742763
0.15301079687845692   0.014918426195060907   0.006496803246742763
0.15301079687845692   0.014918426195060907   0.006496803246742763
0.150162092248902   0.0017349843195495276   -0.015495824411598457
0.150162092248902   0.0017349843195495276   -0.015495824411598457
0.150162092248902   0.0017349843195495276   -0.015495824411598457
0.150162092248902   0.0017349843195495276   -0.015495824411598457
0.0734650587266348   0.0011316646585427213   0.004187511196758072
0.0734650587266348   0.0011316646585427213   0.004187511196758072
0.0734650587266348   0.0011316646585427213   0.004187511196758072
0.0734650587266348   0.0011316646585427213   0.004187511196758072
0.10780746243436311   -0.0006007879318878535   -0.0009900954042110248
0.10780746243436311   -0.0006007879318878535   -0.0009900954042110248
0.10780746243436311   -0.0006007879318878535   -0.0009900954042110248
0.10780746243436311   -0.0006007879318878535   -0.0009900954042110248
0.06726111564514453   -0.014071795024427073   -0.011628744527723988
0.06726111564514453   -0.014071795024427073   -0.011628744527723988
0.06726111564514453   -0.014071795024427073   -0.011628744527723988
0.06726111564514453   -0.014071795024427073   -0.011628744527723988
0.15737936062680735   0.017951769298934127   0.0043737324985444765
0.15737936062680735   0.017951769298934127   0.0043737324985444765
0.15737936062680735   0.017951769298934127   0.0043737324985444765
0.15737936062680735   0.017951769298934127   0.0043737324985444765
0.15653389341534896   0.010073718497225045   -0.01468357463912319
0.15653389341534896   0.010073718497225045   -0.01468357463912319
0.15653389341534896   0.010073718497225045   -0.01468357463912319
0.15653389341534896   0.010073718497225045   -0.01468357463912319
0.07389632762847248   0.006443514989480608   0.003097319908494519
0.07389632762847248   0.006443514989480608   0.003097319908494519
0.07389632762847248   0.006443514989480608   0.003097319908494519
0.07389632762847248   0.006443514989480608   0.003097319908494519
0.10899519399779048   0.0033669939662921144   0.0018649928216579199
0.10899519399779048   0.0033669939662921144   0.0018649928216579199
0.10899519399779048   0.0033669939662921144   0.0018649928216579199
0.10899519399779048   0.0033669939662921144   0.0018649928216579199
-0.17271663562150807   -0.005254272319112727   0.011991140906613499
-0.17271663562150807   -0.005254272319112727   0.011991140906613499
-0.17271663562150807   -0.005254272319112727   0.011991140906613499
-0.17271663562150807   -0.005254272319112727   0.011991140906613499
-0.12241371201495845   -0.008580448731816515   -0.0044331753786322065
-0.12241371201495845   -0.008580448731816515   -0.0044331753786322065
-0.12241371201495845   -0.008580448731816515   -0.0044331753786322065
-0.12241371201495845   -0.008580448731816515   -0.0044331753786322065
-0.11496418982758763   0.011754581830438426   0.010171699814495144
-0.11496418982758763   0.011754581830438426   0.010171699814495144
-0.11496418982758763   0.011754581830438426   0.010171699814495144
-0.11496418982758763   0.011754581830438426   0.010171699814495144
-0.17271196382022413   -0.014307138780071608   -0.006504995113307292
-0.17271196382022413   -0.014307138780071608   -0.006504995113307292
-0.17271196382022413   -0.014307138780071608   -0.006504995113307292
-0.17271196382022413   -0.014307138780071608   -0.006504995113307292
-0.1398189157188285   -0.0021370599899247743   -0.0006318272712622615
-0.1398189157188285   -0.0021370599899247743   -0.0006318272712622615
-0.1398189157188285   -0.0021370599899247743   -0.0006318272712622615
-0.1398189157188285   -0.0021370599899247743   -0.0006318272712622615
-0.1659177227876583   0.001801124607846094   0.011357946661604154
-0.1659177227876583   0.001801124607846094   0.011357946661604154
-0.1659177227876583   0.001801124607846094   0.011357946661604154
-0.1659177227876583   0.001801124607846094   0.011357946661604154
-0.12119814173418418   -0.0037933924315097685   -0.005450085456538011
-0.12119814173418418   -0.0037933924315097685   -0.005450085456538011
-0.12119814173418418   -0.0037933924315097685   -0.005450085456538011
-0.12119814173418418   -0.0037933924315097685   -0.005450085456538011
-0.11386688502429954   0.014241574913154323   0.008559776682186555
-0.11386688502429954   0.014241574913154323   0.008559776682186555
-0.11386688502429954   0.014241574913154323   0.008559776682186555
-0.11386688502429954   0.014241574913154323   0.008559776682186555
-0.1684216289767765   -0.011526400584799545   -0.00817357183928346
-0.1684216289767765   -0.011526400584799545   -0.00817357183928346
-0.1684216289767765   -0.011526400584799545   -0.00817357183928346
-0.1684216289767765   -0.011526400584799545   -0.00817357183928346
-0.13869615683323433   0.0011226192062199457   0.0012531807718307898
-0.13869615683323433   0.0011226192062199457   0.0012531807718307898
-0.13869615683323433   0.0011226192062199457   0.0012531807718307898
-0.13869615683323433   0.0011226192062199457   0.0012531807718307898
-0.16171308765941425   0.004774104901866437   0.00906862926086184
-0.16171308765941425   0.004774104901866437   0.00906862926086184
-0.16171308765941425   0.004774104901866437   0.00906862926086184
-0.16171308765941425   0.004774104901866437   0.00906862926086184
-0.12007583790255363   -0.0015593421344030182   -0.006684070661525626
-0.12007583790255363   -0.0015593421344030182   -0.006684070661525626
-0.12007583790255363   -0.0015593421344030182   -0.006684070661525626
-0.12007583790255363   -0.0015593421344030182   -0.006684070661525626
-0.11326606499615233   0.01677594256908566   0.007360872850817404
-0.11326606499615233   0.01677594256908566   0.007360872850817404
-0.11326606499615233   0.01677594256908566   0.007360872850817404
-0.11326606499615233   0.01677594256908566   0.007360872850817404
-0.16273328990633476   -0.007799435420133557   -0.009755741917965202
-0.16273328990633476   -0.007799435420133557   -0.009755741917965202
-0.16273328990633476   -0.007799435420133557   -0.009755741917965202
-0.16273328990633476   -0.007799435420133557   -0.009755741917965202
-0.13338802858734072   0.004225612289748569   0.003834664228110114
-0.13338802858734072   0.004225612289748569   0.003834664228110114
-0.13338802858734072   0.004225612289748569   0.003834664228110114
-0.13338802858734072   0.004225612289748569   0.003834664228110114
-0.12080390862385139   -0.009681205703390958   0.004716598548476514
-0.12080390862385139   -0.009681205703390958   0.004716598548476514
-0.12080390862385139   -0.009681205703390958   0.004716598548476514
-0.12080390862385139   -0.009681205703390958   0.004716598548476514
-0.07148827254132603   -0.005550111877297084   -0.000721540438778322
-0.07148827254132603   -0.005550111877297084   -0.000721540438778322
-0.07148827254132603   -0.005550111877297084   -0.000721540438778322
-0.07148827254132603   -0.005550111877297084   -0.000721540438778322
-0.06782073591332798   0.006821030134881171   0.005477906118252757
-0.06782073591332798   0.006821030134881171   0.005477906118252757
-0.06782073591332798   0.006821030134881171   0.005477906118252757
-0.06782073591332798   0.006821030134881171   0.005477906118252757
-0.12269384494033278   -0.011624068084540367   -0.005097925834251844
-0.12269384494033278   -0.011624068084540367   -0.005097925834251844
-0.12269384494033278   -0.011624068084540367   -0.005097925834251844
-0.12269384494033278   -0.011624068084540367   -0.005097925834251844
-0.09536051879420242   -0.004551877093820732   -0.002085644220624218
-0.09536051879420242   -0.004551877093820732   -0.002085644220624218
-0.09536051879420242   -0.004551877093820732   -0.002085644220624218
-0.09536051879420242   -0.004551877093820732   -0.002085644220624218
-0.11933981939666258   -0.0038072841879371704   0.0038554179874956485
-0.11933981939666258   -0.0038072841879371704   0.0038554179874956485
-0.11933981939666258   -0.0038072841879371704   0.0038554179874956485
-0.11933981939666258   -0.0038072841879371704   0.0038554179874956485
-0.07074218602914704   -0.0005631783338709406   -0.001745135992090465
-0.07074218602914704   -0.0005631783338709406   -0.001745135992090465
-0.07074218602914704   -0.0005631783338709406   -0.001745135992090465
-0.07074218602914704   -0.0005631783338709406   -0.001745135992090465
-0.06696375219720235   0.011943177810718644   0.004473005132696152
-0.06696375219720235   0.011943177810718644   0.004473005132696152
-0.06696375219720235   0.011943177810718644   0.004473005132696152
-0.06696375219720235   0.011943177810718644   0.004473005132696152
-0.12099816123980466   -0.006836348842353877   -0.006018680639830926
-0.12099816123980466   -0.006836348842353877   -0.006018680639830926
-0.12099816123980466   -0.006836348842353877   -0.006018680639830926
-0.12099816123980466   -0.006836348842353877   -0.006018680639830926
-0.09351901119874328   0.0004275300998475805   5.717450733323196e-05
-0.09351901119874328   0.0004275300998475805   5.717450733323196e-05
-0.09351901119874328   0.0004275300998475805   5.717450733323196e-05
-0.09351901119874328   0.0004275300998475805   5.717450733323196e-05
-0.11739122133711671   0.0016658474687062733   0.003513822562548647
-0.11739122133711671   0.0016658474687062733   0.003513822562548647
-0.11739122133711671   0.0016658474687062733   0.003513822562548647
-0.11739122133711671   0.0016658474687062733   0.003513822562548647
-0.07003367982196443   0.003977993777584503   -0.0029114489579792676
-0.07003367982196443   0.003977993777584503   -0.0029114489579792676
-0.07003367982196443   0.003977993777584503   -0.0029114489579792676
-0.07003367982196443   0.003977993777584503   -0.0029114489579792676
-0.0661340522649915   0.01744484670132273   0.003537277855888324
-0.0661340522649915   0.01744484670132273   0.003537277855888324
-0.0661340522649915   0.01744484670132273   0.003537277855888324
-0.0661340522649915   0.01744484670132273   0.003537277855888324
-0.11974616598252891   -0.0016311847177827438   -0.006632504794196627
-0.11974616598252891   -0.0016311847177827438   -0.006632504794196627
-0.11974616598252891   -0.0016311847177827438   -0.006632504794196627
-0.11974616598252891   -0.0016311847177827438   -0.006632504794196627
-0.09278330537437848   0.0051717067495078255   0.0021197731024050846
-0.09278330537437848   0.0051717067495078255   0.0021197731024050846
-0.09278330537437848   0.0051717067495078255   0.0021197731024050846
-0.09278330537437848   0.0051717067495078255   0.0021197731024050846
-0.07292005804895817   -0.013770346265322465   0.0003397664110858945
-0.07292005804895817   -0.013770346265322465   0.0003397664110858945
-0.07292005804895817   -0.013770346265322465   0.0003397664110858945
-0.07292005804895817   -0.013770346265322465   0.0003397664110858945
-0.020950503344485456   -0.0019390128467841382   0.002940778693285267
-0.020950503344485456   -0.0019390128467841382   0.002940778693285267
-0.020950503344485456   -0.0019390128467841382   0.002940778693285267
-0.020950503344485456   -0.0019390128467841382   0.002940778693285267
-0.02050197602893128   0.0025464309441332045   0.0010039479043230995
-0.02050197602893128   0.0025464309441332045   0.0010039479043230995
-0.02050197602893128   0.0025464309441332045   0.0010039479043230995
-0.02050197602893128   0.0025464309441332045   0.0010039479043230995
-0.07212687429549493   -0.007910431036290525   -0.001321324621410788
-0.07212687429549493   -0.007910431036290525   -0.001321324621410788
-0.07212687429549493   -0.007910431036290525   -0.001321324621410788
-0.07212687429549493   -0.007910431036290525   -0.001321324621410788
-0.04671139371727181   -0.005033174273744655   -0.0014999401889819026
-0.04671139371727181   -0.005033174273744655   -0.0014999401889819026
-0.04671139371727181   -0.005033174273744655   -0.0014999401889819026
-0.04671139371727181   -0.005033174273744655   -0.0014999401889819026
-0.07199970446576968   -0.008060904688261778   -0.0005350018208133986
-0.07199970446576968   -0.008060904688261778   -0.0005350018208133986
-0.07199970446576968   -0.008060904688261778   -0.0005350018208133986
-0.07199970446576968   -0.008060904688261778   -0.0005350018208133986
-0.02019519224449439   0.003130858210266571   0.001953439560374173
-0.02019519224449439   0.003130858210266571   0.001953439560374173
-0.02019519224449439   0.003130858210266571   0.001953439560374173
-0.02019519224449439   0.003130858210266571   0.001953439560374173
-0.01946328101575842   0.008281779820039178   0.00020635099872216888
-0.01946328101575842   0.008281779820039178   0.00020635099872216888
-0.01946328101575842   0.008281779820039178   0.00020635099872216888
-0.01946328101575842   0.008281779820039178   0.00020635099872216888
-0.07126651250369466   -0.00280021080735072   -0.002297407781695944
-0.07126651250369466   -0.00280021080735072   -0.002297407781695944
-0.07126651250369466   -0.00280021080735072   -0.002297407781695944
-0.07126651250369466   -0.00280021080735072   -0.002297407781695944
-0.04559971290679983   9.737769357601699e-05   0.0005296228720684366
-0.04559971290679983   9.737769357601699e-05   0.0005296228720684366
-0.04559971290679983   9.737769357601699e-05   0.0005296228720684366
-0.04559971290679983   9.737769357601699e-05   0.0005296228720684366
-0.0709943528754091   -0.0023442240342993123   -0.0013925964133196037
-0.0709943528754091   -0.0023442240342993123   -0.0013925964133196037
-0.0709943528754091   -0.0023442240342993123   -0.0013925964133196037
-0.0709943528754091   -0.0023442240342993123   -0.0013925964133196037
-0.019334498533075607   0.008226735157956166   0.0009053080742194475
-0.019334498533075607   0.008226735157956166   0.0009053080742194475
-0.019334498533075607   0.008226735157956166   0.0009053080742194475
-0.019334498533075607   0.008226735157956166   0.0009053080742194475
-0.01852427861235558   0.014100542356777584   -0.000715040243370206
-0.01852427861235558   0.014100542356777584   -0.000715040243370206
-0.01852427861235558   0.014100542356777584   -0.000715040243370206
-0.01852427861235558   0.014100542356777584   -0.000715040243370206
-0.07052404371307784   0.0023644065070816955   -0.0033322391903025106
-0.07052404371307784   0.0023644065070816955   -0.0033322391903025106
-0.07052404371307784   0.0023644065070816955   -0.0033322391903025106
-0.07052404371307784   0.0023644065070816955   -0.0033322391903025106
-0.04458622550925326   0.00525300012689328   0.002485140637984336
-0.04458622550925326   0.00525300012689328   0.002485140637984336
-0.04458622550925326   0.00525300012689328   0.002485140637984336
-0.04458622550925326   0.00525300012689328   0.002485140637984336
-0.025355390734267923   -0.01712220823070041   -0.003900462871710952
-0.025355390734267923   -0.01712220823070041   -0.003900462871710952
-0.025355390734267923   -0.01712220823070041   -0.003900462871710952
-0.025355390734267923   -0.01712220823070041   -0.003900462871710952
0.02860456321605562   0.002081487860337376   0.006358805392859178
0.02860456321605562   0.002081487860337376   0.006358805392859178
0.02860456321605562   0.002081487860337376   0.006358805392859178
0.02860456321605562   0.002081487860337376   0.006358805392859178
0.026239336988984206   -0.0015036585848737152   -0.00379041022441113
0.026239336988984206   -0.0015036585848737152   -0.00379041022441113
0.026239336988984206   -0.0015036585848737152   -0.00379041022441113
0.026239336988984206   -0.0015036585848737152   -0.00379041022441113
-0.021492975461157453   -0.0038539209599852305   0.002449302647310649
-0.021492975461157453   -0.0038539209599852305   0.002449302647310649
-0.021492975461157453   -0.0038539209599852305   0.002449302647310649
-0.021492975461157453   -0.0038539209599852305   0.002449302647310649
0.0018261201244810224   -0.004954383610102402   -0.0010805193144463234
0.0018261201244810224   -0.004954383610102402   -0.0010805193144463234
0.0018261201244810224   -0.004954383610102402   -0.0010805193144463234
0.0018261201244810224   -0.004954383610102402   -0.0010805193144463234
-0.024555277748447908   -0.011873104531086068   -0.004843025218040777
-0.024555277748447908   -0.011873104531086068   -0.004843025218040777
-0.024555277748447908   -0.011873104531086068   -0.004843025218040777
-0.024555277748447908   -0.011873104531086068   -0.004843025218040777
0.02981659401504904   0.007030479725001426   0.005561736596037436
0.02981659401504904   0.007030479725001426   0.005561736596037436
0.02981659401504904   0.007030479725001426   0.005561736596037436
0.02981659401504904   0.007030479725001426   0.005561736596037436
0.028197070028505876   0.003925524891780247   -0.004307314496220208
0.028197070028505876   0.003925524891780247   -0.004307314496220208
0.028197070028505876   0.003925524891780247   -0.004307314496220208
0.028197070028505876   0.003925524891780247   -0.004307314496220208
-0.020745755695282822   0.0007155018274803034   0.0013602555936592323
-0.020745755695282822   0.0007155018274803034   0.0013602555936592323
-0.020745755695282822   0.0007155018274803034   0.0013602555936592323
-0.020745755695282822   0.0007155018274803034   0.0013602555936592323
0.00288324194792113   -0.0002696085205650883   0.0009947785979428385
0.00288324194792113   -0.0002696085205650883   0.0009947785979428385
0.00288324194792113   -0.0002696085205650883   0.0009947785979428385
0.00288324194792113   -0.0002696085205650883   0.0009947785979428385
-0.023701763312492873   -0.00677802917513135   -0.005926251489779451
-0.023701763312492873   -0.00677802917513135   -0.005926251489779451
-0.023701763312492873   -0.00677802917513135   -0.005926251489779451
-0.023701763312492873   -0.00677802917513135   -0.005926251489779451
0.031600698514299905   0.011866676762975786   0.004769676061553913
0.031600698514299905   0.011866676762975786   0.004769676061553913
0.031600698514299905   0.011866676762975786   0.004769676061553913
0.031600698514299905   0.011866676762975786   0.004769676061553913
0.029783616194068233   0.010068213654935577   -0.005000282645295338
0.029783616194068233   0.010068213654935577   -0.005000282645295338
0.029783616194068233   0.010068213654935577   -0.005000282645295338
0.029783616194068233   0.010068213654935577   -0.005000282645295338
-0.019949761649794187   0.0059343154224413865   0.0003237715037727757
-0.019949761649794187   0.0059343154224413865   0.0003237715037727757
-0.019949761649794187   0.0059343154224413865   0.0003237715037727757
-0.019949761649794187   0.0059343154224413865   0.0003237715037727757
0.004463137049898241   0.004763518560381137   0.0031231005979783896
0.004463137049898241   0.004763518560381137   0.0031231005979783896
0.004463137049898241   0.004763518560381137   0.0031231005979783896
0.004463137049898241   0.004763518560381137   0.0031231005979783896
0.02189483502216857   -0.01729147401286579   -0.007816873703372671
0.02189483502216857   -0.01729147401286579   -0.007816873703372671
0.02189483502216857   -0.01729147401286579   -0.007816873703372671
0.02189483502216857   -0.01729147401286579   -0.007816873703372671
0.07161614465866568   0.0072551150340716495   0.008438697821277786
0.07161614465866568   0.0072551150340716495   0.008438697821277786
0.07161614465866568   0.0072551150340716495   0.008438697821277786
0.07161614465866568   0.0072551150340716495   0.008438697821277786
0.0707754869860584   -0.004890705123296785   -0.010313543452645273
0.0707754869860584   -0.004890705123296785   -0.010313543452645273
0.0707754869860584   -0.004890705123296785   -0.010313543452645273
0.0707754869860584   -0.004890705123296785   -0.010313543452645273
0.028893043572343492   0.0016452168462183937   0.0063292472612929565
0.028893043572343492   0.0016452168462183937   0.0063292472612929565
0.028893043572343492   0.0016452168462183937   0.0063292472612929565
0.028893043572343492   0.0016452168462183937   0.0063292472612929565
0.04575543022212945   -0.003775010048570138   -0.0026087671096825956
0.04575543022212945   -0.003775010048570138   -0.0026087671096825956
0.04575543022212945   -0.003775010048570138   -0.0026087671096825956
0.04575543022212945   -0.003775010048570138   -0.0026087671096825956
0.022632687692530025   -0.014268349458153834   -0.009058965833402145
0.022632687692530025   -0.014268349458153834   -0.009058965833402145
0.022632687692530025   -0.014268349458153834   -0.009058965833402145
0.022632687692530025   -0.014268349458153834   -0.009058965833402145
0.07756071857874415   0.01154773689394797   0.00717417249354018
0.07756071857874415   0.01154773689394797   0.00717417249354018
0.07756071857874415   0.01154773689394797   0.00717417249354018
0.07756071857874415   0.01154773689394797   0.00717417249354018
0.0751142047031826   -0.0018638004905876977   -0.012438960525441821
0.0751142047031826   -0.0018638004905876977   -0.012438960525441821
0.0751142047031826   -0.0018638004905876977   -0.012438960525441821
0.0751142047031826   -0.0018638004905876977   -0.012438960525441821
0.030041648578728677   0.0038670429857504017   0.004974060160923158
0.030041648578728677   0.0038670429857504017   0.004974060160923158
0.030041648578728677   0.0038670429857504017   0.004974060160923158
0.030041648578728677   0.0038670429857504017   0.004974060160923158
0.050020651430098304   -0.0006906888009291182   -0.00019408233538985601
0.050020651430098304   -0.0006906888009291182   -0.00019408233538985601
0.050020651430098304   -0.0006906888009291182   -0.00019408233538985601
0.050020651430098304   -0.0006906888009291182   -0.00019408233538985601
0.023812281626762116   -0.01174794943617936   -0.010557782176979644
0.023812281626762116   -0.01174794943617936   -0.010557782176979644
0.023812281626762116   -0.01174794943617936   -0.010557782176979644
0.023812281626762116   -0.01174794943617936   -0.010557782176979644
0.08189663299197601   0.014304253268169184   0.005305127159769743
0.08189663299197601   0.014304253268169184   0.005305127159769743
0.08189663299197601   0.014304253268169184   0.005305127159769743
0.08189663299197601   0.014304253268169184   0.005305127159769743
0.08184276911711787   0.004738074346744491   -0.01337632479383144
0.08184276911711787   0.004738074346744491   -0.01337632479383144
0.08184276911711787   0.004738074346744491   -0.01337632479383144
0.08184276911711787   0.004738074346744491   -0.01337632479383144
0.03121294532826455   0.008246488840724943   0.0039680878398966725
0.03121294532826455   0.008246488840724943   0.0039680878398966725
0.03121294532826455   0.008246488840724943   0.0039680878398966725
0.03121294532826455   0.008246488840724943   0.0039680878398966725
0.05233705212781606   0.00265405489008326   0.0019336569486451067
0.05233705212781606   0.00265405489008326   0.0019336569486451067
0.05233705212781606   0.00265405489008326   0.0019336569486451067
0.05233705212781606   0.00265405489008326   0.0019336569486451067
-0.10056717606779252   -0.0012160712791856425   0.010542175937356221
-0.10056717606779252   -0.0012160712791856425   0.010542175937356221
-0.10056717606779252   -0.0012160712791856425   0.010542175937356221
-0.10056717606779252   -0.0012160712791856425   0.010542175937356221
-0.08047788401685516   -0.010554510329372515   -0.005058403942793296
-0.08047788401685516   -0.010554510329372515   -0.005058403942793296
-0.08047788401685516   -0.010554510329372515   -0.005058403942793296
-0.08047788401685516   -0.010554510329372515   -0.005058403942793296
-0.07276399750977339   0.008777109331701784   0.008968279135108942
-0.07276399750977339   0.008777109331701784   0.008968279135108942
-0.07276399750977339   0.008777109331701784   0.008968279135108942
-0.07276399750977339   0.008777109331701784   0.008968279135108942
-0.10024316693003908   -0.010996847523071498   -0.00694823641253289
-0.10024316693003908   -0.010996847523071498   -0.00694823641253289
-0.10024316693003908   -0.010996847523071498   -0.00694823641253289
-0.10024316693003908   -0.010996847523071498   -0.00694823641253289
-0.08522071685356987   -0.0022414660803293553   -0.0015740569342004513
-0.08522071685356987   -0.0022414660803293553   -0.0015740569342004513
-0.08522071685356987   -0.0022414660803293553   -0.0015740569342004513
-0.08522071685356987   -0.0022414660803293553   -0.0015740569342004513
-0.09368453152555732   0.004807471099070065   0.010040621987734298
-0.09368453152555732   0.004807471099070065   0.010040621987734298
-0.09368453152555732   0.004807471099070065   0.010040621987734298
-0.09368453152555732   0.004807471099070065   0.010040621987734298
-0.07884848804960674   -0.006553064425791311   -0.0061239998065642925
-0.07884848804960674   -0.006553064425791311   -0.0061239998065642925
-0.07884848804960674   -0.006553064425791311   -0.0061239998065642925
-0.07884848804960674   -0.006553064425791311   -0.0061239998065642925
-0.07106779534499247   0.011089596844723448   0.007552581676547457
-0.07106779534499247   0.011089596844723448   0.007552581676547457
-0.07106779534499247   0.011089596844723448   0.007552581676547457
-0.07106779534499247   0.011089596844723448   0.007552581676547457
-0.09553039914970421   -0.00837155917310929   -0.00862706128002161
-0.09553039914970421   -0.00837155917310929   -0.00862706128002161
-0.09553039914970421   -0.00837155917310929   -0.00862706128002161
-0.09553039914970421   -0.00837155917310929   -0.00862706128002161
-0.08275396900976116   0.0007616198729148947   0.00037337058157766497
-0.08275396900976116   0.0007616198729148947   0.00037337058157766497
-0.08275396900976116   0.0007616198729148947   0.00037337058157766497
-0.08275396900976116   0.0007616198729148947   0.00037337058157766497
-0.08899423819738068   0.007608524000527896   0.008073660307957906
-0.08899423819738068   0.007608524000527896   0.008073660307957906
-0.08899423819738068   0.007608524000527896   0.008073660307957906
-0.08899423819738068   0.007608524000527896   0.008073660307957906
-0.07716211851639249   -0.0044486485479903   -0.007380788787738391
-0.07716211851639249   -0.0044486485479903   -0.007380788787738391
-0.07716211851639249   -0.0044486485479903   -0.007380788787738391
-0.07716211851639249   -0.0044486485479903   -0.007380788787738391
-0.06972713652717802   0.014054636716018039   0.0065084653836340895
-0.06972713652717802   0.014054636716018039   0.0065084653836340895
-0.06972713652717802   0.014054636716018039   0.0065084653836340895
-0.06972713652717802   0.014054636716018039   0.0065084653836340895
-0.08921443510223415   -0.004151658338783382   -0.009962648705319859
-0.08921443510223415   -0.004151658338783382   -0.009962648705319859
-0.08921443510223415   -0.004151658338783382   -0.009962648705319859
-0.08921443510223415   -0.004151658338783382   -0.009962648705319859
-0.07785634375024944   0.0037711471658460963   0.0027501090977286296
-0.07785634375024944   0.0037711471658460963   0.0027501090977286296
-0.07785634375024944   0.0037711471658460963   0.0027501090977286296
-0.07785634375024944   0.0037711471658460963   0.0027501090977286296
-0.07743436032228927   -0.005561733754667798   0.005166437955331369
-0.07743436032228927   -0.005561733754667798   0.005166437955331369
-0.07743436032228927   -0.005561733754667798   0.005166437955331369
-0.07743436032228927   -0.005561733754667798   0.005166437955331369
-0.05866156077900465   -0.007977547265521943   -0.0014861670533578098
-0.05866156077900465   -0.007977547265521943   -0.0014861670533578098
-0.05866156077900465   -0.007977547265521943   -0.0014861670533578098
-0.05866156077900465   -0.007977547265521943   -0.0014861670533578098
-0.05444121932134536   0.003964188252336387   0.004590730231144506
-0.05444121932134536   0.003964188252336387   0.004590730231144506
-0.05444121932134536   0.003964188252336387   0.004590730231144506
-0.05444121932134536   0.003964188252336387   0.004590730231144506
-0.07876774507378458   -0.008056562720783417   -0.0042167866324613595
-0.07876774507378458   -0.008056562720783417   -0.0042167866324613595
-0.07876774507378458   -0.008056562720783417   -0.0042167866324613595
-0.07876774507378458   -0.008056562720783417   -0.0042167866324613595
-0.06718492985647127   -0.004031464676115726   -0.0019178220852280477
-0.06718492985647127   -0.004031464676115726   -0.0019178220852280477
-0.06718492985647127   -0.004031464676115726   -0.0019178220852280477
-0.06718492985647127   -0.004031464676115726   -0.0019178220852280477
-0.07549160926821245   -0.00028547487361903386   0.004392804548234486
-0.07549160926821245   -0.00028547487361903386   0.004392804548234486
-0.07549160926821245   -0.00028547487361903386   0.004392804548234486
-0.07549160926821245   -0.00028547487361903386   0.004392804548234486
-0.05733554515991734   -0.0034250896278279104   -0.002491621081551073
-0.05733554515991734   -0.0034250896278279104   -0.002491621081551073
-0.05733554515991734   -0.0034250896278279104   -0.002491621081551073
-0.05733554515991734   -0.0034250896278279104   -0.002491621081551073
-0.0529905263438695   0.008700500611611655   0.003657931734061563
-0.0529905263438695   0.008700500611611655   0.003657931734061563
-0.0529905263438695   0.008700500611611655   0.003657931734061563
-0.0529905263438695   0.008700500611611655   0.003657931734061563
-0.07651935544696024   -0.0035567179897418814   -0.005058903998825106
-0.07651935544696024   -0.0035567179897418814   -0.005058903998825106
-0.07651935544696024   -0.0035567179897418814   -0.005058903998825106
-0.07651935544696024   -0.0035567179897418814   -0.005058903998825106
-0.06503305543192883   0.0004811696148276975   0.00010233759846928507
-0.06503305543192883   0.0004811696148276975   0.00010233759846928507
-0.06503305543192883   0.0004811696148276975   0.00010233759846928507
-0.06503305543192883   0.0004811696148276975   0.00010233759846928507
-0.07304859425487438   0.004754114564142202   0.003984069407719171
-0.07304859425487438   0.004754114564142202   0.003984069407719171
-0.07304859425487438   0.004754114564142202   0.003984069407719171
-0.07304859425487438   0.004754114564142202   0.003984069407719171
-0.056020800041867026   0.0008301555518156582   -0.0036230916961306147
-0.056020800041867026   0.0008301555518156582   -0.0036230916961306147
-0.056020800041867026   0.0008301555518156582   -0.0036230916961306147
-0.056020800041867026   0.0008301555518156582   -0.0036230916961306147
-0.05154241065425568   0.013889904719500358   0.002769187063945651
-0.05154241065425568   0.013889904719500358   0.002769187063945651
-0.05154241065425568   0.013889904719500358   0.002769187063945651
-0.05154241065425568   0.013889904719500358   0.002769187063945651
-0.07470193650755251   0.001406770728460436   -0.005717668530680346
-0.07470193650755251   0.001406770728460436   -0.005717668530680346
-0.07470193650755251   0.001406770728460436   -0.005717668530680346
-0.07470193650755251   0.001406770728460436   -0.005717668530680346
-0.06349411158714821   0.00496315569973254   0.0020994010737647867
-0.06349411158714821   0.00496315569973254   0.0020994010737647867
-0.06349411158714821   0.00496315569973254   0.0020994010737647867
-0.06349411158714821   0.00496315569973254   0.0020994010737647867
-0.05853505642569774   -0.00984193142679408   0.0010107388744478405
-0.05853505642569774   -0.00984193142679408   0.0010107388744478405
-0.05853505642569774   -0.00984193142679408   0.0010107388744478405
-0.05853505642569774   -0.00984193142679408   0.0010107388744478405
-0.03700325374084263   -0.004467153201312324   0.002094843779764115
-0.03700325374084263   -0.004467153201312324   0.002094843779764115
-0.03700325374084263   -0.004467153201312324   0.002094843779764115
-0.03700325374084263   -0.004467153201312324   0.002094843779764115
-0.035965694216346725   -0.00036335570679662654   0.0002528719469105168
-0.035965694216346725   -0.00036335570679662654   0.0002528719469105168
-0.035965694216346725   -0.00036335570679662654   0.0002528719469105168
-0.035965694216346725   -0.00036335570679662654   0.0002528719469105168
-0.05711958514066354   -0.004378873450437304   -0.00045803716267265975
-0.05711958514066354   -0.004378873450437304   -0.00045803716267265975
-0.05711958514066354   -0.004378873450437304   -0.00045803716267265975
-0.05711958514066354   -0.004378873450437304   -0.00045803716267265975
-0.04723471938039341   -0.004533866256177289   -0.0014132872675124667
-0.04723471938039341   -0.004533866256177289   -0.0014132872675124667
-0.04723471938039341   -0.004533866256177289   -0.0014132872675124667
-0.04723471938039341   -0.004533866256177289   -0.0014132872675124667
-0.05703157401237835   -0.004588730874768294   0.00019187590308380304
-0.05703157401237835   -0.004588730874768294   0.00019187590308380304
-0.05703157401237835   -0.004588730874768294   0.00019187590308380304
-0.05703157401237835   -0.004588730874768294   0.00019187590308380304
-0.03567259398509119   0.00022761307707500587   0.0011274043193165405
-0.03567259398509119   0.00022761307707500587   0.0011274043193165405
-0.03567259398509119   0.00022761307707500587   0.0011274043193165405
-0.03567259398509119   0.00022761307707500587   0.0011274043193165405
-0.03437436201065371   0.004933320458973392   -0.0005219019431163268
-0.03437436201065371   0.004933320458973392   -0.0005219019431163268
-0.03437436201065371   0.004933320458973392   -0.0005219019431163268
-0.03437436201065371   0.004933320458973392   -0.0005219019431163268
-0.055664277485572504   0.00038502188189516034   -0.0013953452447374925
-0.055664277485572504   0.00038502188189516034   -0.0013953452447374925
-0.055664277485572504   0.00038502188189516034   -0.0013953452447374925
-0.055664277485572504   0.00038502188189516034   -0.0013953452447374925
-0.04554775802095404   0.0002036805504054117   0.0005576148128650068
-0.04554775802095404   0.0002036805504054117   0.0005576148128650068
-0.04554775802095404   0.0002036805504054117   0.0005576148128650068
-0.04554775802095404   0.0002036805504054117   0.0005576148128650068
-0.05545460826427549   0.000691046788000629   -0.0006530240443583511
-0.05545460826427549   0.000691046788000629   -0.0006530240443583511
-0.05545460826427549   0.000691046788000629   -0.0006530240443583511
-0.05545460826427549   0.000691046788000629   -0.0006530240443583511
-0.03423847101919366   0.004972855765625596   0.00011801770753200108
-0.03423847101919366   0.004972855765625596   0.00011801770753200108
-0.03423847101919366   0.004972855765625596   0.00011801770753200108
-0.03423847101919366   0.004972855765625596   0.00011801770753200108
-0.032868971255067894   0.010283835558739726   -0.0013901663900222974
-0.032868971255067894   0.010283835558739726   -0.0013901663900222974
-0.032868971255067894   0.010283835558739726   -0.0013901663900222974
-0.032868971255067894   0.010283835558739726   -0.0013901663900222974
-0.05431989345489109   0.0051838493911397394   -0.002412171610870515
-0.05431989345489109   0.0051838493911397394   -0.002412171610870515
-0.05431989345489109   0.0051838493911397394   -0.002412171610870515
-0.05431989345489109   0.0051838493911397394   -0.002412171610870515
-0.043961741413830496   0.004959003916248194   0.002447891190420581
-0.043961741413830496   0.004959003916248194   0.002447891190420581
-0.043961741413830496   0.004959003916248194   0.002447891190420581
-0.043961741413830496   0.004959003916248194   0.002447891190420581
-0.03986324204334385   -0.013515237047437782   -0.0031570138866171393
-0.03986324204334385   -0.013515237047437782   -0.0031570138866171393
-0.03986324204334385   -0.013515237047437782   -0.0031570138866171393
-0.03986324204334385   -0.013515237047437782   -0.0031570138866171393
-0.016306580952389512   -0.0007479718259307462   0.005464363829104824
-0.016306580952389512   -0.0007479718259307462   0.005464363829104824
-0.016306580952389512   -0.0007479718259307462   0.005464363829104824
-0.016306580952389512   -0.0007479718259307462   0.005464363829104824
-0.018069886283434193   -0.004518375072629126   -0.004296057093632085
-0.018069886283434193   -0.004518375072629126   -0.004296057093632085
-0.018069886283434193   -0.004518375072629126   -0.004296057093632085
-0.018069886283434193   -0.004518375072629126   -0.004296057093632085
-0.03540237215282885   -0.0005019368166052458   0.0032080633743081905
-0.03540237215282885   -0.0005019368166052458   0.0032080633743081905
-0.03540237215282885   -0.0005019368166052458   0.0032080633743081905
-0.03540237215282885   -0.0005019368166052458   0.0032080633743081905
-0.027365205759769647   -0.004616241284272401   -0.0010246798777581423
-0.027365205759769647   -0.004616241284272401   -0.0010246798777581423
-0.027365205759769647   -0.004616241284272401   -0.0010246798777581423
-0.027365205759769647   -0.004616241284272401   -0.0010246798777581423
-0.03845924163540936   -0.008543899079448115   -0.004034321775751856
-0.03845924163540936   -0.008543899079448115   -0.004034321775751856
-0.03845924163540936   -0.008543899079448115   -0.004034321775751856
-0.03845924163540936   -0.008543899079448115   -0.004034321775751856
-0.01458834569425921   0.003948258296808194   0.004645012482805749
-0.01458834569425921   0.003948258296808194   0.004645012482805749
-0.01458834569425921   0.003948258296808194   0.004645012482805749
-0.01458834569425921   0.003948258296808194   0.004645012482805749
-0.01566629919282089   0.0004907858449307058   -0.004842780821550694
-0.01566629919282089   0.0004907858449307058   -0.004842780821550694
-0.01566629919282089   0.0004907858449307058   -0.004842780821550694
-0.01566629919282089   0.0004907858449307058   -0.004842780821550694
-0.034071110174465916   0.0037712493589745315   0.002156428337821501
-0.034071110174465916   0.0037712493589745315   0.002156428337821501
-0.034071110174465916   0.0037712493589745315   0.002156428337821501
-0.034071110174465916   0.0037712493589745315   0.002156428337821501
-0.02553695457975053   -0.00017715507079893097   0.000993195592810425
-0.02553695457975053   -0.00017715507079893097   0.000993195592810425
-0.02553695457975053   -0.00017715507079893097   0.000993195592810425
-0.02553695457975053   -0.00017715507079893097   0.000993195592810425
-0.03702975562729215   -0.0038220493259337775   -0.00504350024140185
-0.03702975562729215   -0.0038220493259337775   -0.00504350024140185
-0.03702975562729215   -0.0038220493259337775   -0.00504350024140185
-0.03702975562729215   -0.0038220493259337775   -0.00504350024140185
-0.012311518078894804   0.00848022019093882   0.003941690402071843
-0.012311518078894804   0.00848022019093882   0.003941690402071843
-0.012311518078894804   0.00848022019093882   0.003941690402071843
-0.012311518078894804   0.00848022019093882   0.003941690402071843
-0.013639780788358704   0.006042923191311388   -0.005443170513310785
-0.013639780788358704   0.006042923191311388   -0.005443170513310785
-0.013639780788358704   0.006042923191311388   -0.005443170513310785
-0.013639780788358704   0.006042923191311388   -0.005443170513310785
-0.03270732038742329   0.00856020568848291   0.0011417178184575374
-0.03270732038742329   0.00856020568848291   0.0011417178184575374
-0.03270732038742329   0.00856020568848291   0.0011417178184575374
-0.03270732038742329   0.00856020568848291   0.0011417178184575374
-0.02368225113621205   0.00439010968541893   0.002990633422741369
-0.02368225113621205   0.00439010968541893   0.002990633422741369
-0.02368225113621205   0.00439010968541893   0.002990633422741369
-0.02368225113621205   0.00439010968541893   0.002990633422741369
-0.021537137693453716   -0.014458799450864394   -0.006977592251283044
-0.021537137693453716   -0.014458799450864394   -0.006977592251283044
-0.021537137693453716   -0.014458799450864394   -0.006977592251283044
-0.021537137693453716   -0.014458799450864394   -0.006977592251283044
-0.001973464428525555   0.003667734533795124   0.008532406366226345
-0.001973464428525555   0.003667734533795124   0.008532406366226345
-0.001973464428525555   0.003667734533795124   0.008532406366226345
-0.001973464428525555   0.003667734533795124   0.008532406366226345
-0.0021120601540009997   -0.007680465188461534   -0.009294059185762187
-0.0021120601540009997   -0.007680465188461534   -0.009294059185762187
-0.0021120601540009997   -0.007680465188461534   -0.009294059185762187
-0.0021120601540009997   -0.007680465188461534   -0.009294059185762187
-0.013993940428501536   0.004574009007777934   0.006991288100624156
-0.013993940428501536   0.004574009007777934   0.006991288100624156
-0.013993940428501536   0.004574009007777934   0.006991288100624156
-0.013993940428501536   0.004574009007777934   0.006991288100624156
-0.009787845735727786   -0.0032690754609564316   -0.001474712810038148
-0.009787845735727786   -0.0032690754609564316   -0.001474712810038148
-0.009787845735727786   -0.0032690754609564316   -0.001474712810038148
-0.009787845735727786   -0.0032690754609564316   -0.001474712810038148
-0.020120810798113713   -0.011031012023386164   -0.008038042716272634
-0.020120810798113713   -0.011031012023386164   -0.008038042716272634
-0.020120810798113713   -0.011031012023386164   -0.008038042716272634
-0.020120810798113713   -0.011031012023386164   -0.008038042716272634
0.004465831657209755   0.008375577284301142   0.00753935739752891
0.004465831657209755   0.008375577284301142   0.00753935739752891
0.004465831657209755   0.008375577284301142   0.00753935739752891
0.004465831657209755   0.008375577284301142   0.00753935739752891
0.002612708952588895   -0.004831825347664876   -0.01109134188001344
0.002612708952588895   -0.004831825347664876   -0.01109134188001344
0.002612708952588895   -0.004831825347664876   -0.01109134188001344
0.002612708952588895   -0.004831825347664876   -0.01109134188001344
-0.012340620837704238   0.0066429091701734715   0.005633487628789799
-0.012340620837704238   0.0066429091701734715   0.005633487628789799
-0.012340620837704238   0.0066429091701734715   0.005633487628789799
-0.012340620837704238   0.0066429091701734715   0.005633487628789799
-0.006027925270252994   -0.00031002029288000675   0.0006809209115495819
-0.006027925270252994   -0.00031002029288000675   0.0006809209115495819
-0.006027925270252994   -0.00031002029288000675   0.0006809209115495819
-0.006027925270252994   -0.00031002029288000675   0.0006809209115495819
-0.01840097181835246   -0.008684470622255022   -0.009340887482022818
-0.01840097181835246   -0.008684470622255022   -0.009340887482022818
-0.01840097181835246   -0.008684470622255022   -0.009340887482022818
-0.01840097181835246   -0.008684470622255022   -0.009340887482022818
0.009129484832796162   0.010951979344322103   0.0057087328290364
0.009129484832796162   0.010951979344322103   0.0057087328290364
0.009129484832796162   0.010951979344322103   0.0057087328290364
0.009129484832796162   0.010951979344322103   0.0057087328290364
0.009349426438830848   0.0006949318062085667   -0.011926178443251507
0.009349426438830848   0.0006949318062085667   -0.011926178443251507
0.009349426438830848   0.0006949318062085667   -0.011926178443251507
0.009349426438830848   0.0006949318062085667   -0.011926178443251507
-0.010805725022405049   0.010186022110489048   0.004584009397279839
-0.010805725022405049   0.010186022110489048   0.004584009397279839
-0.010805725022405049   0.010186022110489048   0.004584009397279839
-0.010805725022405049   0.010186022110489048   0.004584009397279839
-0.002436997750028456   0.002747762900495171   0.002832227873476383
-0.002436997750028456   0.002747762900495171   0.002832227873476383
-0.002436997750028456   0.002747762900495171   0.002832227873476383
-0.002436997750028456   0.002747762900495171   0.002832227873476383
-0.030109640166262133   0.002485819706533449   0.00977500238614349
-0.030109640166262133   0.002485819706533449   0.00977500238614349
-0.030109640166262133   0.002485819706533449   0.00977500238614349
-0.030109640166262133   0.002485819706533449   0.00977500238614349
-0.03963422718913472   -0.01254860829707936   -0.005581020316235855
-0.03963422718913472   -0.01254860829707936   -0.005581020316235855
-0.03963422718913472   -0.01254860829707936   -0.005581020316235855
-0.03963422718913472   -0.01254860829707936   -0.005581020316235855
-0.031647190956097866   0.0057038773971552995   0.007959412214663725
-0.031647190956097866   0.0057038773971552995   0.007959412214663725
-0.031647190956097866   0.0057038773971552995   0.007959412214663725
-0.031647190956097866   0.0057038773971552995   0.007959412214663725
-0.029347319633624927   -0.007743325964429969   -0.007274692381146057
-0.029347319633624927   -0.007743325964429969   -0.007274692381146057
-0.029347319633624927   -0.007743325964429969   -0.007274692381146057
-0.029347319633624927   -0.007743325964429969   -0.007274692381146057
-0.0319812967049008   -0.002438539624293602   -0.002849377252094105
-0.0319812967049008   -0.002438539624293602   -0.002849377252094105
-0.0319812967049008   -0.002438539624293602   -0.002849377252094105
-0.0319812967049008   -0.002438539624293602   -0.002849377252094105
-0.022994472313348793   0.007659818611611077   0.009086399644193546
-0.022994472313348793   0.007659818611611077   0.009086399644193546
-0.022994472313348793   0.007659818611611077   0.009086399644193546
-0.022994472313348793   0.007659818611611077   0.009086399644193546
-0.03757532394939771   -0.009274552851909382   -0.006702822502770337
-0.03757532394939771   -0.009274552851909382   -0.006702822502770337
-0.03757532394939771   -0.009274552851909382   -0.006702822502770337
-0.03757532394939771   -0.009274552851909382   -0.006702822502770337
-0.029372491815628364   0.00791853855707099   0.0066655200368039395
-0.029372491815628364   0.00791853855707099   0.0066655200368039395
-0.029372491815628364   0.00791853855707099   0.0066655200368039395
-0.029372491815628364   0.00791853855707099   0.0066655200368039395
-0.024150981956171377   -0.005240467560520881   -0.008996823084902676
-0.024150981956171377   -0.005240467560520881   -0.008996823084902676
-0.024150981956171377   -0.005240467560520881   -0.008996823084902676
-0.024150981956171377   -0.005240467560520881   -0.008996823084902676
-0.02815464669772325   0.00036385720306109353   -0.0007590820966301497
-0.02815464669772325   0.00036385720306109353   -0.0007590820966301497
-0.02815464669772325   0.00036385720306109353   -0.0007590820966301497
-0.02815464669772325   0.00036385720306109353   -0.0007590820966301497
-0.017789886781285316   0.010346327168650133   0.00722185806035661
-0.017789886781285316   0.010346327168650133   0.00722185806035661
-0.017789886781285316   0.010346327168650133   0.00722185806035661
-0.017789886781285316   0.010346327168650133   0.00722185806035661
-0.0353414113008582   -0.007276080482443721   -0.007984458349830048
-0.0353414113008582   -0.007276080482443721   -0.007984458349830048
-0.0353414113008582   -0.007276080482443721   -0.007984458349830048
-0.0353414113008582   -0.007276080482443721   -0.007984458349830048
-0.027318724294513153   0.0113703515802832   0.005751690082292077
-0.027318724294513153   0.0113703515802832   0.005751690082292077
-0.027318724294513153   0.0113703515802832   0.005751690082292077
-0.027318724294513153   0.0113703515802832   0.005751690082292077
-0.017201292172651587   -0.0004896671800916708   -0.010114952314106756
-0.017201292172651587   -0.0004896671800916708   -0.010114952314106756
-0.017201292172651587   -0.0004896671800916708   -0.010114952314106756
-0.017201292172651587   -0.0004896671800916708   -0.010114952314106756
-0.023632985843022366   0.003338983502723006   0.0014461915756239013
-0.023632985843022366   0.003338983502723006   0.0014461915756239013
-0.023632985843022366   0.003338983502723006   0.0014461915756239013
-0.023632985843022366   0.003338983502723006   0.0014461915756239013
-0.035231425732911874   -0.0018478425933928016   0.005732221261191303
-0.035231425732911874   -0.0018478425933928016   0.005732221261191303
-0.035231425732911874   -0.0018478425933928016   0.005732221261191303
-0.035231425732911874   -0.0018478425933928016   0.005732221261191303
-0.04630496960017735   -0.010253070525854575   -0.002174948883174514
-0.04630496960017735   -0.010253070525854575   -0.002174948883174514
-0.04630496960017735   -0.010253070525854575   -0.002174948883174514
-0.04630496960017735   -0.010253070525854575   -0.002174948883174514
-0.041639168922570725   0.0009534104064148948   0.003704502852316342
-0.041639168922570725   0.0009534104064148948   0.003704502852316342
-0.041639168922570725   0.0009534104064148948   0.003704502852316342
-0.041639168922570725   0.0009534104064148948   0.003704502852316342
-0.035912793294992626   -0.004448091837218943   -0.0032166302454353524
-0.035912793294992626   -0.004448091837218943   -0.0032166302454353524
-0.035912793294992626   -0.004448091837218943   -0.0032166302454353524
-0.035912793294992626   -0.004448091837218943   -0.0032166302454353524
-0.03984215351575915   -0.0035769818126676284   -0.0019155234390547638
-0.03984215351575915   -0.0035769818126676284   -0.0019155234390547638
-0.03984215351575915   -0.0035769818126676284   -0.0019155234390547638
-0.03984215351575915   -0.0035769818126676284   -0.0019155234390547638
-0.0327840947791292   0.002982732303310257   0.004996038193351626
-0.0327840947791292   0.002982732303310257   0.004996038193351626
-0.0327840947791292   0.002982732303310257   0.004996038193351626
-0.0327840947791292   0.002982732303310257   0.004996038193351626
-0.04443215907137721   -0.0061417053670576   -0.0031653321182440602
-0.04443215907137721   -0.0061417053670576   -0.0031653321182440602
-0.04443215907137721   -0.0061417053670576   -0.0031653321182440602
-0.04443215907137721   -0.0061417053670576   -0.0031653321182440602
-0.03962372401715422   0.005397230531767711   0.0028152071789206744
-0.03962372401715422   0.005397230531767711   0.0028152071789206744
-0.03962372401715422   0.005397230531767711   0.0028152071789206744
-0.03962372401715422   0.005397230531767711   0.0028152071789206744
-0.03313416725316924   -0.00022053166723810282   -0.004003786926590388
-0.03313416725316924   -0.00022053166723810282   -0.004003786926590388
-0.03313416725316924   -0.00022053166723810282   -0.004003786926590388
-0.03313416725316924   -0.00022053166723810282   -0.004003786926590388
-0.03739497274197459   0.0005203353752446654   -2.3487860135165337e-06
-0.03739497274197459   0.0005203353752446654   -2.3487860135165337e-06
-0.03739497274197459   0.0005203353752446654   -2.3487860135165337e-06
-0.03739497274197459   0.0005203353752446654   -2.3487860135165337e-06
-0.029849143225850038   0.007691054635665407   0.004509746907101141
-0.029849143225850038   0.007691054635665407   0.004509746907101141
-0.029849143225850038   0.007691054635665407   0.004509746907101141
-0.029849143225850038   0.007691054635665407   0.004509746907101141
-0.0425498619765752   -0.002155469703236615   -0.004262782383180829
-0.0425498619765752   -0.002155469703236615   -0.004262782383180829
-0.0425498619765752   -0.002155469703236615   -0.004262782383180829
-0.0425498619765752   -0.002155469703236615   -0.004262782383180829
-0.03759400050132101   0.01036576985017281   0.0019693910716500193
-0.03759400050132101   0.01036576985017281   0.0019693910716500193
-0.03759400050132101   0.01036576985017281   0.0019693910716500193
-0.03759400050132101   0.01036576985017281   0.0019693910716500193
-0.03078106466771509   0.0045229272693993045   -0.004712587472832723
-0.03078106466771509   0.0045229272693993045   -0.004712587472832723
-0.03078106466771509   0.0045229272693993045   -0.004712587472832723
-0.03078106466771509   0.0045229272693993045   -0.004712587472832723
-0.035076233016205986   0.004807948976536396   0.00196491680161387
-0.035076233016205986   0.004807948976536396   0.00196491680161387
-0.035076233016205986   0.004807948976536396   0.00196491680161387
-0.035076233016205986   0.004807948976536396   0.00196491680161387
-0.044700355424176455   -0.006088776666448163   0.0016838281374225842
-0.044700355424176455   -0.006088776666448163   0.0016838281374225842
-0.044700355424176455   -0.006088776666448163   0.0016838281374225842
-0.044700355424176455   -0.006088776666448163   0.0016838281374225842
-0.05282315990265895   -0.006763971904550982   0.0012826664492600226
-0.05282315990265895   -0.006763971904550982   0.0012826664492600226
-0.05282315990265895   -0.006763971904550982   0.0012826664492600226
-0.05282315990265895   -0.006763971904550982   0.0012826664492600226
-0.05126030298235451   -0.0032167048665584855   -0.0005064764015875901
-0.05126030298235451   -0.0032167048665584855   -0.0005064764015875901
-0.05126030298235451   -0.0032167048665584855   -0.0005064764015875901
-0.05126030298235451   -0.0032167048665584855   -0.0005064764015875901
-0.04263402041257281   -0.0007718327089973956   0.00045548851771773325
-0.04263402041257281   -0.0007718327089973956   0.00045548851771773325
-0.04263402041257281   -0.0007718327089973956   0.00045548851771773325
-0.04263402041257281   -0.0007718327089973956   0.00045548851771773325
-0.04792697549598123   -0.003973280600139155   -0.0013000595701846398
-0.04792697549598123   -0.003973280600139155   -0.0013000595701846398
-0.04792697549598123   -0.003973280600139155   -0.0013000595701846398
-0.04792697549598123   -0.003973280600139155   -0.0013000595701846398
-0.042634958169732874   -0.0012121226826100114   0.0008910897055293024
-0.042634958169732874   -0.0012121226826100114   0.0008910897055293024
-0.042634958169732874   -0.0012121226826100114   0.0008910897055293024
-0.042634958169732874   -0.0012121226826100114   0.0008910897055293024
-0.05093921422732892   -0.002456263895079117   0.0003385264020613981
-0.05093921422732892   -0.002456263895079117   0.0003385264020613981
-0.05093921422732892   -0.002456263895079117   0.0003385264020613981
-0.05093921422732892   -0.002456263895079117   0.0003385264020613981
-0.04912716327926914   0.0017184451469971773   -0.0012653431255346139
-0.04912716327926914   0.0017184451469971773   -0.0012653431255346139
-0.04912716327926914   0.0017184451469971773   -0.0012653431255346139
-0.04912716327926914   0.0017184451469971773   -0.0012653431255346139
-0.040624883168935776   0.003651814846770733   -0.0004451728949901061
-0.040624883168935776   0.003651814846770733   -0.0004451728949901061
-0.040624883168935776   0.003651814846770733   -0.0004451728949901061
-0.040624883168935776   0.003651814846770733   -0.0004451728949901061
-0.04568793890545903   0.00041543977325278307   0.0006017636187553338
-0.04568793890545903   0.00041543977325278307   0.0006017636187553338
-0.04568793890545903   0.00041543977325278307   0.0006017636187553338
-0.04568793890545903   0.00041543977325278307   0.0006017636187553338
-0.04051468405759164   0.0037046142651157472   5.3023243384576514e-05
-0.04051468405759164   0.0037046142651157472   5.3023243384576514e-05
-0.04051468405759164   0.0037046142651157472   5.3023243384576514e-05
-0.04051468405759164   0.0037046142651157472   5.3023243384576514e-05
-0.04895570954797536   0.0019472985712892764   -0.0006369278933578163
-0.04895570954797536   0.0019472985712892764   -0.0006369278933578163
-0.04895570954797536   0.0019472985712892764   -0.0006369278933578163
-0.04895570954797536   0.0019472985712892764   -0.0006369278933578163
-0.047082890726327806   0.006692288314190114   -0.0021069797241819255
-0.047082890726327806   0.006692288314190114   -0.0021069797241819255
-0.047082890726327806   0.006692288314190114   -0.0021069797241819255
-0.047082890726327806   0.006692288314190114   -0.0021069797241819255
-0.038732183429213835   0.008093665846183967   -0.001449419563824537
-0.038732183429213835   0.008093665846183967   -0.001449419563824537
-0.038732183429213835   0.008093665846183967   -0.001449419563824537
-0.038732183429213835   0.008093665846183967   -0.001449419563824537
-0.043565282925832616   0.004814357305840407   0.0024130534379463806
-0.043565282925832616   0.004814357305840407   0.0024130534379463806
-0.043565282925832616   0.004814357305840407   0.0024130534379463806
-0.043565282925832616   0.004814357305840407   0.0024130534379463806
-0.0541939440220781   -0.009904468680139113   -0.0024307573722484326
-0.0541939440220781   -0.009904468680139113   -0.0024307573722484326
-0.0541939440220781   -0.009904468680139113   -0.0024307573722484326
-0.0541939440220781   -0.009904468680139113   -0.0024307573722484326
-0.060056853314650396   -0.0033357147522437673   0.004555570829388355
-0.060056853314650396   -0.0033357147522437673   0.004555570829388355
-0.060056853314650396   -0.0033357147522437673   0.004555570829388355
-0.060056853314650396   -0.0033357147522437673   0.004555570829388355
-0.06120591029554859   -0.00726816526549896   -0.004819540727440634
-0.06120591029554859   -0.00726816526549896   -0.004819540727440634
-0.06120591029554859   -0.00726816526549896   -0.004819540727440634
-0.06120591029554859   -0.00726816526549896   -0.004819540727440634
-0.04914902573093949   0.0028857644370125276   0.003947440551916523
-0.04914902573093949   0.0028857644370125276   0.003947440551916523
-0.04914902573093949   0.0028857644370125276   0.003947440551916523
-0.04914902573093949   0.0028857644370125276   0.003947440551916523
-0.05589149566969332   -0.004139044733332861   -0.0008287982503967476
-0.05589149566969332   -0.004139044733332861   -0.0008287982503967476
-0.05589149566969332   -0.004139044733332861   -0.0008287982503967476
-0.05589149566969332   -0.004139044733332861   -0.0008287982503967476
-0.052197039298578385   -0.005153212908724969   -0.003253649940540893
-0.052197039298578385   -0.005153212908724969   -0.003253649940540893
-0.052197039298578385   -0.005153212908724969   -0.003253649940540893
-0.052197039298578385   -0.005153212908724969   -0.003253649940540893
-0.057822896745895525   0.001105812062251993   0.0037215496930737262
-0.057822896745895525   0.001105812062251993   0.0037215496930737262
-0.057822896745895525   0.001105812062251993   0.0037215496930737262
-0.057822896745895525   0.001105812062251993   0.0037215496930737262
-0.058327034482110324   -0.0025934339134832014   -0.005411063716822752
-0.058327034482110324   -0.0025934339134832014   -0.005411063716822752
-0.058327034482110324   -0.0025934339134832014   -0.005411063716822752
-0.058327034482110324   -0.0025934339134832014   -0.005411063716822752
-0.04725614862674005   0.006868152485760443   0.002940022798347085
-0.04725614862674005   0.006868152485760443   0.002940022798347085
-0.04725614862674005   0.006868152485760443   0.002940022798347085
-0.04725614862674005   0.006868152485760443   0.002940022798347085
-0.05328895475094845   0.0001074259335798744   0.0011440040343604382
-0.05328895475094845   0.0001074259335798744   0.0011440040343604382
-0.05328895475094845   0.0001074259335798744   0.0011440040343604382
-0.05328895475094845   0.0001074259335798744   0.0011440040343604382
-0.0502071689582491   -0.0007305277833617348   -0.0042163985900766495
-0.0502071689582491   -0.0007305277833617348   -0.0042163985900766495
-0.0502071689582491   -0.0007305277833617348   -0.0042163985900766495
-0.0502071689582491   -0.0007305277833617348   -0.0042163985900766495
-0.05503765564551162   0.005343604860729238   0.0030987916919587993
-0.05503765564551162   0.005343604860729238   0.0030987916919587993
-0.05503765564551162   0.005343604860729238   0.0030987916919587993
-0.05503765564551162   0.005343604860729238   0.0030987916919587993
-0.055820030804274896   0.0025188633387319727   -0.005952283513445544
-0.055820030804274896   0.0025188633387319727   -0.005952283513445544
-0.055820030804274896   0.0025188633387319727   -0.005952283513445544
-0.055820030804274896   0.0025188633387319727   -0.005952283513445544
-0.045358957915926305   0.011260008269351229   0.0019449643726644796
-0.045358957915926305   0.011260008269351229   0.0019449643726644796
-0.045358957915926305   0.011260008269351229   0.0019449643726644796
-0.045358957915926305   0.011260008269351229   0.0019449643726644796
-0.051156677481640364   0.004266170572345964   0.0030112537251362377
-0.051156677481640364   0.004266170572345964   0.0030112537251362377
-0.051156677481640364   0.004266170572345964   0.0030112537251362377
-0.051156677481640364   0.004266170572345964   0.0030112537251362377
-0.06388113266369241   -0.011667157100080686   -0.006234383567985842
-0.06388113266369241   -0.011667157100080686   -0.006234383567985842
-0.06388113266369241   -0.011667157100080686   -0.006234383567985842
-0.06388113266369241   -0.011667157100080686   -0.006234383567985842
-0.07329269906188407   0.00028629513845027446   0.008443356559612135
-0.07329269906188407   0.00028629513845027446   0.008443356559612135
-0.07329269906188407   0.00028629513845027446   0.008443356559612135
-0.07329269906188407   0.00028629513845027446   0.008443356559612135
-0.07270326658896298   -0.010245347957253351   -0.008396170564070833
-0.07270326658896298   -0.010245347957253351   -0.008396170564070833
-0.07270326658896298   -0.010245347957253351   -0.008396170564070833
-0.07270326658896298   -0.010245347957253351   -0.008396170564070833
-0.0557898967348299   0.007430213929043462   0.0075621478816099005
-0.0557898967348299   0.007430213929043462   0.0075621478816099005
-0.0557898967348299   0.007430213929043462   0.0075621478816099005
-0.0557898967348299   0.007430213929043462   0.0075621478816099005
-0.06369913607708022   -0.00271007675102671   -0.00020192583656635519
-0.06369913607708022   -0.00271007675102671   -0.00020192583656635519
-0.06369913607708022   -0.00271007675102671   -0.00020192583656635519
-0.06369913607708022   -0.00271007675102671   -0.00020192583656635519
-0.06177941859783135   -0.007810328122570489   -0.00714491938178432
-0.06177941859783135   -0.007810328122570489   -0.00714491938178432
-0.06177941859783135   -0.007810328122570489   -0.00714491938178432
-0.06177941859783135   -0.007810328122570489   -0.00714491938178432
-0.06636093551365661   0.005348003306664654   0.007722133548542564
-0.06636093551365661   0.005348003306664654   0.007722133548542564
-0.06636093551365661   0.005348003306664654   0.007722133548542564
-0.06636093551365661   0.005348003306664654   0.007722133548542564
-0.06756026767112325   -0.0075374096950715005   -0.010048459864012219
-0.06756026767112325   -0.0075374096950715005   -0.010048459864012219
-0.06756026767112325   -0.0075374096950715005   -0.010048459864012219
-0.06756026767112325   -0.0075374096950715005   -0.010048459864012219
-0.05361644187088292   0.009338989308504417   0.006209476117326636
-0.05361644187088292   0.009338989308504417   0.006209476117326636
-0.05361644187088292   0.009338989308504417   0.006209476117326636
-0.05361644187088292   0.009338989308504417   0.006209476117326636
-0.060399033216763626   0.00014684388941707018   0.0016645354457344597
-0.060399033216763626   0.00014684388941707018   0.0016645354457344597
-0.060399033216763626   0.00014684388941707018   0.0016645354457344597
-0.060399033216763626   0.00014684388941707018   0.0016645354457344597
-0.059503403897938206   -0.005578011591267678   -0.008308333118178138
-0.059503403897938206   -0.005578011591267678   -0.008308333118178138
-0.059503403897938206   -0.005578011591267678   -0.008308333118178138
-0.059503403897938206   -0.005578011591267678   -0.008308333118178138
-0.06130120109349122   0.007751695755277262   0.005957767573799156
-0.06130120109349122   0.007751695755277262   0.005957767573799156
-0.06130120109349122   0.007751695755277262   0.005957767573799156
-0.06130120109349122   0.007751695755277262   0.005957767573799156
-0.06068197956898238   -0.002911272773249077   -0.011026210474833448
-0.06068197956898238   -0.002911272773249077   -0.011026210474833448
-0.06068197956898238   -0.002911272773249077   -0.011026210474833448
-0.06068197956898238   -0.002911272773249077   -0.011026210474833448
-0.051694965846599744   0.012077746611722185   0.005114158001939764
-0.051694965846599744   0.012077746611722185   0.005114158001939764
-0.051694965846599744   0.012077746611722185   0.005114158001939764
-0.051694965846599744   0.012077746611722185   0.005114158001939764
-0.055517126284198914   0.0029529868597240726   0.0038719336173467134
-0.055517126284198914   0.0029529868597240726   0.0038719336173467134
-0.055517126284198914   0.0029529868597240726   0.0038719336173467134
-0.055517126284198914   0.0029529868597240726   0.0038719336173467134
0.03914358394164664   0.006164154893419722   0.009204984505478192
0.03914358394164664   0.006164154893419722   0.009204984505478192
0.03914358394164664   0.006164154893419722   0.009204984505478192
0.03914358394164664   0.006164154893419722   0.009204984505478192
0.00014400270896943205   -0.014623401666898208   -0.005934583517717678
0.00014400270896943205   -0.014623401666898208   -0.005934583517717678
0.00014400270896943205   -0.014623401666898208   -0.005934583517717678
0.00014400270896943205   -0.014623401666898208   -0.005934583517717678
0.008395119523796075   0.002673973417122339   0.0070693653691906435
0.008395119523796075   0.002673973417122339   0.0070693653691906435
0.008395119523796075   0.002673973417122339   0.0070693653691906435
0.008395119523796075   0.002673973417122339   0.0070693653691906435
0.040347782351308155   -0.00457105052012933   -0.00750444671537711
0.040347782351308155   -0.00457105052012933   -0.00750444671537711
0.040347782351308155   -0.00457105052012933   -0.00750444671537711
0.040347782351308155   -0.00457105052012933   -0.00750444671537711
0.020085908010895864   -0.0026303836969927   -0.00449207274886604
0.020085908010895864   -0.0026303836969927   -0.00449207274886604
0.020085908010895864   -0.0026303836969927   -0.00449207274886604
0.020085908010895864   -0.0026303836969927   -0.00449207274886604
0.04653168623627737   0.010546848436373666   0.008297173752965983
0.04653168623627737   0.010546848436373666   0.008297173752965983
0.04653168623627737   0.010546848436373666   0.008297173752965983
0.04653168623627737   0.010546848436373666   0.008297173752965983
0.002619148772973046   -0.012035992405234388   -0.007100522562567298
0.002619148772973046   -0.012035992405234388   -0.007100522562567298
0.002619148772973046   -0.012035992405234388   -0.007100522562567298
0.002619148772973046   -0.012035992405234388   -0.007100522562567298
0.011194817239312382   0.00480133349648658   0.005866383004650873
0.011194817239312382   0.00480133349648658   0.005866383004650873
0.011194817239312382   0.00480133349648658   0.005866383004650873
0.011194817239312382   0.00480133349648658   0.005866383004650873
0.04601677992312889   -0.002175235622127382   -0.009306126125532554
0.04601677992312889   -0.002175235622127382   -0.009306126125532554
0.04601677992312889   -0.002175235622127382   -0.009306126125532554
0.04601677992312889   -0.002175235622127382   -0.009306126125532554
0.025234979323997743   -1.1678155989357057e-05   -0.0022042377365816645
0.025234979323997743   -1.1678155989357057e-05   -0.0022042377365816645
0.025234979323997743   -1.1678155989357057e-05   -0.0022042377365816645
0.025234979323997743   -1.1678155989357057e-05   -0.0022042377365816645
0.05224015058188317   0.013136851561077384   0.006498639985034102
0.05224015058188317   0.013136851561077384   0.006498639985034102
0.05224015058188317   0.013136851561077384   0.006498639985034102
0.05224015058188317   0.013136851561077384   0.006498639985034102
0.005358138107434514   -0.010124062159841768   -0.008391616998410116
0.005358138107434514   -0.010124062159841768   -0.008391616998410116
0.005358138107434514   -0.010124062159841768   -0.008391616998410116
0.005358138107434514   -0.010124062159841768   -0.008391616998410116
0.013899214735122938   0.00876791797401622   0.005072466548658169
0.013899214735122938   0.00876791797401622   0.005072466548658169
0.013899214735122938   0.00876791797401622   0.005072466548658169
0.013899214735122938   0.00876791797401622   0.005072466548658169
0.053575875521792236   0.003168261906678964   -0.01023625840824219
0.053575875521792236   0.003168261906678964   -0.01023625840824219
0.053575875521792236   0.003168261906678964   -0.01023625840824219
0.053575875521792236   0.003168261906678964   -0.01023625840824219
0.02939480469585998   0.002969471063943254   -7.99980698450956e-05
0.02939480469585998   0.002969471063943254   -7.99980698450956e-05
0.02939480469585998   0.002969471063943254   -7.99980698450956e-05
0.02939480469585998   0.002969471063943254   -7.99980698450956e-05
0.005922460815386998   0.0019118886694896573   0.006422416677982292
0.005922460815386998   0.0019118886694896573   0.006422416677982292
0.005922460815386998   0.0019118886694896573   0.006422416677982292
0.005922460815386998   0.0019118886694896573   0.006422416677982292
-0.03458547487063   -0.012495030952168636   -0.002737810909270368
-0.03458547487063   -0.012495030952168636   -0.002737810909270368
-0.03458547487063   -0.012495030952168636   -0.002737810909270368
-0.03458547487063   -0.012495030952168636   -0.002737810909270368
-0.029500687160233408   -0.0019531668949823028   0.002845888330988632
-0.029500687160233408   -0.0019531668949823028   0.002845888330988632
-0.029500687160233408   -0.0019531668949823028   0.002845888330988632
-0.029500687160233408   -0.0019531668949823028   0.002845888330988632
0.0058287866154522   -0.0010128161269704417   -0.002075509628435475
0.0058287866154522   -0.0010128161269704417   -0.002075509628435475
0.0058287866154522   -0.0010128161269704417   -0.002075509628435475
0.0058287866154522   -0.0010128161269704417   -0.002075509628435475
-0.013392455622917809   -0.0030686759354987747   -0.0021142970902447646
-0.013392455622917809   -0.0030686759354987747   -0.0021142970902447646
-0.013392455622917809   -0.0030686759354987747   -0.0021142970902447646
-0.013392455622917809   -0.0030686759354987747   -0.0021142970902447646
0.008841875776247574   0.006284660029858632   0.0056924600187123215
0.008841875776247574   0.006284660029858632   0.0056924600187123215
0.008841875776247574   0.006284660029858632   0.0056924600187123215
0.008841875776247574   0.006284660029858632   0.0056924600187123215
-0.03220832560614854   -0.00894519233693113   -0.003700278456638179
-0.03220832560614854   -0.00894519233693113   -0.003700278456638179
-0.03220832560614854   -0.00894519233693113   -0.003700278456638179
-0.03220832560614854   -0.00894519233693113   -0.003700278456638179
-0.02696357195536323   0.0022142604722041603   0.0019995784728110873
-0.02696357195536323   0.0022142604722041603   0.0019995784728110873
-0.02696357195536323   0.0022142604722041603   0.0019995784728110873
-0.02696357195536323   0.0022142604722041603   0.0019995784728110873
0.009074388988124278   0.002889876069739254   -0.0028243008245423225
0.009074388988124278   0.002889876069739254   -0.0028243008245423225
0.009074388988124278   0.002889876069739254   -0.0028243008245423225
0.009074388988124278   0.002889876069739254   -0.0028243008245423225
-0.010694415052500836   0.0005679164263814973   -0.00029755921700087265
-0.010694415052500836   0.0005679164263814973   -0.00029755921700087265
-0.010694415052500836   0.0005679164263814973   -0.00029755921700087265
-0.010694415052500836   0.0005679164263814973   -0.00029755921700087265
0.012219776369967702   0.010674597394658477   0.005117914759755574
0.012219776369967702   0.010674597394658477   0.005117914759755574
0.012219776369967702   0.010674597394658477   0.005117914759755574
0.012219776369967702   0.010674597394658477   0.005117914759755574
-0.029811553966530794   -0.005273055482041116   -0.004753015628781432
-0.029811553966530794   -0.005273055482041116   -0.004753015628781432
-0.029811553966530794   -0.005273055482041116   -0.004753015628781432
-0.029811553966530794   -0.005273055482041116   -0.004753015628781432
-0.024404091446572348   0.006979513063424802   0.0011933682761520238
-0.024404091446572348   0.006979513063424802   0.0011933682761520238
-0.024404091446572348   0.006979513063424802   0.0011933682761520238
-0.024404091446572348   0.006979513063424802   0.0011933682761520238
0.011887569981293178   0.007369232454329683   -0.0035870717008040943
0.011887569981293178   0.007369232454329683   -0.0035870717008040943
0.011887569981293178   0.007369232454329683   -0.0035870717008040943
0.011887569981293178   0.007369232454329683   -0.0035870717008040943
-0.007655487676572842   0.00463728650741325   0.001659429941608784
-0.007655487676572842   0.00463728650741325   0.001659429941608784
-0.007655487676572842   0.00463728650741325   0.001659429941608784
-0.007655487676572842   0.00463728650741325   0.001659429941608784
-0.03152078890700225   -0.002284927836609753   0.0023755157933094692
-0.03152078890700225   -0.002284927836609753   0.0023755157933094692
-0.03152078890700225   -0.002284927836609753   0.0023755157933094692
-0.03152078890700225   -0.002284927836609753   0.0023755157933094692
-0.0686447368326071   -0.009180034655270276   0.0004970953972763803
-0.0686447368326071   -0.009180034655270276   0.0004970953972763803
-0.0686447368326071   -0.009180034655270276   0.0004970953972763803
-0.0686447368326071   -0.009180034655270276   0.0004970953972763803
-0.06648133831722543   -0.005887113504187604   -0.0012735975535806917
-0.06648133831722543   -0.005887113504187604   -0.0012735975535806917
-0.06648133831722543   -0.005887113504187604   -0.0012735975535806917
-0.06648133831722543   -0.005887113504187604   -0.0012735975535806917
-0.028911704821627457   0.0024514031983939094   0.0013862299306426499
-0.028911704821627457   0.0024514031983939094   0.0013862299306426499
-0.028911704821627457   0.0024514031983939094   0.0013862299306426499
-0.028911704821627457   0.0024514031983939094   0.0013862299306426499
-0.04895887549787719   -0.003436532896111107   -0.0012701767384510037
-0.04895887549787719   -0.003436532896111107   -0.0012701767384510037
-0.04895887549787719   -0.003436532896111107   -0.0012701767384510037
-0.04895887549787719   -0.003436532896111107   -0.0012701767384510037
-0.02891766981953404   0.0022015844449729477   0.001606223694530683
-0.02891766981953404   0.0022015844449729477   0.001606223694530683
-0.02891766981953404   0.0022015844449729477   0.001606223694530683
-0.02891766981953404   0.0022015844449729477   0.001606223694530683
-0.0662057239683721   -0.005367645399818615   -0.0004149939136830097
-0.0662057239683721   -0.005367645399818615   -0.0004149939136830097
-0.0662057239683721   -0.005367645399818615   -0.0004149939136830097
-0.0662057239683721   -0.005367645399818615   -0.0004149939136830097
-0.06379967141725984   -0.0012943444534144269   -0.002001181147591847
-0.06379967141725984   -0.0012943444534144269   -0.002001181147591847
-0.06379967141725984   -0.0012943444534144269   -0.002001181147591847
-0.06379967141725984   -0.0012943444534144269   -0.002001181147591847
-0.026402368011345875   0.006474922612827879   0.0005449360522741548
-0.026402368011345875   0.006474922612827879   0.0005449360522741548
-0.026402368011345875   0.006474922612827879   0.0005449360522741548
-0.026402368011345875   0.006474922612827879   0.0005449360522741548
-0.04617984018914593   0.0005784915671191177   0.0005740040476447232
-0.04617984018914593   0.0005784915671191177   0.0005740040476447232
-0.04617984018914593   0.0005784915671191177   0.0005740040476447232
-0.04617984018914593   0.0005784915671191177   0.0005740040476447232
-0.026300346934757718   0.006759791235177443   0.0007701728128653822
-0.026300346934757718   0.006759791235177443   0.0007701728128653822
-0.026300346934757718   0.006759791235177443   0.0007701728128653822
-0.026300346934757718   0.006759791235177443   0.0007701728128653822
-0.0636804307068845   -0.0013579512888005837   -0.001341370760329542
-0.0636804307068845   -0.0013579512888005837   -0.001341370760329542
-0.0636804307068845   -0.0013579512888005837   -0.001341370760329542
-0.0636804307068845   -0.0013579512888005837   -0.001341370760329542
-0.06122295936775887   0.0033223198509639684   -0.0028153736013794865
-0.06122295936775887   0.0033223198509639684   -0.0028153736013794865
-0.06122295936775887   0.0033223198509639684   -0.0028153736013794865
-0.06122295936775887   0.0033223198509639684   -0.0028153736013794865
-0.0240244675025135   0.01050999024953402   -0.0004389891896629458
-0.0240244675025135   0.01050999024953402   -0.0004389891896629458
-0.0240244675025135   0.01050999024953402   -0.0004389891896629458
-0.0240244675025135   0.01050999024953402   -0.0004389891896629458
-0.043559518190128536   0.004587727544779581   0.002298186859514321
-0.043559518190128536   0.004587727544779581   0.002298186859514321
-0.043559518190128536   0.004587727544779581   0.002298186859514321
-0.043559518190128536   0.004587727544779581   0.002298186859514321
-0.06851887815792312   -0.006291635886408882   -0.0017620099981644887
-0.06851887815792312   -0.006291635886408882   -0.0017620099981644887
-0.06851887815792312   -0.006291635886408882   -0.0017620099981644887
-0.06851887815792312   -0.006291635886408882   -0.0017620099981644887
-0.10278154509307942   -0.006049601968712178   0.0036390182231937915
-0.10278154509307942   -0.006049601968712178   0.0036390182231937915
-0.10278154509307942   -0.006049601968712178   0.0036390182231937915
-0.10278154509307942   -0.006049601968712178   0.0036390182231937915
-0.10316726753661326   -0.009778381091058984   -0.00535504528276726
-0.10316726753661326   -0.009778381091058984   -0.00535504528276726
-0.10316726753661326   -0.009778381091058984   -0.00535504528276726
-0.10316726753661326   -0.009778381091058984   -0.00535504528276726
-0.06294677989803729   0.005866156102440016   0.004645924935732402
-0.06294677989803729   0.005866156102440016   0.004645924935732402
-0.06294677989803729   0.005866156102440016   0.004645924935732402
-0.06294677989803729   0.005866156102440016   0.004645924935732402
-0.08386481604335397   -0.003688086555771807   -0.0005657583361319421
-0.08386481604335397   -0.003688086555771807   -0.0005657583361319421
-0.08386481604335397   -0.003688086555771807   -0.0005657583361319421
-0.08386481604335397   -0.003688086555771807   -0.0005657583361319421
-0.06590363358981337   -0.0017575689410731787   -0.0025146184796343025
-0.06590363358981337   -0.0017575689410731787   -0.0025146184796343025
-0.06590363358981337   -0.0017575689410731787   -0.0025146184796343025
-0.06590363358981337   -0.0017575689410731787   -0.0025146184796343025
-0.09997747768595733   -0.0019217198886663615   0.0027372427681205593
-0.09997747768595733   -0.0019217198886663615   0.0027372427681205593
-0.09997747768595733   -0.0019217198886663615   0.0027372427681205593
-0.09997747768595733   -0.0019217198886663615   0.0027372427681205593
-0.09973243089968102   -0.005407721290128287   -0.005963063808159428
-0.09973243089968102   -0.005407721290128287   -0.005963063808159428
-0.09973243089968102   -0.005407721290128287   -0.005963063808159428
-0.09973243089968102   -0.005407721290128287   -0.005963063808159428
-0.06049665019202911   0.0095160255029984   0.003703555022148991
-0.06049665019202911   0.0095160255029984   0.003703555022148991
-0.06049665019202911   0.0095160255029984   0.003703555022148991
-0.06049665019202911   0.0095160255029984   0.003703555022148991
-0.08044628623238124   0.00036934629208979636   0.0013487192816196026
-0.08044628623238124   0.00036934629208979636   0.0013487192816196026
-0.08044628623238124   0.00036934629208979636   0.0013487192816196026
-0.08044628623238124   0.00036934629208979636   0.0013487192816196026
-0.06335170367633745   0.002374916280744493   -0.0034306031771390976
-0.06335170367633745   0.002374916280744493   -0.0034306031771390976
-0.06335170367633745   0.002374916280744493   -0.0034306031771390976
-0.06335170367633745   0.002374916280744493   -0.0034306031771390976
-0.09661771978885324   0.0019930455586450145   0.0022097248972061936
-0.09661771978885324   0.0019930455586450145   0.0022097248972061936
-0.09661771978885324   0.0019930455586450145   0.0022097248972061936
-0.09661771978885324   0.0019930455586450145   0.0022097248972061936
-0.09667062717536523   -0.0006777324732302158   -0.006432070080803815
-0.09667062717536523   -0.0006777324732302158   -0.006432070080803815
-0.09667062717536523   -0.0006777324732302158   -0.006432070080803815
-0.09667062717536523   -0.0006777324732302158   -0.006432070080803815
-0.05807484402882761   0.013496821759332395   0.002750701184908432
-0.05807484402882761   0.013496821759332395   0.002750701184908432
-0.05807484402882761   0.013496821759332395   0.002750701184908432
-0.05807484402882761   0.013496821759332395   0.002750701184908432
-0.07801253872601316   0.004105832272086756   0.0030501497066274964
-0.07801253872601316   0.004105832272086756   0.0030501497066274964
-0.07801253872601316   0.004105832272086756   0.0030501497066274964
-0.07801253872601316   0.004105832272086756   0.0030501497066274964
-0.10519651813728643   -0.00890019148488609   -0.005585257481667315
-0.10519651813728643   -0.00890019148488609   -0.005585257481667315
-0.10519651813728643   -0.00890019148488609   -0.005585257481667315
-0.10519651813728643   -0.00890019148488609   -0.005585257481667315
-0.14207109686126754   -0.0029948055363722206   0.008228224473810865
-0.14207109686126754   -0.0029948055363722206   0.008228224473810865
-0.14207109686126754   -0.0029948055363722206   0.008228224473810865
-0.14207109686126754   -0.0029948055363722206   0.008228224473810865
-0.14060663585110134   -0.01256343899553861   -0.007589377625029003
-0.14060663585110134   -0.01256343899553861   -0.007589377625029003
-0.14060663585110134   -0.01256343899553861   -0.007589377625029003
-0.14060663585110134   -0.01256343899553861   -0.007589377625029003
-0.09651233069491545   0.010032063615078232   0.008109194219584571
-0.09651233069491545   0.010032063615078232   0.008109194219584571
-0.09651233069491545   0.010032063615078232   0.008109194219584571
-0.09651233069491545   0.010032063615078232   0.008109194219584571
-0.11583773260074337   -0.0021119410162240213   0.001128211741580806
-0.11583773260074337   -0.0021119410162240213   0.001128211741580806
-0.11583773260074337   -0.0021119410162240213   0.001128211741580806
-0.11583773260074337   -0.0021119410162240213   0.001128211741580806
-0.10233933297719514   -0.004659044675915502   -0.006334708900819692
-0.10233933297719514   -0.004659044675915502   -0.006334708900819692
-0.10233933297719514   -0.004659044675915502   -0.006334708900819692
-0.10233933297719514   -0.004659044675915502   -0.006334708900819692
-0.1345612165975327   0.0023460862667437597   0.007728193380529462
-0.1345612165975327   0.0023460862667437597   0.007728193380529462
-0.1345612165975327   0.0023460862667437597   0.007728193380529462
-0.1345612165975327   0.0023460862667437597   0.007728193380529462
-0.1349856094580962   -0.009990853971603365   -0.009070572695998962
-0.1349856094580962   -0.009990853971603365   -0.009070572695998962
-0.1349856094580962   -0.009990853971603365   -0.009070572695998962
-0.1349856094580962   -0.009990853971603365   -0.009070572695998962
-0.09377113450159719   0.011727367924503927   0.006708328967626742
-0.09377113450159719   0.011727367924503927   0.006708328967626742
-0.09377113450159719   0.011727367924503927   0.006708328967626742
-0.09377113450159719   0.011727367924503927   0.006708328967626742
-0.11291436187185301   0.0006152773208104936   0.0026514801030850677
-0.11291436187185301   0.0006152773208104936   0.0026514801030850677
-0.11291436187185301   0.0006152773208104936   0.0026514801030850677
-0.11291436187185301   0.0006152773208104936   0.0026514801030850677
-0.09943753089221215   -0.0025386506095134882   -0.00735763445142985
-0.09943753089221215   -0.0025386506095134882   -0.00735763445142985
-0.09943753089221215   -0.0025386506095134882   -0.00735763445142985
-0.09943753089221215   -0.0025386506095134882   -0.00735763445142985
-0.1290589546930173   0.004535422936877354   0.006036424220914008
-0.1290589546930173   0.004535422936877354   0.006036424220914008
-0.1290589546930173   0.004535422936877354   0.006036424220914008
-0.1290589546930173   0.004535422936877354   0.006036424220914008
-0.12793563453624915   -0.006226156645580443   -0.010164689594923972
-0.12793563453624915   -0.006226156645580443   -0.010164689594923972
-0.12793563453624915   -0.006226156645580443   -0.010164689594923972
-0.12793563453624915   -0.006226156645580443   -0.010164689594923972
-0.09140292793353749   0.013645516248803627   0.005583177406301064
-0.09140292793353749   0.013645516248803627   0.005583177406301064
-0.09140292793353749   0.013645516248803627   0.005583177406301064
-0.09140292793353749   0.013645516248803627   0.005583177406301064
-0.10675632444027212   0.003123899246884436   0.004853277048651499
-0.10675632444027212   0.003123899246884436   0.004853277048651499
-0.10675632444027212   0.003123899246884436   0.004853277048651499
-0.10675632444027212   0.003123899246884436   0.004853277048651499
0.10793341429903282   0.009902890948224176   0.008907467967838527
0.10793341429903282   0.009902890948224176   0.008907467967838527
0.10793341429903282   0.009902890948224176   0.008907467967838527
0.10793341429903282   0.009902890948224176   0.008907467967838527
0.03898362692631364   -0.01702122611369532   -0.005839664751350623
0.03898362692631364   -0.01702122611369532   -0.005839664751350623
0.03898362692631364   -0.01702122611369532   -0.005839664751350623
0.03898362692631364   -0.01702122611369532   -0.005839664751350623
0.04739173929156198   -0.00038900100267241083   0.006361843931645991
0.04739173929156198   -0.00038900100267241083   0.006361843931645991
0.04739173929156198   -0.00038900100267241083   0.006361843931645991
0.04739173929156198   -0.00038900100267241083   0.006361843931645991
0.10945699117318615   -0.0016742760907448064   -0.007487898602964306
0.10945699117318615   -0.0016742760907448064   -0.007487898602964306
0.10945699117318615   -0.0016742760907448064   -0.007487898602964306
0.10945699117318615   -0.0016742760907448064   -0.007487898602964306
0.0712788445773003   -0.002867375781961737   -0.00666547702508807
0.0712788445773003   -0.002867375781961737   -0.00666547702508807
0.0712788445773003   -0.002867375781961737   -0.00666547702508807
0.0712788445773003   -0.002867375781961737   -0.00666547702508807
0.11553987550407385   0.013515589038038695   0.007736657922689652
0.11553987550407385   0.013515589038038695   0.007736657922689652
0.11553987550407385   0.013515589038038695   0.007736657922689652
0.11553987550407385   0.013515589038038695   0.007736657922689652
0.041761072350088614   -0.015126648742041754   -0.007053843036351503
0.041761072350088614   -0.015126648742041754   -0.007053843036351503
0.041761072350088614   -0.015126648742041754   -0.007053843036351503
0.041761072350088614   -0.015126648742041754   -0.007053843036351503
0.05051514633905006   0.0016279562213566273   0.005211466675966308
0.05051514633905006   0.0016279562213566273   0.005211466675966308
0.05051514633905006   0.0016279562213566273   0.005211466675966308
0.05051514633905006   0.0016279562213566273   0.005211466675966308
0.11542598561029496   0.0006021860556804856   -0.009331636950621312
0.11542598561029496   0.0006021860556804856   -0.009331636950621312
0.11542598561029496   0.0006021860556804856   -0.009331636950621312
0.11542598561029496   0.0006021860556804856   -0.009331636950621312
0.07760979578265088   -0.00043581071118571277   -0.004098982468917369
0.07760979578265088   -0.00043581071118571277   -0.004098982468917369
0.07760979578265088   -0.00043581071118571277   -0.004098982468917369
0.07760979578265088   -0.00043581071118571277   -0.004098982468917369
0.12155140302265277   0.01597703454687783   0.005920601619969597
0.12155140302265277   0.01597703454687783   0.005920601619969597
0.12155140302265277   0.01597703454687783   0.005920601619969597
0.12155140302265277   0.01597703454687783   0.005920601619969597
0.044851273121472794   -0.013285348075060224   -0.0081945951155027
0.044851273121472794   -0.013285348075060224   -0.0081945951155027
0.044851273121472794   -0.013285348075060224   -0.0081945951155027
0.044851273121472794   -0.013285348075060224   -0.0081945951155027
0.05363882458912918   0.0061312186955981484   0.004515576469016799
0.05363882458912918   0.0061312186955981484   0.004515576469016799
0.05363882458912918   0.0061312186955981484   0.004515576469016799
0.05363882458912918   0.0061312186955981484   0.004515576469016799
0.12331444031796333   0.006526225511031946   -0.01003335935257961
0.12331444031796333   0.006526225511031946   -0.01003335935257961
0.12331444031796333   0.006526225511031946   -0.01003335935257961
0.12331444031796333   0.006526225511031946   -0.01003335935257961
0.08125926774749899   0.002572044312208012   -0.0019367375206641576
0.08125926774749899   0.002572044312208012   -0.0019367375206641576
0.08125926774749899   0.002572044312208012   -0.0019367375206641576
0.08125926774749899   0.002572044312208012   -0.0019367375206641576
0.04615392857638132   0.005665446163456357   0.007325171221835613
0.04615392857638132   0.005665446163456357   0.007325171221835613
0.04615392857638132   0.005665446163456357   0.007325171221835613
0.04615392857638132   0.005665446163456357   0.007325171221835613
-0.023513247911065575   -0.015919670287866408   -0.0030953788041455477
-0.023513247911065575   -0.015919670287866408   -0.0030953788041455477
-0.023513247911065575   -0.015919670287866408   -0.0030953788041455477
-0.023513247911065575   -0.015919670287866408   -0.0030953788041455477
-0.017864871128459994   -0.004911856816819056   0.0021229446662336462
-0.017864871128459994   -0.004911856816819056   0.0021229446662336462
-0.017864871128459994   -0.004911856816819056   0.0021229446662336462
-0.017864871128459994   -0.004911856816819056   0.0021229446662336462
0.04619536629983239   0.0008200413535278898   -0.0008290633832022296
0.04619536629983239   0.0008200413535278898   -0.0008290633832022296
0.04619536629983239   0.0008200413535278898   -0.0008290633832022296
0.04619536629983239   0.0008200413535278898   -0.0008290633832022296
0.012128913781924003   -0.0031641714314262527   -0.002764882402080062
0.012128913781924003   -0.0031641714314262527   -0.002764882402080062
0.012128913781924003   -0.0031641714314262527   -0.002764882402080062
0.012128913781924003   -0.0031641714314262527   -0.002764882402080062
0.04939112707293895   0.00942392521448808   0.006545856621370377
0.04939112707293895   0.00942392521448808   0.006545856621370377
0.04939112707293895   0.00942392521448808   0.006545856621370377
0.04939112707293895   0.00942392521448808   0.006545856621370377
-0.02077067458494016   -0.013225783361152857   -0.00409214607183341
-0.02077067458494016   -0.013225783361152857   -0.00409214607183341
-0.02077067458494016   -0.013225783361152857   -0.00409214607183341
-0.02077067458494016   -0.013225783361152857   -0.00409214607183341
-0.014968865905787889   -0.0010901920353877227   0.0013186135437426322
-0.014968865905787889   -0.0010901920353877227   0.0013186135437426322
-0.014968865905787889   -0.0010901920353877227   0.0013186135437426322
-0.014968865905787889   -0.0010901920353877227   0.0013186135437426322
0.0496687388385901   0.0042119711543886305   -0.0016045857593650313
0.0496687388385901   0.0042119711543886305   -0.0016045857593650313
0.0496687388385901   0.0042119711543886305   -0.0016045857593650313
0.0496687388385901   0.0042119711543886305   -0.0016045857593650313
0.014901081655535182   -0.00016492741328287758   -0.0010886768538016056
0.014901081655535182   -0.00016492741328287758   -0.0010886768538016056
0.014901081655535182   -0.00016492741328287758   -0.0010886768538016056
0.014901081655535182   -0.00016492741328287758   -0.0010886768538016056
0.05299735369095447   0.013407850922152294   0.005842608734692686
0.05299735369095447   0.013407850922152294   0.005842608734692686
0.05299735369095447   0.013407850922152294   0.005842608734692686
0.05299735369095447   0.013407850922152294   0.005842608734692686
-0.018009809646816137   -0.009998400691812789   -0.004977896504973557
-0.018009809646816137   -0.009998400691812789   -0.004977896504973557
-0.018009809646816137   -0.009998400691812789   -0.004977896504973557
-0.018009809646816137   -0.009998400691812789   -0.004977896504973557
-0.012097379395061357   0.003394315620420553   0.0005232935060047897
-0.012097379395061357   0.003394315620420553   0.0005232935060047897
-0.012097379395061357   0.003394315620420553   0.0005232935060047897
-0.012097379395061357   0.003394315620420553   0.0005232935060047897
0.05270828741520432   0.008300193280612505   -0.002306083985621849
0.05270828741520432   0.008300193280612505   -0.002306083985621849
0.05270828741520432   0.008300193280612505   -0.002306083985621849
0.05270828741520432   0.008300193280612505   -0.002306083985621849
0.018444782699311196   0.0035610877982383614   0.0008830743976611372
0.018444782699311196   0.0035610877982383614   0.0008830743976611372
0.018444782699311196   0.0035610877982383614   0.0008830743976611372
0.018444782699311196   0.0035610877982383614   0.0008830743976611372
-0.01880921346765764   0.0013238963027249013   0.0031812268223028115
-0.01880921346765764   0.0013238963027249013   0.0031812268223028115
-0.01880921346765764   0.0013238963027249013   0.0031812268223028115
-0.01880921346765764   0.0013238963027249013   0.0031812268223028115
-0.0847932759230357   -0.014184558919579277   -0.0004905847037452745
-0.0847932759230357   -0.014184558919579277   -0.0004905847037452745
-0.0847932759230357   -0.014184558919579277   -0.0004905847037452745
-0.0847932759230357   -0.014184558919579277   -0.0004905847037452745
-0.08141563811978002   -0.008719630242900423   -0.0019650039776841345
-0.08141563811978002   -0.008719630242900423   -0.0019650039776841345
-0.08141563811978002   -0.008719630242900423   -0.0019650039776841345
-0.08141563811978002   -0.008719630242900423   -0.0019650039776841345
-0.016359929637373066   0.0026804803305690563   0.0020553149742801417
-0.016359929637373066   0.0026804803305690563   0.0020553149742801417
-0.016359929637373066   0.0026804803305690563   0.0020553149742801417
-0.016359929637373066   0.0026804803305690563   0.0020553149742801417
-0.050425910219372934   -0.004294662706371898   -0.0017432981859612042
-0.050425910219372934   -0.004294662706371898   -0.0017432981859612042
-0.050425910219372934   -0.004294662706371898   -0.0017432981859612042
-0.050425910219372934   -0.004294662706371898   -0.0017432981859612042
-0.015761508745778613   0.005291480316666202   0.002436419446155272
-0.015761508745778613   0.005291480316666202   0.002436419446155272
-0.015761508745778613   0.005291480316666202   0.002436419446155272
-0.015761508745778613   0.005291480316666202   0.002436419446155272
-0.08180380297032605   -0.011120374187950428   -0.0015050842853643034
-0.08180380297032605   -0.011120374187950428   -0.0015050842853643034
-0.08180380297032605   -0.011120374187950428   -0.0015050842853643034
-0.08180380297032605   -0.011120374187950428   -0.0015050842853643034
-0.07821298070054901   -0.004525802470310949   -0.0026480766742168586
-0.07821298070054901   -0.004525802470310949   -0.0026480766742168586
-0.07821298070054901   -0.004525802470310949   -0.0026480766742168586
-0.07821298070054901   -0.004525802470310949   -0.0026480766742168586
-0.013547461167901531   0.006114826594985232   0.001220618602801934
-0.013547461167901531   0.006114826594985232   0.001220618602801934
-0.013547461167901531   0.006114826594985232   0.001220618602801934
-0.013547461167901531   0.006114826594985232   0.001220618602801934
-0.04718721576393334   -0.000793185066326637   -1.680289297630727e-05
-0.04718721576393334   -0.000793185066326637   -1.680289297630727e-05
-0.04718721576393334   -0.000793185066326637   -1.680289297630727e-05
-0.04718721576393334   -0.000793185066326637   -1.680289297630727e-05
-0.012818857101183523   0.009398608908900801   0.001579856622476406
-0.012818857101183523   0.009398608908900801   0.001579856622476406
-0.012818857101183523   0.009398608908900801   0.001579856622476406
-0.012818857101183523   0.009398608908900801   0.001579856622476406
-0.07874975792794905   -0.007617757944909844   -0.0022400073366182433
-0.07874975792794905   -0.007617757944909844   -0.0022400073366182433
-0.07874975792794905   -0.007617757944909844   -0.0022400073366182433
-0.07874975792794905   -0.007617757944909844   -0.0022400073366182433
-0.07522499858629374   -0.00033130931768877644   -0.003444955941989029
-0.07522499858629374   -0.00033130931768877644   -0.003444955941989029
-0.07522499858629374   -0.00033130931768877644   -0.003444955941989029
-0.07522499858629374   -0.00033130931768877644   -0.003444955941989029
-0.010885848548657415   0.009607239587853589   0.0003680237705914629
-0.010885848548657415   0.009607239587853589   0.0003680237705914629
-0.010885848548657415   0.009607239587853589   0.0003680237705914629
-0.010885848548657415   0.009607239587853589   0.0003680237705914629
-0.04422565991003655   0.0026986887738246236   0.0016191713566063846
-0.04422565991003655   0.0026986887738246236   0.0016191713566063846
-0.04422565991003655   0.0026986887738246236   0.0016191713566063846
-0.04422565991003655   0.0026986887738246236   0.0016191713566063846
-0.08266445435926859   -0.002966828856238668   -0.001064206948249497
-0.08266445435926859   -0.002966828856238668   -0.001064206948249497
-0.08266445435926859   -0.002966828856238668   -0.001064206948249497
-0.08266445435926859   -0.002966828856238668   -0.001064206948249497
-0.14525889439933237   -0.011723897971906861   0.0024231601242244187
-0.14525889439933237   -0.011723897971906861   0.0024231601242244187
-0.14525889439933237   -0.011723897971906861   0.0024231601242244187
-0.14525889439933237   -0.011723897971906861   0.0024231601242244187
-0.14391372777610328   -0.012429081296097287   -0.0058633141788880985
-0.14391372777610328   -0.012429081296097287   -0.0058633141788880985
-0.14391372777610328   -0.012429081296097287   -0.0058633141788880985
-0.14391372777610328   -0.012429081296097287   -0.0058633141788880985
-0.07712289698932086   0.005748890470665319   0.005030180961046517
-0.07712289698932086   0.005748890470665319   0.005030180961046517
-0.07712289698932086   0.005748890470665319   0.005030180961046517
-0.07712289698932086   0.005748890470665319   0.005030180961046517
-0.1114656202717865   -0.004720224768291363   -0.0006254626911998337
-0.1114656202717865   -0.004720224768291363   -0.0006254626911998337
-0.1114656202717865   -0.004720224768291363   -0.0006254626911998337
-0.1114656202717865   -0.004720224768291363   -0.0006254626911998337
-0.07935801056883245   0.0013128547399710762   -0.0017093512058171407
-0.07935801056883245   0.0013128547399710762   -0.0017093512058171407
-0.07935801056883245   0.0013128547399710762   -0.0017093512058171407
-0.07935801056883245   0.0013128547399710762   -0.0017093512058171407
-0.14161958969803612   -0.007934021066847236   0.001112315982199014
-0.14161958969803612   -0.007934021066847236   0.001112315982199014
-0.14161958969803612   -0.007934021066847236   0.001112315982199014
-0.14161958969803612   -0.007934021066847236   0.001112315982199014
-0.1396701366025976   -0.008357053948999948   -0.00648835582727422
-0.1396701366025976   -0.008357053948999948   -0.00648835582727422
-0.1396701366025976   -0.008357053948999948   -0.00648835582727422
-0.1396701366025976   -0.008357053948999948   -0.00648835582727422
-0.0741702151716039   0.008995200323523422   0.004044748176674895
-0.0741702151716039   0.008995200323523422   0.004044748176674895
-0.0741702151716039   0.008995200323523422   0.004044748176674895
-0.0741702151716039   0.008995200323523422   0.004044748176674895
-0.10708662743406346   -0.0008647682932143123   0.0011276712687607257
-0.10708662743406346   -0.0008647682932143123   0.0011276712687607257
-0.10708662743406346   -0.0008647682932143123   0.0011276712687607257
-0.10708662743406346   -0.0008647682932143123   0.0011276712687607257
-0.07626996369744225   0.005107410809739355   -0.0025662049387331033
-0.07626996369744225   0.005107410809739355   -0.0025662049387331033
-0.07626996369744225   0.005107410809739355   -0.0025662049387331033
-0.07626996369744225   0.005107410809739355   -0.0025662049387331033
-0.1374097987890243   -0.004308675147479641   0.0007649544390722742
-0.1374097987890243   -0.004308675147479641   0.0007649544390722742
-0.1374097987890243   -0.004308675147479641   0.0007649544390722742
-0.1374097987890243   -0.004308675147479641   0.0007649544390722742
-0.13588178832142883   -0.003982340542059495   -0.006838166029449824
-0.13588178832142883   -0.003982340542059495   -0.006838166029449824
-0.13588178832142883   -0.003982340542059495   -0.006838166029449824
-0.13588178832142883   -0.003982340542059495   -0.006838166029449824
-0.07131133634312765   0.012517347822354422   0.003274698133798889
-0.07131133634312765   0.012517347822354422   0.003274698133798889
-0.07131133634312765   0.012517347822354422   0.003274698133798889
-0.07131133634312765   0.012517347822354422   0.003274698133798889
-0.10429618332775178   0.00239429829675911   0.0026266341259398663
-0.10429618332775178   0.00239429829675911   0.0026266341259398663
-0.10429618332775178   0.00239429829675911   0.0026266341259398663
-0.10429618332775178   0.00239429829675911   0.0026266341259398663
-0.14567110298403085   -0.00636067317493438   -0.005001107596240457
-0.14567110298403085   -0.00636067317493438   -0.005001107596240457
-0.14567110298403085   -0.00636067317493438   -0.005001107596240457
-0.14567110298403085   -0.00636067317493438   -0.005001107596240457
-0.20878443943433944   -0.007695729536886423   0.008596753360059387
-0.20878443943433944   -0.007695729536886423   0.008596753360059387
-0.20878443943433944   -0.007695729536886423   0.008596753360059387
-0.20878443943433944   -0.007695729536886423   0.008596753360059387
-0.20552951377501205   -0.01475636604707365   -0.006815771011078229
-0.20552951377501205   -0.01475636604707365   -0.006815771011078229
-0.20552951377501205   -0.01475636604707365   -0.006815771011078229
-0.20552951377501205   -0.01475636604707365   -0.006815771011078229
-0.1362313760972986   0.011288266283354671   0.008831096635683381
-0.1362313760972986   0.011288266283354671   0.008831096635683381
-0.1362313760972986   0.011288266283354671   0.008831096635683381
-0.1362313760972986   0.011288266283354671   0.008831096635683381
-0.16629106979809213   -0.002038593730762185   0.002176854175808495
-0.16629106979809213   -0.002038593730762185   0.002176854175808495
-0.16629106979809213   -0.002038593730762185   0.002176854175808495
-0.16629106979809213   -0.002038593730762185   0.002176854175808495
-0.14171978375867625   -0.0017465007659666354   -0.0055761746218827984
-0.14171978375867625   -0.0017465007659666354   -0.0055761746218827984
-0.14171978375867625   -0.0017465007659666354   -0.0055761746218827984
-0.14171978375867625   -0.0017465007659666354   -0.0055761746218827984
-0.19991026890485125   -0.0015907617889687198   0.008114849081619076
-0.19991026890485125   -0.0015907617889687198   0.008114849081619076
-0.19991026890485125   -0.0015907617889687198   0.008114849081619076
-0.19991026890485125   -0.0015907617889687198   0.008114849081619076
-0.1989120923625065   -0.012254926298298816   -0.008062184285473815
-0.1989120923625065   -0.012254926298298816   -0.008062184285473815
-0.1989120923625065   -0.012254926298298816   -0.008062184285473815
-0.1989120923625065   -0.012254926298298816   -0.008062184285473815
-0.13272746823284742   0.012825322986558883   0.007042609085917978
-0.13272746823284742   0.012825322986558883   0.007042609085917978
-0.13272746823284742   0.012825322986558883   0.007042609085917978
-0.13272746823284742   0.012825322986558883   0.007042609085917978
-0.1632467299757201   0.0007082502849453734   0.003570597919233205
-0.1632467299757201   0.0007082502849453734   0.003570597919233205
-0.1632467299757201   0.0007082502849453734   0.003570597919233205
-0.1632467299757201   0.0007082502849453734   0.003570597919233205
-0.13792489717078493   0.0002759225614151206   -0.006395135178625739
-0.13792489717078493   0.0002759225614151206   -0.006395135178625739
-0.13792489717078493   0.0002759225614151206   -0.006395135178625739
-0.13792489717078493   0.0002759225614151206   -0.006395135178625739
-0.19357576034107526   0.00043337721033680915   0.005931172313043133
-0.19357576034107526   0.00043337721033680915   0.005931172313043133
-0.19357576034107526   0.00043337721033680915   0.005931172313043133
-0.19357576034107526   0.00043337721033680915   0.005931172313043133
-0.19156544294807237   -0.009352097748810455   -0.00924237756723447
-0.19156544294807237   -0.009352097748810455   -0.00924237756723447
-0.19156544294807237   -0.009352097748810455   -0.00924237756723447
-0.19156544294807237   -0.009352097748810455   -0.00924237756723447
-0.12970286701602757   0.014088353443607746   0.00598574651188909
-0.12970286701602757   0.014088353443607746   0.00598574651188909
-0.12970286701602757   0.014088353443607746   0.00598574651188909
-0.12970286701602757   0.014088353443607746   0.00598574651188909
-0.1556685704100866   0.0029461420654045695   0.0057838337387396445
-0.1556685704100866   0.0029461420654045695   0.0057838337387396445
-0.1556685704100866   0.0029461420654045695   0.0057838337387396445
-0.1556685704100866   0.0029461420654045695   0.0057838337387396445
0.1760288088446897   0.013320840885571474   0.008825488326599653
0.1760288088446897   0.013320840885571474   0.008825488326599653
0.1760288088446897   0.013320840885571474   0.008825488326599653
0.1760288088446897   0.013320840885571474   0.008825488326599653
0.07681675765540177   -0.019787528466330265   -0.004269935551790232
0.07681675765540177   -0.019787528466330265   -0.004269935551790232
0.07681675765540177   -0.019787528466330265   -0.004269935551790232
0.07681675765540177   -0.019787528466330265   -0.004269935551790232
0.08494548769531038   -0.0038829234798849373   0.005980367929210803
0.08494548769531038   -0.0038829234798849373   0.005980367929210803
0.08494548769531038   -0.0038829234798849373   0.005980367929210803
0.08494548769531038   -0.0038829234798849373   0.005980367929210803
0.1775658020772657   0.0006233391692737206   -0.006544085678444599
0.1775658020772657   0.0006233391692737206   -0.006544085678444599
0.1775658020772657   0.0006233391692737206   -0.006544085678444599
0.1775658020772657   0.0006233391692737206   -0.006544085678444599
0.12133596692095058   -0.003296646558276904   -0.009151371021645881
0.12133596692095058   -0.003296646558276904   -0.009151371021645881
0.12133596692095058   -0.003296646558276904   -0.009151371021645881
0.12133596692095058   -0.003296646558276904   -0.009151371021645881
0.18344289989660942   0.016094528243368548   0.007370214344179196
0.18344289989660942   0.016094528243368548   0.007370214344179196
0.18344289989660942   0.016094528243368548   0.007370214344179196
0.18344289989660942   0.016094528243368548   0.007370214344179196
0.07964146746502027   -0.01878103496492608   -0.005641621737198168
0.07964146746502027   -0.01878103496492608   -0.005641621737198168
0.07964146746502027   -0.01878103496492608   -0.005641621737198168
0.07964146746502027   -0.01878103496492608   -0.005641621737198168
0.08796753268694242   -0.0020631472739377488   0.004800149324640059
0.08796753268694242   -0.0020631472739377488   0.004800149324640059
0.08796753268694242   -0.0020631472739377488   0.004800149324640059
0.08796753268694242   -0.0020631472739377488   0.004800149324640059
0.18308120728003882   0.0026144316716646826   -0.008076415787260812
0.18308120728003882   0.0026144316716646826   -0.008076415787260812
0.18308120728003882   0.0026144316716646826   -0.008076415787260812
0.18308120728003882   0.0026144316716646826   -0.008076415787260812
0.12841980371759515   -0.0012030097642878844   -0.006284336643222538
0.12841980371759515   -0.0012030097642878844   -0.006284336643222538
0.12841980371759515   -0.0012030097642878844   -0.006284336643222538
0.12841980371759515   -0.0012030097642878844   -0.006284336643222538
0.18891006672722202   0.018251493577711806   0.0054308195426082005
0.18891006672722202   0.018251493577711806   0.0054308195426082005
0.18891006672722202   0.018251493577711806   0.0054308195426082005
0.18891006672722202   0.018251493577711806   0.0054308195426082005
0.08263132035583609   -0.017207562063907965   -0.006736497540921319
0.08263132035583609   -0.017207562063907965   -0.006736497540921319
0.08263132035583609   -0.017207562063907965   -0.006736497540921319
0.08263132035583609   -0.017207562063907965   -0.006736497540921319
0.09072623744598772   0.002857031541703324   0.0042088736727528995
0.09072623744598772   0.002857031541703324   0.0042088736727528995
0.09072623744598772   0.002857031541703324   0.0042088736727528995
0.09072623744598772   0.002857031541703324   0.0042088736727528995
0.18994274997488508   0.008472634369683617   -0.008422518648265896
0.18994274997488508   0.008472634369683617   -0.008422518648265896
0.18994274997488508   0.008472634369683617   -0.008422518648265896
0.18994274997488508   0.008472634369683617   -0.008422518648265896
0.13075813746089182   0.0016751077835700998   -0.004354281576053172
0.13075813746089182   0.0016751077835700998   -0.004354281576053172
0.13075813746089182   0.0016751077835700998   -0.004354281576053172
0.13075813746089182   0.0016751077835700998   -0.004354281576053172
0.08491191999372373   0.00805675715718193   0.008361590516306845
0.08491191999372373   0.00805675715718193   0.008361590516306845
0.08491191999372373   0.00805675715718193   0.008361590516306845
0.08491191999372373   0.00805675715718193   0.008361590516306845
-0.012158087423162028   -0.023999250665366314   -0.002488280073753249
-0.012158087423162028   -0.023999250665366314   -0.002488280073753249
-0.012158087423162028   -0.023999250665366314   -0.002488280073753249
-0.012158087423162028   -0.023999250665366314   -0.002488280073753249
-0.005326068966409947   -0.008930452931883688   0.0019399004559822173
-0.005326068966409947   -0.008930452931883688   0.0019399004559822173
-0.005326068966409947   -0.008930452931883688   0.0019399004559822173
-0.005326068966409947   -0.008930452931883688   0.0019399004559822173
0.08403553478126743   -0.002986371406281437   0.0005340512853925696
0.08403553478126743   -0.002986371406281437   0.0005340512853925696
0.08403553478126743   -0.002986371406281437   0.0005340512853925696
0.08403553478126743   -0.002986371406281437   0.0005340512853925696
0.03683099958567884   -0.006270327922994432   -0.004181695328468267
0.03683099958567884   -0.006270327922994432   -0.004181695328468267
0.03683099958567884   -0.006270327922994432   -0.004181695328468267
0.03683099958567884   -0.006270327922994432   -0.004181695328468267
0.08818612450945042   0.010870109480081021   0.007430519039945412
0.08818612450945042   0.010870109480081021   0.007430519039945412
0.08818612450945042   0.010870109480081021   0.007430519039945412
0.08818612450945042   0.010870109480081021   0.007430519039945412
-0.009157325956047017   -0.02246760107970017   -0.0036792363443866488
-0.009157325956047017   -0.02246760107970017   -0.0036792363443866488
-0.009157325956047017   -0.02246760107970017   -0.0036792363443866488
-0.009157325956047017   -0.02246760107970017   -0.0036792363443866488
-0.002253540057937296   -0.005625291637377876   0.0011313791783221588
-0.002253540057937296   -0.005625291637377876   0.0011313791783221588
-0.002253540057937296   -0.005625291637377876   0.0011313791783221588
-0.002253540057937296   -0.005625291637377876   0.0011313791783221588
0.08722946925956422   -0.0004879172507370709   -0.0004653978354515762
0.08722946925956422   -0.0004879172507370709   -0.0004653978354515762
0.08722946925956422   -0.0004879172507370709   -0.0004653978354515762
0.08722946925956422   -0.0004879172507370709   -0.0004653978354515762
0.039436689164408414   -0.004226286890974318   -0.0026769502769354836
0.039436689164408414   -0.004226286890974318   -0.0026769502769354836
0.039436689164408414   -0.004226286890974318   -0.0026769502769354836
0.039436689164408414   -0.004226286890974318   -0.0026769502769354836
0.09160330264471325   0.014252476196165929   0.006663375643390625
0.09160330264471325   0.014252476196165929   0.006663375643390625
0.09160330264471325   0.014252476196165929   0.006663375643390625
0.09160330264471325   0.014252476196165929   0.006663375643390625
-0.006422145852108691   -0.020160457493303228   -0.005176483936609461
-0.006422145852108691   -0.020160457493303228   -0.005176483936609461
-0.006422145852108691   -0.020160457493303228   -0.005176483936609461
-0.006422145852108691   -0.020160457493303228   -0.005176483936609461
0.00016838580234087826   -0.0016823809376981453   0.00032094653568067886
0.00016838580234087826   -0.0016823809376981453   0.00032094653568067886
0.00016838580234087826   -0.0016823809376981453   0.00032094653568067886
0.00016838580234087826   -0.0016823809376981453   0.00032094653568067886
0.08959158598310038   0.0027463165855874487   -0.0013536686855693788
0.08959158598310038   0.0027463165855874487   -0.0013536686855693788
0.08959158598310038   0.0027463165855874487   -0.0013536686855693788
0.08959158598310038   0.0027463165855874487   -0.0013536686855693788
0.042807636468790274   -0.0011401660079985963   -0.0010161269757042526
0.042807636468790274   -0.0011401660079985963   -0.0010161269757042526
0.042807636468790274   -0.0011401660079985963   -0.0010161269757042526
0.042807636468790274   -0.0011401660079985963   -0.0010161269757042526
-0.005494140849981831   0.00261652121761403   0.004215680909167384
-0.005494140849981831   0.00261652121761403   0.004215680909167384
-0.005494140849981831   0.00261652121761403   0.004215680909167384
-0.005494140849981831   0.00261652121761403   0.004215680909167384
-0.100371024690873   -0.029722582955686007   -0.0018934038945725268
-0.100371024690873   -0.029722582955686007   -0.0018934038945725268
-0.100371024690873   -0.029722582955686007   -0.0018934038945725268
-0.100371024690873   -0.029722582955686007   -0.0018934038945725268
-0.09366894177937962   -0.013623069073862421   -0.002153419905870686
-0.09366894177937962   -0.013623069073862421   -0.002153419905870686
-0.09366894177937962   -0.013623069073862421   -0.002153419905870686
-0.09366894177937962   -0.013623069073862421   -0.002153419905870686
-0.005224923333126244   -0.008485855989008357   0.002001031679525403
-0.005224923333126244   -0.008485855989008357   0.002001031679525403
-0.005224923333126244   -0.008485855989008357   0.002001031679525403
-0.005224923333126244   -0.008485855989008357   0.002001031679525403
-0.05138755300735894   -0.01163776974141375   -0.0036861816857062337
-0.05138755300735894   -0.01163776974141375   -0.0036861816857062337
-0.05138755300735894   -0.01163776974141375   -0.0036861816857062337
-0.05138755300735894   -0.01163776974141375   -0.0036861816857062337
-0.0020731347512075865   0.005818000027472214   0.003456118572638119
-0.0020731347512075865   0.005818000027472214   0.003456118572638119
-0.0020731347512075865   0.005818000027472214   0.003456118572638119
-0.0020731347512075865   0.005818000027472214   0.003456118572638119
-0.09658348250455313   -0.027689677233600413   -0.002659515372000314
-0.09658348250455313   -0.027689677233600413   -0.002659515372000314
-0.09658348250455313   -0.027689677233600413   -0.002659515372000314
-0.09658348250455313   -0.027689677233600413   -0.002659515372000314
-0.08984234825264724   -0.009964602336847438   -0.0028816389716080403
-0.08984234825264724   -0.009964602336847438   -0.0028816389716080403
-0.08984234825264724   -0.009964602336847438   -0.0028816389716080403
-0.08984234825264724   -0.009964602336847438   -0.0028816389716080403
-0.0023779035711307575   -0.006071581977966464   0.00095585195294344
-0.0023779035711307575   -0.006071581977966464   0.00095585195294344
-0.0023779035711307575   -0.006071581977966464   0.00095585195294344
-0.0023779035711307575   -0.006071581977966464   0.00095585195294344
-0.04767252290659251   -0.00898204637484316   -0.001984984850096105
-0.04767252290659251   -0.00898204637484316   -0.001984984850096105
-0.04767252290659251   -0.00898204637484316   -0.001984984850096105
-0.04767252290659251   -0.00898204637484316   -0.001984984850096105
0.0010513640017364274   0.009330491230177903   0.0027001166091349983
0.0010513640017364274   0.009330491230177903   0.0027001166091349983
0.0010513640017364274   0.009330491230177903   0.0027001166091349983
0.0010513640017364274   0.009330491230177903   0.0027001166091349983
-0.09323472573487053   -0.025329785454349073   -0.004478343265222151
-0.09323472573487053   -0.025329785454349073   -0.004478343265222151
-0.09323472573487053   -0.025329785454349073   -0.004478343265222151
-0.09323472573487053   -0.025329785454349073   -0.004478343265222151
-0.08712941409114999   -0.006451620490437548   -0.003682711078363971
-0.08712941409114999   -0.006451620490437548   -0.003682711078363971
-0.08712941409114999   -0.006451620490437548   -0.003682711078363971
-0.08712941409114999   -0.006451620490437548   -0.003682711078363971
-0.0005313122376458327   -0.004078082405745648   -0.0007818421962053732
-0.0005313122376458327   -0.004078082405745648   -0.0007818421962053732
-0.0005313122376458327   -0.004078082405745648   -0.0007818421962053732
-0.0005313122376458327   -0.004078082405745648   -0.0007818421962053732
-0.04495738936662864   -0.006471785266450097   -0.0008735037572646575
-0.04495738936662864   -0.006471785266450097   -0.0008735037572646575
-0.04495738936662864   -0.006471785266450097   -0.0008735037572646575
-0.04495738936662864   -0.006471785266450097   -0.0008735037572646575
-0.09445641059316492   -0.002047180423219625   4.264061500811739e-06
-0.09445641059316492   -0.002047180423219625   4.264061500811739e-06
-0.09445641059316492   -0.002047180423219625   4.264061500811739e-06
-0.09445641059316492   -0.002047180423219625   4.264061500811739e-06
-0.18936281778240047   -0.031955150021297674   -0.0014183749959571796
-0.18936281778240047   -0.031955150021297674   -0.0014183749959571796
-0.18936281778240047   -0.031955150021297674   -0.0014183749959571796
-0.18936281778240047   -0.031955150021297674   -0.0014183749959571796
-0.18237884897285334   -0.017541194122364774   -0.006164290020571455
-0.18237884897285334   -0.017541194122364774   -0.006164290020571455
-0.18237884897285334   -0.017541194122364774   -0.006164290020571455
-0.18237884897285334   -0.017541194122364774   -0.006164290020571455
-0.09147925954459521   -0.008881286276359892   0.0040532084705481594
-0.09147925954459521   -0.008881286276359892   0.0040532084705481594
-0.09147925954459521   -0.008881286276359892   0.0040532084705481594
-0.09147925954459521   -0.008881286276359892   0.0040532084705481594
-0.13825475216769087   -0.014200373788200594   -0.0025706697517422867
-0.13825475216769087   -0.014200373788200594   -0.0025706697517422867
-0.13825475216769087   -0.014200373788200594   -0.0025706697517422867
-0.13825475216769087   -0.014200373788200594   -0.0025706697517422867
-0.09022427530864452   0.0020099560744830207   -0.0005631127005413083
-0.09022427530864452   0.0020099560744830207   -0.0005631127005413083
-0.09022427530864452   0.0020099560744830207   -0.0005631127005413083
-0.09022427530864452   0.0020099560744830207   -0.0005631127005413083
-0.18364478357762173   -0.028443386842023854   -0.0015917703247528212
-0.18364478357762173   -0.028443386842023854   -0.0015917703247528212
-0.18364478357762173   -0.028443386842023854   -0.0015917703247528212
-0.18364478357762173   -0.028443386842023854   -0.0015917703247528212
-0.17684942520993624   -0.013769750730040418   -0.007100797052819646
-0.17684942520993624   -0.013769750730040418   -0.007100797052819646
-0.17684942520993624   -0.013769750730040418   -0.007100797052819646
-0.17684942520993624   -0.013769750730040418   -0.007100797052819646
-0.08780731509521737   -0.006087274231576973   0.003416198710271527
-0.08780731509521737   -0.006087274231576973   0.003416198710271527
-0.08780731509521737   -0.006087274231576973   0.003416198710271527
-0.08780731509521737   -0.006087274231576973   0.003416198710271527
-0.13247447547131103   -0.010577768068229538   -0.0007098039323441847
-0.13247447547131103   -0.010577768068229538   -0.0007098039323441847
-0.13247447547131103   -0.010577768068229538   -0.0007098039323441847
-0.13247447547131103   -0.010577768068229538   -0.0007098039323441847
-0.08639961400093331   0.0055115474269556985   -0.0011441174768419852
-0.08639961400093331   0.0055115474269556985   -0.0011441174768419852
-0.08639961400093331   0.0055115474269556985   -0.0011441174768419852
-0.08639961400093331   0.0055115474269556985   -0.0011441174768419852
-0.1784702244990846   -0.025581670583437344   -0.003392873645163116
-0.1784702244990846   -0.025581670583437344   -0.003392873645163116
-0.1784702244990846   -0.025581670583437344   -0.003392873645163116
-0.1784702244990846   -0.025581670583437344   -0.003392873645163116
-0.17246593080509207   -0.009838977170547703   -0.007352332368754994
-0.17246593080509207   -0.009838977170547703   -0.007352332368754994
-0.17246593080509207   -0.009838977170547703   -0.007352332368754994
-0.17246593080509207   -0.009838977170547703   -0.007352332368754994
-0.08571892217133864   -0.004310538756748422   0.0012286667870043586
-0.08571892217133864   -0.004310538756748422   0.0012286667870043586
-0.08571892217133864   -0.004310538756748422   0.0012286667870043586
-0.08571892217133864   -0.004310538756748422   0.0012286667870043586
-0.1295577413061822   -0.008389546222340647   -7.238948089622992e-05
-0.1295577413061822   -0.008389546222340647   -7.238948089622992e-05
-0.1295577413061822   -0.008389546222340647   -7.238948089622992e-05
-0.1295577413061822   -0.008389546222340647   -7.238948089622992e-05
-0.18460859023315423   -0.005416989852388324   -0.00418539741863529
-0.18460859023315423   -0.005416989852388324   -0.00418539741863529
-0.18460859023315423   -0.005416989852388324   -0.00418539741863529
-0.18460859023315423   -0.005416989852388324   -0.00418539741863529
-0.2785972886013911   -0.022538878455553066   0.00950344835633037
-0.2785972886013911   -0.022538878455553066   0.00950344835633037
-0.2785972886013911   -0.022538878455553066   0.00950344835633037
-0.2785972886013911   -0.022538878455553066   0.00950344835633037
-0.27024509146452286   -0.018449939942654543   -0.005846219127130825
-0.27024509146452286   -0.018449939942654543   -0.005846219127130825
-0.27024509146452286   -0.018449939942654543   -0.005846219127130825
-0.27024509146452286   -0.018449939942654543   -0.005846219127130825
-0.17475789568518887   0.005421369056366546   0.008977913239017801
-0.17475789568518887   0.005421369056366546   0.008977913239017801
-0.17475789568518887   0.005421369056366546   0.008977913239017801
-0.17475789568518887   0.005421369056366546   0.008977913239017801
-0.21678367429575163   -0.006795509492465122   0.0016059463228012306
-0.21678367429575163   -0.006795509492465122   0.0016059463228012306
-0.21678367429575163   -0.006795509492465122   0.0016059463228012306
-0.21678367429575163   -0.006795509492465122   0.0016059463228012306
-0.17854434674061403   0.0001273818593392484   -0.004660354841078306
-0.17854434674061403   0.0001273818593392484   -0.004660354841078306
-0.17854434674061403   0.0001273818593392484   -0.004660354841078306
-0.17854434674061403   0.0001273818593392484   -0.004660354841078306
-0.26585211788938334   -0.012549430225911228   0.01021813903182339
-0.26585211788938334   -0.012549430225911228   0.01021813903182339
-0.26585211788938334   -0.012549430225911228   0.01021813903182339
-0.26585211788938334   -0.012549430225911228   0.01021813903182339
-0.26121472314134253   -0.015673153847814925   -0.006962520177448311
-0.26121472314134253   -0.015673153847814925   -0.006962520177448311
-0.26121472314134253   -0.015673153847814925   -0.006962520177448311
-0.26121472314134253   -0.015673153847814925   -0.006962520177448311
-0.1693365934312551   0.008112555031350437   0.008581056079195367
-0.1693365934312551   0.008112555031350437   0.008581056079195367
-0.1693365934312551   0.008112555031350437   0.008581056079195367
-0.1693365934312551   0.008112555031350437   0.008581056079195367
-0.21195886179700357   -0.0027338029034923647   0.004474990675830834
-0.21195886179700357   -0.0027338029034923647   0.004474990675830834
-0.21195886179700357   -0.0027338029034923647   0.004474990675830834
-0.21195886179700357   -0.0027338029034923647   0.004474990675830834
-0.1732306440475387   0.002300698010219031   -0.00507733998109001
-0.1732306440475387   0.002300698010219031   -0.00507733998109001
-0.1732306440475387   0.002300698010219031   -0.00507733998109001
-0.1732306440475387   0.002300698010219031   -0.00507733998109001
-0.2571638946234287   -0.009704518925052204   0.007322987489355821
-0.2571638946234287   -0.009704518925052204   0.007322987489355821
-0.2571638946234287   -0.009704518925052204   0.007322987489355821
-0.2571638946234287   -0.009704518925052204   0.007322987489355821
-0.2518219331505474   -0.013222454816518486   -0.00844922865422226
-0.2518219331505474   -0.013222454816518486   -0.00844922865422226
-0.2518219331505474   -0.013222454816518486   -0.00844922865422226
-0.2518219331505474   -0.013222454816518486   -0.00844922865422226
-0.16551088393713986   0.01105716351378766   0.006526761286670738
-0.16551088393713986   0.01105716351378766   0.006526761286670738
-0.16551088393713986   0.01105716351378766   0.006526761286670738
-0.16551088393713986   0.01105716351378766   0.006526761286670738
-0.20157467751344427   0.000675032577828763   0.007515794851739699
-0.20157467751344427   0.000675032577828763   0.007515794851739699
-0.20157467751344427   0.000675032577828763   0.007515794851739699
-0.20157467751344427   0.000675032577828763   0.007515794851739699
0.23638395930244507   0.014582160999983045   0.008011310132733042
0.23638395930244507   0.014582160999983045   0.008011310132733042
0.23638395930244507   0.014582160999983045   0.008011310132733042
0.23638395930244507   0.014582160999983045   0.008011310132733042
0.11159946531956157   -0.020245181594051125   0.0012240531288278383
0.11159946531956157   -0.020245181594051125   0.0012240531288278383
0.11159946531956157   -0.020245181594051125   0.0012240531288278383
0.11159946531956157   -0.020245181594051125   0.0012240531288278383
0.11725353520431586   -0.008932616603516273   0.005988402330555287
0.11725353520431586   -0.008932616603516273   0.005988402330555287
0.11725353520431586   -0.008932616603516273   0.005988402330555287
0.11725353520431586   -0.008932616603516273   0.005988402330555287
0.23732220808967033   0.0031273658347440725   -0.0022618111044001785
0.23732220808967033   0.0031273658347440725   -0.0022618111044001785
0.23732220808967033   0.0031273658347440725   -0.0022618111044001785
0.23732220808967033   0.0031273658347440725   -0.0022618111044001785
0.16556004193882715   -0.004026802403312997   -0.010624443328937255
0.16556004193882715   -0.004026802403312997   -0.010624443328937255
0.16556004193882715   -0.004026802403312997   -0.010624443328937255
0.16556004193882715   -0.004026802403312997   -0.010624443328937255
0.24161106691286505   0.016002649201121683   0.006307199645195839
0.24161106691286505   0.016002649201121683   0.006307199645195839
0.24161106691286505   0.016002649201121683   0.006307199645195839
0.24161106691286505   0.016002649201121683   0.006307199645195839
0.11395590339161937   -0.02081667295939565   0.0013842996229521988
0.11395590339161937   -0.02081667295939565   0.0013842996229521988
0.11395590339161937   -0.02081667295939565   0.0013842996229521988
0.11395590339161937   -0.02081667295939565   0.0013842996229521988
0.1192718521883124   -0.007629191405353487   0.004514823919374775
0.1192718521883124   -0.007629191405353487   0.004514823919374775
0.1192718521883124   -0.007629191405353487   0.004514823919374775
0.1192718521883124   -0.007629191405353487   0.004514823919374775
0.24108911472978375   0.0045757315678703545   -0.0011464395146701528
0.24108911472978375   0.0045757315678703545   -0.0011464395146701528
0.24108911472978375   0.0045757315678703545   -0.0011464395146701528
0.24108911472978375   0.0045757315678703545   -0.0011464395146701528
0.17199504403473026   -0.00310318401075306   -0.007368510612347829
0.17199504403473026   -0.00310318401075306   -0.007368510612347829
0.17199504403473026   -0.00310318401075306   -0.007368510612347829
0.17199504403473026   -0.00310318401075306   -0.007368510612347829
0.24475580642569564   0.017430987304000105   0.00433176322875951
0.24475580642569564   0.017430987304000105   0.00433176322875951
0.24475580642569564   0.017430987304000105   0.00433176322875951
0.24475580642569564   0.017430987304000105   0.00433176322875951
0.1162935714920485   -0.019796036141835255   0.0017902651745370576
0.1162935714920485   -0.019796036141835255   0.0017902651745370576
0.1162935714920485   -0.019796036141835255   0.0017902651745370576
0.1162935714920485   -0.019796036141835255   0.0017902651745370576
0.12229976941567669   -0.002545538620563264   0.004129596959715741
0.12229976941567669   -0.002545538620563264   0.004129596959715741
0.12229976941567669   -0.002545538620563264   0.004129596959715741
0.12229976941567669   -0.002545538620563264   0.004129596959715741
0.2450952140286585   0.00810044992103718   -0.0006846316311191741
0.2450952140286585   0.00810044992103718   -0.0006846316311191741
0.2450952140286585   0.00810044992103718   -0.0006846316311191741
0.2450952140286585   0.00810044992103718   -0.0006846316311191741
0.17243906265416678   -0.0011983374484412432   -0.005659597776631782
0.17243906265416678   -0.0011983374484412432   -0.005659597776631782
0.17243906265416678   -0.0011983374484412432   -0.005659597776631782
0.17243906265416678   -0.0011983374484412432   -0.005659597776631782
0.11801916819301027   0.004291111377519044   0.008786274524501234
0.11801916819301027   0.004291111377519044   0.008786274524501234
0.11801916819301027   0.004291111377519044   0.008786274524501234
0.11801916819301027   0.004291111377519044   0.008786274524501234
0.003558831846982167   -0.03877062912525809   0.003448754789947172
0.003558831846982167   -0.03877062912525809   0.003448754789947172
0.003558831846982167   -0.03877062912525809   0.003448754789947172
0.003558831846982167   -0.03877062912525809   0.003448754789947172
0.010710918217232732   -0.017063573686133992   0.003472656450172167
0.010710918217232732   -0.017063573686133992   0.003472656450172167
0.010710918217232732   -0.017063573686133992   0.003472656450172167
0.010710918217232732   -0.017063573686133992   0.003472656450172167
0.11514001171489913   -0.016244192038959316   0.0027323603189137145
0.11514001171489913   -0.016244192038959316   0.0027323603189137145
0.11514001171489913   -0.016244192038959316   0.0027323603189137145
0.11514001171489913   -0.016244192038959316   0.0027323603189137145
0.05991222429129837   -0.016561018244925015   -0.006403319345750632
0.05991222429129837   -0.016561018244925015   -0.006403319345750632
0.05991222429129837   -0.016561018244925015   -0.006403319345750632
0.05991222429129837   -0.016561018244925015   -0.006403319345750632
0.1204598653830005   0.005674309817565913   0.0074131268028962746
0.1204598653830005   0.005674309817565913   0.0074131268028962746
0.1204598653830005   0.005674309817565913   0.0074131268028962746
0.1204598653830005   0.005674309817565913   0.0074131268028962746
0.006801190622027768   -0.03757194946976138   0.004432394257774742
0.006801190622027768   -0.03757194946976138   0.004432394257774742
0.006801190622027768   -0.03757194946976138   0.004432394257774742
0.006801190622027768   -0.03757194946976138   0.004432394257774742
0.013509514728473292   -0.01465551894601401   0.002416548219254646
0.013509514728473292   -0.01465551894601401   0.002416548219254646
0.013509514728473292   -0.01465551894601401   0.002416548219254646
0.013509514728473292   -0.01465551894601401   0.002416548219254646
0.11756937960541912   -0.014914216548363678   0.003287486147918543
0.11756937960541912   -0.014914216548363678   0.003287486147918543
0.11756937960541912   -0.014914216548363678   0.003287486147918543
0.11756937960541912   -0.014914216548363678   0.003287486147918543
0.06221200812847744   -0.015585410972792504   -0.003210014192675175
0.06221200812847744   -0.015585410972792504   -0.003210014192675175
0.06221200812847744   -0.015585410972792504   -0.003210014192675175
0.06221200812847744   -0.015585410972792504   -0.003210014192675175
0.12275470055754611   0.007975152873323   0.006324721486866878
0.12275470055754611   0.007975152873323   0.006324721486866878
0.12275470055754611   0.007975152873323   0.006324721486866878
0.12275470055754611   0.007975152873323   0.006324721486866878
0.009673994443100771   -0.03619508770094612   0.004778515547324643
0.009673994443100771   -0.03619508770094612   0.004778515547324643
0.009673994443100771   -0.03619508770094612   0.004778515547324643
0.009673994443100771   -0.03619508770094612   0.004778515547324643
0.01785669210194911   -0.011028805648912898   0.001505614023080166
0.01785669210194911   -0.011028805648912898   0.001505614023080166
0.01785669210194911   -0.011028805648912898   0.001505614023080166
0.01785669210194911   -0.011028805648912898   0.001505614023080166
0.12018690235447445   -0.012923679618539616   0.003943402651681376
0.12018690235447445   -0.012923679618539616   0.003943402651681376
0.12018690235447445   -0.012923679618539616   0.003943402651681376
0.12018690235447445   -0.012923679618539616   0.003943402651681376
0.06653278988154435   -0.013313153884767195   0.0005382347757015762
0.06653278988154435   -0.013313153884767195   0.0005382347757015762
0.06653278988154435   -0.013313153884767195   0.0005382347757015762
0.06653278988154435   -0.013313153884767195   0.0005382347757015762
0.010546199211536897   -0.006031220748997476   0.005646183236460206
0.010546199211536897   -0.006031220748997476   0.005646183236460206
0.010546199211536897   -0.006031220748997476   0.005646183236460206
0.010546199211536897   -0.006031220748997476   0.005646183236460206
-0.1049548896956223   -0.06543348501874675   0.005388387330706082
-0.1049548896956223   -0.06543348501874675   0.005388387330706082
-0.1049548896956223   -0.06543348501874675   0.005388387330706082
-0.1049548896956223   -0.06543348501874675   0.005388387330706082
-0.09385632957079909   -0.02660576377951422   3.289896467661242e-05
-0.09385632957079909   -0.02660576377951422   3.289896467661242e-05
-0.09385632957079909   -0.02660576377951422   3.289896467661242e-05
-0.09385632957079909   -0.02660576377951422   3.289896467661242e-05
0.004974050679504393   -0.04480098275508897   0.002525727830485441
0.004974050679504393   -0.04480098275508897   0.002525727830485441
0.004974050679504393   -0.04480098275508897   0.002525727830485441
0.004974050679504393   -0.04480098275508897   0.002525727830485441
-0.04701589246312223   -0.0359473547739075   -0.007661383677687874
-0.04701589246312223   -0.0359473547739075   -0.007661383677687874
-0.04701589246312223   -0.0359473547739075   -0.007661383677687874
-0.04701589246312223   -0.0359473547739075   -0.007661383677687874
0.013478077239492653   -0.00424707219610303   0.00449195007144081
0.013478077239492653   -0.00424707219610303   0.00449195007144081
0.013478077239492653   -0.00424707219610303   0.00449195007144081
0.013478077239492653   -0.00424707219610303   0.00449195007144081
-0.10025558830744893   -0.06505490651516158   0.006485748017075738
-0.10025558830744893   -0.06505490651516158   0.006485748017075738
-0.10025558830744893   -0.06505490651516158   0.006485748017075738
-0.10025558830744893   -0.06505490651516158   0.006485748017075738
-0.08956260234079012   -0.02379497177186886   -0.0004763982469014969
-0.08956260234079012   -0.02379497177186886   -0.0004763982469014969
-0.08956260234079012   -0.02379497177186886   -0.0004763982469014969
-0.08956260234079012   -0.02379497177186886   -0.0004763982469014969
0.007945562074288771   -0.04352866036655059   0.0034699263688690984
0.007945562074288771   -0.04352866036655059   0.0034699263688690984
0.007945562074288771   -0.04352866036655059   0.0034699263688690984
0.007945562074288771   -0.04352866036655059   0.0034699263688690984
-0.04261133268523358   -0.034442998854329596   -0.002691018456185112
-0.04261133268523358   -0.034442998854329596   -0.002691018456185112
-0.04261133268523358   -0.034442998854329596   -0.002691018456185112
-0.04261133268523358   -0.034442998854329596   -0.002691018456185112
0.016161694603734473   -0.0019587058363939184   0.0029806344859409383
0.016161694603734473   -0.0019587058363939184   0.0029806344859409383
0.016161694603734473   -0.0019587058363939184   0.0029806344859409383
0.016161694603734473   -0.0019587058363939184   0.0029806344859409383
-0.09593735451828525   -0.06352354595007348   0.007378415043828695
-0.09593735451828525   -0.06352354595007348   0.007378415043828695
-0.09593735451828525   -0.06352354595007348   0.007378415043828695
-0.09593735451828525   -0.06352354595007348   0.007378415043828695
-0.0824616621646301   -0.020582644420794036   -0.0013743023444630557
-0.0824616621646301   -0.020582644420794036   -0.0013743023444630557
-0.0824616621646301   -0.020582644420794036   -0.0013743023444630557
-0.0824616621646301   -0.020582644420794036   -0.0013743023444630557
0.012567214162791617   -0.040472298627560674   0.004501717305939998
0.012567214162791617   -0.040472298627560674   0.004501717305939998
0.012567214162791617   -0.040472298627560674   0.004501717305939998
0.012567214162791617   -0.040472298627560674   0.004501717305939998
-0.036958507177485785   -0.031493472961571976   0.002343936457426722
-0.036958507177485785   -0.031493472961571976   0.002343936457426722
-0.036958507177485785   -0.031493472961571976   0.002343936457426722
-0.036958507177485785   -0.031493472961571976   0.002343936457426722
-0.09484918735081792   -0.012226721773829295   0.002710135809809832
-0.09484918735081792   -0.012226721773829295   0.002710135809809832
-0.09484918735081792   -0.012226721773829295   0.002710135809809832
-0.09484918735081792   -0.012226721773829295   0.002710135809809832
-0.22805142580600735   -0.10019569356196067   -0.0035045290115366216
-0.22805142580600735   -0.10019569356196067   -0.0035045290115366216
-0.22805142580600735   -0.10019569356196067   -0.0035045290115366216
-0.22805142580600735   -0.10019569356196067   -0.0035045290115366216
-0.20995872870447554   -0.034601174205902696   -0.006066762017293198
-0.20995872870447554   -0.034601174205902696   -0.006066762017293198
-0.20995872870447554   -0.034601174205902696   -0.006066762017293198
-0.20995872870447554   -0.034601174205902696   -0.006066762017293198
-0.10445583093421418   -0.08178772309887496   0.0022173514669619684
-0.10445583093421418   -0.08178772309887496   0.0022173514669619684
-0.10445583093421418   -0.08178772309887496   0.0022173514669619684
-0.10445583093421418   -0.08178772309887496   0.0022173514669619684
-0.15919499412853505   -0.059374633205042285   -0.008174483000451552
-0.15919499412853505   -0.059374633205042285   -0.008174483000451552
-0.15919499412853505   -0.059374633205042285   -0.008174483000451552
-0.15919499412853505   -0.059374633205042285   -0.008174483000451552
-0.08982444053256804   -0.008869706743999187   0.002456287120316855
-0.08982444053256804   -0.008869706743999187   0.002456287120316855
-0.08982444053256804   -0.008869706743999187   0.002456287120316855
-0.08982444053256804   -0.008869706743999187   0.002456287120316855
-0.2238279169435568   -0.1067569883982136   -0.0032568890203885925
-0.2238279169435568   -0.1067569883982136   -0.0032568890203885925
-0.2238279169435568   -0.1067569883982136   -0.0032568890203885925
-0.2238279169435568   -0.1067569883982136   -0.0032568890203885925
-0.20409681587461975   -0.03127824376319045   -0.0062491481683858464
-0.20409681587461975   -0.03127824376319045   -0.0062491481683858464
-0.20409681587461975   -0.03127824376319045   -0.0062491481683858464
-0.20409681587461975   -0.03127824376319045   -0.0062491481683858464
-0.10019218137018714   -0.08077389656109601   0.0033546313953411143
-0.10019218137018714   -0.08077389656109601   0.0033546313953411143
-0.10019218137018714   -0.08077389656109601   0.0033546313953411143
-0.10019218137018714   -0.08077389656109601   0.0033546313953411143
-0.1528168407588633   -0.0573265264526321   -0.005117267083418347
-0.1528168407588633   -0.0573265264526321   -0.005117267083418347
-0.1528168407588633   -0.0573265264526321   -0.005117267083418347
-0.1528168407588633   -0.0573265264526321   -0.005117267083418347
-0.08577994592503112   -0.006197214772992133   0.0008391268330171227
-0.08577994592503112   -0.006197214772992133   0.0008391268330171227
-0.08577994592503112   -0.006197214772992133   0.0008391268330171227
-0.08577994592503112   -0.006197214772992133   0.0008391268330171227
-0.21827718039468905   -0.10562305462620737   -0.0028061599057137496
-0.21827718039468905   -0.10562305462620737   -0.0028061599057137496
-0.21827718039468905   -0.10562305462620737   -0.0028061599057137496
-0.21827718039468905   -0.10562305462620737   -0.0028061599057137496
-0.1948181553419318   -0.027797233216330153   -0.007105572340311122
-0.1948181553419318   -0.027797233216330153   -0.007105572340311122
-0.1948181553419318   -0.027797233216330153   -0.007105572340311122
-0.1948181553419318   -0.027797233216330153   -0.007105572340311122
-0.09094610461926472   -0.07121711104339702   0.006837952004967993
-0.09094610461926472   -0.07121711104339702   0.006837952004967993
-0.09094610461926472   -0.07121711104339702   0.006837952004967993
-0.09094610461926472   -0.07121711104339702   0.006837952004967993
-0.14589666129997697   -0.051154857995032416   -0.0020815298349645206
-0.14589666129997697   -0.051154857995032416   -0.0020815298349645206
-0.14589666129997697   -0.051154857995032416   -0.0020815298349645206
-0.14589666129997697   -0.051154857995032416   -0.0020815298349645206
-0.20975567139083012   -0.010929612320189706   -0.0012918381774215185
-0.20975567139083012   -0.010929612320189706   -0.0012918381774215185
-0.20975567139083012   -0.010929612320189706   -0.0012918381774215185
-0.20975567139083012   -0.010929612320189706   -0.0012918381774215185
-0.36421307180617246   -0.07208139847972922   0.0038060794075263915
-0.36421307180617246   -0.07208139847972922   0.0038060794075263915
-0.36421307180617246   -0.07208139847972922   0.0038060794075263915
-0.36421307180617246   -0.07208139847972922   0.0038060794075263915
-0.3507344379874392   -0.03297162835191746   -0.007010531500151936
-0.3507344379874392   -0.03297162835191746   -0.007010531500151936
-0.3507344379874392   -0.03297162835191746   -0.007010531500151936
-0.3507344379874392   -0.03297162835191746   -0.007010531500151936
-0.20698768638257975   -0.038800068499383084   0.012987343885664318
-0.20698768638257975   -0.038800068499383084   0.012987343885664318
-0.20698768638257975   -0.038800068499383084   0.012987343885664318
-0.20698768638257975   -0.038800068499383084   0.012987343885664318
-0.2715981375003605   -0.04131815891655741   0.003109861180148463
-0.2715981375003605   -0.04131815891655741   0.003109861180148463
-0.2715981375003605   -0.04131815891655741   0.003109861180148463
-0.2715981375003605   -0.04131815891655741   0.003109861180148463
-0.20219370459293592   -0.0018582820884063891   1.546642290783419e-05
-0.20219370459293592   -0.0018582820884063891   1.546642290783419e-05
-0.20219370459293592   -0.0018582820884063891   1.546642290783419e-05
-0.20219370459293592   -0.0018582820884063891   1.546642290783419e-05
-0.35663961303057146   -0.07102460801638416   0.001516572948650624
-0.35663961303057146   -0.07102460801638416   0.001516572948650624
-0.35663961303057146   -0.07102460801638416   0.001516572948650624
-0.35663961303057146   -0.07102460801638416   0.001516572948650624
-0.34383235958291697   -0.030287931319959598   -0.008925609525692922
-0.34383235958291697   -0.030287931319959598   -0.008925609525692922
-0.34383235958291697   -0.030287931319959598   -0.008925609525692922
-0.34383235958291697   -0.030287931319959598   -0.008925609525692922
-0.20097368275145935   -0.03714756817787201   0.015235841862099316
-0.20097368275145935   -0.03714756817787201   0.015235841862099316
-0.20097368275145935   -0.03714756817787201   0.015235841862099316
-0.20097368275145935   -0.03714756817787201   0.015235841862099316
-0.268394206380384   -0.03422135212625886   0.0031698609059244024
-0.268394206380384   -0.03422135212625886   0.0031698609059244024
-0.268394206380384   -0.03422135212625886   0.0031698609059244024
-0.268394206380384   -0.03422135212625886   0.0031698609059244024
-0.19685671724447698   0.0005224494139110664   -0.001849348194771911
-0.19685671724447698   0.0005224494139110664   -0.001849348194771911
-0.19685671724447698   0.0005224494139110664   -0.001849348194771911
-0.19685671724447698   0.0005224494139110664   -0.001849348194771911
-0.34820405215203487   -0.06821267597388   0.007140672282634833
-0.34820405215203487   -0.06821267597388   0.007140672282634833
-0.34820405215203487   -0.06821267597388   0.007140672282634833
-0.34820405215203487   -0.06821267597388   0.007140672282634833
-0.32944650368292827   -0.025076915416887918   -0.010208013620911081
-0.32944650368292827   -0.025076915416887918   -0.010208013620911081
-0.32944650368292827   -0.025076915416887918   -0.010208013620911081
-0.32944650368292827   -0.025076915416887918   -0.010208013620911081
-0.1914934693955416   -0.034962140870038405   0.016682765045349567
-0.1914934693955416   -0.034962140870038405   0.016682765045349567
-0.1914934693955416   -0.034962140870038405   0.016682765045349567
-0.1914934693955416   -0.034962140870038405   0.016682765045349567
-0.2536572377101345   -0.026300828818238055   0.007242850589734089
-0.2536572377101345   -0.026300828818238055   0.007242850589734089
-0.2536572377101345   -0.026300828818238055   0.007242850589734089
-0.2536572377101345   -0.026300828818238055   0.007242850589734089
0.25903887986515495   0.009676146568803716   0.003391279397508667
0.25903887986515495   0.009676146568803716   0.003391279397508667
0.25903887986515495   0.009676146568803716   0.003391279397508667
0.25903887986515495   0.009676146568803716   0.003391279397508667
0.13046829754142805   -0.007614500970550955   0.0020110722907654335
0.13046829754142805   -0.007614500970550955   0.0020110722907654335
0.13046829754142805   -0.007614500970550955   0.0020110722907654335
0.13046829754142805   -0.007614500970550955   0.0020110722907654335
0.12593568703465402   -0.017780738955466505   0.004584185999563256
0.12593568703465402   -0.017780738955466505   0.004584185999563256
0.12593568703465402   -0.017780738955466505   0.004584185999563256
0.12593568703465402   -0.017780738955466505   0.004584185999563256
0.2572310919632693   0.014408648685008955   0.0012787830601587741
0.2572310919632693   0.014408648685008955   0.0012787830601587741
0.2572310919632693   0.014408648685008955   0.0012787830601587741
0.2572310919632693   0.014408648685008955   0.0012787830601587741
0.18288493634933373   -0.002286698590219509   -0.006859085443296253
0.18288493634933373   -0.002286698590219509   -0.006859085443296253
0.18288493634933373   -0.002286698590219509   -0.006859085443296253
0.18288493634933373   -0.002286698590219509   -0.006859085443296253
0.25616952781123115   0.007854261830776373   0.0025253491542005305
0.25616952781123115   0.007854261830776373   0.0025253491542005305
0.25616952781123115   0.007854261830776373   0.0025253491542005305
0.25616952781123115   0.007854261830776373   0.0025253491542005305
0.12665820978700565   -0.011565393500920455   0.0019814543067753574
0.12665820978700565   -0.011565393500920455   0.0019814543067753574
0.12665820978700565   -0.011565393500920455   0.0019814543067753574
0.12665820978700565   -0.011565393500920455   0.0019814543067753574
0.12295178025548836   -0.018076130735972574   0.003731583440410611
0.12295178025548836   -0.018076130735972574   0.003731583440410611
0.12295178025548836   -0.018076130735972574   0.003731583440410611
0.12295178025548836   -0.018076130735972574   0.003731583440410611
0.25457961838190885   0.013920206101643351   0.002527704567967937
0.25457961838190885   0.013920206101643351   0.002527704567967937
0.25457961838190885   0.013920206101643351   0.002527704567967937
0.25457961838190885   0.013920206101643351   0.002527704567967937
0.18276485743475   -0.003131869976965955   -0.007662410022998053
0.18276485743475   -0.003131869976965955   -0.007662410022998053
0.18276485743475   -0.003131869976965955   -0.007662410022998053
0.18276485743475   -0.003131869976965955   -0.007662410022998053
0.25289543808214915   0.007309738312866437   0.0007172708579448114
0.25289543808214915   0.007309738312866437   0.0007172708579448114
0.25289543808214915   0.007309738312866437   0.0007172708579448114
0.25289543808214915   0.007309738312866437   0.0007172708579448114
0.1239870522633876   -0.012114571239056356   0.0029463839829906528
0.1239870522633876   -0.012114571239056356   0.0029463839829906528
0.1239870522633876   -0.012114571239056356   0.0029463839829906528
0.1239870522633876   -0.012114571239056356   0.0029463839829906528
0.11985847278417233   -0.016164043197260884   0.0032296440218767004
0.11985847278417233   -0.016164043197260884   0.0032296440218767004
0.11985847278417233   -0.016164043197260884   0.0032296440218767004
0.11985847278417233   -0.016164043197260884   0.0032296440218767004
0.2505565859346293   0.014458772701699776   0.0038865178699273185
0.2505565859346293   0.014458772701699776   0.0038865178699273185
0.2505565859346293   0.014458772701699776   0.0038865178699273185
0.2505565859346293   0.014458772701699776   0.0038865178699273185
0.17630413477362886   -0.003006575975180524   -0.010097530680214576
0.17630413477362886   -0.003006575975180524   -0.010097530680214576
0.17630413477362886   -0.003006575975180524   -0.010097530680214576
0.17630413477362886   -0.003006575975180524   -0.010097530680214576
0.1303158286223951   -0.012818446152629143   0.0064526728776789465
0.1303158286223951   -0.012818446152629143   0.0064526728776789465
0.1303158286223951   -0.012818446152629143   0.0064526728776789465
0.1303158286223951   -0.012818446152629143   0.0064526728776789465
0.02100257165885023   -0.015434231386443148   0.0008497923832848347
0.02100257165885023   -0.015434231386443148   0.0008497923832848347
0.02100257165885023   -0.015434231386443148   0.0008497923832848347
0.02100257165885023   -0.015434231386443148   0.0008497923832848347
0.013137921610134471   -0.03600764834392619   0.0059171688988440135
0.013137921610134471   -0.03600764834392619   0.0059171688988440135
0.013137921610134471   -0.03600764834392619   0.0059171688988440135
0.013137921610134471   -0.03600764834392619   0.0059171688988440135
0.1307845384005374   0.006208736014013387   0.0048389678595001685
0.1307845384005374   0.006208736014013387   0.0048389678595001685
0.1307845384005374   0.006208736014013387   0.0048389678595001685
0.1307845384005374   0.006208736014013387   0.0048389678595001685
0.07265536207984521   -0.014580621402089433   -0.000366567254811212
0.07265536207984521   -0.014580621402089433   -0.000366567254811212
0.07265536207984521   -0.014580621402089433   -0.000366567254811212
0.07265536207984521   -0.014580621402089433   -0.000366567254811212
0.12701049377614565   -0.013317559616818169   0.00549504036837295
0.12701049377614565   -0.013317559616818169   0.00549504036837295
0.12701049377614565   -0.013317559616818169   0.00549504036837295
0.12701049377614565   -0.013317559616818169   0.00549504036837295
0.01594866341284994   -0.017444655534770915   0.0014078851032660973
0.01594866341284994   -0.017444655534770915   0.0014078851032660973
0.01594866341284994   -0.017444655534770915   0.0014078851032660973
0.01594866341284994   -0.017444655534770915   0.0014078851032660973
0.009543468553154041   -0.036122758375843694   0.005270688062783533
0.009543468553154041   -0.036122758375843694   0.005270688062783533
0.009543468553154041   -0.036122758375843694   0.005270688062783533
0.009543468553154041   -0.036122758375843694   0.005270688062783533
0.1280413411128439   0.005443414765907335   0.005659842225308567
0.1280413411128439   0.005443414765907335   0.005659842225308567
0.1280413411128439   0.005443414765907335   0.005659842225308567
0.1280413411128439   0.005443414765907335   0.005659842225308567
0.06770610534017082   -0.015469443279019286   -0.0032681280571493204
0.06770610534017082   -0.015469443279019286   -0.0032681280571493204
0.06770610534017082   -0.015469443279019286   -0.0032681280571493204
0.06770610534017082   -0.015469443279019286   -0.0032681280571493204
0.12407997979551867   -0.013341919715841505   0.004638370120429844
0.12407997979551867   -0.013341919715841505   0.004638370120429844
0.12407997979551867   -0.013341919715841505   0.004638370120429844
0.12407997979551867   -0.013341919715841505   0.004638370120429844
0.012449353219806862   -0.018392900544767502   0.002070253564971444
0.012449353219806862   -0.018392900544767502   0.002070253564971444
0.012449353219806862   -0.018392900544767502   0.002070253564971444
0.012449353219806862   -0.018392900544767502   0.002070253564971444
0.005540823670390041   -0.03583687093656086   0.0040235247456595485
0.005540823670390041   -0.03583687093656086   0.0040235247456595485
0.005540823670390041   -0.03583687093656086   0.0040235247456595485
0.005540823670390041   -0.03583687093656086   0.0040235247456595485
0.12492732408128993   0.00571042059651829   0.0066994367136860465
0.12492732408128993   0.00571042059651829   0.0066994367136860465
0.12492732408128993   0.00571042059651829   0.0066994367136860465
0.12492732408128993   0.00571042059651829   0.0066994367136860465
0.0648185870762842   -0.015128435094818746   -0.005677288044297484
0.0648185870762842   -0.015128435094818746   -0.005677288044297484
0.0648185870762842   -0.015128435094818746   -0.005677288044297484
0.0648185870762842   -0.015128435094818746   -0.005677288044297484
0.01684687987160191   -0.04101949013276933   0.005656592193368972
0.01684687987160191   -0.04101949013276933   0.005656592193368972
0.01684687987160191   -0.04101949013276933   0.005656592193368972
0.01684687987160191   -0.04101949013276933   0.005656592193368972
-0.0845432233101575   -0.02332410106507034   -0.0003670250643278425
-0.0845432233101575   -0.02332410106507034   -0.0003670250643278425
-0.0845432233101575   -0.02332410106507034   -0.0003670250643278425
-0.0845432233101575   -0.02332410106507034   -0.0003670250643278425
-0.098766449593352   -0.06469966031747441   0.006772840291414612
-0.098766449593352   -0.06469966031747441   0.006772840291414612
-0.098766449593352   -0.06469966031747441   0.006772840291414612
-0.098766449593352   -0.06469966031747441   0.006772840291414612
0.019368451986050066   -0.002123035242931423   0.0031852076774272434
0.019368451986050066   -0.002123035242931423   0.0031852076774272434
0.019368451986050066   -0.002123035242931423   0.0031852076774272434
0.019368451986050066   -0.002123035242931423   0.0031852076774272434
-0.03636659373382256   -0.03231417483145271   0.0013140741140283555
-0.03636659373382256   -0.03231417483145271   0.0013140741140283555
-0.03636659373382256   -0.03231417483145271   0.0013140741140283555
-0.03636659373382256   -0.03231417483145271   0.0013140741140283555
0.011363799324121708   -0.04318366397274316   0.004222573097597172
0.011363799324121708   -0.04318366397274316   0.004222573097597172
0.011363799324121708   -0.04318366397274316   0.004222573097597172
0.011363799324121708   -0.04318366397274316   0.004222573097597172
-0.09215079793524601   -0.02502803259148388   0.00017947085595335132
-0.09215079793524601   -0.02502803259148388   0.00017947085595335132
-0.09215079793524601   -0.02502803259148388   0.00017947085595335132
-0.09215079793524601   -0.02502803259148388   0.00017947085595335132
-0.10370053397700874   -0.06540658001390072   0.005726424183415948
-0.10370053397700874   -0.06540658001390072   0.005726424183415948
-0.10370053397700874   -0.06540658001390072   0.005726424183415948
-0.10370053397700874   -0.06540658001390072   0.005726424183415948
0.015983602860122476   -0.0029626690649106335   0.004311270286692662
0.015983602860122476   -0.0029626690649106335   0.004311270286692662
0.015983602860122476   -0.0029626690649106335   0.004311270286692662
0.015983602860122476   -0.0029626690649106335   0.004311270286692662
-0.04257047732517247   -0.03408798093415931   -0.002781665631664154
-0.04257047732517247   -0.03408798093415931   -0.002781665631664154
-0.04257047732517247   -0.03408798093415931   -0.002781665631664154
-0.04257047732517247   -0.03408798093415931   -0.002781665631664154
0.007535140724104291   -0.04373622650168582   0.002842517043377407
0.007535140724104291   -0.04373622650168582   0.002842517043377407
0.007535140724104291   -0.04373622650168582   0.002842517043377407
0.007535140724104291   -0.04373622650168582   0.002842517043377407
-0.09696550020001639   -0.026346450936151462   0.00034146399062738716
-0.09696550020001639   -0.026346450936151462   0.00034146399062738716
-0.09696550020001639   -0.026346450936151462   0.00034146399062738716
-0.09696550020001639   -0.026346450936151462   0.00034146399062738716
-0.10913315931707351   -0.06481658763531724   0.00448064574702229
-0.10913315931707351   -0.06481658763531724   0.00448064574702229
-0.10913315931707351   -0.06481658763531724   0.00448064574702229
-0.10913315931707351   -0.06481658763531724   0.00448064574702229
0.012237549427927302   -0.0033634919323032846   0.0050337745290882805
0.012237549427927302   -0.0033634919323032846   0.0050337745290882805
0.012237549427927302   -0.0033634919323032846   0.0050337745290882805
0.012237549427927302   -0.0033634919323032846   0.0050337745290882805
-0.04766858233056678   -0.03468277061922742   -0.007004415616003323
-0.04766858233056678   -0.03468277061922742   -0.007004415616003323
-0.04766858233056678   -0.03468277061922742   -0.007004415616003323
-0.04766858233056678   -0.03468277061922742   -0.007004415616003323
-0.09267734240610667   -0.07107692950125157   0.006715207892108246
-0.09267734240610667   -0.07107692950125157   0.006715207892108246
-0.09267734240610667   -0.07107692950125157   0.006715207892108246
-0.09267734240610667   -0.07107692950125157   0.006715207892108246
-0.20233210847496272   -0.028844469735864846   -0.004363754911123854
-0.20233210847496272   -0.028844469735864846   -0.004363754911123854
-0.20233210847496272   -0.028844469735864846   -0.004363754911123854
-0.20233210847496272   -0.028844469735864846   -0.004363754911123854
-0.22736959534070364   -0.10779140741123124   -0.004887305688329992
-0.22736959534070364   -0.10779140741123124   -0.004887305688329992
-0.22736959534070364   -0.10779140741123124   -0.004887305688329992
-0.22736959534070364   -0.10779140741123124   -0.004887305688329992
-0.0875704561267601   -0.004699334398722268   0.0027524817056212504
-0.0875704561267601   -0.004699334398722268   0.0027524817056212504
-0.0875704561267601   -0.004699334398722268   0.0027524817056212504
-0.0875704561267601   -0.004699334398722268   0.0027524817056212504
-0.1509126227983034   -0.0506745142149189   -0.0034984630745909483
-0.1509126227983034   -0.0506745142149189   -0.0034984630745909483
-0.1509126227983034   -0.0506745142149189   -0.0034984630745909483
-0.1509126227983034   -0.0506745142149189   -0.0034984630745909483
-0.10292125627121859   -0.08138704095228898   0.002686187536896232
-0.10292125627121859   -0.08138704095228898   0.002686187536896232
-0.10292125627121859   -0.08138704095228898   0.002686187536896232
-0.10292125627121859   -0.08138704095228898   0.002686187536896232
-0.21178501324819105   -0.030869918909610293   -0.003885883727387913
-0.21178501324819105   -0.030869918909610293   -0.003885883727387913
-0.21178501324819105   -0.030869918909610293   -0.003885883727387913
-0.21178501324819105   -0.030869918909610293   -0.003885883727387913
-0.23331973626410155   -0.10919906756241468   -0.005643668717337756
-0.23331973626410155   -0.10919906756241468   -0.005643668717337756
-0.23331973626410155   -0.10919906756241468   -0.005643668717337756
-0.23331973626410155   -0.10919906756241468   -0.005643668717337756
-0.09221139966275108   -0.006172867739955505   0.0039383834807580126
-0.09221139966275108   -0.006172867739955505   0.0039383834807580126
-0.09221139966275108   -0.006172867739955505   0.0039383834807580126
-0.09221139966275108   -0.006172867739955505   0.0039383834807580126
-0.15827613932021614   -0.056523181928980565   -0.00572009241528818
-0.15827613932021614   -0.056523181928980565   -0.00572009241528818
-0.15827613932021614   -0.056523181928980565   -0.00572009241528818
-0.15827613932021614   -0.056523181928980565   -0.00572009241528818
-0.10810938963118685   -0.0828109594271996   0.0010865253258229568
-0.10810938963118685   -0.0828109594271996   0.0010865253258229568
-0.10810938963118685   -0.0828109594271996   0.0010865253258229568
-0.10810938963118685   -0.0828109594271996   0.0010865253258229568
-0.21771017097435205   -0.032849400553857266   -0.003945509277149821
-0.21771017097435205   -0.032849400553857266   -0.003945509277149821
-0.21771017097435205   -0.032849400553857266   -0.003945509277149821
-0.21771017097435205   -0.032849400553857266   -0.003945509277149821
-0.2382950043896092   -0.10332448349411538   -0.0063500104782793845
-0.2382950043896092   -0.10332448349411538   -0.0063500104782793845
-0.2382950043896092   -0.10332448349411538   -0.0063500104782793845
-0.2382950043896092   -0.10332448349411538   -0.0063500104782793845
-0.09797520785740649   -0.008295831030284702   0.00374964644032272
-0.09797520785740649   -0.008295831030284702   0.00374964644032272
-0.09797520785740649   -0.008295831030284702   0.00374964644032272
-0.09797520785740649   -0.008295831030284702   0.00374964644032272
-0.1652571619760922   -0.0583754758023954   -0.008005920142782572
-0.1652571619760922   -0.0583754758023954   -0.008005920142782572
-0.1652571619760922   -0.0583754758023954   -0.008005920142782572
-0.1652571619760922   -0.0583754758023954   -0.008005920142782572
-0.20017137758894454   -0.03709599130097431   0.014691421084073016
-0.20017137758894454   -0.03709599130097431   0.014691421084073016
-0.20017137758894454   -0.03709599130097431   0.014691421084073016
-0.20017137758894454   -0.03709599130097431   0.014691421084073016
-0.3440140153099367   -0.024756702607123163   -0.00518824547651792
-0.3440140153099367   -0.024756702607123163   -0.00518824547651792
-0.3440140153099367   -0.024756702607123163   -0.00518824547651792
-0.3440140153099367   -0.024756702607123163   -0.00518824547651792
-0.3637118809863225   -0.07195610077476672   0.003931377112488879
-0.3637118809863225   -0.07195610077476672   0.003931377112488879
-0.3637118809863225   -0.07195610077476672   0.003931377112488879
-0.3637118809863225   -0.07195610077476672   0.003931377112488879
-0.20370010363769747   0.003781004509971632   0.0018877409054964909
-0.20370010363769747   0.003781004509971632   0.0018877409054964909
-0.20370010363769747   0.003781004509971632   0.0018877409054964909
-0.20370010363769747   0.003781004509971632   0.0018877409054964909
-0.26468233744763636   -0.0252109151585414   0.0051172435554122
-0.26468233744763636   -0.0252109151585414   0.0051172435554122
-0.26468233744763636   -0.0252109151585414   0.0051172435554122
-0.26468233744763636   -0.0252109151585414   0.0051172435554122
-0.21013203300977726   -0.03943715574245152   0.012946254297519645
-0.21013203300977726   -0.03943715574245152   0.012946254297519645
-0.21013203300977726   -0.03943715574245152   0.012946254297519645
-0.21013203300977726   -0.03943715574245152   0.012946254297519645
-0.35658157559691583   -0.028039564505016372   -0.00433363221022518
-0.35658157559691583   -0.028039564505016372   -0.00433363221022518
-0.35658157559691583   -0.028039564505016372   -0.00433363221022518
-0.35658157559691583   -0.028039564505016372   -0.00433363221022518
-0.3715161604593735   -0.07474374487358468   -0.0022025639085498927
-0.3715161604593735   -0.07474374487358468   -0.0022025639085498927
-0.3715161604593735   -0.07474374487358468   -0.0022025639085498927
-0.3715161604593735   -0.07474374487358468   -0.0022025639085498927
-0.20930947980604575   0.002021116056301016   0.00318742995422331
-0.20930947980604575   0.002021116056301016   0.00318742995422331
-0.20930947980604575   0.002021116056301016   0.00318742995422331
-0.20930947980604575   0.002021116056301016   0.00318742995422331
-0.2792154408340236   -0.03299085536128682   0.0019117116687748098
-0.2792154408340236   -0.03299085536128682   0.0019117116687748098
-0.2792154408340236   -0.03299085536128682   0.0019117116687748098
-0.2792154408340236   -0.03299085536128682   0.0019117116687748098
-0.21650857470392695   -0.04121591719713475   0.010428988718253193
-0.21650857470392695   -0.04121591719713475   0.010428988718253193
-0.21650857470392695   -0.04121591719713475   0.010428988718253193
-0.21650857470392695   -0.04121591719713475   0.010428988718253193
-0.36273760905438757   -0.029927255113043144   -0.00312629664415566
-0.36273760905438757   -0.029927255113043144   -0.00312629664415566
-0.36273760905438757   -0.029927255113043144   -0.00312629664415566
-0.36273760905438757   -0.029927255113043144   -0.00312629664415566
-0.3777511744485139   -0.07559945654799977   -0.0002461082914849283
-0.3777511744485139   -0.07559945654799977   -0.0002461082914849283
-0.3777511744485139   -0.07559945654799977   -0.0002461082914849283
-0.3777511744485139   -0.07559945654799977   -0.0002461082914849283
-0.21729901456781753   -0.006167622481970857   0.0014730776185344612
-0.21729901456781753   -0.006167622481970857   0.0014730776185344612
-0.21729901456781753   -0.006167622481970857   0.0014730776185344612
-0.21729901456781753   -0.006167622481970857   0.0014730776185344612
-0.28171271937180375   -0.039519852643476724   0.002949478217571619
-0.28171271937180375   -0.039519852643476724   0.002949478217571619
-0.28171271937180375   -0.039519852643476724   0.002949478217571619
-0.28171271937180375   -0.039519852643476724   0.002949478217571619
0.2318250298567279   0.011372707515337623   -0.004409617595083825
0.2318250298567279   0.011372707515337623   -0.004409617595083825
0.2318250298567279   0.011372707515337623   -0.004409617595083825
0.2318250298567279   0.011372707515337623   -0.004409617595083825
0.11526284658783001   -0.0032124112787513953   0.001911865226787858
0.11526284658783001   -0.0032124112787513953   0.001911865226787858
0.11526284658783001   -0.0032124112787513953   0.001911865226787858
0.11526284658783001   -0.0032124112787513953   0.001911865226787858
0.10866293883979423   -0.016381415002925045   -0.0041033822560361515
0.10866293883979423   -0.016381415002925045   -0.0041033822560361515
0.10866293883979423   -0.016381415002925045   -0.0041033822560361515
0.10866293883979423   -0.016381415002925045   -0.0041033822560361515
0.22934390579743233   0.016360997701087655   0.0022367085265936927
0.22934390579743233   0.016360997701087655   0.0022367085265936927
0.22934390579743233   0.016360997701087655   0.0022367085265936927
0.22934390579743233   0.016360997701087655   0.0022367085265936927
0.16230275833044114   0.00041573128561692846   -0.006246708595202858
0.16230275833044114   0.00041573128561692846   -0.006246708595202858
0.16230275833044114   0.00041573128561692846   -0.006246708595202858
0.16230275833044114   0.00041573128561692846   -0.006246708595202858
0.22611996432198986   0.007021888595679593   -0.004543889745208611
0.22611996432198986   0.007021888595679593   -0.004543889745208611
0.22611996432198986   0.007021888595679593   -0.004543889745208611
0.22611996432198986   0.007021888595679593   -0.004543889745208611
0.11172894077749672   -0.0072002454352567795   0.002045457864807143
0.11172894077749672   -0.0072002454352567795   0.002045457864807143
0.11172894077749672   -0.0072002454352567795   0.002045457864807143
0.11172894077749672   -0.0072002454352567795   0.002045457864807143
0.10507834748843062   -0.0171769550845802   -0.0034568304696715995
0.10507834748843062   -0.0171769550845802   -0.0034568304696715995
0.10507834748843062   -0.0171769550845802   -0.0034568304696715995
0.10507834748843062   -0.0171769550845802   -0.0034568304696715995
0.22442677375488093   0.015184583685397116   0.003433231796773609
0.22442677375488093   0.015184583685397116   0.003433231796773609
0.22442677375488093   0.015184583685397116   0.003433231796773609
0.22442677375488093   0.015184583685397116   0.003433231796773609
0.16068518794242118   -0.001388379630945541   -0.0072153360240508006
0.16068518794242118   -0.001388379630945541   -0.0072153360240508006
0.16068518794242118   -0.001388379630945541   -0.0072153360240508006
0.16068518794242118   -0.001388379630945541   -0.0072153360240508006
0.22116528619114353   0.0059948952354945476   -0.0036845175720107825
0.22116528619114353   0.0059948952354945476   -0.0036845175720107825
0.22116528619114353   0.0059948952354945476   -0.0036845175720107825
0.22116528619114353   0.0059948952354945476   -0.0036845175720107825
0.10809586290678762   -0.00823123878005802   0.002685030317591231
0.10809586290678762   -0.00823123878005802   0.002685030317591231
0.10809586290678762   -0.00823123878005802   0.002685030317591231
0.10809586290678762   -0.00823123878005802   0.002685030317591231
0.10165485252162788   -0.01658156864416247   -0.0024134554463825144
0.10165485252162788   -0.01658156864416247   -0.0024134554463825144
0.10165485252162788   -0.01658156864416247   -0.0024134554463825144
0.10165485252162788   -0.01658156864416247   -0.0024134554463825144
0.21838337099560023   0.014669710279558427   0.004622126873659049
0.21838337099560023   0.014669710279558427   0.004622126873659049
0.21838337099560023   0.014669710279558427   0.004622126873659049
0.21838337099560023   0.014669710279558427   0.004622126873659049
0.15331370639338743   -0.0023560570378734144   -0.009322317676927892
0.15331370639338743   -0.0023560570378734144   -0.009322317676927892
0.15331370639338743   -0.0023560570378734144   -0.009322317676927892
0.15331370639338743   -0.0023560570378734144   -0.009322317676927892
0.11659095332628149   0.0038179033320384498   0.0015220843082539041
0.11659095332628149   0.0038179033320384498   0.0015220843082539041
0.11659095332628149   0.0038179033320384498   0.0015220843082539041
0.11659095332628149   0.0038179033320384498   0.0015220843082539041
0.008590014891430181   -0.007473958372000428   -0.00055482973836004
0.008590014891430181   -0.007473958372000428   -0.00055482973836004
0.008590014891430181   -0.007473958372000428   -0.00055482973836004
0.008590014891430181   -0.007473958372000428   -0.00055482973836004
0.002363380666272336   -0.021251592721175064   -0.004041518082177031
0.002363380666272336   -0.021251592721175064   -0.004041518082177031
0.002363380666272336   -0.021251592721175064   -0.004041518082177031
0.002363380666272336   -0.021251592721175064   -0.004041518082177031
0.11659464421919645   0.013627518857698008   0.005546210780351028
0.11659464421919645   0.013627518857698008   0.005546210780351028
0.11659464421919645   0.013627518857698008   0.005546210780351028
0.11659464421919645   0.013627518857698008   0.005546210780351028
0.05991990200651793   -0.0025783208521852844   -0.0021724220209733414
0.05991990200651793   -0.0025783208521852844   -0.0021724220209733414
0.05991990200651793   -0.0025783208521852844   -0.0021724220209733414
0.05991990200651793   -0.0025783208521852844   -0.0021724220209733414
0.11363514416053065   0.0022385912192134337   0.002137638125507133
0.11363514416053065   0.0022385912192134337   0.002137638125507133
0.11363514416053065   0.0022385912192134337   0.002137638125507133
0.11363514416053065   0.0022385912192134337   0.002137638125507133
0.005453323607924268   -0.009732222199704266   -0.00011117389538816986
0.005453323607924268   -0.009732222199704266   -0.00011117389538816986
0.005453323607924268   -0.009732222199704266   -0.00011117389538816986
0.005453323607924268   -0.009732222199704266   -0.00011117389538816986
-0.0010944961958441971   -0.022102171128328865   -0.0029322499371843202
-0.0010944961958441971   -0.022102171128328865   -0.0029322499371843202
-0.0010944961958441971   -0.022102171128328865   -0.0029322499371843202
-0.0010944961958441971   -0.022102171128328865   -0.0029322499371843202
0.11280873351750645   0.011930565909389039   0.006087578681738252
0.11280873351750645   0.011930565909389039   0.006087578681738252
0.11280873351750645   0.011930565909389039   0.006087578681738252
0.11280873351750645   0.011930565909389039   0.006087578681738252
0.05585089069014404   -0.004180691166333562   -0.003071901157702601
0.05585089069014404   -0.004180691166333562   -0.003071901157702601
0.05585089069014404   -0.004180691166333562   -0.003071901157702601
0.05585089069014404   -0.004180691166333562   -0.003071901157702601
0.11002652340931277   0.0012749179918107485   0.0028321760583491073
0.11002652340931277   0.0012749179918107485   0.0028321760583491073
0.11002652340931277   0.0012749179918107485   0.0028321760583491073
0.11002652340931277   0.0012749179918107485   0.0028321760583491073
0.0016822777891107358   -0.011451959333987882   0.0003014081932493583
0.0016822777891107358   -0.011451959333987882   0.0003014081932493583
0.0016822777891107358   -0.011451959333987882   0.0003014081932493583
0.0016822777891107358   -0.011451959333987882   0.0003014081932493583
-0.0047778748966699714   -0.02198940513717028   -0.0020944929768045733
-0.0047778748966699714   -0.02198940513717028   -0.0020944929768045733
-0.0047778748966699714   -0.02198940513717028   -0.0020944929768045733
-0.0047778748966699714   -0.02198940513717028   -0.0020944929768045733
0.10898494530775112   0.010955287738563668   0.00670015210150827
0.10898494530775112   0.010955287738563668   0.00670015210150827
0.10898494530775112   0.010955287738563668   0.00670015210150827
0.10898494530775112   0.010955287738563668   0.00670015210150827
0.052829936125365684   -0.0046759785503865375   -0.003784934569298998
0.052829936125365684   -0.0046759785503865375   -0.003784934569298998
0.052829936125365684   -0.0046759785503865375   -0.003784934569298998
0.052829936125365684   -0.0046759785503865375   -0.003784934569298998
0.009493656386844154   -0.0042878635328853915   0.000777282899595267
0.009493656386844154   -0.0042878635328853915   0.000777282899595267
0.009493656386844154   -0.0042878635328853915   0.000777282899595267
0.009493656386844154   -0.0042878635328853915   0.000777282899595267
-0.0948249131956702   -0.010783519486030558   -0.002933242912933359
-0.0948249131956702   -0.010783519486030558   -0.002933242912933359
-0.0948249131956702   -0.010783519486030558   -0.002933242912933359
-0.0948249131956702   -0.010783519486030558   -0.002933242912933359
-0.10175051848035849   -0.027929795467468085   -0.0047296229788474945
-0.10175051848035849   -0.027929795467468085   -0.0047296229788474945
-0.10175051848035849   -0.027929795467468085   -0.0047296229788474945
-0.10175051848035849   -0.027929795467468085   -0.0047296229788474945
0.010129680933998946   0.010242079492272637   0.003296311043008326
0.010129680933998946   0.010242079492272637   0.003296311043008326
0.010129680933998946   0.010242079492272637   0.003296311043008326
0.010129680933998946   0.010242079492272637   0.003296311043008326
-0.04433375891629569   -0.007807431615521535   -0.0020937907831033438
-0.04433375891629569   -0.007807431615521535   -0.0020937907831033438
-0.04433375891629569   -0.007807431615521535   -0.0020937907831033438
-0.04433375891629569   -0.007807431615521535   -0.0020937907831033438
0.006878146572165226   -0.004834995096642888   0.0021157138227547593
0.006878146572165226   -0.004834995096642888   0.0021157138227547593
0.006878146572165226   -0.004834995096642888   0.0021157138227547593
0.006878146572165226   -0.004834995096642888   0.0021157138227547593
-0.09823360900523802   -0.012587345765267167   -0.0024875253054460534
-0.09823360900523802   -0.012587345765267167   -0.0024875253054460534
-0.09823360900523802   -0.012587345765267167   -0.0024875253054460534
-0.09823360900523802   -0.012587345765267167   -0.0024875253054460534
-0.10578388066045658   -0.02884034131304518   -0.0033096074334010212
-0.10578388066045658   -0.02884034131304518   -0.0033096074334010212
-0.10578388066045658   -0.02884034131304518   -0.0033096074334010212
-0.10578388066045658   -0.02884034131304518   -0.0033096074334010212
0.0063401047863552475   0.008438297554370965   0.0037002862911130726
0.0063401047863552475   0.008438297554370965   0.0037002862911130726
0.0063401047863552475   0.008438297554370965   0.0037002862911130726
0.0063401047863552475   0.008438297554370965   0.0037002862911130726
-0.047692490476051314   -0.008826353310464875   -0.0024916462301264614
-0.047692490476051314   -0.008826353310464875   -0.0024916462301264614
-0.047692490476051314   -0.008826353310464875   -0.0024916462301264614
-0.047692490476051314   -0.008826353310464875   -0.0024916462301264614
0.0033019087235343536   -0.005809784369409064   0.002757387900788631
0.0033019087235343536   -0.005809784369409064   0.002757387900788631
0.0033019087235343536   -0.005809784369409064   0.002757387900788631
0.0033019087235343536   -0.005809784369409064   0.002757387900788631
-0.10267813991697038   -0.01452471470860002   -0.002096530320416205
-0.10267813991697038   -0.01452471470860002   -0.002096530320416205
-0.10267813991697038   -0.01452471470860002   -0.002096530320416205
-0.10267813991697038   -0.01452471470860002   -0.002096530320416205
-0.11023488531644318   -0.0294514149542506   -0.0029334058362777997
-0.11023488531644318   -0.0294514149542506   -0.0029334058362777997
-0.11023488531644318   -0.0294514149542506   -0.0029334058362777997
-0.11023488531644318   -0.0294514149542506   -0.0029334058362777997
0.0022377002980610698   0.006909244414869059   0.004084733444810813
0.0022377002980610698   0.006909244414869059   0.004084733444810813
0.0022377002980610698   0.006909244414869059   0.004084733444810813
0.0022377002980610698   0.006909244414869059   0.004084733444810813
-0.05202820324675089   -0.01004337085194256   -0.0034806118673647705
-0.05202820324675089   -0.01004337085194256   -0.0034806118673647705
-0.05202820324675089   -0.01004337085194256   -0.0034806118673647705
-0.05202820324675089   -0.01004337085194256   -0.0034806118673647705
-0.09295141669762143   -0.005804530316595415   0.0014552504078743566
-0.09295141669762143   -0.005804530316595415   0.0014552504078743566
-0.09295141669762143   -0.005804530316595415   0.0014552504078743566
-0.09295141669762143   -0.005804530316595415   0.0014552504078743566
-0.1966240430195604   -0.012668404481341097   -0.0049875203460437055
-0.1966240430195604   -0.012668404481341097   -0.0049875203460437055
-0.1966240430195604   -0.012668404481341097   -0.0049875203460437055
-0.1966240430195604   -0.012668404481341097   -0.0049875203460437055
-0.20442010758759413   -0.02960651373886329   -0.004933763534249826
-0.20442010758759413   -0.02960651373886329   -0.004933763534249826
-0.20442010758759413   -0.02960651373886329   -0.004933763534249826
-0.20442010758759413   -0.02960651373886329   -0.004933763534249826
-0.09338558051287098   0.008044953225239963   0.0011203181658805883
-0.09338558051287098   0.008044953225239963   0.0011203181658805883
-0.09338558051287098   0.008044953225239963   0.0011203181658805883
-0.09338558051287098   0.008044953225239963   0.0011203181658805883
-0.14567653911324085   -0.009554606146328297   -0.0016327934300100783
-0.14567653911324085   -0.009554606146328297   -0.0016327934300100783
-0.14567653911324085   -0.009554606146328297   -0.0016327934300100783
-0.14567653911324085   -0.009554606146328297   -0.0016327934300100783
-0.09583195603266008   -0.006262876635492765   0.0031962704276687595
-0.09583195603266008   -0.006262876635492765   0.0031962704276687595
-0.09583195603266008   -0.006262876635492765   0.0031962704276687595
-0.09583195603266008   -0.006262876635492765   0.0031962704276687595
-0.20148244197994578   -0.014807393790271375   -0.005044555444601328
-0.20148244197994578   -0.014807393790271375   -0.005044555444601328
-0.20148244197994578   -0.014807393790271375   -0.005044555444601328
-0.20148244197994578   -0.014807393790271375   -0.005044555444601328
-0.20994166405931186   -0.03122421180933049   -0.0035880724695561183
-0.20994166405931186   -0.03122421180933049   -0.0035880724695561183
-0.20994166405931186   -0.03122421180933049   -0.0035880724695561183
-0.20994166405931186   -0.03122421180933049   -0.0035880724695561183
-0.09787876896341383   0.006062248235661968   0.0013133615031046134
-0.09787876896341383   0.006062248235661968   0.0013133615031046134
-0.09787876896341383   0.006062248235661968   0.0013133615031046134
-0.09787876896341383   0.006062248235661968   0.0013133615031046134
-0.14901347292087996   -0.01035524115512012   -0.0015759850351496699
-0.14901347292087996   -0.01035524115512012   -0.0015759850351496699
-0.14901347292087996   -0.01035524115512012   -0.0015759850351496699
-0.14901347292087996   -0.01035524115512012   -0.0015759850351496699
-0.1002583260917678   -0.007895304085426016   0.003373128182422194
-0.1002583260917678   -0.007895304085426016   0.003373128182422194
-0.1002583260917678   -0.007895304085426016   0.003373128182422194
-0.1002583260917678   -0.007895304085426016   0.003373128182422194
-0.20722710122718146   -0.016931653784466174   -0.004307816333768438
-0.20722710122718146   -0.016931653784466174   -0.004307816333768438
-0.20722710122718146   -0.016931653784466174   -0.004307816333768438
-0.20722710122718146   -0.016931653784466174   -0.004307816333768438
-0.21614130959666106   -0.033428491712883514   -0.003747555233416777
-0.21614130959666106   -0.033428491712883514   -0.003747555233416777
-0.21614130959666106   -0.033428491712883514   -0.003747555233416777
-0.21614130959666106   -0.033428491712883514   -0.003747555233416777
-0.1027452062747583   0.0035571458901236495   0.0015064285277708962
-0.1027452062747583   0.0035571458901236495   0.0015064285277708962
-0.1027452062747583   0.0035571458901236495   0.0015064285277708962
-0.1027452062747583   0.0035571458901236495   0.0015064285277708962
-0.15539248503114103   -0.012727670277944882   -0.0027232630149695803
-0.15539248503114103   -0.012727670277944882   -0.0027232630149695803
-0.15539248503114103   -0.012727670277944882   -0.0027232630149695803
-0.15539248503114103   -0.012727670277944882   -0.0027232630149695803
-0.19039336720420125   0.008087139132674767   0.005410315116736269
-0.19039336720420125   0.008087139132674767   0.005410315116736269
-0.19039336720420125   0.008087139132674767   0.005410315116736269
-0.19039336720420125   0.008087139132674767   0.005410315116736269
-0.2944430654011975   -0.014597979571151914   -0.0034304699901020197
-0.2944430654011975   -0.014597979571151914   -0.0034304699901020197
-0.2944430654011975   -0.014597979571151914   -0.0034304699901020197
-0.2944430654011975   -0.014597979571151914   -0.0034304699901020197
-0.3007545254283582   -0.014921280651057627   0.00543073689101089
-0.3007545254283582   -0.014921280651057627   0.00543073689101089
-0.3007545254283582   -0.014921280651057627   0.00543073689101089
-0.3007545254283582   -0.014921280651057627   0.00543073689101089
-0.19640740562368017   0.006611453764212266   -0.0010882212177569864
-0.19640740562368017   0.006611453764212266   -0.0010882212177569864
-0.19640740562368017   0.006611453764212266   -0.0010882212177569864
-0.19640740562368017   0.006611453764212266   -0.0010882212177569864
-0.23400660405980656   -4.481935127381709e-05   0.0060558054783762735
-0.23400660405980656   -4.481935127381709e-05   0.0060558054783762735
-0.23400660405980656   -4.481935127381709e-05   0.0060558054783762735
-0.23400660405980656   -4.481935127381709e-05   0.0060558054783762735
-0.19479434132536064   0.006585266332459663   0.007003287705592156
-0.19479434132536064   0.006585266332459663   0.007003287705592156
-0.19479434132536064   0.006585266332459663   0.007003287705592156
-0.19479434132536064   0.006585266332459663   0.007003287705592156
-0.3022337133400049   -0.014761216832631124   -0.0021252664856492506
-0.3022337133400049   -0.014761216832631124   -0.0021252664856492506
-0.3022337133400049   -0.014761216832631124   -0.0021252664856492506
-0.3022337133400049   -0.014761216832631124   -0.0021252664856492506
-0.30861684591014765   -0.01698374773931173   0.007470477080269187
-0.30861684591014765   -0.01698374773931173   0.007470477080269187
-0.30861684591014765   -0.01698374773931173   0.007470477080269187
-0.30861684591014765   -0.01698374773931173   0.007470477080269187
-0.20217668580964893   0.005195443684928566   -0.001182836715501975
-0.20217668580964893   0.005195443684928566   -0.001182836715501975
-0.20217668580964893   0.005195443684928566   -0.001182836715501975
-0.20217668580964893   0.005195443684928566   -0.001182836715501975
-0.24462484043342633   -0.0024066205301761234   0.003700775463881591
-0.24462484043342633   -0.0024066205301761234   0.003700775463881591
-0.24462484043342633   -0.0024066205301761234   0.003700775463881591
-0.24462484043342633   -0.0024066205301761234   0.003700775463881591
-0.20069580493304984   0.0044914727587832826   0.00692553859363873
-0.20069580493304984   0.0044914727587832826   0.00692553859363873
-0.20069580493304984   0.0044914727587832826   0.00692553859363873
-0.20069580493304984   0.0044914727587832826   0.00692553859363873
-0.31037765531253997   -0.01655970533895839   -0.0017576123320457281
-0.31037765531253997   -0.01655970533895839   -0.0017576123320457281
-0.31037765531253997   -0.01655970533895839   -0.0017576123320457281
-0.31037765531253997   -0.01655970533895839   -0.0017576123320457281
-0.3199175421803174   -0.025730531226586306   0.006277061507949502
-0.3199175421803174   -0.025730531226586306   0.006277061507949502
-0.3199175421803174   -0.025730531226586306   0.006277061507949502
-0.3199175421803174   -0.025730531226586306   0.006277061507949502
-0.20883489944196867   0.0004992075391590661   -0.0011432037120009293
-0.20883489944196867   0.0004992075391590661   -0.0011432037120009293
-0.20883489944196867   0.0004992075391590661   -0.0011432037120009293
-0.20883489944196867   0.0004992075391590661   -0.0011432037120009293
-0.24839614805034885   -0.005511547219678392   0.0018216572561679228
-0.24839614805034885   -0.005511547219678392   0.0018216572561679228
-0.24839614805034885   -0.005511547219678392   0.0018216572561679228
-0.24839614805034885   -0.005511547219678392   0.0018216572561679228
0.1931998984412764   0.010770591197509678   -0.006110174245353182
0.1931998984412764   0.010770591197509678   -0.006110174245353182
0.1931998984412764   0.010770591197509678   -0.006110174245353182
0.1931998984412764   0.010770591197509678   -0.006110174245353182
0.09457059138508958   -0.0009378019333345887   0.001995230937629649
0.09457059138508958   -0.0009378019333345887   0.001995230937629649
0.09457059138508958   -0.0009378019333345887   0.001995230937629649
0.09457059138508958   -0.0009378019333345887   0.001995230937629649
0.08727495321226653   -0.013654979958103292   -0.005774227184195218
0.08727495321226653   -0.013654979958103292   -0.005774227184195218
0.08727495321226653   -0.013654979958103292   -0.005774227184195218
0.08727495321226653   -0.013654979958103292   -0.005774227184195218
0.18997681875329298   0.015226295630460854   0.002530284624125777
0.18997681875329298   0.015226295630460854   0.002530284624125777
0.18997681875329298   0.015226295630460854   0.002530284624125777
0.18997681875329298   0.015226295630460854   0.002530284624125777
0.13395239023314218   0.001144472854831862   -0.004430514004543575
0.13395239023314218   0.001144472854831862   -0.004430514004543575
0.13395239023314218   0.001144472854831862   -0.004430514004543575
0.13395239023314218   0.001144472854831862   -0.004430514004543575
0.1864605127651394   0.0061433228767286616   -0.005968272562908345
0.1864605127651394   0.0061433228767286616   -0.005968272562908345
0.1864605127651394   0.0061433228767286616   -0.005968272562908345
0.1864605127651394   0.0061433228767286616   -0.005968272562908345
0.09065684684976148   -0.0047064195550297235   0.0021866806002043765
0.09065684684976148   -0.0047064195550297235   0.0021866806002043765
0.09065684684976148   -0.0047064195550297235   0.0021866806002043765
0.09065684684976148   -0.0047064195550297235   0.0021866806002043765
0.0836341991392144   -0.014674235283594277   -0.00506828843251682
0.0836341991392144   -0.014674235283594277   -0.00506828843251682
0.0836341991392144   -0.014674235283594277   -0.00506828843251682
0.0836341991392144   -0.014674235283594277   -0.00506828843251682
0.18455731407373632   0.013784854130349765   0.0035783058800888234
0.18455731407373632   0.013784854130349765   0.0035783058800888234
0.18455731407373632   0.013784854130349765   0.0035783058800888234
0.18455731407373632   0.013784854130349765   0.0035783058800888234
0.13140880265617635   -0.0007819315425661132   -0.005566454630601874
0.13140880265617635   -0.0007819315425661132   -0.005566454630601874
0.13140880265617635   -0.0007819315425661132   -0.005566454630601874
0.13140880265617635   -0.0007819315425661132   -0.005566454630601874
0.18110078374452415   0.004874034164040648   -0.004793525799659625
0.18110078374452415   0.004874034164040648   -0.004793525799659625
0.18110078374452415   0.004874034164040648   -0.004793525799659625
0.18110078374452415   0.004874034164040648   -0.004793525799659625
0.086955655368747   -0.005898489416963054   0.002763246848514051
0.086955655368747   -0.005898489416963054   0.002763246848514051
0.086955655368747   -0.005898489416963054   0.002763246848514051
0.086955655368747   -0.005898489416963054   0.002763246848514051
0.08034879595342341   -0.014692976215647094   -0.004156730560199426
0.08034879595342341   -0.014692976215647094   -0.004156730560199426
0.08034879595342341   -0.014692976215647094   -0.004156730560199426
0.08034879595342341   -0.014692976215647094   -0.004156730560199426
0.1784487080656524   0.012737135112130885   0.004565314766724459
0.1784487080656524   0.012737135112130885   0.004565314766724459
0.1784487080656524   0.012737135112130885   0.004565314766724459
0.1784487080656524   0.012737135112130885   0.004565314766724459
0.12449480467574596   -0.002016800037848602   -0.00743936130516759
0.12449480467574596   -0.002016800037848602   -0.00743936130516759
0.12449480467574596   -0.002016800037848602   -0.00743936130516759
0.12449480467574596   -0.002016800037848602   -0.00743936130516759
0.09662700141646666   0.010426917260762466   0.0009125619004179612
0.09662700141646666   0.010426917260762466   0.0009125619004179612
0.09662700141646666   0.010426917260762466   0.0009125619004179612
0.09662700141646666   0.010426917260762466   0.0009125619004179612
0.0015376083688872241   -0.003770971594805298   -0.0006192100013404436
0.0015376083688872241   -0.003770971594805298   -0.0006192100013404436
0.0015376083688872241   -0.003770971594805298   -0.0006192100013404436
0.0015376083688872241   -0.003770971594805298   -0.0006192100013404436
-0.00397203795038411   -0.012405780686200886   -0.004053604769562894
-0.00397203795038411   -0.012405780686200886   -0.004053604769562894
-0.00397203795038411   -0.012405780686200886   -0.004053604769562894
-0.00397203795038411   -0.012405780686200886   -0.004053604769562894
0.0949623518641784   0.01395553558095403   0.005052250536305134
0.0949623518641784   0.01395553558095403   0.005052250536305134
0.0949623518641784   0.01395553558095403   0.005052250536305134
0.0949623518641784   0.01395553558095403   0.005052250536305134
0.04654366144675679   0.0019997161950290557   -0.0004398466667693466
0.04654366144675679   0.0019997161950290557   -0.0004398466667693466
0.04654366144675679   0.0019997161950290557   -0.0004398466667693466
0.04654366144675679   0.0019997161950290557   -0.0004398466667693466
0.09305062367140375   0.008082751352288798   0.001366393801097666
0.09305062367140375   0.008082751352288798   0.001366393801097666
0.09305062367140375   0.008082751352288798   0.001366393801097666
0.09305062367140375   0.008082751352288798   0.001366393801097666
-0.002020143813035234   -0.006492830512961256   -0.00020708425605766288
-0.002020143813035234   -0.006492830512961256   -0.00020708425605766288
-0.002020143813035234   -0.006492830512961256   -0.00020708425605766288
-0.002020143813035234   -0.006492830512961256   -0.00020708425605766288
-0.0074177417953019305   -0.014041701454936249   -0.0035472828270798054
-0.0074177417953019305   -0.014041701454936249   -0.0035472828270798054
-0.0074177417953019305   -0.014041701454936249   -0.0035472828270798054
-0.0074177417953019305   -0.014041701454936249   -0.0035472828270798054
0.09105296720131342   0.011786773344052034   0.005564543250331117
0.09105296720131342   0.011786773344052034   0.005564543250331117
0.09105296720131342   0.011786773344052034   0.005564543250331117
0.09105296720131342   0.011786773344052034   0.005564543250331117
0.0422525214775482   -0.00016922906386851802   -0.0016595650121565626
0.0422525214775482   -0.00016922906386851802   -0.0016595650121565626
0.0422525214775482   -0.00016922906386851802   -0.0016595650121565626
0.0422525214775482   -0.00016922906386851802   -0.0016595650121565626
0.08922061791431442   0.00636111757023399   0.001828452589155039
0.08922061791431442   0.00636111757023399   0.001828452589155039
0.08922061791431442   0.00636111757023399   0.001828452589155039
0.08922061791431442   0.00636111757023399   0.001828452589155039
-0.005584303876457267   -0.008614957049272398   0.00019316236147965803
-0.005584303876457267   -0.008614957049272398   0.00019316236147965803
-0.005584303876457267   -0.008614957049272398   0.00019316236147965803
-0.005584303876457267   -0.008614957049272398   0.00019316236147965803
-0.010815868407586584   -0.0149234075631917   -0.0028925106919308694
-0.010815868407586584   -0.0149234075631917   -0.0028925106919308694
-0.010815868407586584   -0.0149234075631917   -0.0028925106919308694
-0.010815868407586584   -0.0149234075631917   -0.0028925106919308694
0.08733156090731965   0.010038326795010207   0.006025791198623232
0.08733156090731965   0.010038326795010207   0.006025791198623232
0.08733156090731965   0.010038326795010207   0.006025791198623232
0.08733156090731965   0.010038326795010207   0.006025791198623232
0.039211049823463955   -0.0014439375487621895   -0.0025208415026295766
0.039211049823463955   -0.0014439375487621895   -0.0025208415026295766
0.039211049823463955   -0.0014439375487621895   -0.0025208415026295766
0.039211049823463955   -0.0014439375487621895   -0.0025208415026295766
0.004903513734975357   0.010197236274621452   0.002242108959673467
0.004903513734975357   0.010197236274621452   0.002242108959673467
0.004903513734975357   0.010197236274621452   0.002242108959673467
0.004903513734975357   0.010197236274621452   0.002242108959673467
-0.08885347607174247   -0.0061693574501742714   -0.00300165206559215
-0.08885347607174247   -0.0061693574501742714   -0.00300165206559215
-0.08885347607174247   -0.0061693574501742714   -0.00300165206559215
-0.08885347607174247   -0.0061693574501742714   -0.00300165206559215
-0.09314727104747118   -0.011625807531083901   -0.0027661720923042267
-0.09314727104747118   -0.011625807531083901   -0.0027661720923042267
-0.09314727104747118   -0.011625807531083901   -0.0027661720923042267
-0.09314727104747118   -0.011625807531083901   -0.0027661720923042267
0.0021228752196885132   0.011469285589015747   0.002545894805584071
0.0021228752196885132   0.011469285589015747   0.002545894805584071
0.0021228752196885132   0.011469285589015747   0.002545894805584071
0.0021228752196885132   0.011469285589015747   0.002545894805584071
-0.04368272227754203   0.0011162588170951868   0.00022188334240481932
-0.04368272227754203   0.0011162588170951868   0.00022188334240481932
-0.04368272227754203   0.0011162588170951868   0.00022188334240481932
-0.04368272227754203   0.0011162588170951868   0.00022188334240481932
0.0015502343008093054   0.008414435930894753   0.002737539869308546
0.0015502343008093054   0.008414435930894753   0.002737539869308546
0.0015502343008093054   0.008414435930894753   0.002737539869308546
0.0015502343008093054   0.008414435930894753   0.002737539869308546
-0.09247667350107132   -0.008473001245442318   -0.0025659906459464233
-0.09247667350107132   -0.008473001245442318   -0.0025659906459464233
-0.09247667350107132   -0.008473001245442318   -0.0025659906459464233
-0.09247667350107132   -0.008473001245442318   -0.0025659906459464233
-0.09683744268329549   -0.01341191018269023   -0.00237320492454216
-0.09683744268329549   -0.01341191018269023   -0.00237320492454216
-0.09683744268329549   -0.01341191018269023   -0.00237320492454216
-0.09683744268329549   -0.01341191018269023   -0.00237320492454216
-0.0014397638314078455   0.00924445641216156   0.00305644912529233
-0.0014397638314078455   0.00924445641216156   0.00305644912529233
-0.0014397638314078455   0.00924445641216156   0.00305644912529233
-0.0014397638314078455   0.00924445641216156   0.00305644912529233
-0.04722597533866824   -0.0006799103182205928   -0.0006696791673465436
-0.04722597533866824   -0.0006799103182205928   -0.0006696791673465436
-0.04722597533866824   -0.0006799103182205928   -0.0006696791673465436
-0.04722597533866824   -0.0006799103182205928   -0.0006696791673465436
-0.001920615531803552   0.006687854699676464   0.00320879233579937
-0.001920615531803552   0.006687854699676464   0.00320879233579937
-0.001920615531803552   0.006687854699676464   0.00320879233579937
-0.001920615531803552   0.006687854699676464   0.00320879233579937
-0.09627857373965512   -0.01077729122696022   -0.002213479162069297
-0.09627857373965512   -0.01077729122696022   -0.002213479162069297
-0.09627857373965512   -0.01077729122696022   -0.002213479162069297
-0.09627857373965512   -0.01077729122696022   -0.002213479162069297
-0.10049141476669211   -0.014796222663304017   -0.0017134868813013968
-0.10049141476669211   -0.014796222663304017   -0.0017134868813013968
-0.10049141476669211   -0.014796222663304017   -0.0017134868813013968
-0.10049141476669211   -0.014796222663304017   -0.0017134868813013968
-0.00513580354311351   0.007148793524366999   0.003435612542876289
-0.00513580354311351   0.007148793524366999   0.003435612542876289
-0.00513580354311351   0.007148793524366999   0.003435612542876289
-0.00513580354311351   0.007148793524366999   0.003435612542876289
-0.05104271790817799   -0.0025032186813418247   -0.0016572583160317199
-0.05104271790817799   -0.0025032186813418247   -0.0016572583160317199
-0.05104271790817799   -0.0025032186813418247   -0.0016572583160317199
-0.05104271790817799   -0.0025032186813418247   -0.0016572583160317199
-0.08395409579421395   0.011606889506095074   0.003719002365783015
-0.08395409579421395   0.011606889506095074   0.003719002365783015
-0.08395409579421395   0.011606889506095074   0.003719002365783015
-0.08395409579421395   0.011606889506095074   0.003719002365783015
-0.17704024488358627   -0.008350170187346222   -0.0048201835347804
-0.17704024488358627   -0.008350170187346222   -0.0048201835347804
-0.17704024488358627   -0.008350170187346222   -0.0048201835347804
-0.17704024488358627   -0.008350170187346222   -0.0048201835347804
-0.18036297668944495   -0.009807203000001489   -0.0011630667837526929
-0.18036297668944495   -0.009807203000001489   -0.0011630667837526929
-0.18036297668944495   -0.009807203000001489   -0.0011630667837526929
-0.18036297668944495   -0.009807203000001489   -0.0011630667837526929
-0.08849295859586558   0.008812716429186008   6.68662054553338e-05
-0.08849295859586558   0.008812716429186008   6.68662054553338e-05
-0.08849295859586558   0.008812716429186008   6.68662054553338e-05
-0.08849295859586558   0.008812716429186008   6.68662054553338e-05
-0.13149560749247918   0.0009064631263450383   0.0010025555413851906
-0.13149560749247918   0.0009064631263450383   0.0010025555413851906
-0.13149560749247918   0.0009064631263450383   0.0010025555413851906
-0.13149560749247918   0.0009064631263450383   0.0010025555413851906
-0.08747245254107847   0.00983328147344811   0.004148831435128816
-0.08747245254107847   0.00983328147344811   0.004148831435128816
-0.08747245254107847   0.00983328147344811   0.004148831435128816
-0.08747245254107847   0.00983328147344811   0.004148831435128816
-0.18126810212967612   -0.010712387429707898   -0.004783509555203671
-0.18126810212967612   -0.010712387429707898   -0.004783509555203671
-0.18126810212967612   -0.010712387429707898   -0.004783509555203671
-0.18126810212967612   -0.010712387429707898   -0.004783509555203671
-0.18489432263490152   -0.011829818086212637   -0.001131416434780731
-0.18489432263490152   -0.011829818086212637   -0.001131416434780731
-0.18489432263490152   -0.011829818086212637   -0.001131416434780731
-0.18489432263490152   -0.011829818086212637   -0.001131416434780731
-0.09223956083914947   0.006690218314976907   0.0005140757985218417
-0.09223956083914947   0.006690218314976907   0.0005140757985218417
-0.09223956083914947   0.006690218314976907   0.0005140757985218417
-0.09223956083914947   0.006690218314976907   0.0005140757985218417
-0.13455773644410332   -0.0006721220958194919   0.0002820978128276622
-0.13455773644410332   -0.0006721220958194919   0.0002820978128276622
-0.13455773644410332   -0.0006721220958194919   0.0002820978128276622
-0.13455773644410332   -0.0006721220958194919   0.0002820978128276622
-0.09111175230971523   0.008101372181595543   0.004741964579073892
-0.09111175230971523   0.008101372181595543   0.004741964579073892
-0.09111175230971523   0.008101372181595543   0.004741964579073892
-0.09111175230971523   0.008101372181595543   0.004741964579073892
-0.18576308351835835   -0.012981924306854194   -0.00432311463142478
-0.18576308351835835   -0.012981924306854194   -0.00432311463142478
-0.18576308351835835   -0.012981924306854194   -0.00432311463142478
-0.18576308351835835   -0.012981924306854194   -0.00432311463142478
-0.18904082127185676   -0.014020946595846105   -8.84189049794289e-05
-0.18904082127185676   -0.014020946595846105   -8.84189049794289e-05
-0.18904082127185676   -0.014020946595846105   -8.84189049794289e-05
-0.18904082127185676   -0.014020946595846105   -8.84189049794289e-05
-0.0962120623233387   0.004109809421314552   0.000777243250848941
-0.0962120623233387   0.004109809421314552   0.000777243250848941
-0.0962120623233387   0.004109809421314552   0.000777243250848941
-0.0962120623233387   0.004109809421314552   0.000777243250848941
-0.13963872989293627   -0.003035973523085357   -0.0007405853996335443
-0.13963872989293627   -0.003035973523085357   -0.0007405853996335443
-0.13963872989293627   -0.003035973523085357   -0.0007405853996335443
-0.13963872989293627   -0.003035973523085357   -0.0007405853996335443
-0.1710491666376106   0.011769918067613294   0.0050151194401371335
-0.1710491666376106   0.011769918067613294   0.0050151194401371335
-0.1710491666376106   0.011769918067613294   0.0050151194401371335
-0.1710491666376106   0.011769918067613294   0.0050151194401371335
-0.26207159494274757   -0.012235360004185625   -0.004117584051969143
-0.26207159494274757   -0.012235360004185625   -0.004117584051969143
-0.26207159494274757   -0.012235360004185625   -0.004117584051969143
-0.26207159494274757   -0.012235360004185625   -0.004117584051969143
-0.26513384209729823   -0.006089578302060757   0.00413305492449597
-0.26513384209729823   -0.006089578302060757   0.00413305492449597
-0.26513384209729823   -0.006089578302060757   0.00413305492449597
-0.26513384209729823   -0.006089578302060757   0.00413305492449597
-0.17743573964272816   0.005745969915807524   -0.002080054465977933
-0.17743573964272816   0.005745969915807524   -0.002080054465977933
-0.17743573964272816   0.005745969915807524   -0.002080054465977933
-0.17743573964272816   0.005745969915807524   -0.002080054465977933
-0.20915853332032658   0.002230203594798974   0.005019346077273314
-0.20915853332032658   0.002230203594798974   0.005019346077273314
-0.20915853332032658   0.002230203594798974   0.005019346077273314
-0.20915853332032658   0.002230203594798974   0.005019346077273314
-0.17454213891356476   0.012357445974096416   0.005776473121548338
-0.17454213891356476   0.012357445974096416   0.005776473121548338
-0.17454213891356476   0.012357445974096416   0.005776473121548338
-0.17454213891356476   0.012357445974096416   0.005776473121548338
-0.26785911865180756   -0.012532730185695062   -0.0030501759644115025
-0.26785911865180756   -0.012532730185695062   -0.0030501759644115025
-0.26785911865180756   -0.012532730185695062   -0.0030501759644115025
-0.26785911865180756   -0.012532730185695062   -0.0030501759644115025
-0.2707817350016167   -0.007151587813180919   0.005687054985918332
-0.2707817350016167   -0.007151587813180919   0.005687054985918332
-0.2707817350016167   -0.007151587813180919   0.005687054985918332
-0.2707817350016167   -0.007151587813180919   0.005687054985918332
-0.1817626719384055   0.004530804160412093   -0.0018337851989254587
-0.1817626719384055   0.004530804160412093   -0.0018337851989254587
-0.1817626719384055   0.004530804160412093   -0.0018337851989254587
-0.1817626719384055   0.004530804160412093   -0.0018337851989254587
-0.21737339834687056   0.001144473101281726   0.0034622104876395627
-0.21737339834687056   0.001144473101281726   0.0034622104876395627
-0.21737339834687056   0.001144473101281726   0.0034622104876395627
-0.21737339834687056   0.001144473101281726   0.0034622104876395627
-0.17856028335119206   0.011580903249359245   0.007128058648194576
-0.17856028335119206   0.011580903249359245   0.007128058648194576
-0.17856028335119206   0.011580903249359245   0.007128058648194576
-0.17856028335119206   0.011580903249359245   0.007128058648194576
-0.27381136546416307   -0.014028928777460259   -0.0025837563625296257
-0.27381136546416307   -0.014028928777460259   -0.0025837563625296257
-0.27381136546416307   -0.014028928777460259   -0.0025837563625296257
-0.27381136546416307   -0.014028928777460259   -0.0025837563625296257
-0.278458858245423   -0.012093047759685158   0.005519478597232275
-0.278458858245423   -0.012093047759685158   0.005519478597232275
-0.278458858245423   -0.012093047759685158   0.005519478597232275
-0.278458858245423   -0.012093047759685158   0.005519478597232275
-0.18645268315939065   0.0005799789664710508   -0.0017486539049660892
-0.18645268315939065   0.0005799789664710508   -0.0017486539049660892
-0.18645268315939065   0.0005799789664710508   -0.0017486539049660892
-0.18645268315939065   0.0005799789664710508   -0.0017486539049660892
-0.21916722165179173   -0.0005549611723252232   0.003074523596336325
-0.21916722165179173   -0.0005549611723252232   0.003074523596336325
-0.21916722165179173   -0.0005549611723252232   0.003074523596336325
-0.21916722165179173   -0.0005549611723252232   0.003074523596336325
0.15153611283826043   0.008766284409144873   -0.006449858803143887
0.15153611283826043   0.008766284409144873   -0.006449858803143887
0.15153611283826043   0.008766284409144873   -0.006449858803143887
0.15153611283826043   0.008766284409144873   -0.006449858803143887
0.07125876649940799   0.0006943257192243875   0.0022838153559662676
0.07125876649940799   0.0006943257192243875   0.0022838153559662676
0.07125876649940799   0.0006943257192243875   0.0022838153559662676
0.07125876649940799   0.0006943257192243875   0.0022838153559662676
0.06417966672207413   -0.01168569835653061   -0.006232533279612695
0.06417966672207413   -0.01168569835653061   -0.006232533279612695
0.06417966672207413   -0.01168569835653061   -0.006232533279612695
0.06417966672207413   -0.01168569835653061   -0.006232533279612695
0.1487031696422663   0.013531934211555241   0.0028499651955041557
0.1487031696422663   0.013531934211555241   0.0028499651955041557
0.1487031696422663   0.013531934211555241   0.0028499651955041557
0.1487031696422663   0.013531934211555241   0.0028499651955041557
0.1032939225009069   0.0013672201527234612   -0.0030744311630048907
0.1032939225009069   0.0013672201527234612   -0.0030744311630048907
0.1032939225009069   0.0013672201527234612   -0.0030744311630048907
0.1032939225009069   0.0013672201527234612   -0.0030744311630048907
0.14509497395490692   0.004510044950007872   -0.006169123979745394
0.14509497395490692   0.004510044950007872   -0.006169123979745394
0.14509497395490692   0.004510044950007872   -0.006169123979745394
0.14509497395490692   0.004510044950007872   -0.006169123979745394
0.06772256047309436   -0.002729111031323738   0.0025253481502812026
0.06772256047309436   -0.002729111031323738   0.0025253481502812026
0.06772256047309436   -0.002729111031323738   0.0025253481502812026
0.06772256047309436   -0.002729111031323738   0.0025253481502812026
0.06090744808342235   -0.012734545095983143   -0.005368824261254086
0.06090744808342235   -0.012734545095983143   -0.005368824261254086
0.06090744808342235   -0.012734545095983143   -0.005368824261254086
0.06090744808342235   -0.012734545095983143   -0.005368824261254086
0.14360567461848264   0.012007604346008689   0.003846527458946216
0.14360567461848264   0.012007604346008689   0.003846527458946216
0.14360567461848264   0.012007604346008689   0.003846527458946216
0.14360567461848264   0.012007604346008689   0.003846527458946216
0.10060863022922739   -0.0005169655691590926   -0.0041058702471270785
0.10060863022922739   -0.0005169655691590926   -0.0041058702471270785
0.10060863022922739   -0.0005169655691590926   -0.0041058702471270785
0.10060863022922739   -0.0005169655691590926   -0.0041058702471270785
0.1400625748057551   0.003164976374166177   -0.0050263436328478964
0.1400625748057551   0.003164976374166177   -0.0050263436328478964
0.1400625748057551   0.003164976374166177   -0.0050263436328478964
0.1400625748057551   0.003164976374166177   -0.0050263436328478964
0.06435353579201457   -0.003988929228274596   0.0031159984139978907
0.06435353579201457   -0.003988929228274596   0.0031159984139978907
0.06435353579201457   -0.003988929228274596   0.0031159984139978907
0.06435353579201457   -0.003988929228274596   0.0031159984139978907
0.0579921595054925   -0.01316373795978788   -0.004482502032701767
0.0579921595054925   -0.01316373795978788   -0.004482502032701767
0.0579921595054925   -0.01316373795978788   -0.004482502032701767
0.0579921595054925   -0.01316373795978788   -0.004482502032701767
0.13782686233448674   0.01051457724221759   0.00465279551174914
0.13782686233448674   0.01051457724221759   0.00465279551174914
0.13782686233448674   0.01051457724221759   0.00465279551174914
0.13782686233448674   0.01051457724221759   0.00465279551174914
0.09455361288131754   -0.0018644603314561907   -0.005760994456612607
0.09455361288131754   -0.0018644603314561907   -0.005760994456612607
0.09455361288131754   -0.0018644603314561907   -0.005760994456612607
0.09455361288131754   -0.0018644603314561907   -0.005760994456612607
0.07276849303234469   0.01058700173843987   -6.02279985643904e-05
0.07276849303234469   0.01058700173843987   -6.02279985643904e-05
0.07276849303234469   0.01058700173843987   -6.02279985643904e-05
0.07276849303234469   0.01058700173843987   -6.02279985643904e-05
-0.005547922067418353   -0.0015627493597090251   -0.0002469956503633042
-0.005547922067418353   -0.0015627493597090251   -0.0002469956503633042
-0.005547922067418353   -0.0015627493597090251   -0.0002469956503633042
-0.005547922067418353   -0.0015627493597090251   -0.0002469956503633042
-0.010540535172880103   -0.008970438345692977   -0.004074732059871397
-0.010540535172880103   -0.008970438345692977   -0.004074732059871397
-0.010540535172880103   -0.008970438345692977   -0.004074732059871397
-0.010540535172880103   -0.008970438345692977   -0.004074732059871397
0.07116621238428666   0.012406714404851596   0.004607782270067445
0.07116621238428666   0.012406714404851596   0.004607782270067445
0.07116621238428666   0.012406714404851596   0.004607782270067445
0.07116621238428666   0.012406714404851596   0.004607782270067445
0.031458060850788165   0.0029641653203109192   0.0002797065687062688
0.031458060850788165   0.0029641653203109192   0.0002797065687062688
0.031458060850788165   0.0029641653203109192   0.0002797065687062688
0.031458060850788165   0.0029641653203109192   0.0002797065687062688
0.06944512845536838   0.00793621349833057   0.0004728635319978603
0.06944512845536838   0.00793621349833057   0.0004728635319978603
0.06944512845536838   0.00793621349833057   0.0004728635319978603
0.06944512845536838   0.00793621349833057   0.0004728635319978603
-0.008793922077873911   -0.0044744082730839106   0.00016230334255049278
-0.008793922077873911   -0.0044744082730839106   0.00016230334255049278
-0.008793922077873911   -0.0044744082730839106   0.00016230334255049278
-0.008793922077873911   -0.0044744082730839106   0.00016230334255049278
-0.013615149993661537   -0.010942981898882632   -0.003416115769367247
-0.013615149993661537   -0.010942981898882632   -0.003416115769367247
-0.013615149993661537   -0.010942981898882632   -0.003416115769367247
-0.013615149993661537   -0.010942981898882632   -0.003416115769367247
0.06752800463410404   0.009972628506185641   0.005026784889985014
0.06752800463410404   0.009972628506185641   0.005026784889985014
0.06752800463410404   0.009972628506185641   0.005026784889985014
0.06752800463410404   0.009972628506185641   0.005026784889985014
0.027597033536215034   0.0005329556345051263   -0.0009327883324109813
0.027597033536215034   0.0005329556345051263   -0.0009327883324109813
0.027597033536215034   0.0005329556345051263   -0.0009327883324109813
0.027597033536215034   0.0005329556345051263   -0.0009327883324109813
0.06586877020315546   0.0058147279521998906   0.0008885132892283796
0.06586877020315546   0.0058147279521998906   0.0008885132892283796
0.06586877020315546   0.0058147279521998906   0.0008885132892283796
0.06586877020315546   0.0058147279521998906   0.0008885132892283796
-0.011988302428480816   -0.0068174682106633775   0.000592608368317105
-0.011988302428480816   -0.0068174682106633775   0.000592608368317105
-0.011988302428480816   -0.0068174682106633775   0.000592608368317105
-0.011988302428480816   -0.0068174682106633775   0.000592608368317105
-0.016639195569890963   -0.012520778805861553   -0.0027989803285249602
-0.016639195569890963   -0.012520778805861553   -0.0027989803285249602
-0.016639195569890963   -0.012520778805861553   -0.0027989803285249602
-0.016639195569890963   -0.012520778805861553   -0.0027989803285249602
0.06416771360791461   0.0077957589139898845   0.005435771605630796
0.06416771360791461   0.0077957589139898845   0.005435771605630796
0.06416771360791461   0.0077957589139898845   0.005435771605630796
0.06416771360791461   0.0077957589139898845   0.005435771605630796
0.024746540833992393   -0.001212303538346107   -0.0019102350658084621
0.024746540833992393   -0.001212303538346107   -0.0019102350658084621
0.024746540833992393   -0.001212303538346107   -0.0019102350658084621
0.024746540833992393   -0.001212303538346107   -0.0019102350658084621
-0.0024207670667999235   0.012068933968780528   0.001757096024239292
-0.0024207670667999235   0.012068933968780528   0.001757096024239292
-0.0024207670667999235   0.012068933968780528   0.001757096024239292
-0.0024207670667999235   0.012068933968780528   0.001757096024239292
-0.0807705122056364   -0.004000236546075864   -0.002672683425301581
-0.0807705122056364   -0.004000236546075864   -0.002672683425301581
-0.0807705122056364   -0.004000236546075864   -0.002672683425301581
-0.0807705122056364   -0.004000236546075864   -0.002672683425301581
-0.08397895226977302   -0.006686285451068799   -0.0021301329053771147
-0.08397895226977302   -0.006686285451068799   -0.0021301329053771147
-0.08397895226977302   -0.006686285451068799   -0.0021301329053771147
-0.08397895226977302   -0.006686285451068799   -0.0021301329053771147
-0.005516057205854203   0.01000441019639443   0.0020728092331702168
-0.005516057205854203   0.01000441019639443   0.0020728092331702168
-0.005516057205854203   0.01000441019639443   0.0020728092331702168
-0.005516057205854203   0.01000441019639443   0.0020728092331702168
-0.04306587765518646   0.0028432933495207997   0.0008345885119245013
-0.04306587765518646   0.0028432933495207997   0.0008345885119245013
-0.04306587765518646   0.0028432933495207997   0.0008345885119245013
-0.04306587765518646   0.0028432933495207997   0.0008345885119245013
-0.005470822826101148   0.009918371070340432   0.002385020257989492
-0.005470822826101148   0.009918371070340432   0.002385020257989492
-0.005470822826101148   0.009918371070340432   0.002385020257989492
-0.005470822826101148   0.009918371070340432   0.002385020257989492
-0.08396906100187264   -0.006545120677358801   -0.002221841339585175
-0.08396906100187264   -0.006545120677358801   -0.002221841339585175
-0.08396906100187264   -0.006545120677358801   -0.002221841339585175
-0.08396906100187264   -0.006545120677358801   -0.002221841339585175
-0.08713110061129738   -0.008818287429849424   -0.0015659333048730567
-0.08713110061129738   -0.008818287429849424   -0.0015659333048730567
-0.08713110061129738   -0.008818287429849424   -0.0015659333048730567
-0.08713110061129738   -0.008818287429849424   -0.0015659333048730567
-0.008729153072798587   0.007500623448235844   0.0025702634878295087
-0.008729153072798587   0.007500623448235844   0.0025702634878295087
-0.008729153072798587   0.007500623448235844   0.0025702634878295087
-0.008729153072798587   0.007500623448235844   0.0025702634878295087
-0.04625091486437656   0.0006999233800032544   -0.00013186675804238756
-0.04625091486437656   0.0006999233800032544   -0.00013186675804238756
-0.04625091486437656   0.0006999233800032544   -0.00013186675804238756
-0.04625091486437656   0.0006999233800032544   -0.00013186675804238756
-0.008616441094454134   0.007770600416710741   0.0028638464110768646
-0.008616441094454134   0.007770600416710741   0.0028638464110768646
-0.008616441094454134   0.007770600416710741   0.0028638464110768646
-0.008616441094454134   0.007770600416710741   0.0028638464110768646
-0.08723503232377836   -0.009079484132460845   -0.0018243951646665034
-0.08723503232377836   -0.009079484132460845   -0.0018243951646665034
-0.08723503232377836   -0.009079484132460845   -0.0018243951646665034
-0.08723503232377836   -0.009079484132460845   -0.0018243951646665034
-0.0902338015543576   -0.01075806446081314   -0.0010006793717803274
-0.0902338015543576   -0.01075806446081314   -0.0010006793717803274
-0.0902338015543576   -0.01075806446081314   -0.0010006793717803274
-0.0902338015543576   -0.01075806446081314   -0.0010006793717803274
-0.011963979161080935   0.005079463538111161   0.002976859371551989
-0.011963979161080935   0.005079463538111161   0.002976859371551989
-0.011963979161080935   0.005079463538111161   0.002976859371551989
-0.011963979161080935   0.005079463538111161   0.002976859371551989
-0.04959103789755086   -0.001456090257096327   -0.0012152896135428541
-0.04959103789755086   -0.001456090257096327   -0.0012152896135428541
-0.04959103789755086   -0.001456090257096327   -0.0012152896135428541
-0.04959103789755086   -0.001456090257096327   -0.0012152896135428541
-0.07603302297509026   0.013515180114649673   0.00349934606670308
-0.07603302297509026   0.013515180114649673   0.00349934606670308
-0.07603302297509026   0.013515180114649673   0.00349934606670308
-0.07603302297509026   0.013515180114649673   0.00349934606670308
-0.1548431942588757   -0.0065303034763826255   -0.0047047411490257875
-0.1548431942588757   -0.0065303034763826255   -0.0047047411490257875
-0.1548431942588757   -0.0065303034763826255   -0.0047047411490257875
-0.1548431942588757   -0.0065303034763826255   -0.0047047411490257875
-0.15657193705013414   -0.0048205730092530305   -2.060253247133069e-05
-0.15657193705013414   -0.0048205730092530305   -2.060253247133069e-05
-0.15657193705013414   -0.0048205730092530305   -2.060253247133069e-05
-0.15657193705013414   -0.0048205730092530305   -2.060253247133069e-05
-0.0808491573721338   0.007267434400947164   -0.0004348782691964556
-0.0808491573721338   0.007267434400947164   -0.0004348782691964556
-0.0808491573721338   0.007267434400947164   -0.0004348782691964556
-0.0808491573721338   0.007267434400947164   -0.0004348782691964556
-0.1162841684063666   0.0024744684940755657   0.0014031978322062363
-0.1162841684063666   0.0024744684940755657   0.0014031978322062363
-0.1162841684063666   0.0024744684940755657   0.0014031978322062363
-0.1162841684063666   0.0024744684940755657   0.0014031978322062363
-0.07909466532869751   0.01150000425942907   0.0041050120895025684
-0.07909466532869751   0.01150000425942907   0.0041050120895025684
-0.07909466532869751   0.01150000425942907   0.0041050120895025684
-0.07909466532869751   0.01150000425942907   0.0041050120895025684
-0.15832457958023982   -0.009051293354404442   -0.004553094837848471
-0.15832457958023982   -0.009051293354404442   -0.004553094837848471
-0.15832457958023982   -0.009051293354404442   -0.004553094837848471
-0.15832457958023982   -0.009051293354404442   -0.004553094837848471
-0.16025126690437846   -0.006981740690222664   0.00016598683775299536
-0.16025126690437846   -0.006981740690222664   0.00016598683775299536
-0.16025126690437846   -0.006981740690222664   0.00016598683775299536
-0.16025126690437846   -0.006981740690222664   0.00016598683775299536
-0.08405346411099403   0.004944716327277041   5.9245439517714195e-05
-0.08405346411099403   0.004944716327277041   5.9245439517714195e-05
-0.08405346411099403   0.004944716327277041   5.9245439517714195e-05
-0.08405346411099403   0.004944716327277041   5.9245439517714195e-05
-0.11888033513062862   0.0006172401803416251   0.0005158479486018358
-0.11888033513062862   0.0006172401803416251   0.0005158479486018358
-0.11888033513062862   0.0006172401803416251   0.0005158479486018358
-0.11888033513062862   0.0006172401803416251   0.0005158479486018358
-0.08221778241751536   0.009523527405364073   0.004658842828823565
-0.08221778241751536   0.009523527405364073   0.004658842828823565
-0.08221778241751536   0.009523527405364073   0.004658842828823565
-0.08221778241751536   0.009523527405364073   0.004658842828823565
-0.16199834501268626   -0.011471948183138864   -0.004079196210869606
-0.16199834501268626   -0.011471948183138864   -0.004079196210869606
-0.16199834501268626   -0.011471948183138864   -0.004079196210869606
-0.16199834501268626   -0.011471948183138864   -0.004079196210869606
-0.16356033932283123   -0.00934638626556606   0.0008445418159383749
-0.16356033932283123   -0.00934638626556606   0.0008445418159383749
-0.16356033932283123   -0.00934638626556606   0.0008445418159383749
-0.16356033932283123   -0.00934638626556606   0.0008445418159383749
-0.08735215632685144   0.002234504536438947   0.0004149777684988882
-0.08735215632685144   0.002234504536438947   0.0004149777684988882
-0.08735215632685144   0.002234504536438947   0.0004149777684988882
-0.08735215632685144   0.002234504536438947   0.0004149777684988882
-0.12309108032590688   -0.0018261272019979152   -0.0006554881136142526
-0.12309108032590688   -0.0018261272019979152   -0.0006554881136142526
-0.12309108032590688   -0.0018261272019979152   -0.0006554881136142526
-0.12309108032590688   -0.0018261272019979152   -0.0006554881136142526
-0.14920121279472562   0.012131004812400835   0.004843857882941146
-0.14920121279472562   0.012131004812400835   0.004843857882941146
-0.14920121279472562   0.012131004812400835   0.004843857882941146
-0.14920121279472562   0.012131004812400835   0.004843857882941146
-0.22642824757890673   -0.010596575448706347   -0.004867038360310487
-0.22642824757890673   -0.010596575448706347   -0.004867038360310487
-0.22642824757890673   -0.010596575448706347   -0.004867038360310487
-0.22642824757890673   -0.010596575448706347   -0.004867038360310487
-0.22856078029817556   -0.0031840595276352995   0.004394838972255332
-0.22856078029817556   -0.0031840595276352995   0.004394838972255332
-0.22856078029817556   -0.0031840595276352995   0.004394838972255332
-0.22856078029817556   -0.0031840595276352995   0.004394838972255332
-0.15532194307204544   0.004086020470918474   -0.0026772261221994706
-0.15532194307204544   0.004086020470918474   -0.0026772261221994706
-0.15532194307204544   0.004086020470918474   -0.0026772261221994706
-0.15532194307204544   0.004086020470918474   -0.0026772261221994706
-0.18140154973697256   0.0024978319197101334   0.004609617310840263
-0.18140154973697256   0.0024978319197101334   0.004609617310840263
-0.18140154973697256   0.0024978319197101334   0.004609617310840263
-0.18140154973697256   0.0024978319197101334   0.004609617310840263
-0.1519869696313706   0.012390389268077548   0.005693272284014611
-0.1519869696313706   0.012390389268077548   0.005693272284014611
-0.1519869696313706   0.012390389268077548   0.005693272284014611
-0.1519869696313706   0.012390389268077548   0.005693272284014611
-0.2318538464852199   -0.011446521071163937   -0.003808030419437041
-0.2318538464852199   -0.011446521071163937   -0.003808030419437041
-0.2318538464852199   -0.011446521071163937   -0.003808030419437041
-0.2318538464852199   -0.011446521071163937   -0.003808030419437041
-0.2334118048170934   -0.0043365612579232965   0.005478520588085496
-0.2334118048170934   -0.0043365612579232965   0.005478520588085496
-0.2334118048170934   -0.0043365612579232965   0.005478520588085496
-0.2334118048170934   -0.0043365612579232965   0.005478520588085496
-0.15877907859928803   0.002815769703133214   -0.0022705820301505784
-0.15877907859928803   0.002815769703133214   -0.0022705820301505784
-0.15877907859928803   0.002815769703133214   -0.0022705820301505784
-0.15877907859928803   0.002815769703133214   -0.0022705820301505784
-0.18854553966632448   0.0012395872292957633   0.003004603443421773
-0.18854553966632448   0.0012395872292957633   0.003004603443421773
-0.18854553966632448   0.0012395872292957633   0.003004603443421773
-0.18854553966632448   0.0012395872292957633   0.003004603443421773
-0.1552434672261228   0.01153837587534623   0.006684868663462516
-0.1552434672261228   0.01153837587534623   0.006684868663462516
-0.1552434672261228   0.01153837587534623   0.006684868663462516
-0.1552434672261228   0.01153837587534623   0.006684868663462516
-0.23686269726675868   -0.012974448506636205   -0.003138054411527017
-0.23686269726675868   -0.012974448506636205   -0.003138054411527017
-0.23686269726675868   -0.012974448506636205   -0.003138054411527017
-0.23686269726675868   -0.012974448506636205   -0.003138054411527017
-0.23982415588661257   -0.008688219308630875   0.005281827446746207
-0.23982415588661257   -0.008688219308630875   0.005281827446746207
-0.23982415588661257   -0.008688219308630875   0.005281827446746207
-0.23982415588661257   -0.008688219308630875   0.005281827446746207
-0.1624645701426379   -0.0009541224570241147   -0.002068876091636987
-0.1624645701426379   -0.0009541224570241147   -0.002068876091636987
-0.1624645701426379   -0.0009541224570241147   -0.002068876091636987
-0.1624645701426379   -0.0009541224570241147   -0.002068876091636987
-0.1899050921132531   -0.00041584737759192   0.00255410009495877
-0.1899050921132531   -0.00041584737759192   0.00255410009495877
-0.1899050921132531   -0.00041584737759192   0.00255410009495877
-0.1899050921132531   -0.00041584737759192   0.00255410009495877
0.10892758372953823   0.006467727425192875   -0.0065179933443138376
0.10892758372953823   0.006467727425192875   -0.0065179933443138376
0.10892758372953823   0.006467727425192875   -0.0065179933443138376
0.10892758372953823   0.006467727425192875   -0.0065179933443138376
0.04648544935714907   0.0022418746468538323   0.002649841128501338
0.04648544935714907   0.0022418746468538323   0.002649841128501338
0.04648544935714907   0.0022418746468538323   0.002649841128501338
0.04648544935714907   0.0022418746468538323   0.002649841128501338
0.0398798010635991   -0.010030105331549072   -0.006136863941350204
0.0398798010635991   -0.010030105331549072   -0.006136863941350204
0.0398798010635991   -0.010030105331549072   -0.006136863941350204
0.0398798010635991   -0.010030105331549072   -0.006136863941350204
0.1067839317310945   0.011869649391293459   0.003237139650477814
0.1067839317310945   0.011869649391293459   0.003237139650477814
0.1067839317310945   0.011869649391293459   0.003237139650477814
0.1067839317310945   0.011869649391293459   0.003237139650477814
0.07153676480600471   0.0015454097668108797   -0.0019406687173963034
0.07153676480600471   0.0015454097668108797   -0.0019406687173963034
0.07153676480600471   0.0015454097668108797   -0.0019406687173963034
0.07153676480600471   0.0015454097668108797   -0.0019406687173963034
0.10305429850028076   0.0026032429346647228   -0.006144620046962904
0.10305429850028076   0.0026032429346647228   -0.006144620046962904
0.10305429850028076   0.0026032429346647228   -0.006144620046962904
0.10305429850028076   0.0026032429346647228   -0.006144620046962904
0.04353813926066812   -0.0008349939086650347   0.0029597156211117175
0.04353813926066812   -0.0008349939086650347   0.0029597156211117175
0.04353813926066812   -0.0008349939086650347   0.0029597156211117175
0.04353813926066812   -0.0008349939086650347   0.0029597156211117175
0.03710695460124849   -0.011116495117491697   -0.005275249841321561
0.03710695460124849   -0.011116495117491697   -0.005275249841321561
0.03710695460124849   -0.011116495117491697   -0.005275249841321561
0.03710695460124849   -0.011116495117491697   -0.005275249841321561
0.10219545241884477   0.010319572370400447   0.004257936917817236
0.10219545241884477   0.010319572370400447   0.004257936917817236
0.10219545241884477   0.010319572370400447   0.004257936917817236
0.10219545241884477   0.010319572370400447   0.004257936917817236
0.06885472680175955   -0.0002934617863922552   -0.0029731816896264203
0.06885472680175955   -0.0002934617863922552   -0.0029731816896264203
0.06885472680175955   -0.0002934617863922552   -0.0029731816896264203
0.06885472680175955   -0.0002934617863922552   -0.0029731816896264203
0.09850596493659357   0.0012036427443614835   -0.0050735708674007176
0.09850596493659357   0.0012036427443614835   -0.0050735708674007176
0.09850596493659357   0.0012036427443614835   -0.0050735708674007176
0.09850596493659357   0.0012036427443614835   -0.0050735708674007176
0.040682176455715605   -0.0021148311192369235   0.003599195432759564
0.040682176455715605   -0.0021148311192369235   0.003599195432759564
0.040682176455715605   -0.0021148311192369235   0.003599195432759564
0.040682176455715605   -0.0021148311192369235   0.003599195432759564
0.0346543235784765   -0.011933022133276301   -0.004412662609710064
0.0346543235784765   -0.011933022133276301   -0.004412662609710064
0.0346543235784765   -0.011933022133276301   -0.004412662609710064
0.0346543235784765   -0.011933022133276301   -0.004412662609710064
0.09679294390414116   0.008399336486831683   0.0049283870469041475
0.09679294390414116   0.008399336486831683   0.0049283870469041475
0.09679294390414116   0.008399336486831683   0.0049283870469041475
0.09679294390414116   0.008399336486831683   0.0049283870469041475
0.06377593127459841   -0.0017355746901275386   -0.004483041505817291
0.06377593127459841   -0.0017355746901275386   -0.004483041505817291
0.06377593127459841   -0.0017355746901275386   -0.004483041505817291
0.06377593127459841   -0.0017355746901275386   -0.004483041505817291
0.04708829330677773   0.008829233291585333   -0.000923297768087596
0.04708829330677773   0.008829233291585333   -0.000923297768087596
0.04708829330677773   0.008829233291585333   -0.000923297768087596
0.04708829330677773   0.008829233291585333   -0.000923297768087596
-0.01354972034975061   0.0003041981427330397   0.00020590822104393357
-0.01354972034975061   0.0003041981427330397   0.00020590822104393357
-0.01354972034975061   0.0003041981427330397   0.00020590822104393357
-0.01354972034975061   0.0003041981427330397   0.00020590822104393357
-0.018068629588850495   -0.007134924896178034   -0.0038655722619435344
-0.018068629588850495   -0.007134924896178034   -0.0038655722619435344
-0.018068629588850495   -0.007134924896178034   -0.0038655722619435344
-0.018068629588850495   -0.007134924896178034   -0.0038655722619435344
0.0460616593740554   0.010521345064059395   0.004220977215323717
0.0460616593740554   0.010521345064059395   0.004220977215323717
0.0460616593740554   0.010521345064059395   0.004220977215323717
0.0460616593740554   0.010521345064059395   0.004220977215323717
0.015053874593344577   0.002969499688162017   0.0006003507612545761
0.015053874593344577   0.002969499688162017   0.0006003507612545761
0.015053874593344577   0.002969499688162017   0.0006003507612545761
0.015053874593344577   0.002969499688162017   0.0006003507612545761
0.044230931502395404   0.0060131986322302985   -0.0004245157111477802
0.044230931502395404   0.0060131986322302985   -0.0004245157111477802
0.044230931502395404   0.0060131986322302985   -0.0004245157111477802
0.044230931502395404   0.0060131986322302985   -0.0004245157111477802
-0.01627270020386157   -0.00266157695101939   0.0006407267178429337
-0.01627270020386157   -0.00266157695101939   0.0006407267178429337
-0.01627270020386157   -0.00266157695101939   0.0006407267178429337
-0.01627270020386157   -0.00266157695101939   0.0006407267178429337
-0.02063826627901555   -0.009300332732339538   -0.0031717503895289604
-0.02063826627901555   -0.009300332732339538   -0.0031717503895289604
-0.02063826627901555   -0.009300332732339538   -0.0031717503895289604
-0.02063826627901555   -0.009300332732339538   -0.0031717503895289604
0.042896483394688094   0.007964596482280317   0.004591302526104782
0.042896483394688094   0.007964596482280317   0.004591302526104782
0.042896483394688094   0.007964596482280317   0.004591302526104782
0.042896483394688094   0.007964596482280317   0.004591302526104782
0.011829137440966732   0.0004416747563566817   -0.0006127989315904227
0.011829137440966732   0.0004416747563566817   -0.0006127989315904227
0.011829137440966732   0.0004416747563566817   -0.0006127989315904227
0.011829137440966732   0.0004416747563566817   -0.0006127989315904227
0.04112387835407295   0.003687517527703455   5.356277605177758e-06
0.04112387835407295   0.003687517527703455   5.356277605177758e-06
0.04112387835407295   0.003687517527703455   5.356277605177758e-06
0.04112387835407295   0.003687517527703455   5.356277605177758e-06
-0.018944643534913097   -0.005102236074276771   0.0010982666729205336
-0.018944643534913097   -0.005102236074276771   0.0010982666729205336
-0.018944643534913097   -0.005102236074276771   0.0010982666729205336
-0.018944643534913097   -0.005102236074276771   0.0010982666729205336
-0.023166166526389923   -0.011264651662316237   -0.0025324011415952885
-0.023166166526389923   -0.011264651662316237   -0.0025324011415952885
-0.023166166526389923   -0.011264651662316237   -0.0025324011415952885
-0.023166166526389923   -0.011264651662316237   -0.0025324011415952885
0.04004086097708841   0.005577586407660473   0.005009415842413606
0.04004086097708841   0.005577586407660473   0.005009415842413606
0.04004086097708841   0.005577586407660473   0.005009415842413606
0.04004086097708841   0.005577586407660473   0.005009415842413606
0.009325745547785643   -0.0015697592487746651   -0.0016579322449752736
0.009325745547785643   -0.0015697592487746651   -0.0016579322449752736
0.009325745547785643   -0.0015697592487746651   -0.0016579322449752736
0.009325745547785643   -0.0015697592487746651   -0.0016579322449752736
-0.01131761813190334   0.010632502036943575   0.0010381154160702183
-0.01131761813190334   0.010632502036943575   0.0010381154160702183
-0.01131761813190334   0.010632502036943575   0.0010381154160702183
-0.01131761813190334   0.010632502036943575   0.0010381154160702183
-0.0726105462699976   -0.002301378882569021   -0.0022582850127987816
-0.0726105462699976   -0.002301378882569021   -0.0022582850127987816
-0.0726105462699976   -0.002301378882569021   -0.0022582850127987816
-0.0726105462699976   -0.002301378882569021   -0.0022582850127987816
-0.07517916651694866   -0.004680882195966945   -0.0016905434175422014
-0.07517916651694866   -0.004680882195966945   -0.0016905434175422014
-0.07517916651694866   -0.004680882195966945   -0.0016905434175422014
-0.07517916651694866   -0.004680882195966945   -0.0016905434175422014
-0.013934745199393457   0.008000717638829017   0.0016682071503346073
-0.013934745199393457   0.008000717638829017   0.0016682071503346073
-0.013934745199393457   0.008000717638829017   0.0016682071503346073
-0.013934745199393457   0.008000717638829017   0.0016682071503346073
-0.0431481333695896   0.002846434459309353   0.0008931531141819996
-0.0431481333695896   0.002846434459309353   0.0008931531141819996
-0.0431481333695896   0.002846434459309353   0.0008931531141819996
-0.0431481333695896   0.002846434459309353   0.0008931531141819996
-0.013879192062564289   0.008255466227566883   0.0016912242457425759
-0.013879192062564289   0.008255466227566883   0.0016912242457425759
-0.013879192062564289   0.008255466227566883   0.0016912242457425759
-0.013879192062564289   0.008255466227566883   0.0016912242457425759
-0.07525127983269254   -0.004952190963619528   -0.0017798012286090446
-0.07525127983269254   -0.004952190963619528   -0.0017798012286090446
-0.07525127983269254   -0.004952190963619528   -0.0017798012286090446
-0.07525127983269254   -0.004952190963619528   -0.0017798012286090446
-0.07778120257033629   -0.007040508596248777   -0.0010833472370558993
-0.07778120257033629   -0.007040508596248777   -0.0010833472370558993
-0.07778120257033629   -0.007040508596248777   -0.0010833472370558993
-0.07778120257033629   -0.007040508596248777   -0.0010833472370558993
-0.01663466233351159   0.005371072436278739   0.0021748641693725554
-0.01663466233351159   0.005371072436278739   0.0021748641693725554
-0.01663466233351159   0.005371072436278739   0.0021748641693725554
-0.01663466233351159   0.005371072436278739   0.0021748641693725554
-0.04582031565971401   0.000521947882533267   -0.0001359889812445939
-0.04582031565971401   0.000521947882533267   -0.0001359889812445939
-0.04582031565971401   0.000521947882533267   -0.0001359889812445939
-0.04582031565971401   0.000521947882533267   -0.0001359889812445939
-0.016524787432553277   0.005872088417339647   0.0022232226931032176
-0.016524787432553277   0.005872088417339647   0.0022232226931032176
-0.016524787432553277   0.005872088417339647   0.0022232226931032176
-0.016524787432553277   0.005872088417339647   0.0022232226931032176
-0.07794582022042072   -0.007596267326435809   -0.0013506767572910618
-0.07794582022042072   -0.007596267326435809   -0.0013506767572910618
-0.07794582022042072   -0.007596267326435809   -0.0013506767572910618
-0.07794582022042072   -0.007596267326435809   -0.0013506767572910618
-0.08032794921297011   -0.009285540301853749   -0.0004841897763833865
-0.08032794921297011   -0.009285540301853749   -0.0004841897763833865
-0.08032794921297011   -0.009285540301853749   -0.0004841897763833865
-0.08032794921297011   -0.009285540301853749   -0.0004841897763833865
-0.01932136924768836   0.0028196373703124576   0.002607296219283326
-0.01932136924768836   0.0028196373703124576   0.002607296219283326
-0.01932136924768836   0.0028196373703124576   0.002607296219283326
-0.01932136924768836   0.0028196373703124576   0.002607296219283326
-0.04861265310570805   -0.0018009927537948837   -0.0012575815461360307
-0.04861265310570805   -0.0018009927537948837   -0.0012575815461360307
-0.04861265310570805   -0.0018009927537948837   -0.0012575815461360307
-0.04861265310570805   -0.0018009927537948837   -0.0012575815461360307
-0.0686482511204049   0.012249996459696526   0.0030018153928991964
-0.0686482511204049   0.012249996459696526   0.0030018153928991964
-0.0686482511204049   0.012249996459696526   0.0030018153928991964
-0.0686482511204049   0.012249996459696526   0.0030018153928991964
-0.13105500886566906   -0.004947323294474237   -0.004456872625022152
-0.13105500886566906   -0.004947323294474237   -0.004456872625022152
-0.13105500886566906   -0.004947323294474237   -0.004456872625022152
-0.13105500886566906   -0.004947323294474237   -0.004456872625022152
-0.1319889948789762   -0.002749089127224883   0.000622341596785707
-0.1319889948789762   -0.002749089127224883   0.000622341596785707
-0.1319889948789762   -0.002749089127224883   0.000622341596785707
-0.1319889948789762   -0.002749089127224883   0.000622341596785707
-0.07301804571474522   0.0052614062689508925   -0.0008272278714443219
-0.07301804571474522   0.0052614062689508925   -0.0008272278714443219
-0.07301804571474522   0.0052614062689508925   -0.0008272278714443219
-0.07301804571474522   0.0052614062689508925   -0.0008272278714443219
-0.10053828207273781   0.002465454061439481   0.001267656261822219
-0.10053828207273781   0.002465454061439481   0.001267656261822219
-0.10053828207273781   0.002465454061439481   0.001267656261822219
-0.10053828207273781   0.002465454061439481   0.001267656261822219
-0.07117063584764292   0.010020299921905836   0.003650927811113696
-0.07117063584764292   0.010020299921905836   0.003650927811113696
-0.07117063584764292   0.010020299921905836   0.003650927811113696
-0.07117063584764292   0.010020299921905836   0.003650927811113696
-0.13393157074520165   -0.0076031487793048295   -0.004236478082262644
-0.13393157074520165   -0.0076031487793048295   -0.004236478082262644
-0.13393157074520165   -0.0076031487793048295   -0.004236478082262644
-0.13393157074520165   -0.0076031487793048295   -0.004236478082262644
-0.135072597278483   -0.005093174307757849   0.0008889254318322154
-0.135072597278483   -0.005093174307757849   0.0008889254318322154
-0.135072597278483   -0.005093174307757849   0.0008889254318322154
-0.135072597278483   -0.005093174307757849   0.0008889254318322154
-0.07565150273263427   0.002828375809231249   -0.0003037324540272812
-0.07565150273263427   0.002828375809231249   -0.0003037324540272812
-0.07565150273263427   0.002828375809231249   -0.0003037324540272812
-0.07565150273263427   0.002828375809231249   -0.0003037324540272812
-0.10271733368087084   0.0003977627306261146   0.00024700887561256244
-0.10271733368087084   0.0003977627306261146   0.00024700887561256244
-0.10271733368087084   0.0003977627306261146   0.00024700887561256244
-0.10271733368087084   0.0003977627306261146   0.00024700887561256244
-0.07373434928515203   0.007848976935887594   0.004261433656728497
-0.07373434928515203   0.007848976935887594   0.004261433656728497
-0.07373434928515203   0.007848976935887594   0.004261433656728497
-0.07373434928515203   0.007848976935887594   0.004261433656728497
-0.13700574170585877   -0.010129766414307774   -0.003740204598497862
-0.13700574170585877   -0.010129766414307774   -0.003740204598497862
-0.13700574170585877   -0.010129766414307774   -0.003740204598497862
-0.13700574170585877   -0.010129766414307774   -0.003740204598497862
-0.13779011107255615   -0.007629910337130133   0.001530858146358163
-0.13779011107255615   -0.007629910337130133   0.001530858146358163
-0.13779011107255615   -0.007629910337130133   0.001530858146358163
-0.13779011107255615   -0.007629910337130133   0.001530858146358163
-0.0783365192883176   8.08188755061362e-05   0.00010660066951790649
-0.0783365192883176   8.08188755061362e-05   0.00010660066951790649
-0.0783365192883176   8.08188755061362e-05   0.00010660066951790649
-0.0783365192883176   8.08188755061362e-05   0.00010660066951790649
-0.10618659451598932   -0.0020938323948297838   -0.0009739460803107206
-0.10618659451598932   -0.0020938323948297838   -0.0009739460803107206
-0.10618659451598932   -0.0020938323948297838   -0.0009739460803107206
-0.10618659451598932   -0.0020938323948297838   -0.0009739460803107206
-0.12596228849719893   0.011401587686890133   0.004657818235964114
-0.12596228849719893   0.011401587686890133   0.004657818235964114
-0.12596228849719893   0.011401587686890133   0.004657818235964114
-0.12596228849719893   0.011401587686890133   0.004657818235964114
-0.18712195742964918   -0.008798547566555855   -0.005475135592449049
-0.18712195742964918   -0.008798547566555855   -0.005475135592449049
-0.18712195742964918   -0.008798547566555855   -0.005475135592449049
-0.18712195742964918   -0.008798547566555855   -0.005475135592449049
-0.18866019188186653   -0.0011302150967063412   0.004579844849497552
-0.18866019188186653   -0.0011302150967063412   0.004579844849497552
-0.18866019188186653   -0.0011302150967063412   0.004579844849497552
-0.18866019188186653   -0.0011302150967063412   0.004579844849497552
-0.13176565953023064   0.0021662227602719727   -0.0031762935469852264
-0.13176565953023064   0.0021662227602719727   -0.0031762935469852264
-0.13176565953023064   0.0021662227602719727   -0.0031762935469852264
-0.13176565953023064   0.0021662227602719727   -0.0031762935469852264
-0.15133596296627122   0.002417411596516199   0.003980623375797816
-0.15133596296627122   0.002417411596516199   0.003980623375797816
-0.15133596296627122   0.002417411596516199   0.003980623375797816
-0.15133596296627122   0.002417411596516199   0.003980623375797816
-0.12823517984241822   0.011139403226461626   0.005502924425889063
-0.12823517984241822   0.011139403226461626   0.005502924425889063
-0.12823517984241822   0.011139403226461626   0.005502924425889063
-0.12823517984241822   0.011139403226461626   0.005502924425889063
-0.19227660603884983   -0.010189330032065624   -0.004443111000057835
-0.19227660603884983   -0.010189330032065624   -0.004443111000057835
-0.19227660603884983   -0.010189330032065624   -0.004443111000057835
-0.19227660603884983   -0.010189330032065624   -0.004443111000057835
-0.1930640268679351   -0.002436725000953717   0.005751892718061867
-0.1930640268679351   -0.002436725000953717   0.005751892718061867
-0.1930640268679351   -0.002436725000953717   0.005751892718061867
-0.1930640268679351   -0.002436725000953717   0.005751892718061867
-0.13460125496339415   0.000835206557963368   -0.002682743858447547
-0.13460125496339415   0.000835206557963368   -0.002682743858447547
-0.13460125496339415   0.000835206557963368   -0.002682743858447547
-0.13460125496339415   0.000835206557963368   -0.002682743858447547
-0.15754817195580703   0.0009417880578141274   0.0022883748256436725
-0.15754817195580703   0.0009417880578141274   0.0022883748256436725
-0.15754817195580703   0.0009417880578141274   0.0022883748256436725
-0.15754817195580703   0.0009417880578141274   0.0022883748256436725
-0.13091289604329864   0.010134978400300358   0.0064592788996957595
-0.13091289604329864   0.010134978400300358   0.0064592788996957595
-0.13091289604329864   0.010134978400300358   0.0064592788996957595
-0.13091289604329864   0.010134978400300358   0.0064592788996957595
-0.19681231795276238   -0.011796429008021997   -0.0036298586990061305
-0.19681231795276238   -0.011796429008021997   -0.0036298586990061305
-0.19681231795276238   -0.011796429008021997   -0.0036298586990061305
-0.19681231795276238   -0.011796429008021997   -0.0036298586990061305
-0.1989537836863836   -0.006698402444032109   0.005698937517068771
-0.1989537836863836   -0.006698402444032109   0.005698937517068771
-0.1989537836863836   -0.006698402444032109   0.005698937517068771
-0.1989537836863836   -0.006698402444032109   0.005698937517068771
-0.13759163376414477   -0.0027293632678537273   -0.002377302380864246
-0.13759163376414477   -0.0027293632678537273   -0.002377302380864246
-0.13759163376414477   -0.0027293632678537273   -0.002377302380864246
-0.13759163376414477   -0.0027293632678537273   -0.002377302380864246
-0.15892707833958736   -0.0008119656120583324   0.0015539649183969745
-0.15892707833958736   -0.0008119656120583324   0.0015539649183969745
-0.15892707833958736   -0.0008119656120583324   0.0015539649183969745
-0.15892707833958736   -0.0008119656120583324   0.0015539649183969745
0.06521480378254599   0.00413297306534878   -0.006624021204420825
0.06521480378254599   0.00413297306534878   -0.006624021204420825
0.06521480378254599   0.00413297306534878   -0.006624021204420825
0.06521480378254599   0.00413297306534878   -0.006624021204420825
0.02056081245347563   0.0037273847532250277   0.003037515269560623
0.02056081245347563   0.0037273847532250277   0.003037515269560623
0.02056081245347563   0.0037273847532250277   0.003037515269560623
0.02056081245347563   0.0037273847532250277   0.003037515269560623
0.014473500723389161   -0.008416718172778595   -0.00588426716217713
0.014473500723389161   -0.008416718172778595   -0.00588426716217713
0.014473500723389161   -0.008416718172778595   -0.00588426716217713
0.014473500723389161   -0.008416718172778595   -0.00588426716217713
0.06378224643776655   0.010159126224514554   0.0036486214519228692
0.06378224643776655   0.010159126224514554   0.0036486214519228692
0.06378224643776655   0.010159126224514554   0.0036486214519228692
0.06378224643776655   0.010159126224514554   0.0036486214519228692
0.038681134779371386   0.001728337250600254   -0.0008443240241580714
0.038681134779371386   0.001728337250600254   -0.0008443240241580714
0.038681134779371386   0.001728337250600254   -0.0008443240241580714
0.038681134779371386   0.001728337250600254   -0.0008443240241580714
0.05991754296801771   0.0006214914784342523   -0.006137261150741442
0.05991754296801771   0.0006214914784342523   -0.006137261150741442
0.05991754296801771   0.0006214914784342523   -0.006137261150741442
0.05991754296801771   0.0006214914784342523   -0.006137261150741442
0.018218514074903144   0.001001226455066802   0.0034228549675475103
0.018218514074903144   0.001001226455066802   0.0034228549675475103
0.018218514074903144   0.001001226455066802   0.0034228549675475103
0.018218514074903144   0.001001226455066802   0.0034228549675475103
0.01219405152326877   -0.009542412313756254   -0.0050505856073864205
0.01219405152326877   -0.009542412313756254   -0.0050505856073864205
0.01219405152326877   -0.009542412313756254   -0.0050505856073864205
0.01219405152326877   -0.009542412313756254   -0.0050505856073864205
0.05968023057712102   0.008613059332857803   0.004761806103806279
0.05968023057712102   0.008613059332857803   0.004761806103806279
0.05968023057712102   0.008613059332857803   0.004761806103806279
0.05968023057712102   0.008613059332857803   0.004761806103806279
0.03597418415529707   -6.086601908806676e-05   -0.0019589970157333925
0.03597418415529707   -6.086601908806676e-05   -0.0019589970157333925
0.03597418415529707   -6.086601908806676e-05   -0.0019589970157333925
0.03597418415529707   -6.086601908806676e-05   -0.0019589970157333925
0.05581662650859168   -0.0008303426470091767   -0.005112812258973945
0.05581662650859168   -0.0008303426470091767   -0.005112812258973945
0.05581662650859168   -0.0008303426470091767   -0.005112812258973945
0.05581662650859168   -0.0008303426470091767   -0.005112812258973945
0.01589121012574092   -0.000265455799946507   0.004158250891164828
0.01589121012574092   -0.000265455799946507   0.004158250891164828
0.01589121012574092   -0.000265455799946507   0.004158250891164828
0.01589121012574092   -0.000265455799946507   0.004158250891164828
0.010171420783186582   -0.010756920252416492   -0.004231373528382154
0.010171420783186582   -0.010756920252416492   -0.004231373528382154
0.010171420783186582   -0.010756920252416492   -0.004231373528382154
0.010171420783186582   -0.010756920252416492   -0.004231373528382154
0.054559152484974005   0.006236868314442817   0.005347959092990712
0.054559152484974005   0.006236868314442817   0.005347959092990712
0.054559152484974005   0.006236868314442817   0.005347959092990712
0.054559152484974005   0.006236868314442817   0.005347959092990712
0.03185406983071178   -0.0015929670803878663   -0.003389041931813389
0.03185406983071178   -0.0015929670803878663   -0.003389041931813389
0.03185406983071178   -0.0015929670803878663   -0.003389041931813389
0.03185406983071178   -0.0015929670803878663   -0.003389041931813389
0.020196851858847002   0.006667791958476882   -0.001722694908834466
0.020196851858847002   0.006667791958476882   -0.001722694908834466
0.020196851858847002   0.006667791958476882   -0.001722694908834466
0.020196851858847002   0.006667791958476882   -0.001722694908834466
-0.0223461329947813   0.0017346490028582887   0.0006305011787482685
-0.0223461329947813   0.0017346490028582887   0.0006305011787482685
-0.0223461329947813   0.0017346490028582887   0.0006305011787482685
-0.0223461329947813   0.0017346490028582887   0.0006305011787482685
-0.026284180133748867   -0.005492065576486103   -0.003500236479599499
-0.026284180133748867   -0.005492065576486103   -0.003500236479599499
-0.026284180133748867   -0.005492065576486103   -0.003500236479599499
-0.026284180133748867   -0.005492065576486103   -0.003500236479599499
0.019731058190564598   0.008217262112156707   0.003769539888764873
0.019731058190564598   0.008217262112156707   0.003769539888764873
0.019731058190564598   0.008217262112156707   0.003769539888764873
0.019731058190564598   0.008217262112156707   0.003769539888764873
-0.002343251290404369   0.0026560947523648886   0.0007764777015217401
-0.002343251290404369   0.0026560947523648886   0.0007764777015217401
-0.002343251290404369   0.0026560947523648886   0.0007764777015217401
-0.002343251290404369   0.0026560947523648886   0.0007764777015217401
0.01783852651622664   0.0037811264793960243   -0.0012569828501643669
0.01783852651622664   0.0037811264793960243   -0.0012569828501643669
0.01783852651622664   0.0037811264793960243   -0.0012569828501643669
0.01783852651622664   0.0037811264793960243   -0.0012569828501643669
-0.024500407506371828   -0.0011646889906863625   0.0010912500714859558
-0.024500407506371828   -0.0011646889906863625   0.0010912500714859558
-0.024500407506371828   -0.0011646889906863625   0.0010912500714859558
-0.024500407506371828   -0.0011646889906863625   0.0010912500714859558
-0.028317510368396765   -0.007753798708885059   -0.002786679666637239
-0.028317510368396765   -0.007753798708885059   -0.002786679666637239
-0.028317510368396765   -0.007753798708885059   -0.002786679666637239
-0.028317510368396765   -0.007753798708885059   -0.002786679666637239
0.01706501763860524   0.005641601888554357   0.00412023076698556
0.01706501763860524   0.005641601888554357   0.00412023076698556
0.01706501763860524   0.005641601888554357   0.00412023076698556
0.01706501763860524   0.005641601888554357   0.00412023076698556
-0.004887091914931863   0.00015685879200199324   -0.00042790389998604406
-0.004887091914931863   0.00015685879200199324   -0.00042790389998604406
-0.004887091914931863   0.00015685879200199324   -0.00042790389998604406
-0.004887091914931863   0.00015685879200199324   -0.00042790389998604406
0.01522315835932633   0.0013518151848466943   -0.0007992789257015667
0.01522315835932633   0.0013518151848466943   -0.0007992789257015667
0.01522315835932633   0.0013518151848466943   -0.0007992789257015667
0.01522315835932633   0.0013518151848466943   -0.0007992789257015667
-0.026617385068409605   -0.003605745984469105   0.001565894108883095
-0.026617385068409605   -0.003605745984469105   0.001565894108883095
-0.026617385068409605   -0.003605745984469105   0.001565894108883095
-0.026617385068409605   -0.003605745984469105   0.001565894108883095
-0.030331418966484353   -0.009927584363796326   -0.0021441580712976286
-0.030331418966484353   -0.009927584363796326   -0.0021441580712976286
-0.030331418966484353   -0.009927584363796326   -0.0021441580712976286
-0.030331418966484353   -0.009927584363796326   -0.0021441580712976286
0.014729296968668195   0.0031851064390583   0.004615980707551364
0.014729296968668195   0.0031851064390583   0.004615980707551364
0.014729296968668195   0.0031851064390583   0.004615980707551364
0.014729296968668195   0.0031851064390583   0.004615980707551364
-0.007028942290730361   -0.001998573482548446   -0.0015424815927808824
-0.007028942290730361   -0.001998573482548446   -0.0015424815927808824
-0.007028942290730361   -0.001998573482548446   -0.0015424815927808824
-0.007028942290730361   -0.001998573482548446   -0.0015424815927808824
-0.021041458913325747   0.008534833090918308   0.0003536874979660075
-0.021041458913325747   0.008534833090918308   0.0003536874979660075
-0.021041458913325747   0.008534833090918308   0.0003536874979660075
-0.021041458913325747   0.008534833090918308   0.0003536874979660075
-0.06451095179060559   -0.0011463379485206308   -0.0018660862045627039
-0.06451095179060559   -0.0011463379485206308   -0.0018660862045627039
-0.06451095179060559   -0.0011463379485206308   -0.0018660862045627039
-0.06451095179060559   -0.0011463379485206308   -0.0018660862045627039
-0.06636776509862921   -0.0030514774702992756   -0.0011597484960711051
-0.06636776509862921   -0.0030514774702992756   -0.0011597484960711051
-0.06636776509862921   -0.0030514774702992756   -0.0011597484960711051
-0.06636776509862921   -0.0030514774702992756   -0.0011597484960711051
-0.023156377855791967   0.005437655773103293   0.0012090535605951361
-0.023156377855791967   0.005437655773103293   0.0012090535605951361
-0.023156377855791967   0.005437655773103293   0.0012090535605951361
-0.023156377855791967   0.005437655773103293   0.0012090535605951361
-0.04365495195995123   0.00237232091131942   0.0007770219311320544
-0.04365495195995123   0.00237232091131942   0.0007770219311320544
-0.04365495195995123   0.00237232091131942   0.0007770219311320544
-0.04365495195995123   0.00237232091131942   0.0007770219311320544
-0.023072575414629745   0.006043878728014034   0.001021842811495984
-0.023072575414629745   0.006043878728014034   0.001021842811495984
-0.023072575414629745   0.006043878728014034   0.001021842811495984
-0.023072575414629745   0.006043878728014034   0.001021842811495984
-0.0665493332555576   -0.003755466140976285   -0.0013636006100371063
-0.0665493332555576   -0.003755466140976285   -0.0013636006100371063
-0.0665493332555576   -0.003755466140976285   -0.0013636006100371063
-0.0665493332555576   -0.003755466140976285   -0.0013636006100371063
-0.06839738821823568   -0.0055210026220201495   -0.0005227852373977972
-0.06839738821823568   -0.0055210026220201495   -0.0005227852373977972
-0.06839738821823568   -0.0055210026220201495   -0.0005227852373977972
-0.06839738821823568   -0.0055210026220201495   -0.0005227852373977972
-0.025298527550879937   0.002824893209450237   0.0017295425026116066
-0.025298527550879937   0.002824893209450237   0.0017295425026116066
-0.025298527550879937   0.002824893209450237   0.0017295425026116066
-0.025298527550879937   0.002824893209450237   0.0017295425026116066
-0.04576654826548485   1.2153310866529557e-05   -0.0002933091384445556
-0.04576654826548485   1.2153310866529557e-05   -0.0002933091384445556
-0.04576654826548485   1.2153310866529557e-05   -0.0002933091384445556
-0.04576654826548485   1.2153310866529557e-05   -0.0002933091384445556
-0.025185273363695696   0.0035417656049700937   0.0015789410430134343
-0.025185273363695696   0.0035417656049700937   0.0015789410430134343
-0.025185273363695696   0.0035417656049700937   0.0015789410430134343
-0.025185273363695696   0.0035417656049700937   0.0015789410430134343
-0.06864858410811697   -0.006375816720236582   -0.0009239505885892873
-0.06864858410811697   -0.006375816720236582   -0.0009239505885892873
-0.06864858410811697   -0.006375816720236582   -0.0009239505885892873
-0.06864858410811697   -0.006375816720236582   -0.0009239505885892873
-0.07037885946187686   -0.007892631400459305   0.00010344257961301105
-0.07037885946187686   -0.007892631400459305   0.00010344257961301105
-0.07037885946187686   -0.007892631400459305   0.00010344257961301105
-0.07037885946187686   -0.007892631400459305   0.00010344257961301105
-0.027415265844384654   0.0003179633540188664   0.0021910598213856795
-0.027415265844384654   0.0003179633540188664   0.0021910598213856795
-0.027415265844384654   0.0003179633540188664   0.0021910598213856795
-0.027415265844384654   0.0003179633540188664   0.0021910598213856795
-0.04799621896007795   -0.002348593344246329   -0.0014596876732412257
-0.04799621896007795   -0.002348593344246329   -0.0014596876732412257
-0.04799621896007795   -0.002348593344246329   -0.0014596876732412257
-0.04799621896007795   -0.002348593344246329   -0.0014596876732412257
-0.06132075411627143   0.010398845853439347   0.0025397183651481277
-0.06132075411627143   0.010398845853439347   0.0025397183651481277
-0.06132075411627143   0.010398845853439347   0.0025397183651481277
-0.06132075411627143   0.010398845853439347   0.0025397183651481277
-0.10611536587608174   -0.003622954082240736   -0.004111145685212046
-0.10611536587608174   -0.003622954082240736   -0.004111145685212046
-0.10611536587608174   -0.003622954082240736   -0.004111145685212046
-0.10611536587608174   -0.003622954082240736   -0.004111145685212046
-0.10628606190391955   -0.0009682032389068534   0.0012927407784412747
-0.10628606190391955   -0.0009682032389068534   0.0012927407784412747
-0.10628606190391955   -0.0009682032389068534   0.0012927407784412747
-0.10628606190391955   -0.0009682032389068534   0.0012927407784412747
-0.06519692452145767   0.002847491733762395   -0.001204514814276538
-0.06519692452145767   0.002847491733762395   -0.001204514814276538
-0.06519692452145767   0.002847491733762395   -0.001204514814276538
-0.06519692452145767   0.002847491733762395   -0.001204514814276538
-0.08425231597385477   0.0021417444887143026   0.0009721595684595045
-0.08425231597385477   0.0021417444887143026   0.0009721595684595045
-0.08425231597385477   0.0021417444887143026   0.0009721595684595045
-0.08425231597385477   0.0021417444887143026   0.0009721595684595045
-0.06328075714016065   0.008015893602792623   0.0032079202231797633
-0.06328075714016065   0.008015893602792623   0.0032079202231797633
-0.06328075714016065   0.008015893602792623   0.0032079202231797633
-0.06328075714016065   0.008015893602792623   0.0032079202231797633
-0.10838527582612278   -0.006319651648842576   -0.0038518804226401254
-0.10838527582612278   -0.006319651648842576   -0.0038518804226401254
-0.10838527582612278   -0.006319651648842576   -0.0038518804226401254
-0.10838527582612278   -0.006319651648842576   -0.0038518804226401254
-0.1087950786635503   -0.003413857154334142   0.001628678659061811
-0.1087950786635503   -0.003413857154334142   0.001628678659061811
-0.1087950786635503   -0.003413857154334142   0.001628678659061811
-0.1087950786635503   -0.003413857154334142   0.001628678659061811
-0.06723719812422352   0.0004227024718470168   -0.00066553986120563
-0.06723719812422352   0.0004227024718470168   -0.00066553986120563
-0.06723719812422352   0.0004227024718470168   -0.00066553986120563
-0.06723719812422352   0.0004227024718470168   -0.00066553986120563
-0.08600317503739013   -3.3229189598461134e-05   -0.00014249075354150383
-0.08600317503739013   -3.3229189598461134e-05   -0.00014249075354150383
-0.08600317503739013   -3.3229189598461134e-05   -0.00014249075354150383
-0.08600317503739013   -3.3229189598461134e-05   -0.00014249075354150383
-0.0652714886074346   0.0057352226366617735   0.0038504875579256784
-0.0652714886074346   0.0057352226366617735   0.0038504875579256784
-0.0652714886074346   0.0057352226366617735   0.0038504875579256784
-0.0652714886074346   0.0057352226366617735   0.0038504875579256784
-0.11087635755141945   -0.008841946690229203   -0.0033496262443908067
-0.11087635755141945   -0.008841946690229203   -0.0033496262443908067
-0.11087635755141945   -0.008841946690229203   -0.0033496262443908067
-0.11087635755141945   -0.008841946690229203   -0.0033496262443908067
-0.11093948056431857   -0.006001347219857588   0.0022987314687002696
-0.11093948056431857   -0.006001347219857588   0.0022987314687002696
-0.11093948056431857   -0.006001347219857588   0.0022987314687002696
-0.11093948056431857   -0.006001347219857588   0.0022987314687002696
-0.06930857799201828   -0.0022141628751938276   -0.00022361859636101924
-0.06930857799201828   -0.0022141628751938276   -0.00022361859636101924
-0.06930857799201828   -0.0022141628751938276   -0.00022361859636101924
-0.06930857799201828   -0.0022141628751938276   -0.00022361859636101924
-0.08873644395838289   -0.0024765905998312063   -0.0013858416877312266
-0.08873644395838289   -0.0024765905998312063   -0.0013858416877312266
-0.08873644395838289   -0.0024765905998312063   -0.0013858416877312266
-0.08873644395838289   -0.0024765905998312063   -0.0013858416877312266
-0.10161381079041576   0.01029403667663054   0.004479638984249511
-0.10161381079041576   0.01029403667663054   0.004479638984249511
-0.10161381079041576   0.01029403667663054   0.004479638984249511
-0.10161381079041576   0.01029403667663054   0.004479638984249511
-0.14503009010877216   -0.006896100594819855   -0.005926303868730512
-0.14503009010877216   -0.006896100594819855   -0.005926303868730512
-0.14503009010877216   -0.006896100594819855   -0.005926303868730512
-0.14503009010877216   -0.006896100594819855   -0.005926303868730512
-0.14596935280488754   0.0008997518582305256   0.004695045217460558
-0.14596935280488754   0.0008997518582305256   0.004695045217460558
-0.14596935280488754   0.0008997518582305256   0.004695045217460558
-0.14596935280488754   0.0008997518582305256   0.004695045217460558
-0.1070513796596358   5.975532202076583e-05   -0.0035618065610705614
-0.1070513796596358   5.975532202076583e-05   -0.0035618065610705614
-0.1070513796596358   5.975532202076583e-05   -0.0035618065610705614
-0.1070513796596358   5.975532202076583e-05   -0.0035618065610705614
-0.11946725372634678   0.002242387032301965   0.0030641740693365567
-0.11946725372634678   0.002242387032301965   0.0030641740693365567
-0.11946725372634678   0.002242387032301965   0.0030641740693365567
-0.11946725372634678   0.002242387032301965   0.0030641740693365567
-0.10338299956915287   0.009538319420464788   0.005301529792901083
-0.10338299956915287   0.009538319420464788   0.005301529792901083
-0.10338299956915287   0.009538319420464788   0.005301529792901083
-0.10338299956915287   0.009538319420464788   0.005301529792901083
-0.14983641881439277   -0.00877749815923581   -0.004963034812596491
-0.14983641881439277   -0.00877749815923581   -0.004963034812596491
-0.14983641881439277   -0.00877749815923581   -0.004963034812596491
-0.14983641881439277   -0.00877749815923581   -0.004963034812596491
-0.14992053676000444   -0.0004988617262961792   0.005966196516865037
-0.14992053676000444   -0.0004988617262961792   0.005966196516865037
-0.14992053676000444   -0.0004988617262961792   0.005966196516865037
-0.14992053676000444   -0.0004988617262961792   0.005966196516865037
-0.10930248544184323   -0.0012923503089359266   -0.0030298620778029346
-0.10930248544184323   -0.0012923503089359266   -0.0030298620778029346
-0.10930248544184323   -0.0012923503089359266   -0.0030298620778029346
-0.10930248544184323   -0.0012923503089359266   -0.0030298620778029346
-0.12469579220397885   0.000614564012533958   0.0013352671156182643
-0.12469579220397885   0.000614564012533958   0.0013352671156182643
-0.12469579220397885   0.000614564012533958   0.0013352671156182643
-0.12469579220397885   0.000614564012533958   0.0013352671156182643
-0.10549257458614296   0.00844913315288047   0.0062782087388829535
-0.10549257458614296   0.00844913315288047   0.0062782087388829535
-0.10549257458614296   0.00844913315288047   0.0062782087388829535
-0.10549257458614296   0.00844913315288047   0.0062782087388829535
-0.15391095336895147   -0.01042085094135822   -0.004063897312806159
-0.15391095336895147   -0.01042085094135822   -0.004063897312806159
-0.15391095336895147   -0.01042085094135822   -0.004063897312806159
-0.15391095336895147   -0.01042085094135822   -0.004063897312806159
-0.15534772018490683   -0.004584011192291057   0.006105544417711167
-0.15534772018490683   -0.004584011192291057   0.006105544417711167
-0.15534772018490683   -0.004584011192291057   0.006105544417711167
-0.15534772018490683   -0.004584011192291057   0.006105544417711167
-0.11163830891763137   -0.004552608615112409   -0.0026441489026098296
-0.11163830891763137   -0.004552608615112409   -0.0026441489026098296
-0.11163830891763137   -0.004552608615112409   -0.0026441489026098296
-0.11163830891763137   -0.004552608615112409   -0.0026441489026098296
-0.12613331751996845   -0.0011728030148464644   0.0003653782911007654
-0.12613331751996845   -0.0011728030148464644   0.0003653782911007654
-0.12613331751996845   -0.0011728030148464644   0.0003653782911007654
-0.12613331751996845   -0.0011728030148464644   0.0003653782911007654
0.0198625669987592   0.0016112548668888664   -0.0068448887074037505
0.0198625669987592   0.0016112548668888664   -0.0068448887074037505
0.0198625669987592   0.0016112548668888664   -0.0068448887074037505
0.0198625669987592   0.0016112548668888664   -0.0068448887074037505
-0.006355740041818464   0.004936059559144538   0.0033820285735126033
-0.006355740041818464   0.004936059559144538   0.0033820285735126033
-0.006355740041818464   0.004936059559144538   0.0033820285735126033
-0.006355740041818464   0.004936059559144538   0.0033820285735126033
-0.011946517919507967   -0.006831496342146999   -0.005575727024110382
-0.011946517919507967   -0.006831496342146999   -0.005575727024110382
-0.011946517919507967   -0.006831496342146999   -0.005575727024110382
-0.011946517919507967   -0.006831496342146999   -0.005575727024110382
0.0190169517131857   0.00796538387831759   0.004086569275603417
0.0190169517131857   0.00796538387831759   0.004086569275603417
0.0190169517131857   0.00796538387831759   0.004086569275603417
0.0190169517131857   0.00796538387831759   0.004086569275603417
0.004573834355383725   0.0017603340070749887   0.0005479491764088681
0.004573834355383725   0.0017603340070749887   0.0005479491764088681
0.004573834355383725   0.0017603340070749887   0.0005479491764088681
0.004573834355383725   0.0017603340070749887   0.0005479491764088681
0.015056206971664767   -0.0015551333915225858   -0.00619663716216105
0.015056206971664767   -0.0015551333915225858   -0.00619663716216105
0.015056206971664767   -0.0015551333915225858   -0.00619663716216105
0.015056206971664767   -0.0015551333915225858   -0.00619663716216105
-0.008203204358574972   0.0024715897471052437   0.0038377546913023544
-0.008203204358574972   0.0024715897471052437   0.0038377546913023544
-0.008203204358574972   0.0024715897471052437   0.0038377546913023544
-0.008203204358574972   0.0024715897471052437   0.0038377546913023544
-0.0138277415049413   -0.007998150616877957   -0.004786271562810211
-0.0138277415049413   -0.007998150616877957   -0.004786271562810211
-0.0138277415049413   -0.007998150616877957   -0.004786271562810211
-0.0138277415049413   -0.007998150616877957   -0.004786271562810211
0.015238274212861407   0.006407585952001155   0.005678948028459925
0.015238274212861407   0.006407585952001155   0.005678948028459925
0.015238274212861407   0.006407585952001155   0.005678948028459925
0.015238274212861407   0.006407585952001155   0.005678948028459925
0.001724065642875289   2.6000521355180526e-06   -0.0007649274821389892
0.001724065642875289   2.6000521355180526e-06   -0.0007649274821389892
0.001724065642875289   2.6000521355180526e-06   -0.0007649274821389892
0.001724065642875289   2.6000521355180526e-06   -0.0007649274821389892
0.011165910165793451   -0.00308101935095392   -0.0051942669039247704
0.011165910165793451   -0.00308101935095392   -0.0051942669039247704
0.011165910165793451   -0.00308101935095392   -0.0051942669039247704
0.011165910165793451   -0.00308101935095392   -0.0051942669039247704
-0.010064791456277847   0.001181040687672595   0.004849287375956379
-0.010064791456277847   0.001181040687672595   0.004849287375956379
-0.010064791456277847   0.001181040687672595   0.004849287375956379
-0.010064791456277847   0.001181040687672595   0.004849287375956379
-0.015546139453037466   -0.00965521610903949   -0.00400717108640935
-0.015546139453037466   -0.00965521610903949   -0.00400717108640935
-0.015546139453037466   -0.00965521610903949   -0.00400717108640935
-0.015546139453037466   -0.00965521610903949   -0.00400717108640935
0.009986169602445827   0.0032336598009457436   0.006543480115965561
0.009986169602445827   0.0032336598009457436   0.006543480115965561
0.009986169602445827   0.0032336598009457436   0.006543480115965561
0.009986169602445827   0.0032336598009457436   0.006543480115965561
-0.001632292425906836   -0.0017094368511963874   -0.002335551673689934
-0.001632292425906836   -0.0017094368511963874   -0.002335551673689934
-0.001632292425906836   -0.0017094368511963874   -0.002335551673689934
-0.001632292425906836   -0.0017094368511963874   -0.002335551673689934
-0.007727716521976129   0.004019894340036193   -0.0025616886081673753
-0.007727716521976129   0.004019894340036193   -0.0025616886081673753
-0.007727716521976129   0.004019894340036193   -0.0025616886081673753
-0.007727716521976129   0.004019894340036193   -0.0025616886081673753
-0.031633584968240744   0.0013595638639028974   0.0008177667647111405
-0.031633584968240744   0.0013595638639028974   0.0008177667647111405
-0.031633584968240744   0.0013595638639028974   0.0008177667647111405
-0.031633584968240744   0.0013595638639028974   0.0008177667647111405
-0.034592841948883145   -0.003994354141681842   -0.0029646412409801265
-0.034592841948883145   -0.003994354141681842   -0.0029646412409801265
-0.034592841948883145   -0.003994354141681842   -0.0029646412409801265
-0.034592841948883145   -0.003994354141681842   -0.0029646412409801265
-0.00807451015057137   0.004084794032077077   0.0028680214463485303
-0.00807451015057137   0.004084794032077077   0.0028680214463485303
-0.00807451015057137   0.004084794032077077   0.0028680214463485303
-0.00807451015057137   0.004084794032077077   0.0028680214463485303
-0.02049332885169486   0.0012843936913786965   0.0007351292060013429
-0.02049332885169486   0.0012843936913786965   0.0007351292060013429
-0.02049332885169486   0.0012843936913786965   0.0007351292060013429
-0.02049332885169486   0.0012843936913786965   0.0007351292060013429
-0.009656734340883781   0.0011617787779056588   -0.002120084251041984
-0.009656734340883781   0.0011617787779056588   -0.002120084251041984
-0.009656734340883781   0.0011617787779056588   -0.002120084251041984
-0.009656734340883781   0.0011617787779056588   -0.002120084251041984
-0.03320072306631187   -0.0012614441952515359   0.001263043225445959
-0.03320072306631187   -0.0012614441952515359   0.001263043225445959
-0.03320072306631187   -0.0012614441952515359   0.001263043225445959
-0.03320072306631187   -0.0012614441952515359   0.001263043225445959
-0.03607489272140854   -0.006258925178669103   -0.0022424942091179593
-0.03607489272140854   -0.006258925178669103   -0.0022424942091179593
-0.03607489272140854   -0.006258925178669103   -0.0022424942091179593
-0.03607489272140854   -0.006258925178669103   -0.0022424942091179593
-0.010308615799941424   0.0015740432430858917   0.003237163102225193
-0.010308615799941424   0.0015740432430858917   0.003237163102225193
-0.010308615799941424   0.0015740432430858917   0.003237163102225193
-0.010308615799941424   0.0015740432430858917   0.003237163102225193
-0.0223614408662566   -0.0010322455731700932   -0.00044401060375475333
-0.0223614408662566   -0.0010322455731700932   -0.00044401060375475333
-0.0223614408662566   -0.0010322455731700932   -0.00044401060375475333
-0.0223614408662566   -0.0010322455731700932   -0.00044401060375475333
-0.011846048900714556   -0.0012832078370146693   -0.0015927513215397797
-0.011846048900714556   -0.0012832078370146693   -0.0015927513215397797
-0.011846048900714556   -0.0012832078370146693   -0.0015927513215397797
-0.011846048900714556   -0.0012832078370146693   -0.0015927513215397797
-0.03474405603525798   -0.0036082705131910884   0.0017610345561568492
-0.03474405603525798   -0.0036082705131910884   0.0017610345561568492
-0.03474405603525798   -0.0036082705131910884   0.0017610345561568492
-0.03474405603525798   -0.0036082705131910884   0.0017610345561568492
-0.03756660983020049   -0.008518574366189545   -0.0016065165198191702
-0.03756660983020049   -0.008518574366189545   -0.0016065165198191702
-0.03756660983020049   -0.008518574366189545   -0.0016065165198191702
-0.03756660983020049   -0.008518574366189545   -0.0016065165198191702
-0.012188084876746236   -0.0008837790569341607   0.00401166474294135
-0.012188084876746236   -0.0008837790569341607   0.00401166474294135
-0.012188084876746236   -0.0008837790569341607   0.00401166474294135
-0.012188084876746236   -0.0008837790569341607   0.00401166474294135
-0.02417831452636111   -0.003237352138233287   -0.0016202801951088713
-0.02417831452636111   -0.003237352138233287   -0.0016202801951088713
-0.02417831452636111   -0.003237352138233287   -0.0016202801951088713
-0.02417831452636111   -0.003237352138233287   -0.0016202801951088713
-0.030942871318946852   0.005888895968116238   -0.00025799709303325237
-0.030942871318946852   0.005888895968116238   -0.00025799709303325237
-0.030942871318946852   0.005888895968116238   -0.00025799709303325237
-0.030942871318946852   0.005888895968116238   -0.00025799709303325237
-0.05637915993406248   -0.0021008871304764396   -0.0016957689698247568
-0.05637915993406248   -0.0021008871304764396   -0.0016957689698247568
-0.05637915993406248   -0.0021008871304764396   -0.0016957689698247568
-0.05637915993406248   -0.0021008871304764396   -0.0016957689698247568
-0.05703588313269416   -0.0016754343448452391   -0.0004768917522453382
-0.05703588313269416   -0.0016754343448452391   -0.0004768917522453382
-0.05703588313269416   -0.0016754343448452391   -0.0004768917522453382
-0.05703588313269416   -0.0016754343448452391   -0.0004768917522453382
-0.03293871111756283   0.0008556916765612302   0.00045596709737839034
-0.03293871111756283   0.0008556916765612302   0.00045596709737839034
-0.03293871111756283   0.0008556916765612302   0.00045596709737839034
-0.03293871111756283   0.0008556916765612302   0.00045596709737839034
-0.04422026566111778   0.00068116381923603   0.00034231632918023044
-0.04422026566111778   0.00068116381923603   0.00034231632918023044
-0.04422026566111778   0.00068116381923603   0.00034231632918023044
-0.04422026566111778   0.00068116381923603   0.00034231632918023044
-0.032431328190656326   0.003425474729754848   0.00042309867871727445
-0.032431328190656326   0.003425474729754848   0.00042309867871727445
-0.032431328190656326   0.003425474729754848   0.00042309867871727445
-0.032431328190656326   0.003425474729754848   0.00042309867871727445
-0.05773024520179154   -0.004432196540229742   -0.0011919399023477607
-0.05773024520179154   -0.004432196540229742   -0.0011919399023477607
-0.05773024520179154   -0.004432196540229742   -0.0011919399023477607
-0.05773024520179154   -0.004432196540229742   -0.0011919399023477607
-0.058435401264135774   -0.00411076482336873   0.00018812605176877096
-0.058435401264135774   -0.00411076482336873   0.00018812605176877096
-0.058435401264135774   -0.00411076482336873   0.00018812605176877096
-0.058435401264135774   -0.00411076482336873   0.00018812605176877096
-0.03449493101183503   -0.0015484177627592757   0.0009468069228397778
-0.03449493101183503   -0.0015484177627592757   0.0009468069228397778
-0.03449493101183503   -0.0015484177627592757   0.0009468069228397778
-0.03449493101183503   -0.0015484177627592757   0.0009468069228397778
-0.04572332531973846   -0.0015345798480943182   -0.0007380067919535737
-0.04572332531973846   -0.0015345798480943182   -0.0007380067919535737
-0.04572332531973846   -0.0015345798480943182   -0.0007380067919535737
-0.04572332531973846   -0.0015345798480943182   -0.0007380067919535737
-0.033985895788011394   0.0009418534311184425   0.0010017118480802464
-0.033985895788011394   0.0009418534311184425   0.0010017118480802464
-0.033985895788011394   0.0009418534311184425   0.0010017118480802464
-0.033985895788011394   0.0009418534311184425   0.0010017118480802464
-0.05917130164942123   -0.006827901178708422   -0.000774239519319752
-0.05917130164942123   -0.006827901178708422   -0.000774239519319752
-0.05917130164942123   -0.006827901178708422   -0.000774239519319752
-0.05917130164942123   -0.006827901178708422   -0.000774239519319752
-0.05979385528319199   -0.0064286820770115905   0.0008364221050407336
-0.05979385528319199   -0.0064286820770115905   0.0008364221050407336
-0.05979385528319199   -0.0064286820770115905   0.0008364221050407336
-0.05979385528319199   -0.0064286820770115905   0.0008364221050407336
-0.03600591052099967   -0.0037932600847094657   0.001471665744704835
-0.03600591052099967   -0.0037932600847094657   0.001471665744704835
-0.03600591052099967   -0.0037932600847094657   0.001471665744704835
-0.03600591052099967   -0.0037932600847094657   0.001471665744704835
-0.04734037280037133   -0.0037545125773192018   -0.0019137601245567718
-0.04734037280037133   -0.0037545125773192018   -0.0019137601245567718
-0.04734037280037133   -0.0037545125773192018   -0.0019137601245567718
-0.04734037280037133   -0.0037545125773192018   -0.0019137601245567718
-0.0535532208007581   0.008148593319258147   0.002184446246962576
-0.0535532208007581   0.008148593319258147   0.002184446246962576
-0.0535532208007581   0.008148593319258147   0.002184446246962576
-0.0535532208007581   0.008148593319258147   0.002184446246962576
-0.0804585915765775   -0.003657335128330821   -0.003736661905823459
-0.0804585915765775   -0.003657335128330821   -0.003736661905823459
-0.0804585915765775   -0.003657335128330821   -0.003736661905823459
-0.0804585915765775   -0.003657335128330821   -0.003736661905823459
-0.07953451744611914   0.0006320823699282815   0.00205603129121435
-0.07953451744611914   0.0006320823699282815   0.00205603129121435
-0.07953451744611914   0.0006320823699282815   0.00205603129121435
-0.07953451744611914   0.0006320823699282815   0.00205603129121435
-0.05708527252958122   -0.000818715848910568   -0.00158055723261533
-0.05708527252958122   -0.000818715848910568   -0.00158055723261533
-0.05708527252958122   -0.000818715848910568   -0.00158055723261533
-0.05708527252958122   -0.000818715848910568   -0.00158055723261533
-0.06737406639440374   0.0010664265461511283   0.0004334830692858506
-0.06737406639440374   0.0010664265461511283   0.0004334830692858506
-0.06737406639440374   0.0010664265461511283   0.0004334830692858506
-0.06737406639440374   0.0010664265461511283   0.0004334830692858506
-0.05488792577303457   0.005723072155453791   0.002864388545753515
-0.05488792577303457   0.005723072155453791   0.002864388545753515
-0.05488792577303457   0.005723072155453791   0.002864388545753515
-0.05488792577303457   0.005723072155453791   0.002864388545753515
-0.08200635972793116   -0.0061842011597016255   -0.003486896588216835
-0.08200635972793116   -0.0061842011597016255   -0.003486896588216835
-0.08200635972793116   -0.0061842011597016255   -0.003486896588216835
-0.08200635972793116   -0.0061842011597016255   -0.003486896588216835
-0.08139130402173794   -0.0017842102935558997   0.002454002209294201
-0.08139130402173794   -0.0017842102935558997   0.002454002209294201
-0.08139130402173794   -0.0017842102935558997   0.002454002209294201
-0.08139130402173794   -0.0017842102935558997   0.002454002209294201
-0.05847089612119466   -0.003038735232259924   -0.0010613778246344441
-0.05847089612119466   -0.003038735232259924   -0.0010613778246344441
-0.05847089612119466   -0.003038735232259924   -0.0010613778246344441
-0.05847089612119466   -0.003038735232259924   -0.0010613778246344441
-0.06862316522729357   -0.0010618802422480648   -0.0007360900004499829
-0.06862316522729357   -0.0010618802422480648   -0.0007360900004499829
-0.06862316522729357   -0.0010618802422480648   -0.0007360900004499829
-0.06862316522729357   -0.0010618802422480648   -0.0007360900004499829
-0.056255365109236004   0.0034564045397205544   0.0035211374631783604
-0.056255365109236004   0.0034564045397205544   0.0035211374631783604
-0.056255365109236004   0.0034564045397205544   0.0035211374631783604
-0.056255365109236004   0.0034564045397205544   0.0035211374631783604
-0.08382365475572384   -0.008496169787564409   -0.0029957919666276918
-0.08382365475572384   -0.008496169787564409   -0.0029957919666276918
-0.08382365475572384   -0.008496169787564409   -0.0029957919666276918
-0.08382365475572384   -0.008496169787564409   -0.0029957919666276918
-0.08289498172414286   -0.004253866927629647   0.0031642648735844465
-0.08289498172414286   -0.004253866927629647   0.0031642648735844465
-0.08289498172414286   -0.004253866927629647   0.0031642648735844465
-0.08289498172414286   -0.004253866927629647   0.0031642648735844465
-0.059868064961165514   -0.005346080346593747   -0.0006172280152456739
-0.059868064961165514   -0.005346080346593747   -0.0006172280152456739
-0.059868064961165514   -0.005346080346593747   -0.0006172280152456739
-0.059868064961165514   -0.005346080346593747   -0.0006172280152456739
-0.0705476401033103   -0.0032894609858170314   -0.001956776624016121
-0.0705476401033103   -0.0032894609858170314   -0.001956776624016121
-0.0705476401033103   -0.0032894609858170314   -0.001956776624016121
-0.0705476401033103   -0.0032894609858170314   -0.001956776624016121
-0.07632985338107019   0.008899288594286563   0.004350405349095745
-0.07632985338107019   0.008899288594286563   0.004350405349095745
-0.07632985338107019   0.008899288594286563   0.004350405349095745
-0.07632985338107019   0.008899288594286563   0.004350405349095745
-0.10103450103242939   -0.005272828056818075   -0.005972112918859052
-0.10103450103242939   -0.005272828056818075   -0.005972112918859052
-0.10103450103242939   -0.005272828056818075   -0.005972112918859052
-0.10103450103242939   -0.005272828056818075   -0.005972112918859052
-0.10120195736450642   0.0029017808886221824   0.0047988989768109475
-0.10120195736450642   0.0029017808886221824   0.0047988989768109475
-0.10120195736450642   0.0029017808886221824   0.0047988989768109475
-0.10120195736450642   0.0029017808886221824   0.0047988989768109475
-0.08127052461296096   -0.0023536172380270864   -0.0036383049350394263
-0.08127052461296096   -0.0023536172380270864   -0.0036383049350394263
-0.08127052461296096   -0.0023536172380270864   -0.0036383049350394263
-0.08127052461296096   -0.0023536172380270864   -0.0036383049350394263
-0.08622682275480917   0.0018920759528343392   0.0018799072051215978
-0.08622682275480917   0.0018920759528343392   0.0018799072051215978
-0.08622682275480917   0.0018920759528343392   0.0018799072051215978
-0.08622682275480917   0.0018920759528343392   0.0018799072051215978
-0.07750473974302102   0.007707370877402933   0.005129631299229304
-0.07750473974302102   0.007707370877402933   0.005129631299229304
-0.07750473974302102   0.007707370877402933   0.005129631299229304
-0.07750473974302102   0.007707370877402933   0.005129631299229304
-0.1052611141934581   -0.007452579185819423   -0.005142525093503976
-0.1052611141934581   -0.007452579185819423   -0.005142525093503976
-0.1052611141934581   -0.007452579185819423   -0.005142525093503976
-0.1052611141934581   -0.007452579185819423   -0.005142525093503976
-0.10456984885355297   0.0014888595693400251   0.006143550725286565
-0.10456984885355297   0.0014888595693400251   0.006143550725286565
-0.10456984885355297   0.0014888595693400251   0.006143550725286565
-0.10456984885355297   0.0014888595693400251   0.006143550725286565
-0.08288315397555265   -0.00363670220627867   -0.003152755647056568
-0.08288315397555265   -0.00363670220627867   -0.003152755647056568
-0.08288315397555265   -0.00363670220627867   -0.003152755647056568
-0.08288315397555265   -0.00363670220627867   -0.003152755647056568
-0.09032803378679947   0.00020061058156222583   0.00019330239824830783
-0.09032803378679947   0.00020061058156222583   0.00019330239824830783
-0.09032803378679947   0.00020061058156222583   0.00019330239824830783
-0.09032803378679947   0.00020061058156222583   0.00019330239824830783
-0.0789813599501695   0.006601458049729593   0.006118054223850943
-0.0789813599501695   0.006601458049729593   0.006118054223850943
-0.0789813599501695   0.006601458049729593   0.006118054223850943
-0.0789813599501695   0.006601458049729593   0.006118054223850943
-0.10875984990446248   -0.009037507712193334   -0.004280087247723883
-0.10875984990446248   -0.009037507712193334   -0.004280087247723883
-0.10875984990446248   -0.009037507712193334   -0.004280087247723883
-0.10875984990446248   -0.009037507712193334   -0.004280087247723883
-0.10944063678875843   -0.0022931012192873093   0.006455715947646558
-0.10944063678875843   -0.0022931012192873093   0.006455715947646558
-0.10944063678875843   -0.0022931012192873093   0.006455715947646558
-0.10944063678875843   -0.0022931012192873093   0.006455715947646558
-0.08450909986792968   -0.006438788117852753   -0.002721404655126513
-0.08450909986792968   -0.006438788117852753   -0.002721404655126513
-0.08450909986792968   -0.006438788117852753   -0.002721404655126513
-0.08450909986792968   -0.006438788117852753   -0.002721404655126513
-0.09176002710303331   -0.0015211075783632295   -0.0009562125429299004
-0.09176002710303331   -0.0015211075783632295   -0.0009562125429299004
-0.09176002710303331   -0.0015211075783632295   -0.0009562125429299004
-0.09176002710303331   -0.0015211075783632295   -0.0009562125429299004
-0.029064547870056447   -0.0017777804214034213   -0.007478363500989214
-0.029064547870056447   -0.0017777804214034213   -0.007478363500989214
-0.029064547870056447   -0.0017777804214034213   -0.007478363500989214
-0.029064547870056447   -0.0017777804214034213   -0.007478363500989214
-0.033798090199589084   0.005394210798834643   0.0032824243925624504
-0.033798090199589084   0.005394210798834643   0.0032824243925624504
-0.033798090199589084   0.005394210798834643   0.0032824243925624504
-0.033798090199589084   0.005394210798834643   0.0032824243925624504
-0.03887215321335093   -0.0054702543298281005   -0.0052025168385884165
-0.03887215321335093   -0.0054702543298281005   -0.0052025168385884165
-0.03887215321335093   -0.0054702543298281005   -0.0052025168385884165
-0.03887215321335093   -0.0054702543298281005   -0.0052025168385884165
-0.03002577327177918   0.0037098701296741227   0.004710358338513389
-0.03002577327177918   0.0037098701296741227   0.004710358338513389
-0.03002577327177918   0.0037098701296741227   0.004710358338513389
-0.03002577327177918   0.0037098701296741227   0.004710358338513389
-0.031261877086075515   0.0011208348988007537   0.003354194775629776
-0.031261877086075515   0.0011208348988007537   0.003354194775629776
-0.031261877086075515   0.0011208348988007537   0.003354194775629776
-0.031261877086075515   0.0011208348988007537   0.003354194775629776
-0.033929116718227965   -0.004717034513248154   -0.006379454250807808
-0.033929116718227965   -0.004717034513248154   -0.006379454250807808
-0.033929116718227965   -0.004717034513248154   -0.006379454250807808
-0.033929116718227965   -0.004717034513248154   -0.006379454250807808
-0.03539922479810303   0.002526235281892728   0.004165635625930263
-0.03539922479810303   0.002526235281892728   0.004165635625930263
-0.03539922479810303   0.002526235281892728   0.004165635625930263
-0.03539922479810303   0.002526235281892728   0.004165635625930263
-0.04054143918079521   -0.0067801962259728486   -0.0044802494677573124
-0.04054143918079521   -0.0067801962259728486   -0.0044802494677573124
-0.04054143918079521   -0.0067801962259728486   -0.0044802494677573124
-0.04054143918079521   -0.0067801962259728486   -0.0044802494677573124
-0.03395332675916947   0.001982053676601977   0.009001935692696042
-0.03395332675916947   0.001982053676601977   0.009001935692696042
-0.03395332675916947   0.001982053676601977   0.009001935692696042
-0.03395332675916947   0.001982053676601977   0.009001935692696042
-0.0347345426155337   -0.0011070486757656043   0.0014393378986638616
-0.0347345426155337   -0.0011070486757656043   0.0014393378986638616
-0.0347345426155337   -0.0011070486757656043   0.0014393378986638616
-0.0347345426155337   -0.0011070486757656043   0.0014393378986638616
-0.03846578966474782   -0.006487234550776183   -0.005091090607817548
-0.03846578966474782   -0.006487234550776183   -0.005091090607817548
-0.03846578966474782   -0.006487234550776183   -0.005091090607817548
-0.03846578966474782   -0.006487234550776183   -0.005091090607817548
-0.03712633598588218   0.000591732290739359   0.005223337990095662
-0.03712633598588218   0.000591732290739359   0.005223337990095662
-0.03712633598588218   0.000591732290739359   0.005223337990095662
-0.03712633598588218   0.000591732290739359   0.005223337990095662
-0.041937638428647304   -0.00917926652049705   -0.003597343460151442
-0.041937638428647304   -0.00917926652049705   -0.003597343460151442
-0.041937638428647304   -0.00917926652049705   -0.003597343460151442
-0.041937638428647304   -0.00917926652049705   -0.003597343460151442
-0.0399900033818062   -0.0037320675054351394   0.008383094523611693
-0.0399900033818062   -0.0037320675054351394   0.008383094523611693
-0.0399900033818062   -0.0037320675054351394   0.008383094523611693
-0.0399900033818062   -0.0037320675054351394   0.008383094523611693
-0.03805586377703944   -0.0037110559698762683   -0.0017209752716566202
-0.03805586377703944   -0.0037110559698762683   -0.0017209752716566202
-0.03805586377703944   -0.0037110559698762683   -0.0017209752716566202
-0.03805586377703944   -0.0037110559698762683   -0.0017209752716566202
-0.036373604660227085   -0.0004934840414960485   -0.0037074530702972505
-0.036373604660227085   -0.0004934840414960485   -0.0037074530702972505
-0.036373604660227085   -0.0004934840414960485   -0.0037074530702972505
-0.036373604660227085   -0.0004934840414960485   -0.0037074530702972505
-0.04062685200906383   -0.005143858488706865   -0.0002398083409291599
-0.04062685200906383   -0.005143858488706865   -0.0002398083409291599
-0.04062685200906383   -0.005143858488706865   -0.0002398083409291599
-0.04062685200906383   -0.005143858488706865   -0.0002398083409291599
-0.04119854835208569   -0.0035281725358991406   -0.002072773192018244
-0.04119854835208569   -0.0035281725358991406   -0.002072773192018244
-0.04119854835208569   -0.0035281725358991406   -0.002072773192018244
-0.04119854835208569   -0.0035281725358991406   -0.002072773192018244
-0.03797069815228153   -0.006278797087772132   0.00011330122470260603
-0.03797069815228153   -0.006278797087772132   0.00011330122470260603
-0.03797069815228153   -0.006278797087772132   0.00011330122470260603
-0.03797069815228153   -0.006278797087772132   0.00011330122470260603
-0.03872405946163762   -0.004036456190876893   9.645629891989575e-05
-0.03872405946163762   -0.004036456190876893   9.645629891989575e-05
-0.03872405946163762   -0.004036456190876893   9.645629891989575e-05
-0.03872405946163762   -0.004036456190876893   9.645629891989575e-05
-0.03801117403670902   -0.0031247650762179745   -0.003243110208989087
-0.03801117403670902   -0.0031247650762179745   -0.003243110208989087
-0.03801117403670902   -0.0031247650762179745   -0.003243110208989087
-0.03801117403670902   -0.0031247650762179745   -0.003243110208989087
-0.04142004243188687   -0.0069441745116820604   0.00023575838475830332
-0.04142004243188687   -0.0069441745116820604   0.00023575838475830332
-0.04142004243188687   -0.0069441745116820604   0.00023575838475830332
-0.04142004243188687   -0.0069441745116820604   0.00023575838475830332
-0.042129446707539486   -0.005720456345446467   -0.0014145039328385387
-0.042129446707539486   -0.005720456345446467   -0.0014145039328385387
-0.042129446707539486   -0.005720456345446467   -0.0014145039328385387
-0.042129446707539486   -0.005720456345446467   -0.0014145039328385387
-0.039720365449140774   -0.008292697895668446   0.0011376208602104786
-0.039720365449140774   -0.008292697895668446   0.0011376208602104786
-0.039720365449140774   -0.008292697895668446   0.0011376208602104786
-0.039720365449140774   -0.008292697895668446   0.0011376208602104786
-0.03991545445971398   -0.005849885433825705   -0.0009760544848969765
-0.03991545445971398   -0.005849885433825705   -0.0009760544848969765
-0.03991545445971398   -0.005849885433825705   -0.0009760544848969765
-0.03991545445971398   -0.005849885433825705   -0.0009760544848969765
-0.0398730635710806   -0.005474993717181999   -0.0024435739279750836
-0.0398730635710806   -0.005474993717181999   -0.0024435739279750836
-0.0398730635710806   -0.005474993717181999   -0.0024435739279750836
-0.0398730635710806   -0.005474993717181999   -0.0024435739279750836
-0.04230820973397605   -0.008869621672309386   0.0008408462618410556
-0.04230820973397605   -0.008869621672309386   0.0008408462618410556
-0.04230820973397605   -0.008869621672309386   0.0008408462618410556
-0.04230820973397605   -0.008869621672309386   0.0008408462618410556
-0.042999188494550776   -0.008002083641350041   -0.0007687545613335018
-0.042999188494550776   -0.008002083641350041   -0.0007687545613335018
-0.042999188494550776   -0.008002083641350041   -0.0007687545613335018
-0.042999188494550776   -0.008002083641350041   -0.0007687545613335018
-0.04109491093175635   -0.010728540865805656   0.0021655683696118234
-0.04109491093175635   -0.010728540865805656   0.0021655683696118234
-0.04109491093175635   -0.010728540865805656   0.0021655683696118234
-0.04109491093175635   -0.010728540865805656   0.0021655683696118234
-0.04142273811323814   -0.00792527998012648   -0.002289220191939635
-0.04142273811323814   -0.00792527998012648   -0.002289220191939635
-0.04142273811323814   -0.00792527998012648   -0.002289220191939635
-0.04142273811323814   -0.00792527998012648   -0.002289220191939635
-0.03939272359351845   0.0014941241510136385   -0.0007071489029222278
-0.03939272359351845   0.0014941241510136385   -0.0007071489029222278
-0.03939272359351845   0.0014941241510136385   -0.0007071489029222278
-0.03939272359351845   0.0014941241510136385   -0.0007071489029222278
-0.04773693171577699   -0.00910270656293543   -0.002372142095168976
-0.04773693171577699   -0.00910270656293543   -0.002372142095168976
-0.04773693171577699   -0.00910270656293543   -0.002372142095168976
-0.04773693171577699   -0.00910270656293543   -0.002372142095168976
-0.04603991428467853   -0.0017680113115709634   0.0004386553238331279
-0.04603991428467853   -0.0017680113115709634   0.0004386553238331279
-0.04603991428467853   -0.0017680113115709634   0.0004386553238331279
-0.04603991428467853   -0.0017680113115709634   0.0004386553238331279
-0.04218256407267309   -0.009165704395787668   -0.0013553199350671593
-0.04218256407267309   -0.009165704395787668   -0.0013553199350671593
-0.04218256407267309   -0.009165704395787668   -0.0013553199350671593
-0.04218256407267309   -0.009165704395787668   -0.0013553199350671593
-0.04380522938278941   -0.0047920010033319655   -0.0008511120968227354
-0.04380522938278941   -0.0047920010033319655   -0.0008511120968227354
-0.04380522938278941   -0.0047920010033319655   -0.0008511120968227354
-0.04380522938278941   -0.0047920010033319655   -0.0008511120968227354
-0.04022381101879214   -0.0006983112795419435   -2.894778190816504e-05
-0.04022381101879214   -0.0006983112795419435   -2.894778190816504e-05
-0.04022381101879214   -0.0006983112795419435   -2.894778190816504e-05
-0.04022381101879214   -0.0006983112795419435   -2.894778190816504e-05
-0.04824182744245244   -0.01047856453171013   -0.0018603572448981957
-0.04824182744245244   -0.01047856453171013   -0.0018603572448981957
-0.04824182744245244   -0.01047856453171013   -0.0018603572448981957
-0.04824182744245244   -0.01047856453171013   -0.0018603572448981957
-0.04677664731269541   -0.0039761235529123164   0.0010899942729349506
-0.04677664731269541   -0.0039761235529123164   0.0010899942729349506
-0.04677664731269541   -0.0039761235529123164   0.0010899942729349506
-0.04677664731269541   -0.0039761235529123164   0.0010899942729349506
-0.043056043249049   -0.01088778009124609   -0.0008801628945869404
-0.043056043249049   -0.01088778009124609   -0.0008801628945869404
-0.043056043249049   -0.01088778009124609   -0.0008801628945869404
-0.043056043249049   -0.01088778009124609   -0.0008801628945869404
-0.04456287079492288   -0.006453334070993498   -0.0017725951797892606
-0.04456287079492288   -0.006453334070993498   -0.0017725951797892606
-0.04456287079492288   -0.006453334070993498   -0.0017725951797892606
-0.04456287079492288   -0.006453334070993498   -0.0017725951797892606
-0.041171419912956524   -0.0029517018238546383   0.0006068755184844544
-0.041171419912956524   -0.0029517018238546383   0.0006068755184844544
-0.041171419912956524   -0.0029517018238546383   0.0006068755184844544
-0.041171419912956524   -0.0029517018238546383   0.0006068755184844544
-0.04893321511955855   -0.012184146291074359   -0.0014848220232187318
-0.04893321511955855   -0.012184146291074359   -0.0014848220232187318
-0.04893321511955855   -0.012184146291074359   -0.0014848220232187318
-0.04893321511955855   -0.012184146291074359   -0.0014848220232187318
-0.04741770318531068   -0.006022437171524808   0.0017375729749391294
-0.04741770318531068   -0.006022437171524808   0.0017375729749391294
-0.04741770318531068   -0.006022437171524808   0.0017375729749391294
-0.04741770318531068   -0.006022437171524808   0.0017375729749391294
-0.043776969328420574   -0.012483967541205464   -0.00017577483082705458
-0.043776969328420574   -0.012483967541205464   -0.00017577483082705458
-0.043776969328420574   -0.012483967541205464   -0.00017577483082705458
-0.043776969328420574   -0.012483967541205464   -0.00017577483082705458
-0.04543439975175583   -0.00817989472233441   -0.0027817131488110567
-0.04543439975175583   -0.00817989472233441   -0.0027817131488110567
-0.04543439975175583   -0.00817989472233441   -0.0027817131488110567
-0.04543439975175583   -0.00817989472233441   -0.0027817131488110567
-0.04405163664594223   0.004801427980979002   0.002150198710090381
-0.04405163664594223   0.004801427980979002   0.002150198710090381
-0.04405163664594223   0.004801427980979002   0.002150198710090381
-0.04405163664594223   0.004801427980979002   0.002150198710090381
-0.05482460114030304   -0.00716801777204473   -0.0034289656464459124
-0.05482460114030304   -0.00716801777204473   -0.0034289656464459124
-0.05482460114030304   -0.00716801777204473   -0.0034289656464459124
-0.05482460114030304   -0.00716801777204473   -0.0034289656464459124
-0.05224825137406393   0.0010335150633177508   0.00284357617300897
-0.05224825137406393   0.0010335150633177508   0.00284357617300897
-0.05224825137406393   0.0010335150633177508   0.00284357617300897
-0.05224825137406393   0.0010335150633177508   0.00284357617300897
-0.04762856791654203   -0.007285580103600352   -0.0019870440434549795
-0.04762856791654203   -0.007285580103600352   -0.0019870440434549795
-0.04762856791654203   -0.007285580103600352   -0.0019870440434549795
-0.04762856791654203   -0.007285580103600352   -0.0019870440434549795
-0.04963830215440551   -0.0021154013546882365   -0.000504814023727426
-0.04963830215440551   -0.0021154013546882365   -0.000504814023727426
-0.04963830215440551   -0.0021154013546882365   -0.000504814023727426
-0.04963830215440551   -0.0021154013546882365   -0.000504814023727426
-0.044705881610816296   0.002534529381400131   0.00280627800017324
-0.044705881610816296   0.002534529381400131   0.00280627800017324
-0.044705881610816296   0.002534529381400131   0.00280627800017324
-0.044705881610816296   0.002534529381400131   0.00280627800017324
-0.055500810202324426   -0.009116466944217489   -0.003269235960758274
-0.055500810202324426   -0.009116466944217489   -0.003269235960758274
-0.055500810202324426   -0.009116466944217489   -0.003269235960758274
-0.055500810202324426   -0.009116466944217489   -0.003269235960758274
-0.05336891878834618   -0.0011568519108700378   0.0032460614494665006
-0.05336891878834618   -0.0011568519108700378   0.0032460614494665006
-0.05336891878834618   -0.0011568519108700378   0.0032460614494665006
-0.05336891878834618   -0.0011568519108700378   0.0032460614494665006
-0.048298213389673876   -0.008931698447391051   -0.0015622612174786617
-0.048298213389673876   -0.008931698447391051   -0.0015622612174786617
-0.048298213389673876   -0.008931698447391051   -0.0015622612174786617
-0.048298213389673876   -0.008931698447391051   -0.0015622612174786617
-0.05028835169033865   -0.003936594266502077   -0.0015928330538393753
-0.05028835169033865   -0.003936594266502077   -0.0015928330538393753
-0.05028835169033865   -0.003936594266502077   -0.0015928330538393753
-0.05028835169033865   -0.003936594266502077   -0.0015928330538393753
-0.04541787922877456   0.0004714049492296566   0.0034363061903971972
-0.04541787922877456   0.0004714049492296566   0.0034363061903971972
-0.04541787922877456   0.0004714049492296566   0.0034363061903971972
-0.04541787922877456   0.0004714049492296566   0.0034363061903971972
-0.056533644782035875   -0.010844347140281771   -0.0028900732895702596
-0.056533644782035875   -0.010844347140281771   -0.0028900732895702596
-0.056533644782035875   -0.010844347140281771   -0.0028900732895702596
-0.056533644782035875   -0.010844347140281771   -0.0028900732895702596
-0.05416702153977181   -0.0032869503463028625   0.003977378564815049
-0.05416702153977181   -0.0032869503463028625   0.003977378564815049
-0.05416702153977181   -0.0032869503463028625   0.003977378564815049
-0.05416702153977181   -0.0032869503463028625   0.003977378564815049
-0.04891254307540676   -0.010596004409077918   -0.0011630592379890906
-0.04891254307540676   -0.010596004409077918   -0.0011630592379890906
-0.04891254307540676   -0.010596004409077918   -0.0011630592379890906
-0.04891254307540676   -0.010596004409077918   -0.0011630592379890906
-0.0513224513113425   -0.005696997383338143   -0.002663638900429643
-0.0513224513113425   -0.005696997383338143   -0.002663638900429643
-0.0513224513113425   -0.005696997383338143   -0.002663638900429643
-0.0513224513113425   -0.005696997383338143   -0.002663638900429643
-0.05044605546050585   0.006915360531197758   0.004380384449296586
-0.05044605546050585   0.006915360531197758   0.004380384449296586
-0.05044605546050585   0.006915360531197758   0.004380384449296586
-0.05044605546050585   0.006915360531197758   0.004380384449296586
-0.05723068416283064   -0.00464187123834583   -0.00486191706849024
-0.05723068416283064   -0.00464187123834583   -0.00486191706849024
-0.05723068416283064   -0.00464187123834583   -0.00486191706849024
-0.05723068416283064   -0.00464187123834583   -0.00486191706849024
-0.056346607110764536   0.00433628494248707   0.004887288465334925
-0.056346607110764536   0.00433628494248707   0.004887288465334925
-0.056346607110764536   0.00433628494248707   0.004887288465334925
-0.056346607110764536   0.00433628494248707   0.004887288465334925
-0.05463985074844518   -0.00510207801826261   -0.0029788276173179163
-0.05463985074844518   -0.00510207801826261   -0.0029788276173179163
-0.05463985074844518   -0.00510207801826261   -0.0029788276173179163
-0.05463985074844518   -0.00510207801826261   -0.0029788276173179163
-0.05269874926914974   0.0010432350922944377   0.0004662985771887091
-0.05269874926914974   0.0010432350922944377   0.0004662985771887091
-0.05269874926914974   0.0010432350922944377   0.0004662985771887091
-0.05269874926914974   0.0010432350922944377   0.0004662985771887091
-0.05092092061789801   0.005455594626186888   0.005058150390967497
-0.05092092061789801   0.005455594626186888   0.005058150390967497
-0.05092092061789801   0.005455594626186888   0.005058150390967497
-0.05092092061789801   0.005455594626186888   0.005058150390967497
-0.06035050025996495   -0.006506350720615825   -0.004289541617564236
-0.06035050025996495   -0.006506350720615825   -0.004289541617564236
-0.06035050025996495   -0.006506350720615825   -0.004289541617564236
-0.06035050025996495   -0.006506350720615825   -0.004289541617564236
-0.058818076216775796   0.00305644181529925   0.006247886702056171
-0.058818076216775796   0.00305644181529925   0.006247886702056171
-0.058818076216775796   0.00305644181529925   0.006247886702056171
-0.058818076216775796   0.00305644181529925   0.006247886702056171
-0.055540218045499086   -0.006094552172182748   -0.002672734574986271
-0.055540218045499086   -0.006094552172182748   -0.002672734574986271
-0.055540218045499086   -0.006094552172182748   -0.002672734574986271
-0.055540218045499086   -0.006094552172182748   -0.002672734574986271
-0.05539950107745373   -0.00048320978267445483   -0.0008920741930420993
-0.05539950107745373   -0.00048320978267445483   -0.0008920741930420993
-0.05539950107745373   -0.00048320978267445483   -0.0008920741930420993
-0.05539950107745373   -0.00048320978267445483   -0.0008920741930420993
-0.051696775034440895   0.004434258644150124   0.006015669663971804
-0.051696775034440895   0.004434258644150124   0.006015669663971804
-0.051696775034440895   0.004434258644150124   0.006015669663971804
-0.051696775034440895   0.004434258644150124   0.006015669663971804
-0.06301317209862783   -0.00782402187182651   -0.0038471290200763385
-0.06301317209862783   -0.00782402187182651   -0.0038471290200763385
-0.06301317209862783   -0.00782402187182651   -0.0038471290200763385
-0.06301317209862783   -0.00782402187182651   -0.0038471290200763385
-0.06289937478490668   -0.0002423544859350684   0.006651038421438909
-0.06289937478490668   -0.0002423544859350684   0.006651038421438909
-0.06289937478490668   -0.0002423544859350684   0.006651038421438909
-0.06289937478490668   -0.0002423544859350684   0.006651038421438909
-0.05638540078936506   -0.008091594138729384   -0.0023098738907256313
-0.05638540078936506   -0.008091594138729384   -0.0023098738907256313
-0.05638540078936506   -0.008091594138729384   -0.0023098738907256313
-0.05638540078936506   -0.008091594138729384   -0.0023098738907256313
-0.05666172667573473   -0.0019323044629646884   -0.0020673134161849024
-0.05666172667573473   -0.0019323044629646884   -0.0020673134161849024
-0.05666172667573473   -0.0019323044629646884   -0.0020673134161849024
-0.05666172667573473   -0.0019323044629646884   -0.0020673134161849024
-0.08992473038819987   -0.008426962020355729   -0.009696799514776727
-0.08992473038819987   -0.008426962020355729   -0.009696799514776727
-0.08992473038819987   -0.008426962020355729   -0.009696799514776727
-0.08992473038819987   -0.008426962020355729   -0.009696799514776727
-0.05967849361171871   0.004096686200678601   0.002203097323494648
-0.05967849361171871   0.004096686200678601   0.002203097323494648
-0.05967849361171871   0.004096686200678601   0.002203097323494648
-0.05967849361171871   0.004096686200678601   0.002203097323494648
-0.0629569931206187   -0.004733422060498477   -0.004574882763510094
-0.0629569931206187   -0.004733422060498477   -0.004574882763510094
-0.0629569931206187   -0.004733422060498477   -0.004574882763510094
-0.0629569931206187   -0.004733422060498477   -0.004574882763510094
-0.0969719398020375   -0.012354083616515516   0.010269222818493393
-0.0969719398020375   -0.012354083616515516   0.010269222818493393
-0.0969719398020375   -0.012354083616515516   0.010269222818493393
-0.0969719398020375   -0.012354083616515516   0.010269222818493393
-0.07081508490872492   -0.003178751537921694   0.010267927183368816
-0.07081508490872492   -0.003178751537921694   0.010267927183368816
-0.07081508490872492   -0.003178751537921694   0.010267927183368816
-0.07081508490872492   -0.003178751537921694   0.010267927183368816
-0.10056964642894338   -0.012796379129976271   -0.007277014802574375
-0.10056964642894338   -0.012796379129976271   -0.007277014802574375
-0.10056964642894338   -0.012796379129976271   -0.007277014802574375
-0.10056964642894338   -0.012796379129976271   -0.007277014802574375
-0.06192807912024302   -0.006859919173567781   0.0026961843514375808
-0.06192807912024302   -0.006859919173567781   0.0026961843514375808
-0.06192807912024302   -0.006859919173567781   0.0026961843514375808
-0.06192807912024302   -0.006859919173567781   0.0026961843514375808
-0.06441416982991954   -0.006603148086926625   -0.003463230054196892
-0.06441416982991954   -0.006603148086926625   -0.003463230054196892
-0.06441416982991954   -0.006603148086926625   -0.003463230054196892
-0.06441416982991954   -0.006603148086926625   -0.003463230054196892
-0.10076295721614738   -0.017072120875657692   -0.0001281255019838092
-0.10076295721614738   -0.017072120875657692   -0.0001281255019838092
-0.10076295721614738   -0.017072120875657692   -0.0001281255019838092
-0.10076295721614738   -0.017072120875657692   -0.0001281255019838092
-0.0793909340079874   -0.01028666925344883   0.0025073470926568414
-0.0793909340079874   -0.01028666925344883   0.0025073470926568414
-0.0793909340079874   -0.01028666925344883   0.0025073470926568414
-0.0793909340079874   -0.01028666925344883   0.0025073470926568414
-0.10144216421431121   -0.014529464355547951   -0.006066817012911855
-0.10144216421431121   -0.014529464355547951   -0.006066817012911855
-0.10144216421431121   -0.014529464355547951   -0.006066817012911855
-0.10144216421431121   -0.014529464355547951   -0.006066817012911855
-0.064464494733825   -0.009875336509105586   -0.00044266615154566
-0.064464494733825   -0.009875336509105586   -0.00044266615154566
-0.064464494733825   -0.009875336509105586   -0.00044266615154566
-0.064464494733825   -0.009875336509105586   -0.00044266615154566
-0.06491116141058845   -0.010920117423450643   -0.00263599703768357
-0.06491116141058845   -0.010920117423450643   -0.00263599703768357
-0.06491116141058845   -0.010920117423450643   -0.00263599703768357
-0.06491116141058845   -0.010920117423450643   -0.00263599703768357
-0.10403754172020431   -0.02574981791981562   0.001135285888991181
-0.10403754172020431   -0.02574981791981562   0.001135285888991181
-0.10403754172020431   -0.02574981791981562   0.001135285888991181
-0.10403754172020431   -0.02574981791981562   0.001135285888991181
-0.07986034372351516   -0.014024044559752168   0.000352832664566048
-0.07986034372351516   -0.014024044559752168   0.000352832664566048
-0.07986034372351516   -0.014024044559752168   0.000352832664566048
-0.07986034372351516   -0.014024044559752168   0.000352832664566048
-0.06437809094783575   -0.011071487699631438   -0.006126715456780085
-0.06437809094783575   -0.011071487699631438   -0.006126715456780085
-0.06437809094783575   -0.011071487699631438   -0.006126715456780085
-0.06437809094783575   -0.011071487699631438   -0.006126715456780085
-0.04633513341214987   -0.032339937478563605   -0.005948511965076538
-0.04633513341214987   -0.032339937478563605   -0.005948511965076538
-0.04633513341214987   -0.032339937478563605   -0.005948511965076538
-0.04633513341214987   -0.032339937478563605   -0.005948511965076538
-0.04056247031770219   -0.0069369206528952995   -0.0005855444354945055
-0.04056247031770219   -0.0069369206528952995   -0.0005855444354945055
-0.04056247031770219   -0.0069369206528952995   -0.0005855444354945055
-0.04056247031770219   -0.0069369206528952995   -0.0005855444354945055
-0.06927874789525582   -0.0336506566032047   -0.007266422093989432
-0.06927874789525582   -0.0336506566032047   -0.007266422093989432
-0.06927874789525582   -0.0336506566032047   -0.007266422093989432
-0.06927874789525582   -0.0336506566032047   -0.007266422093989432
-0.05455077666222582   -0.02214855942228821   -0.0016532514881768016
-0.05455077666222582   -0.02214855942228821   -0.0016532514881768016
-0.05455077666222582   -0.02214855942228821   -0.0016532514881768016
-0.05455077666222582   -0.02214855942228821   -0.0016532514881768016
-0.06454122577676437   -0.01255121373213015   -0.004678254372606563
-0.06454122577676437   -0.01255121373213015   -0.004678254372606563
-0.06454122577676437   -0.01255121373213015   -0.004678254372606563
-0.06454122577676437   -0.01255121373213015   -0.004678254372606563
-0.045550261311206174   -0.028286632398982443   -0.004174787656927782
-0.045550261311206174   -0.028286632398982443   -0.004174787656927782
-0.045550261311206174   -0.028286632398982443   -0.004174787656927782
-0.045550261311206174   -0.028286632398982443   -0.004174787656927782
-0.04145423190623591   -0.008899421125713115   -0.0001621288329177283
-0.04145423190623591   -0.008899421125713115   -0.0001621288329177283
-0.04145423190623591   -0.008899421125713115   -0.0001621288329177283
-0.04145423190623591   -0.008899421125713115   -0.0001621288329177283
-0.06993485363947377   -0.03344717539266674   -0.004222621796228361
-0.06993485363947377   -0.03344717539266674   -0.004222621796228361
-0.06993485363947377   -0.03344717539266674   -0.004222621796228361
-0.06993485363947377   -0.03344717539266674   -0.004222621796228361
-0.05423746402862355   -0.02075063721400856   -0.0017614884948231116
-0.05423746402862355   -0.02075063721400856   -0.0017614884948231116
-0.05423746402862355   -0.02075063721400856   -0.0017614884948231116
-0.05423746402862355   -0.02075063721400856   -0.0017614884948231116
-0.06601374084876042   -0.014493119828916705   -0.003571113406411176
-0.06601374084876042   -0.014493119828916705   -0.003571113406411176
-0.06601374084876042   -0.014493119828916705   -0.003571113406411176
-0.06601374084876042   -0.014493119828916705   -0.003571113406411176
-0.045933714475756386   -0.028411846468270274   -0.003047116337963416
-0.045933714475756386   -0.028411846468270274   -0.003047116337963416
-0.045933714475756386   -0.028411846468270274   -0.003047116337963416
-0.045933714475756386   -0.028411846468270274   -0.003047116337963416
-0.041931148829183536   -0.011240484962251218   0.0004420857848112023
-0.041931148829183536   -0.011240484962251218   0.0004420857848112023
-0.041931148829183536   -0.011240484962251218   0.0004420857848112023
-0.041931148829183536   -0.011240484962251218   0.0004420857848112023
-0.070211766341405   -0.033701738286647714   -0.006357400828570085
-0.070211766341405   -0.033701738286647714   -0.006357400828570085
-0.070211766341405   -0.033701738286647714   -0.006357400828570085
-0.070211766341405   -0.033701738286647714   -0.006357400828570085
-0.05553215128215165   -0.022222684695481807   -0.003319901043676214
-0.05553215128215165   -0.022222684695481807   -0.003319901043676214
-0.05553215128215165   -0.022222684695481807   -0.003319901043676214
-0.05553215128215165   -0.022222684695481807   -0.003319901043676214
-0.04024342559328028   -0.00724629915771759   -0.0005836111915745708
-0.04024342559328028   -0.00724629915771759   -0.0005836111915745708
-0.04024342559328028   -0.00724629915771759   -0.0005836111915745708
-0.04024342559328028   -0.00724629915771759   -0.0005836111915745708
-0.03589541256809999   -0.02518916931215789   -0.004342813485334114
-0.03589541256809999   -0.02518916931215789   -0.004342813485334114
-0.03589541256809999   -0.02518916931215789   -0.004342813485334114
-0.03589541256809999   -0.02518916931215789   -0.004342813485334114
-0.031034891163297097   -0.006361817043037732   0.0015164439193065316
-0.031034891163297097   -0.006361817043037732   0.0015164439193065316
-0.031034891163297097   -0.006361817043037732   0.0015164439193065316
-0.031034891163297097   -0.006361817043037732   0.0015164439193065316
-0.04535620762960417   -0.026838676945871255   -0.004652474702028952
-0.04535620762960417   -0.026838676945871255   -0.004652474702028952
-0.04535620762960417   -0.026838676945871255   -0.004652474702028952
-0.04535620762960417   -0.026838676945871255   -0.004652474702028952
-0.03799354890665271   -0.016562991141028254   -0.001964372400156755
-0.03799354890665271   -0.016562991141028254   -0.001964372400156755
-0.03799354890665271   -0.016562991141028254   -0.001964372400156755
-0.03799354890665271   -0.016562991141028254   -0.001964372400156755
-0.0407726208391289   -0.008606079417641811   3.286172211794096e-05
-0.0407726208391289   -0.008606079417641811   3.286172211794096e-05
-0.0407726208391289   -0.008606079417641811   3.286172211794096e-05
-0.0407726208391289   -0.008606079417641811   3.286172211794096e-05
-0.03585639946533462   -0.024832336082829434   -0.004120578551089399
-0.03585639946533462   -0.024832336082829434   -0.004120578551089399
-0.03585639946533462   -0.024832336082829434   -0.004120578551089399
-0.03585639946533462   -0.024832336082829434   -0.004120578551089399
-0.03144675565655555   -0.007990641656359758   0.0019962416873512802
-0.03144675565655555   -0.007990641656359758   0.0019962416873512802
-0.03144675565655555   -0.007990641656359758   0.0019962416873512802
-0.03144675565655555   -0.007990641656359758   0.0019962416873512802
-0.04590117355726137   -0.027257178822846888   -0.004039079390911718
-0.04590117355726137   -0.027257178822846888   -0.004039079390911718
-0.04590117355726137   -0.027257178822846888   -0.004039079390911718
-0.04590117355726137   -0.027257178822846888   -0.004039079390911718
-0.03826843393595935   -0.01712112249827398   -0.0025592343982793067
-0.03826843393595935   -0.01712112249827398   -0.0025592343982793067
-0.03826843393595935   -0.01712112249827398   -0.0025592343982793067
-0.03826843393595935   -0.01712112249827398   -0.0025592343982793067
-0.041553281660405374   -0.01026879578374642   0.0007119970542677932
-0.041553281660405374   -0.01026879578374642   0.0007119970542677932
-0.041553281660405374   -0.01026879578374642   0.0007119970542677932
-0.041553281660405374   -0.01026879578374642   0.0007119970542677932
-0.03593156274709611   -0.02511593988914494   -0.0033024955325662887
-0.03593156274709611   -0.02511593988914494   -0.0033024955325662887
-0.03593156274709611   -0.02511593988914494   -0.0033024955325662887
-0.03593156274709611   -0.02511593988914494   -0.0033024955325662887
-0.03153053215236365   -0.009492725389730878   0.0025339987504889444
-0.03153053215236365   -0.009492725389730878   0.0025339987504889444
-0.03153053215236365   -0.009492725389730878   0.0025339987504889444
-0.03153053215236365   -0.009492725389730878   0.0025339987504889444
-0.045836486701729705   -0.02748315587555608   -0.0028419326646152545
-0.045836486701729705   -0.02748315587555608   -0.0028419326646152545
-0.045836486701729705   -0.02748315587555608   -0.0028419326646152545
-0.045836486701729705   -0.02748315587555608   -0.0028419326646152545
-0.038601588711128225   -0.017923998662449595   -0.0030328879347803085
-0.038601588711128225   -0.017923998662449595   -0.0030328879347803085
-0.038601588711128225   -0.017923998662449595   -0.0030328879347803085
-0.038601588711128225   -0.017923998662449595   -0.0030328879347803085
-0.02957710635792418   -0.0008506800296687904   0.0029102282830549145
-0.02957710635792418   -0.0008506800296687904   0.0029102282830549145
-0.02957710635792418   -0.0008506800296687904   0.0029102282830549145
-0.02957710635792418   -0.0008506800296687904   0.0029102282830549145
-0.03012136195585858   -0.013772379442166863   -0.0027977170471709385
-0.03012136195585858   -0.013772379442166863   -0.0027977170471709385
-0.03012136195585858   -0.013772379442166863   -0.0027977170471709385
-0.03012136195585858   -0.013772379442166863   -0.0027977170471709385
-0.02636292913989173   -0.0019746344562189965   0.003302045416801497
-0.02636292913989173   -0.0019746344562189965   0.003302045416801497
-0.02636292913989173   -0.0019746344562189965   0.003302045416801497
-0.02636292913989173   -0.0019746344562189965   0.003302045416801497
-0.033516429372905235   -0.015353234323256908   -0.0018998298485149914
-0.033516429372905235   -0.015353234323256908   -0.0018998298485149914
-0.033516429372905235   -0.015353234323256908   -0.0018998298485149914
-0.033516429372905235   -0.015353234323256908   -0.0018998298485149914
-0.02997688299921346   -0.007878445917117931   -0.0010892241931525796
-0.02997688299921346   -0.007878445917117931   -0.0010892241931525796
-0.02997688299921346   -0.007878445917117931   -0.0010892241931525796
-0.02997688299921346   -0.007878445917117931   -0.0010892241931525796
-0.029928334087741683   -0.002675535065283428   0.0033629473193292955
-0.029928334087741683   -0.002675535065283428   0.0033629473193292955
-0.029928334087741683   -0.002675535065283428   0.0033629473193292955
-0.029928334087741683   -0.002675535065283428   0.0033629473193292955
-0.030227221635115445   -0.014928530924252637   -0.003065520591283433
-0.030227221635115445   -0.014928530924252637   -0.003065520591283433
-0.030227221635115445   -0.014928530924252637   -0.003065520591283433
-0.030227221635115445   -0.014928530924252637   -0.003065520591283433
-0.026782709289474484   -0.0036006352726295826   0.0035775505561292833
-0.026782709289474484   -0.0036006352726295826   0.0035775505561292833
-0.026782709289474484   -0.0036006352726295826   0.0035775505561292833
-0.026782709289474484   -0.0036006352726295826   0.0035775505561292833
-0.033917094356519475   -0.01631653596339049   -0.0020295575054385955
-0.033917094356519475   -0.01631653596339049   -0.0020295575054385955
-0.033917094356519475   -0.01631653596339049   -0.0020295575054385955
-0.033917094356519475   -0.01631653596339049   -0.0020295575054385955
-0.03019958186615634   -0.009148586601219517   -0.001884947081469765
-0.03019958186615634   -0.009148586601219517   -0.001884947081469765
-0.03019958186615634   -0.009148586601219517   -0.001884947081469765
-0.03019958186615634   -0.009148586601219517   -0.001884947081469765
-0.03033679331057448   -0.004263233196580049   0.003818644957476945
-0.03033679331057448   -0.004263233196580049   0.003818644957476945
-0.03033679331057448   -0.004263233196580049   0.003818644957476945
-0.03033679331057448   -0.004263233196580049   0.003818644957476945
-0.030532093703443012   -0.01582302140746323   -0.00294698537887972
-0.030532093703443012   -0.01582302140746323   -0.00294698537887972
-0.030532093703443012   -0.01582302140746323   -0.00294698537887972
-0.030532093703443012   -0.01582302140746323   -0.00294698537887972
-0.026969184128309488   -0.0051420657481399705   0.004163275119603367
-0.026969184128309488   -0.0051420657481399705   0.004163275119603367
-0.026969184128309488   -0.0051420657481399705   0.004163275119603367
-0.026969184128309488   -0.0051420657481399705   0.004163275119603367
-0.03385090127554576   -0.017247830828937685   -0.0013127414262148014
-0.03385090127554576   -0.017247830828937685   -0.0013127414262148014
-0.03385090127554576   -0.017247830828937685   -0.0013127414262148014
-0.03385090127554576   -0.017247830828937685   -0.0013127414262148014
-0.030547712134623255   -0.010311006637139334   -0.002491407204789191
-0.030547712134623255   -0.010311006637139334   -0.002491407204789191
-0.030547712134623255   -0.010311006637139334   -0.002491407204789191
-0.030547712134623255   -0.010311006637139334   -0.002491407204789191
-0.025134212080006137   0.003685780974918335   0.004679871915006082
-0.025134212080006137   0.003685780974918335   0.004679871915006082
-0.025134212080006137   0.003685780974918335   0.004679871915006082
-0.025134212080006137   0.003685780974918335   0.004679871915006082
-0.019639849143846384   -0.0048545782742139745   -0.0018653213439445181
-0.019639849143846384   -0.0048545782742139745   -0.0018653213439445181
-0.019639849143846384   -0.0048545782742139745   -0.0018653213439445181
-0.019639849143846384   -0.0048545782742139745   -0.0018653213439445181
-0.017958993497336536   0.0037646021019565132   0.004673715732669049
-0.017958993497336536   0.0037646021019565132   0.004673715732669049
-0.017958993497336536   0.0037646021019565132   0.004673715732669049
-0.017958993497336536   0.0037646021019565132   0.004673715732669049
-0.028169286318994152   -0.006709624086304091   -0.0009947508486255164
-0.028169286318994152   -0.006709624086304091   -0.0009947508486255164
-0.028169286318994152   -0.006709624086304091   -0.0009947508486255164
-0.028169286318994152   -0.006709624086304091   -0.0009947508486255164
-0.022292929344935278   -0.0005337125297005399   -0.0006766451810935688
-0.022292929344935278   -0.0005337125297005399   -0.0006766451810935688
-0.022292929344935278   -0.0005337125297005399   -0.0006766451810935688
-0.022292929344935278   -0.0005337125297005399   -0.0006766451810935688
-0.02512160227905356   0.0024201218766949743   0.00511392338807838
-0.02512160227905356   0.0024201218766949743   0.00511392338807838
-0.02512160227905356   0.0024201218766949743   0.00511392338807838
-0.02512160227905356   0.0024201218766949743   0.00511392338807838
-0.021063660936431982   -0.005422127260197408   -0.001662892100654269
-0.021063660936431982   -0.005422127260197408   -0.001662892100654269
-0.021063660936431982   -0.005422127260197408   -0.001662892100654269
-0.021063660936431982   -0.005422127260197408   -0.001662892100654269
-0.019054632738316226   0.0029075960525300135   0.005852421241394676
-0.019054632738316226   0.0029075960525300135   0.005852421241394676
-0.019054632738316226   0.0029075960525300135   0.005852421241394676
-0.019054632738316226   0.0029075960525300135   0.005852421241394676
-0.028451747463145168   -0.007202963344012376   -0.0011653122408413433
-0.028451747463145168   -0.007202963344012376   -0.0011653122408413433
-0.028451747463145168   -0.007202963344012376   -0.0011653122408413433
-0.028451747463145168   -0.007202963344012376   -0.0011653122408413433
-0.02338095244964089   -0.0014583756835759108   -0.0011817525512885147
-0.02338095244964089   -0.0014583756835759108   -0.0011817525512885147
-0.02338095244964089   -0.0014583756835759108   -0.0011817525512885147
-0.02338095244964089   -0.0014583756835759108   -0.0011817525512885147
-0.02527189053830281   0.00166655171010448   0.005864457329253593
-0.02527189053830281   0.00166655171010448   0.005864457329253593
-0.02527189053830281   0.00166655171010448   0.005864457329253593
-0.02527189053830281   0.00166655171010448   0.005864457329253593
-0.022452661333851983   -0.006180090672280242   -0.0020500350114738587
-0.022452661333851983   -0.006180090672280242   -0.0020500350114738587
-0.022452661333851983   -0.006180090672280242   -0.0020500350114738587
-0.022452661333851983   -0.006180090672280242   -0.0020500350114738587
-0.02165426572877778   0.0005359364345677024   0.0060966439151725164
-0.02165426572877778   0.0005359364345677024   0.0060966439151725164
-0.02165426572877778   0.0005359364345677024   0.0060966439151725164
-0.02165426572877778   0.0005359364345677024   0.0060966439151725164
-0.028515640645754483   -0.007776652274926818   -0.000934420940834762
-0.028515640645754483   -0.007776652274926818   -0.000934420940834762
-0.028515640645754483   -0.007776652274926818   -0.000934420940834762
-0.028515640645754483   -0.007776652274926818   -0.000934420940834762
-0.024061638115909858   -0.002202657435002277   -0.0018594550420756978
-0.024061638115909858   -0.002202657435002277   -0.0018594550420756978
-0.024061638115909858   -0.002202657435002277   -0.0018594550420756978
-0.024061638115909858   -0.002202657435002277   -0.0018594550420756978
-0.22792988680161802   -0.03404637695169177   -0.02026082524845785
-0.22792988680161802   -0.03404637695169177   -0.02026082524845785
-0.22792988680161802   -0.03404637695169177   -0.02026082524845785
-0.22792988680161802   -0.03404637695169177   -0.02026082524845785
-0.08149638124191355   -0.146907588056923   -0.015493846318403587
-0.08149638124191355   -0.146907588056923   -0.015493846318403587
-0.08149638124191355   -0.146907588056923   -0.015493846318403587
-0.08149638124191355   -0.146907588056923   -0.015493846318403587
-0.06037117464454745   -0.007123677472247443   -0.00017951161765629485
-0.06037117464454745   -0.007123677472247443   -0.00017951161765629485
-0.06037117464454745   -0.007123677472247443   -0.00017951161765629485
-0.06037117464454745   -0.007123677472247443   -0.00017951161765629485
-0.248414462968789   -0.16871275803319236   -0.08342544420039627
-0.248414462968789   -0.16871275803319236   -0.08342544420039627
-0.248414462968789   -0.16871275803319236   -0.08342544420039627
-0.248414462968789   -0.16871275803319236   -0.08342544420039627
-0.1505940097777163   -0.08337136130700368   -0.012220174319586843
-0.1505940097777163   -0.08337136130700368   -0.012220174319586843
-0.1505940097777163   -0.08337136130700368   -0.012220174319586843
-0.1505940097777163   -0.08337136130700368   -0.012220174319586843
-0.21208942783103146   -0.04294502591247791   -0.027568000632324622
-0.21208942783103146   -0.04294502591247791   -0.027568000632324622
-0.21208942783103146   -0.04294502591247791   -0.027568000632324622
-0.21208942783103146   -0.04294502591247791   -0.027568000632324622
-0.08877407721405048   -0.1249692770247075   -0.02434842491271059
-0.08877407721405048   -0.1249692770247075   -0.02434842491271059
-0.08877407721405048   -0.1249692770247075   -0.02434842491271059
-0.08877407721405048   -0.1249692770247075   -0.02434842491271059
-0.0622683554995952   -0.008903700885306415   0.0022193727332194308
-0.0622683554995952   -0.008903700885306415   0.0022193727332194308
-0.0622683554995952   -0.008903700885306415   0.0022193727332194308
-0.0622683554995952   -0.008903700885306415   0.0022193727332194308
-0.2329118289482322   -0.15265603030893393   -0.07711357185143324
-0.2329118289482322   -0.15265603030893393   -0.07711357185143324
-0.2329118289482322   -0.15265603030893393   -0.07711357185143324
-0.2329118289482322   -0.15265603030893393   -0.07711357185143324
-0.14221856952190282   -0.07588028634097703   0.005212967347638972
-0.14221856952190282   -0.07588028634097703   0.005212967347638972
-0.14221856952190282   -0.07588028634097703   0.005212967347638972
-0.14221856952190282   -0.07588028634097703   0.005212967347638972
-0.1993424390499083   -0.04095576889646897   -0.020966883772280235
-0.1993424390499083   -0.04095576889646897   -0.020966883772280235
-0.1993424390499083   -0.04095576889646897   -0.020966883772280235
-0.1993424390499083   -0.04095576889646897   -0.020966883772280235
-0.08696380192093507   -0.11173001882078755   -0.01843154143799839
-0.08696380192093507   -0.11173001882078755   -0.01843154143799839
-0.08696380192093507   -0.11173001882078755   -0.01843154143799839
-0.08696380192093507   -0.11173001882078755   -0.01843154143799839
-0.07315043736431143   -0.020667095522499627   -0.004338206480321747
-0.07315043736431143   -0.020667095522499627   -0.004338206480321747
-0.07315043736431143   -0.020667095522499627   -0.004338206480321747
-0.07315043736431143   -0.020667095522499627   -0.004338206480321747
-0.21255691118106398   -0.13110235886773253   -0.0687318540097593
-0.21255691118106398   -0.13110235886773253   -0.0687318540097593
-0.21255691118106398   -0.13110235886773253   -0.0687318540097593
-0.21255691118106398   -0.13110235886773253   -0.0687318540097593
-0.1321626503669338   -0.06631388492270864   0.02511052972085724
-0.1321626503669338   -0.06631388492270864   0.02511052972085724
-0.1321626503669338   -0.06631388492270864   0.02511052972085724
-0.1321626503669338   -0.06631388492270864   0.02511052972085724
-0.05684114640689121   -0.034230408103783   -0.004894852096432157
-0.05684114640689121   -0.034230408103783   -0.004894852096432157
-0.05684114640689121   -0.034230408103783   -0.004894852096432157
-0.05684114640689121   -0.034230408103783   -0.004894852096432157
-0.028421672244421145   -0.05255905107075803   -0.007124095292716285
-0.028421672244421145   -0.05255905107075803   -0.007124095292716285
-0.028421672244421145   -0.05255905107075803   -0.007124095292716285
-0.028421672244421145   -0.05255905107075803   -0.007124095292716285
-0.023738323339747812   -0.023001583087793848   0.000438520927557807
-0.023738323339747812   -0.023001583087793848   0.000438520927557807
-0.023738323339747812   -0.023001583087793848   0.000438520927557807
-0.023738323339747812   -0.023001583087793848   0.000438520927557807
-0.07312196981658145   -0.07218309877343373   0.0011259338233606843
-0.07312196981658145   -0.07218309877343373   0.0011259338233606843
-0.07312196981658145   -0.07218309877343373   0.0011259338233606843
-0.07312196981658145   -0.07218309877343373   0.0011259338233606843
-0.03830564373219206   -0.03443531357917227   0.013031741307150606
-0.03830564373219206   -0.03443531357917227   0.013031741307150606
-0.03830564373219206   -0.03443531357917227   0.013031741307150606
-0.03830564373219206   -0.03443531357917227   0.013031741307150606
-0.06598055163928408   -0.032173123121608416   -0.0031769509419787463
-0.06598055163928408   -0.032173123121608416   -0.0031769509419787463
-0.06598055163928408   -0.032173123121608416   -0.0031769509419787463
-0.06598055163928408   -0.032173123121608416   -0.0031769509419787463
-0.03317998482721066   -0.06531180204978472   -0.004459567547765088
-0.03317998482721066   -0.06531180204978472   -0.004459567547765088
-0.03317998482721066   -0.06531180204978472   -0.004459567547765088
-0.03317998482721066   -0.06531180204978472   -0.004459567547765088
-0.026268634346754565   -0.023751702428880646   0.0005885237299829002
-0.026268634346754565   -0.023751702428880646   0.0005885237299829002
-0.026268634346754565   -0.023751702428880646   0.0005885237299829002
-0.026268634346754565   -0.023751702428880646   0.0005885237299829002
-0.07765144529859985   -0.07205811168535906   -0.011541665461750752
-0.07765144529859985   -0.07205811168535906   -0.011541665461750752
-0.07765144529859985   -0.07205811168535906   -0.011541665461750752
-0.07765144529859985   -0.07205811168535906   -0.011541665461750752
-0.046893436141583845   -0.04344469502240452   0.00537186857832778
-0.046893436141583845   -0.04344469502240452   0.00537186857832778
-0.046893436141583845   -0.04344469502240452   0.00537186857832778
-0.046893436141583845   -0.04344469502240452   0.00537186857832778
-0.06886564991255474   -0.033602475276178496   -0.006068324940706184
-0.06886564991255474   -0.033602475276178496   -0.006068324940706184
-0.06886564991255474   -0.033602475276178496   -0.006068324940706184
-0.06886564991255474   -0.033602475276178496   -0.006068324940706184
-0.03487240049268928   -0.06202530959795097   -0.004156699830620853
-0.03487240049268928   -0.06202530959795097   -0.004156699830620853
-0.03487240049268928   -0.06202530959795097   -0.004156699830620853
-0.03487240049268928   -0.06202530959795097   -0.004156699830620853
-0.030370842797651364   -0.024283862452000867   0.0008910548009114921
-0.030370842797651364   -0.024283862452000867   0.0008910548009114921
-0.030370842797651364   -0.024283862452000867   0.0008910548009114921
-0.030370842797651364   -0.024283862452000867   0.0008910548009114921
-0.08419888379214777   -0.07059581674493287   -0.009651717397069944
-0.08419888379214777   -0.07059581674493287   -0.009651717397069944
-0.08419888379214777   -0.07059581674493287   -0.009651717397069944
-0.08419888379214777   -0.07059581674493287   -0.009651717397069944
-0.049918111458319564   -0.04108427917692311   0.005566669316275275
-0.049918111458319564   -0.04108427917692311   0.005566669316275275
-0.049918111458319564   -0.04108427917692311   0.005566669316275275
-0.049918111458319564   -0.04108427917692311   0.005566669316275275
-0.020359776048697233   -0.02090684365681789   0.0015331782719631348
-0.020359776048697233   -0.02090684365681789   0.0015331782719631348
-0.020359776048697233   -0.02090684365681789   0.0015331782719631348
-0.020359776048697233   -0.02090684365681789   0.0015331782719631348
-0.014213668761729834   -0.019617733076746396   -0.0036405547361834474
-0.014213668761729834   -0.019617733076746396   -0.0036405547361834474
-0.014213668761729834   -0.019617733076746396   -0.0036405547361834474
-0.014213668761729834   -0.019617733076746396   -0.0036405547361834474
-0.01316946536496567   -0.01919040790520094   0.001402128236684121
-0.01316946536496567   -0.01919040790520094   0.001402128236684121
-0.01316946536496567   -0.01919040790520094   0.001402128236684121
-0.01316946536496567   -0.01919040790520094   0.001402128236684121
-0.024371017445980043   -0.024936982143766908   -0.0007895505476298243
-0.024371017445980043   -0.024936982143766908   -0.0007895505476298243
-0.024371017445980043   -0.024936982143766908   -0.0007895505476298243
-0.024371017445980043   -0.024936982143766908   -0.0007895505476298243
-0.015012653388362523   -0.017675123044597195   0.006676884830770572
-0.015012653388362523   -0.017675123044597195   0.006676884830770572
-0.015012653388362523   -0.017675123044597195   0.006676884830770572
-0.015012653388362523   -0.017675123044597195   0.006676884830770572
-0.023096442507010304   -0.021105800483546995   0.0017521424869984814
-0.023096442507010304   -0.021105800483546995   0.0017521424869984814
-0.023096442507010304   -0.021105800483546995   0.0017521424869984814
-0.023096442507010304   -0.021105800483546995   0.0017521424869984814
-0.014782778321480786   -0.023360327582966307   -0.002494516868126082
-0.014782778321480786   -0.023360327582966307   -0.002494516868126082
-0.014782778321480786   -0.023360327582966307   -0.002494516868126082
-0.014782778321480786   -0.023360327582966307   -0.002494516868126082
-0.0137479697301348   -0.0197554242257668   0.0013164897673630972
-0.0137479697301348   -0.0197554242257668   0.0013164897673630972
-0.0137479697301348   -0.0197554242257668   0.0013164897673630972
-0.0137479697301348   -0.0197554242257668   0.0013164897673630972
-0.026538863600353353   -0.028704451728712936   0.004190126761820753
-0.026538863600353353   -0.028704451728712936   0.004190126761820753
-0.026538863600353353   -0.028704451728712936   0.004190126761820753
-0.026538863600353353   -0.028704451728712936   0.004190126761820753
-0.017043740865798112   -0.019839555688027494   0.005228052375015546
-0.017043740865798112   -0.019839555688027494   0.005228052375015546
-0.017043740865798112   -0.019839555688027494   0.005228052375015546
-0.017043740865798112   -0.019839555688027494   0.005228052375015546
-0.025553090780630564   -0.021914032135828355   0.002328571267550133
-0.025553090780630564   -0.021914032135828355   0.002328571267550133
-0.025553090780630564   -0.021914032135828355   0.002328571267550133
-0.025553090780630564   -0.021914032135828355   0.002328571267550133
-0.01602168870384131   -0.027833789972634942   -0.001973739354301317
-0.01602168870384131   -0.027833789972634942   -0.001973739354301317
-0.01602168870384131   -0.027833789972634942   -0.001973739354301317
-0.01602168870384131   -0.027833789972634942   -0.001973739354301317
-0.014670489608086826   -0.02029894636384516   0.0019131178002955163
-0.014670489608086826   -0.02029894636384516   0.0019131178002955163
-0.014670489608086826   -0.02029894636384516   0.0019131178002955163
-0.014670489608086826   -0.02029894636384516   0.0019131178002955163
-0.03217521570291403   -0.034335392686939276   0.0019207205095365595
-0.03217521570291403   -0.034335392686939276   0.0019207205095365595
-0.03217521570291403   -0.034335392686939276   0.0019207205095365595
-0.03217521570291403   -0.034335392686939276   0.0019207205095365595
-0.019794860318390464   -0.02227144713643053   0.0018731471176457052
-0.019794860318390464   -0.02227144713643053   0.0018731471176457052
-0.019794860318390464   -0.02227144713643053   0.0018731471176457052
-0.019794860318390464   -0.02227144713643053   0.0018731471176457052
-0.010434029318727491   -0.00845615635407507   0.004096065756156937
-0.010434029318727491   -0.00845615635407507   0.004096065756156937
-0.010434029318727491   -0.00845615635407507   0.004096065756156937
-0.010434029318727491   -0.00845615635407507   0.004096065756156937
-0.008700074477795333   -0.002984038185968638   -0.0009060227493039637
-0.008700074477795333   -0.002984038185968638   -0.0009060227493039637
-0.008700074477795333   -0.002984038185968638   -0.0009060227493039637
-0.008700074477795333   -0.002984038185968638   -0.0009060227493039637
-0.008157684591162943   -0.00940793805663035   0.002467906702875491
-0.008157684591162943   -0.00940793805663035   0.002467906702875491
-0.008157684591162943   -0.00940793805663035   0.002467906702875491
-0.008157684591162943   -0.00940793805663035   0.002467906702875491
-0.01057363196164355   -0.004850093242574419   4.098059066820687e-05
-0.01057363196164355   -0.004850093242574419   4.098059066820687e-05
-0.01057363196164355   -0.004850093242574419   4.098059066820687e-05
-0.01057363196164355   -0.004850093242574419   4.098059066820687e-05
-0.008680414302478831   -0.005863334361669246   0.002024333542606786
-0.008680414302478831   -0.005863334361669246   0.002024333542606786
-0.008680414302478831   -0.005863334361669246   0.002024333542606786
-0.008680414302478831   -0.005863334361669246   0.002024333542606786
-0.010750014345966301   -0.009631825219058428   0.003940800645538467
-0.010750014345966301   -0.009631825219058428   0.003940800645538467
-0.010750014345966301   -0.009631825219058428   0.003940800645538467
-0.010750014345966301   -0.009631825219058428   0.003940800645538467
-0.007863848446016869   -0.00450875231932302   -0.0009620983087014779
-0.007863848446016869   -0.00450875231932302   -0.0009620983087014779
-0.007863848446016869   -0.00450875231932302   -0.0009620983087014779
-0.007863848446016869   -0.00450875231932302   -0.0009620983087014779
-0.00786898880538488   -0.010231913458513561   0.0023454494678104834
-0.00786898880538488   -0.010231913458513561   0.0023454494678104834
-0.00786898880538488   -0.010231913458513561   0.0023454494678104834
-0.00786898880538488   -0.010231913458513561   0.0023454494678104834
-0.01115739312409039   -0.006990564263439094   0.0015045128352574443
-0.01115739312409039   -0.006990564263439094   0.0015045128352574443
-0.01115739312409039   -0.006990564263439094   0.0015045128352574443
-0.01115739312409039   -0.006990564263439094   0.0015045128352574443
-0.008454400640030408   -0.006827667799675608   0.0020880863569771916
-0.008454400640030408   -0.006827667799675608   0.0020880863569771916
-0.008454400640030408   -0.006827667799675608   0.0020880863569771916
-0.008454400640030408   -0.006827667799675608   0.0020880863569771916
-0.011239147763925837   -0.01046166672437969   0.0045668420970208
-0.011239147763925837   -0.01046166672437969   0.0045668420970208
-0.011239147763925837   -0.01046166672437969   0.0045668420970208
-0.011239147763925837   -0.01046166672437969   0.0045668420970208
-0.007953714124479844   -0.006927290956503377   -0.0013827996296745192
-0.007953714124479844   -0.006927290956503377   -0.0013827996296745192
-0.007953714124479844   -0.006927290956503377   -0.0013827996296745192
-0.007953714124479844   -0.006927290956503377   -0.0013827996296745192
-0.007281735855149777   -0.011143657672042935   0.0026389589378629673
-0.007281735855149777   -0.011143657672042935   0.0026389589378629673
-0.007281735855149777   -0.011143657672042935   0.0026389589378629673
-0.007281735855149777   -0.011143657672042935   0.0026389589378629673
-0.012932737240372246   -0.011589896381580202   0.00189282965660345
-0.012932737240372246   -0.011589896381580202   0.00189282965660345
-0.012932737240372246   -0.011589896381580202   0.00189282965660345
-0.012932737240372246   -0.011589896381580202   0.00189282965660345
-0.008750793733558408   -0.008418541473784086   0.0014109690773751638
-0.008750793733558408   -0.008418541473784086   0.0014109690773751638
-0.008750793733558408   -0.008418541473784086   0.0014109690773751638
-0.008750793733558408   -0.008418541473784086   0.0014109690773751638
-0.007294656140884694   -0.0011542243791471782   0.004291255128427776
-0.007294656140884694   -0.0011542243791471782   0.004291255128427776
-0.007294656140884694   -0.0011542243791471782   0.004291255128427776
-0.007294656140884694   -0.0011542243791471782   0.004291255128427776
-0.0022976061752259308   0.00030820375903054117   -8.757781423957472e-05
-0.0022976061752259308   0.00030820375903054117   -8.757781423957472e-05
-0.0022976061752259308   0.00030820375903054117   -8.757781423957472e-05
-0.0022976061752259308   0.00030820375903054117   -8.757781423957472e-05
-0.000781007203547062   -0.0004766099517686884   0.0027820407086044034
-0.000781007203547062   -0.0004766099517686884   0.0027820407086044034
-0.000781007203547062   -0.0004766099517686884   0.0027820407086044034
-0.000781007203547062   -0.0004766099517686884   0.0027820407086044034
-0.00678537998162295   -0.00012686007764928123   4.8351771594384494e-05
-0.00678537998162295   -0.00012686007764928123   4.8351771594384494e-05
-0.00678537998162295   -0.00012686007764928123   4.8351771594384494e-05
-0.00678537998162295   -0.00012686007764928123   4.8351771594384494e-05
-0.004302378133881826   -0.0004368960977080644   -0.00022101782423994558
-0.004302378133881826   -0.0004368960977080644   -0.00022101782423994558
-0.004302378133881826   -0.0004368960977080644   -0.00022101782423994558
-0.004302378133881826   -0.0004368960977080644   -0.00022101782423994558
-0.006108305559399404   -0.0011975875030395594   0.00450445130810239
-0.006108305559399404   -0.0011975875030395594   0.00450445130810239
-0.006108305559399404   -0.0011975875030395594   0.00450445130810239
-0.006108305559399404   -0.0011975875030395594   0.00450445130810239
-0.0012652051520969094   0.0007869939472949683   -0.000902552933210408
-0.0012652051520969094   0.0007869939472949683   -0.000902552933210408
-0.0012652051520969094   0.0007869939472949683   -0.000902552933210408
-0.0012652051520969094   0.0007869939472949683   -0.000902552933210408
-0.00026558273094684856   -0.0006421230738624977   0.0034527243777097284
-0.00026558273094684856   -0.0006421230738624977   0.0034527243777097284
-0.00026558273094684856   -0.0006421230738624977   0.0034527243777097284
-0.00026558273094684856   -0.0006421230738624977   0.0034527243777097284
-0.006386300707149872   -0.0005901543353871334   0.0001171308358591023
-0.006386300707149872   -0.0005901543353871334   0.0001171308358591023
-0.006386300707149872   -0.0005901543353871334   0.0001171308358591023
-0.006386300707149872   -0.0005901543353871334   0.0001171308358591023
-0.003446818197138194   -0.0003521068778185368   0.00031422965969857286
-0.003446818197138194   -0.0003521068778185368   0.00031422965969857286
-0.003446818197138194   -0.0003521068778185368   0.00031422965969857286
-0.003446818197138194   -0.0003521068778185368   0.00031422965969857286
-0.005589527163580727   -0.0014127399935564009   0.004923584211874091
-0.005589527163580727   -0.0014127399935564009   0.004923584211874091
-0.005589527163580727   -0.0014127399935564009   0.004923584211874091
-0.005589527163580727   -0.0014127399935564009   0.004923584211874091
-0.0009341510114094898   0.0003086678474132727   -0.0008409079458792484
-0.0009341510114094898   0.0003086678474132727   -0.0008409079458792484
-0.0009341510114094898   0.0003086678474132727   -0.0008409079458792484
-0.0009341510114094898   0.0003086678474132727   -0.0008409079458792484
3.208034283635477e-05   -0.001191289163935137   0.0034446736255328053
3.208034283635477e-05   -0.001191289163935137   0.0034446736255328053
3.208034283635477e-05   -0.001191289163935137   0.0034446736255328053
3.208034283635477e-05   -0.001191289163935137   0.0034446736255328053
-0.005802849348844207   -0.0012859147661711708   0.00017564856351905567
-0.005802849348844207   -0.0012859147661711708   0.00017564856351905567
-0.005802849348844207   -0.0012859147661711708   0.00017564856351905567
-0.005802849348844207   -0.0012859147661711708   0.00017564856351905567
-0.0027737731525898472   -0.0004560344047336003   0.0006588226368169334
-0.0027737731525898472   -0.0004560344047336003   0.0006588226368169334
-0.0027737731525898472   -0.0004560344047336003   0.0006588226368169334
-0.0027737731525898472   -0.0004560344047336003   0.0006588226368169334
              </DataArray>   
             <DataArray type="Float64" NumberOfComponents="3" Name="Displacements" format="ascii">   
0.0   0.0   0.0
-0.0006505784405860282   -0.0004382700316521613   -0.00021864750125259464
0.0   0.0   0.0
0.0   0.0   0.0
-0.0006505784405860282   -0.0004382700316521613   -0.00021864750125259464
-0.00041285844783699367   -0.00039592624070942044   -0.00016077444055078422
0.0   0.0   0.0
-0.00040392170274219854   -0.0004151279392575901   -0.000134940041951128
0.0   0.0   0.0
0.0   0.0   0.0
-0.00040392170274219854   -0.0004151279392575901   -0.000134940041951128
0.0   0.0   0.0
0.0   0.0   0.0
-0.00040392170274219854   -0.0004151279392575901   -0.000134940041951128
-0.0006799067892529318   -0.00046637165786517264   -0.00017591281543435903
-0.0006505784405860282   -0.0004382700316521613   -0.00021864750125259464
0.0   0.0   0.0
-0.00040392170274219854   -0.0004151279392575901   -0.000134940041951128
-0.0006505784405860282   -0.0004382700316521613   -0.00021864750125259464
0.0   0.0   0.0
0.0   0.0   0.0
-0.0006799067892529318   -0.00046637165786517264   -0.00017591281543435903
0.0   0.0   0.0
0.0   0.0   0.0
-0.0006799067892529318   -0.00046637165786517264   -0.00017591281543435903
-0.00040392170274219854   -0.0004151279392575901   -0.000134940041951128
0.0   0.0   0.0
-0.00040422632806023484   -0.00042506419584288846   -0.00010923799932529999
0.0   0.0   0.0
0.0   0.0   0.0
-0.00040422632806023484   -0.00042506419584288846   -0.00010923799932529999
0.0   0.0   0.0
0.0   0.0   0.0
-0.00040422632806023484   -0.00042506419584288846   -0.00010923799932529999
-0.0007001206963250581   -0.00048008097045962273   -0.0001351469198272841
-0.0006799067892529318   -0.00046637165786517264   -0.00017591281543435903
0.0   0.0   0.0
-0.00040422632806023484   -0.00042506419584288846   -0.00010923799932529999
-0.0006799067892529318   -0.00046637165786517264   -0.00017591281543435903
0.0   0.0   0.0
0.0   0.0   0.0
-0.0007001206963250581   -0.00048008097045962273   -0.0001351469198272841
0.0   0.0   0.0
0.0   0.0   0.0
-0.0007001206963250581   -0.00048008097045962273   -0.0001351469198272841
-0.00040422632806023484   -0.00042506419584288846   -0.00010923799932529999
0.0   0.0   0.0
-0.0004030731371588191   -0.00042774901024523484   -8.278038419796724e-05
0.0   0.0   0.0
0.0   0.0   0.0
-0.0004030731371588191   -0.00042774901024523484   -8.278038419796724e-05
0.0   0.0   0.0
0.0   0.0   0.0
-0.0004030731371588191   -0.00042774901024523484   -8.278038419796724e-05
-0.000744495176341128   -0.0004907892909847937   -8.797017033370152e-05
-0.0007001206963250581   -0.00048008097045962273   -0.0001351469198272841
0.0   0.0   0.0
-0.0004030731371588191   -0.00042774901024523484   -8.278038419796724e-05
-0.0007001206963250581   -0.00048008097045962273   -0.0001351469198272841
0.0   0.0   0.0
0.0   0.0   0.0
-0.00041285844783699367   -0.00039592624070942044   -0.00016077444055078422
0.0   0.0   0.0
0.0   0.0   0.0
-0.00041285844783699367   -0.00039592624070942044   -0.00016077444055078422
-0.0001889830143233069   -0.0003805696935182367   -0.0001226462947930683
0.0   0.0   0.0
-0.00018094784866567692   -0.000392968759827889   -0.00011034963190171234
0.0   0.0   0.0
0.0   0.0   0.0
-0.00018094784866567692   -0.000392968759827889   -0.00011034963190171234
0.0   0.0   0.0
0.0   0.0   0.0
-0.00018094784866567692   -0.000392968759827889   -0.00011034963190171234
-0.00040392170274219854   -0.0004151279392575901   -0.000134940041951128
-0.00041285844783699367   -0.00039592624070942044   -0.00016077444055078422
0.0   0.0   0.0
-0.00018094784866567692   -0.000392968759827889   -0.00011034963190171234
-0.00041285844783699367   -0.00039592624070942044   -0.00016077444055078422
0.0   0.0   0.0
0.0   0.0   0.0
-0.00040392170274219854   -0.0004151279392575901   -0.000134940041951128
0.0   0.0   0.0
0.0   0.0   0.0
-0.00040392170274219854   -0.0004151279392575901   -0.000134940041951128
-0.00018094784866567692   -0.000392968759827889   -0.00011034963190171234
0.0   0.0   0.0
-0.00017609392742932298   -0.0003977290009323328   -9.846781357171425e-05
0.0   0.0   0.0
0.0   0.0   0.0
-0.00017609392742932298   -0.0003977290009323328   -9.846781357171425e-05
0.0   0.0   0.0
0.0   0.0   0.0
-0.00017609392742932298   -0.0003977290009323328   -9.846781357171425e-05
-0.00040422632806023484   -0.00042506419584288846   -0.00010923799932529999
-0.00040392170274219854   -0.0004151279392575901   -0.000134940041951128
0.0   0.0   0.0
-0.00017609392742932298   -0.0003977290009323328   -9.846781357171425e-05
-0.00040392170274219854   -0.0004151279392575901   -0.000134940041951128
0.0   0.0   0.0
0.0   0.0   0.0
-0.00040422632806023484   -0.00042506419584288846   -0.00010923799932529999
0.0   0.0   0.0
0.0   0.0   0.0
-0.00040422632806023484   -0.00042506419584288846   -0.00010923799932529999
-0.00017609392742932298   -0.0003977290009323328   -9.846781357171425e-05
0.0   0.0   0.0
-0.00017153619635214805   -0.0003958225544698212   -8.628192250430746e-05
0.0   0.0   0.0
0.0   0.0   0.0
-0.00017153619635214805   -0.0003958225544698212   -8.628192250430746e-05
0.0   0.0   0.0
0.0   0.0   0.0
-0.00017153619635214805   -0.0003958225544698212   -8.628192250430746e-05
-0.0004030731371588191   -0.00042774901024523484   -8.278038419796724e-05
-0.00040422632806023484   -0.00042506419584288846   -0.00010923799932529999
0.0   0.0   0.0
-0.00017153619635214805   -0.0003958225544698212   -8.628192250430746e-05
-0.00040422632806023484   -0.00042506419584288846   -0.00010923799932529999
0.0   0.0   0.0
0.0   0.0   0.0
-0.0001889830143233069   -0.0003805696935182367   -0.0001226462947930683
0.0   0.0   0.0
0.0   0.0   0.0
-0.0001889830143233069   -0.0003805696935182367   -0.0001226462947930683
2.1824018073144452e-05   -0.0003826676703242641   -9.859201623554094e-05
0.0   0.0   0.0
2.7339690966300805e-05   -0.0003889829371280272   -0.0001000527681962628
0.0   0.0   0.0
0.0   0.0   0.0
2.7339690966300805e-05   -0.0003889829371280272   -0.0001000527681962628
0.0   0.0   0.0
0.0   0.0   0.0
2.7339690966300805e-05   -0.0003889829371280272   -0.0001000527681962628
-0.00018094784866567692   -0.000392968759827889   -0.00011034963190171234
-0.0001889830143233069   -0.0003805696935182367   -0.0001226462947930683
0.0   0.0   0.0
2.7339690966300805e-05   -0.0003889829371280272   -0.0001000527681962628
-0.0001889830143233069   -0.0003805696935182367   -0.0001226462947930683
0.0   0.0   0.0
0.0   0.0   0.0
-0.00018094784866567692   -0.000392968759827889   -0.00011034963190171234
0.0   0.0   0.0
0.0   0.0   0.0
-0.00018094784866567692   -0.000392968759827889   -0.00011034963190171234
2.7339690966300805e-05   -0.0003889829371280272   -0.0001000527681962628
0.0   0.0   0.0
3.1803309850102675e-05   -0.00038836235393690534   -0.00010145307376437116
0.0   0.0   0.0
0.0   0.0   0.0
3.1803309850102675e-05   -0.00038836235393690534   -0.00010145307376437116
0.0   0.0   0.0
0.0   0.0   0.0
3.1803309850102675e-05   -0.00038836235393690534   -0.00010145307376437116
-0.00017609392742932298   -0.0003977290009323328   -9.846781357171425e-05
-0.00018094784866567692   -0.000392968759827889   -0.00011034963190171234
0.0   0.0   0.0
3.1803309850102675e-05   -0.00038836235393690534   -0.00010145307376437116
-0.00018094784866567692   -0.000392968759827889   -0.00011034963190171234
0.0   0.0   0.0
0.0   0.0   0.0
-0.00017609392742932298   -0.0003977290009323328   -9.846781357171425e-05
0.0   0.0   0.0
0.0   0.0   0.0
-0.00017609392742932298   -0.0003977290009323328   -9.846781357171425e-05
3.1803309850102675e-05   -0.00038836235393690534   -0.00010145307376437116
0.0   0.0   0.0
3.753211123495882e-05   -0.00038025331160285614   -0.00010298998801013253
0.0   0.0   0.0
0.0   0.0   0.0
3.753211123495882e-05   -0.00038025331160285614   -0.00010298998801013253
0.0   0.0   0.0
0.0   0.0   0.0
3.753211123495882e-05   -0.00038025331160285614   -0.00010298998801013253
-0.00017153619635214805   -0.0003958225544698212   -8.628192250430746e-05
-0.00017609392742932298   -0.0003977290009323328   -9.846781357171425e-05
0.0   0.0   0.0
3.753211123495882e-05   -0.00038025331160285614   -0.00010298998801013253
-0.00017609392742932298   -0.0003977290009323328   -9.846781357171425e-05
0.0   0.0   0.0
0.0   0.0   0.0
2.1824018073144452e-05   -0.0003826676703242641   -9.859201623554094e-05
0.0   0.0   0.0
0.0   0.0   0.0
2.1824018073144452e-05   -0.0003826676703242641   -9.859201623554094e-05
0.0002513618385554229   -0.00040035961426582053   -8.701329867907078e-05
0.0   0.0   0.0
0.0002528532587596097   -0.0004021791879376237   -0.00010295752805498496
0.0   0.0   0.0
0.0   0.0   0.0
0.0002528532587596097   -0.0004021791879376237   -0.00010295752805498496
0.0   0.0   0.0
0.0   0.0   0.0
0.0002528532587596097   -0.0004021791879376237   -0.00010295752805498496
2.7339690966300805e-05   -0.0003889829371280272   -0.0001000527681962628
2.1824018073144452e-05   -0.0003826676703242641   -9.859201623554094e-05
0.0   0.0   0.0
0.0002528532587596097   -0.0004021791879376237   -0.00010295752805498496
2.1824018073144452e-05   -0.0003826676703242641   -9.859201623554094e-05
0.0   0.0   0.0
0.0   0.0   0.0
2.7339690966300805e-05   -0.0003889829371280272   -0.0001000527681962628
0.0   0.0   0.0
0.0   0.0   0.0
2.7339690966300805e-05   -0.0003889829371280272   -0.0001000527681962628
0.0002528532587596097   -0.0004021791879376237   -0.00010295752805498496
0.0   0.0   0.0
0.0002526704177481947   -0.00039644370361397255   -0.00011836948292472699
0.0   0.0   0.0
0.0   0.0   0.0
0.0002526704177481947   -0.00039644370361397255   -0.00011836948292472699
0.0   0.0   0.0
0.0   0.0   0.0
0.0002526704177481947   -0.00039644370361397255   -0.00011836948292472699
3.1803309850102675e-05   -0.00038836235393690534   -0.00010145307376437116
2.7339690966300805e-05   -0.0003889829371280272   -0.0001000527681962628
0.0   0.0   0.0
0.0002526704177481947   -0.00039644370361397255   -0.00011836948292472699
2.7339690966300805e-05   -0.0003889829371280272   -0.0001000527681962628
0.0   0.0   0.0
0.0   0.0   0.0
3.1803309850102675e-05   -0.00038836235393690534   -0.00010145307376437116
0.0   0.0   0.0
0.0   0.0   0.0
3.1803309850102675e-05   -0.00038836235393690534   -0.00010145307376437116
0.0002526704177481947   -0.00039644370361397255   -0.00011836948292472699
0.0   0.0   0.0
0.00025842875312942867   -0.0003814942863596982   -0.00013358010704081144
0.0   0.0   0.0
0.0   0.0   0.0
0.00025842875312942867   -0.0003814942863596982   -0.00013358010704081144
0.0   0.0   0.0
0.0   0.0   0.0
0.00025842875312942867   -0.0003814942863596982   -0.00013358010704081144
3.753211123495882e-05   -0.00038025331160285614   -0.00010298998801013253
3.1803309850102675e-05   -0.00038836235393690534   -0.00010145307376437116
0.0   0.0   0.0
0.00025842875312942867   -0.0003814942863596982   -0.00013358010704081144
3.1803309850102675e-05   -0.00038836235393690534   -0.00010145307376437116
0.0   0.0   0.0
0.0   0.0   0.0
0.0002513618385554229   -0.00040035961426582053   -8.701329867907078e-05
0.0   0.0   0.0
0.0   0.0   0.0
0.0002513618385554229   -0.00040035961426582053   -8.701329867907078e-05
0.00057300769176394   -0.0004456301980900327   -8.290178415810158e-05
0.0   0.0   0.0
0.0005395033669335433   -0.0004403662581453948   -0.00011937947274548803
0.0   0.0   0.0
0.0   0.0   0.0
0.0005395033669335433   -0.0004403662581453948   -0.00011937947274548803
0.0   0.0   0.0
0.0   0.0   0.0
0.0005395033669335433   -0.0004403662581453948   -0.00011937947274548803
0.0002528532587596097   -0.0004021791879376237   -0.00010295752805498496
0.0002513618385554229   -0.00040035961426582053   -8.701329867907078e-05
0.0   0.0   0.0
0.0005395033669335433   -0.0004403662581453948   -0.00011937947274548803
0.0002513618385554229   -0.00040035961426582053   -8.701329867907078e-05
0.0   0.0   0.0
0.0   0.0   0.0
0.0002528532587596097   -0.0004021791879376237   -0.00010295752805498496
0.0   0.0   0.0
0.0   0.0   0.0
0.0002528532587596097   -0.0004021791879376237   -0.00010295752805498496
0.0005395033669335433   -0.0004403662581453948   -0.00011937947274548803
0.0   0.0   0.0
0.0005244597459310456   -0.0004312206694654401   -0.00015031811641733712
0.0   0.0   0.0
0.0   0.0   0.0
0.0005244597459310456   -0.0004312206694654401   -0.00015031811641733712
0.0   0.0   0.0
0.0   0.0   0.0
0.0005244597459310456   -0.0004312206694654401   -0.00015031811641733712
0.0002526704177481947   -0.00039644370361397255   -0.00011836948292472699
0.0002528532587596097   -0.0004021791879376237   -0.00010295752805498496
0.0   0.0   0.0
0.0005244597459310456   -0.0004312206694654401   -0.00015031811641733712
0.0002528532587596097   -0.0004021791879376237   -0.00010295752805498496
0.0   0.0   0.0
0.0   0.0   0.0
0.0002526704177481947   -0.00039644370361397255   -0.00011836948292472699
0.0   0.0   0.0
0.0   0.0   0.0
0.0002526704177481947   -0.00039644370361397255   -0.00011836948292472699
0.0005244597459310456   -0.0004312206694654401   -0.00015031811641733712
0.0   0.0   0.0
0.0005014349116758311   -0.00040813473355004036   -0.000183261357147735
0.0   0.0   0.0
0.0   0.0   0.0
0.0005014349116758311   -0.00040813473355004036   -0.000183261357147735
0.0   0.0   0.0
0.0   0.0   0.0
0.0005014349116758311   -0.00040813473355004036   -0.000183261357147735
0.00025842875312942867   -0.0003814942863596982   -0.00013358010704081144
0.0002526704177481947   -0.00039644370361397255   -0.00011836948292472699
0.0   0.0   0.0
0.0005014349116758311   -0.00040813473355004036   -0.000183261357147735
0.0002526704177481947   -0.00039644370361397255   -0.00011836948292472699
0.0   0.0   0.0
-0.0006505784405860282   -0.0004382700316521613   -0.00021864750125259464
-0.001206686502928488   -0.0012068599124682381   -0.00029498769609359024
-0.00041285844783699367   -0.00039592624070942044   -0.00016077444055078422
-0.0006799067892529318   -0.00046637165786517264   -0.00017591281543435903
-0.001206686502928488   -0.0012068599124682381   -0.00029498769609359024
-0.0007697929521459802   -0.0011690846021330397   -0.00024367769490057147
-0.00041285844783699367   -0.00039592624070942044   -0.00016077444055078422
-0.0007693872005737537   -0.0011885636530047916   -0.00022000776158075252
-0.0006799067892529318   -0.00046637165786517264   -0.00017591281543435903
-0.00040392170274219854   -0.0004151279392575901   -0.000134940041951128
-0.0007693872005737537   -0.0011885636530047916   -0.00022000776158075252
-0.00041285844783699367   -0.00039592624070942044   -0.00016077444055078422
-0.0006799067892529318   -0.00046637165786517264   -0.00017591281543435903
-0.0007693872005737537   -0.0011885636530047916   -0.00022000776158075252
-0.001241093124095782   -0.0012341789918793636   -0.0002567493655134584
-0.001206686502928488   -0.0012068599124682381   -0.00029498769609359024
-0.0006799067892529318   -0.00046637165786517264   -0.00017591281543435903
-0.0007693872005737537   -0.0011885636530047916   -0.00022000776158075252
-0.001206686502928488   -0.0012068599124682381   -0.00029498769609359024
-0.00041285844783699367   -0.00039592624070942044   -0.00016077444055078422
-0.0006799067892529318   -0.00046637165786517264   -0.00017591281543435903
-0.001241093124095782   -0.0012341789918793636   -0.0002567493655134584
-0.00040392170274219854   -0.0004151279392575901   -0.000134940041951128
-0.0007001206963250581   -0.00048008097045962273   -0.0001351469198272841
-0.001241093124095782   -0.0012341789918793636   -0.0002567493655134584
-0.0007693872005737537   -0.0011885636530047916   -0.00022000776158075252
-0.00040392170274219854   -0.0004151279392575901   -0.000134940041951128
-0.0007710039291110441   -0.0012005589429055971   -0.00019734757887583136
-0.0007001206963250581   -0.00048008097045962273   -0.0001351469198272841
-0.00040422632806023484   -0.00042506419584288846   -0.00010923799932529999
-0.0007710039291110441   -0.0012005589429055971   -0.00019734757887583136
-0.00040392170274219854   -0.0004151279392575901   -0.000134940041951128
-0.0007001206963250581   -0.00048008097045962273   -0.0001351469198272841
-0.0007710039291110441   -0.0012005589429055971   -0.00019734757887583136
-0.0012644436059521232   -0.0012497233934084296   -0.00021942581485006346
-0.001241093124095782   -0.0012341789918793636   -0.0002567493655134584
-0.0007001206963250581   -0.00048008097045962273   -0.0001351469198272841
-0.0007710039291110441   -0.0012005589429055971   -0.00019734757887583136
-0.001241093124095782   -0.0012341789918793636   -0.0002567493655134584
-0.00040392170274219854   -0.0004151279392575901   -0.000134940041951128
-0.0007001206963250581   -0.00048008097045962273   -0.0001351469198272841
-0.0012644436059521232   -0.0012497233934084296   -0.00021942581485006346
-0.00040422632806023484   -0.00042506419584288846   -0.00010923799932529999
-0.000744495176341128   -0.0004907892909847937   -8.797017033370152e-05
-0.0012644436059521232   -0.0012497233934084296   -0.00021942581485006346
-0.0007710039291110441   -0.0012005589429055971   -0.00019734757887583136
-0.00040422632806023484   -0.00042506419584288846   -0.00010923799932529999
-0.0007672406963525127   -0.0012069842381974597   -0.00017622241641223086
-0.000744495176341128   -0.0004907892909847937   -8.797017033370152e-05
-0.0004030731371588191   -0.00042774901024523484   -8.278038419796724e-05
-0.0007672406963525127   -0.0012069842381974597   -0.00017622241641223086
-0.00040422632806023484   -0.00042506419584288846   -0.00010923799932529999
-0.000744495176341128   -0.0004907892909847937   -8.797017033370152e-05
-0.0007672406963525127   -0.0012069842381974597   -0.00017622241641223086
-0.001291982683946497   -0.0012591191590969396   -0.00018565829386992647
-0.0012644436059521232   -0.0012497233934084296   -0.00021942581485006346
-0.000744495176341128   -0.0004907892909847937   -8.797017033370152e-05
-0.0007672406963525127   -0.0012069842381974597   -0.00017622241641223086
-0.0012644436059521232   -0.0012497233934084296   -0.00021942581485006346
-0.00040422632806023484   -0.00042506419584288846   -0.00010923799932529999
-0.00041285844783699367   -0.00039592624070942044   -0.00016077444055078422
-0.0007697929521459802   -0.0011690846021330397   -0.00024367769490057147
-0.0001889830143233069   -0.0003805696935182367   -0.0001226462947930683
-0.00040392170274219854   -0.0004151279392575901   -0.000134940041951128
-0.0007697929521459802   -0.0011690846021330397   -0.00024367769490057147
-0.0003594605174329743   -0.0011514976366023342   -0.00020877640713811045
-0.0001889830143233069   -0.0003805696935182367   -0.0001226462947930683
-0.0003550194328707098   -0.0011637737736921736   -0.00019652320540892835
-0.00040392170274219854   -0.0004151279392575901   -0.000134940041951128
-0.00018094784866567692   -0.000392968759827889   -0.00011034963190171234
-0.0003550194328707098   -0.0011637737736921736   -0.00019652320540892835
-0.0001889830143233069   -0.0003805696935182367   -0.0001226462947930683
-0.00040392170274219854   -0.0004151279392575901   -0.000134940041951128
-0.0003550194328707098   -0.0011637737736921736   -0.00019652320540892835
-0.0007693872005737537   -0.0011885636530047916   -0.00022000776158075252
-0.0007697929521459802   -0.0011690846021330397   -0.00024367769490057147
-0.00040392170274219854   -0.0004151279392575901   -0.000134940041951128
-0.0003550194328707098   -0.0011637737736921736   -0.00019652320540892835
-0.0007697929521459802   -0.0011690846021330397   -0.00024367769490057147
-0.0001889830143233069   -0.0003805696935182367   -0.0001226462947930683
-0.00040392170274219854   -0.0004151279392575901   -0.000134940041951128
-0.0007693872005737537   -0.0011885636530047916   -0.00022000776158075252
-0.00018094784866567692   -0.000392968759827889   -0.00011034963190171234
-0.00040422632806023484   -0.00042506419584288846   -0.00010923799932529999
-0.0007693872005737537   -0.0011885636530047916   -0.00022000776158075252
-0.0003550194328707098   -0.0011637737736921736   -0.00019652320540892835
-0.00018094784866567692   -0.000392968759827889   -0.00011034963190171234
-0.00035093298919849995   -0.0011697732136111167   -0.00018547273339880938
-0.00040422632806023484   -0.00042506419584288846   -0.00010923799932529999
-0.00017609392742932298   -0.0003977290009323328   -9.846781357171425e-05
-0.00035093298919849995   -0.0011697732136111167   -0.00018547273339880938
-0.00018094784866567692   -0.000392968759827889   -0.00011034963190171234
-0.00040422632806023484   -0.00042506419584288846   -0.00010923799932529999
-0.00035093298919849995   -0.0011697732136111167   -0.00018547273339880938
-0.0007710039291110441   -0.0012005589429055971   -0.00019734757887583136
-0.0007693872005737537   -0.0011885636530047916   -0.00022000776158075252
-0.00040422632806023484   -0.00042506419584288846   -0.00010923799932529999
-0.00035093298919849995   -0.0011697732136111167   -0.00018547273339880938
-0.0007693872005737537   -0.0011885636530047916   -0.00022000776158075252
-0.00018094784866567692   -0.000392968759827889   -0.00011034963190171234
-0.00040422632806023484   -0.00042506419584288846   -0.00010923799932529999
-0.0007710039291110441   -0.0012005589429055971   -0.00019734757887583136
-0.00017609392742932298   -0.0003977290009323328   -9.846781357171425e-05
-0.0004030731371588191   -0.00042774901024523484   -8.278038419796724e-05
-0.0007710039291110441   -0.0012005589429055971   -0.00019734757887583136
-0.00035093298919849995   -0.0011697732136111167   -0.00018547273339880938
-0.00017609392742932298   -0.0003977290009323328   -9.846781357171425e-05
-0.00034545987811662103   -0.001169718703278131   -0.0001759199006528565
-0.0004030731371588191   -0.00042774901024523484   -8.278038419796724e-05
-0.00017153619635214805   -0.0003958225544698212   -8.628192250430746e-05
-0.00034545987811662103   -0.001169718703278131   -0.0001759199006528565
-0.00017609392742932298   -0.0003977290009323328   -9.846781357171425e-05
-0.0004030731371588191   -0.00042774901024523484   -8.278038419796724e-05
-0.00034545987811662103   -0.001169718703278131   -0.0001759199006528565
-0.0007672406963525127   -0.0012069842381974597   -0.00017622241641223086
-0.0007710039291110441   -0.0012005589429055971   -0.00019734757887583136
-0.0004030731371588191   -0.00042774901024523484   -8.278038419796724e-05
-0.00034545987811662103   -0.001169718703278131   -0.0001759199006528565
-0.0007710039291110441   -0.0012005589429055971   -0.00019734757887583136
-0.00017609392742932298   -0.0003977290009323328   -9.846781357171425e-05
-0.0001889830143233069   -0.0003805696935182367   -0.0001226462947930683
-0.0003594605174329743   -0.0011514976366023342   -0.00020877640713811045
2.1824018073144452e-05   -0.0003826676703242641   -9.859201623554094e-05
-0.00018094784866567692   -0.000392968759827889   -0.00011034963190171234
-0.0003594605174329743   -0.0011514976366023342   -0.00020877640713811045
3.53694373909649e-05   -0.001152101648099402   -0.0001870092559858857
2.1824018073144452e-05   -0.0003826676703242641   -9.859201623554094e-05
4.059512984487428e-05   -0.0011577258834684298   -0.00018595005959502544
-0.00018094784866567692   -0.000392968759827889   -0.00011034963190171234
2.7339690966300805e-05   -0.0003889829371280272   -0.0001000527681962628
4.059512984487428e-05   -0.0011577258834684298   -0.00018595005959502544
2.1824018073144452e-05   -0.0003826676703242641   -9.859201623554094e-05
-0.00018094784866567692   -0.000392968759827889   -0.00011034963190171234
4.059512984487428e-05   -0.0011577258834684298   -0.00018595005959502544
-0.0003550194328707098   -0.0011637737736921736   -0.00019652320540892835
-0.0003594605174329743   -0.0011514976366023342   -0.00020877640713811045
-0.00018094784866567692   -0.000392968759827889   -0.00011034963190171234
4.059512984487428e-05   -0.0011577258834684298   -0.00018595005959502544
-0.0003594605174329743   -0.0011514976366023342   -0.00020877640713811045
2.1824018073144452e-05   -0.0003826676703242641   -9.859201623554094e-05
-0.00018094784866567692   -0.000392968759827889   -0.00011034963190171234
-0.0003550194328707098   -0.0011637737736921736   -0.00019652320540892835
2.7339690966300805e-05   -0.0003889829371280272   -0.0001000527681962628
-0.00017609392742932298   -0.0003977290009323328   -9.846781357171425e-05
-0.0003550194328707098   -0.0011637737736921736   -0.00019652320540892835
4.059512984487428e-05   -0.0011577258834684298   -0.00018595005959502544
2.7339690966300805e-05   -0.0003889829371280272   -0.0001000527681962628
4.4536695625753704e-05   -0.0011572159031368893   -0.0001862508397049188
-0.00017609392742932298   -0.0003977290009323328   -9.846781357171425e-05
3.1803309850102675e-05   -0.00038836235393690534   -0.00010145307376437116
4.4536695625753704e-05   -0.0011572159031368893   -0.0001862508397049188
2.7339690966300805e-05   -0.0003889829371280272   -0.0001000527681962628
-0.00017609392742932298   -0.0003977290009323328   -9.846781357171425e-05
4.4536695625753704e-05   -0.0011572159031368893   -0.0001862508397049188
-0.00035093298919849995   -0.0011697732136111167   -0.00018547273339880938
-0.0003550194328707098   -0.0011637737736921736   -0.00019652320540892835
-0.00017609392742932298   -0.0003977290009323328   -9.846781357171425e-05
4.4536695625753704e-05   -0.0011572159031368893   -0.0001862508397049188
-0.0003550194328707098   -0.0011637737736921736   -0.00019652320540892835
2.7339690966300805e-05   -0.0003889829371280272   -0.0001000527681962628
-0.00017609392742932298   -0.0003977290009323328   -9.846781357171425e-05
-0.00035093298919849995   -0.0011697732136111167   -0.00018547273339880938
3.1803309850102675e-05   -0.00038836235393690534   -0.00010145307376437116
-0.00017153619635214805   -0.0003958225544698212   -8.628192250430746e-05
-0.00035093298919849995   -0.0011697732136111167   -0.00018547273339880938
4.4536695625753704e-05   -0.0011572159031368893   -0.0001862508397049188
3.1803309850102675e-05   -0.00038836235393690534   -0.00010145307376437116
4.8665559404574626e-05   -0.0011503910577841682   -0.00018793141195085812
-0.00017153619635214805   -0.0003958225544698212   -8.628192250430746e-05
3.753211123495882e-05   -0.00038025331160285614   -0.00010298998801013253
4.8665559404574626e-05   -0.0011503910577841682   -0.00018793141195085812
3.1803309850102675e-05   -0.00038836235393690534   -0.00010145307376437116
-0.00017153619635214805   -0.0003958225544698212   -8.628192250430746e-05
4.8665559404574626e-05   -0.0011503910577841682   -0.00018793141195085812
-0.00034545987811662103   -0.001169718703278131   -0.0001759199006528565
-0.00035093298919849995   -0.0011697732136111167   -0.00018547273339880938
-0.00017153619635214805   -0.0003958225544698212   -8.628192250430746e-05
4.8665559404574626e-05   -0.0011503910577841682   -0.00018793141195085812
-0.00035093298919849995   -0.0011697732136111167   -0.00018547273339880938
3.1803309850102675e-05   -0.00038836235393690534   -0.00010145307376437116
2.1824018073144452e-05   -0.0003826676703242641   -9.859201623554094e-05
3.53694373909649e-05   -0.001152101648099402   -0.0001870092559858857
0.0002513618385554229   -0.00040035961426582053   -8.701329867907078e-05
2.7339690966300805e-05   -0.0003889829371280272   -0.0001000527681962628
3.53694373909649e-05   -0.001152101648099402   -0.0001870092559858857
0.0004545227873184955   -0.0011702661866492255   -0.00017732907854818073
0.0002513618385554229   -0.00040035961426582053   -8.701329867907078e-05
0.00045824400556969045   -0.001169790716572491   -0.00018781756616811075
2.7339690966300805e-05   -0.0003889829371280272   -0.0001000527681962628
0.0002528532587596097   -0.0004021791879376237   -0.00010295752805498496
0.00045824400556969045   -0.001169790716572491   -0.00018781756616811075
0.0002513618385554229   -0.00040035961426582053   -8.701329867907078e-05
2.7339690966300805e-05   -0.0003889829371280272   -0.0001000527681962628
0.00045824400556969045   -0.001169790716572491   -0.00018781756616811075
4.059512984487428e-05   -0.0011577258834684298   -0.00018595005959502544
3.53694373909649e-05   -0.001152101648099402   -0.0001870092559858857
2.7339690966300805e-05   -0.0003889829371280272   -0.0001000527681962628
0.00045824400556969045   -0.001169790716572491   -0.00018781756616811075
3.53694373909649e-05   -0.001152101648099402   -0.0001870092559858857
0.0002513618385554229   -0.00040035961426582053   -8.701329867907078e-05
2.7339690966300805e-05   -0.0003889829371280272   -0.0001000527681962628
4.059512984487428e-05   -0.0011577258834684298   -0.00018595005959502544
0.0002528532587596097   -0.0004021791879376237   -0.00010295752805498496
3.1803309850102675e-05   -0.00038836235393690534   -0.00010145307376437116
4.059512984487428e-05   -0.0011577258834684298   -0.00018595005959502544
0.00045824400556969045   -0.001169790716572491   -0.00018781756616811075
0.0002528532587596097   -0.0004021791879376237   -0.00010295752805498496
0.0004576385472221948   -0.0011633406560237903   -0.00019984358475788497
3.1803309850102675e-05   -0.00038836235393690534   -0.00010145307376437116
0.0002526704177481947   -0.00039644370361397255   -0.00011836948292472699
0.0004576385472221948   -0.0011633406560237903   -0.00019984358475788497
0.0002528532587596097   -0.0004021791879376237   -0.00010295752805498496
3.1803309850102675e-05   -0.00038836235393690534   -0.00010145307376437116
0.0004576385472221948   -0.0011633406560237903   -0.00019984358475788497
4.4536695625753704e-05   -0.0011572159031368893   -0.0001862508397049188
4.059512984487428e-05   -0.0011577258834684298   -0.00018595005959502544
3.1803309850102675e-05   -0.00038836235393690534   -0.00010145307376437116
0.0004576385472221948   -0.0011633406560237903   -0.00019984358475788497
4.059512984487428e-05   -0.0011577258834684298   -0.00018595005959502544
0.0002528532587596097   -0.0004021791879376237   -0.00010295752805498496
3.1803309850102675e-05   -0.00038836235393690534   -0.00010145307376437116
4.4536695625753704e-05   -0.0011572159031368893   -0.0001862508397049188
0.0002526704177481947   -0.00039644370361397255   -0.00011836948292472699
3.753211123495882e-05   -0.00038025331160285614   -0.00010298998801013253
4.4536695625753704e-05   -0.0011572159031368893   -0.0001862508397049188
0.0004576385472221948   -0.0011633406560237903   -0.00019984358475788497
0.0002526704177481947   -0.00039644370361397255   -0.00011836948292472699
0.00045784003713338165   -0.0011492122198847115   -0.00021295701741505074
3.753211123495882e-05   -0.00038025331160285614   -0.00010298998801013253
0.00025842875312942867   -0.0003814942863596982   -0.00013358010704081144
0.00045784003713338165   -0.0011492122198847115   -0.00021295701741505074
0.0002526704177481947   -0.00039644370361397255   -0.00011836948292472699
3.753211123495882e-05   -0.00038025331160285614   -0.00010298998801013253
0.00045784003713338165   -0.0011492122198847115   -0.00021295701741505074
4.8665559404574626e-05   -0.0011503910577841682   -0.00018793141195085812
4.4536695625753704e-05   -0.0011572159031368893   -0.0001862508397049188
3.753211123495882e-05   -0.00038025331160285614   -0.00010298998801013253
0.00045784003713338165   -0.0011492122198847115   -0.00021295701741505074
4.4536695625753704e-05   -0.0011572159031368893   -0.0001862508397049188
0.0002526704177481947   -0.00039644370361397255   -0.00011836948292472699
0.0002513618385554229   -0.00040035961426582053   -8.701329867907078e-05
0.0004545227873184955   -0.0011702661866492255   -0.00017732907854818073
0.00057300769176394   -0.0004456301980900327   -8.290178415810158e-05
0.0002528532587596097   -0.0004021791879376237   -0.00010295752805498496
0.0004545227873184955   -0.0011702661866492255   -0.00017732907854818073
0.0009622831993388723   -0.001203762052318087   -0.00017567298124595779
0.00057300769176394   -0.0004456301980900327   -8.290178415810158e-05
0.0009449391664144143   -0.0011999137787122125   -0.00019947307982609282
0.0002528532587596097   -0.0004021791879376237   -0.00010295752805498496
0.0005395033669335433   -0.0004403662581453948   -0.00011937947274548803
0.0009449391664144143   -0.0011999137787122125   -0.00019947307982609282
0.00057300769176394   -0.0004456301980900327   -8.290178415810158e-05
0.0002528532587596097   -0.0004021791879376237   -0.00010295752805498496
0.0009449391664144143   -0.0011999137787122125   -0.00019947307982609282
0.00045824400556969045   -0.001169790716572491   -0.00018781756616811075
0.0004545227873184955   -0.0011702661866492255   -0.00017732907854818073
0.0002528532587596097   -0.0004021791879376237   -0.00010295752805498496
0.0009449391664144143   -0.0011999137787122125   -0.00019947307982609282
0.0004545227873184955   -0.0011702661866492255   -0.00017732907854818073
0.00057300769176394   -0.0004456301980900327   -8.290178415810158e-05
0.0002528532587596097   -0.0004021791879376237   -0.00010295752805498496
0.00045824400556969045   -0.001169790716572491   -0.00018781756616811075
0.0005395033669335433   -0.0004403662581453948   -0.00011937947274548803
0.0002526704177481947   -0.00039644370361397255   -0.00011836948292472699
0.00045824400556969045   -0.001169790716572491   -0.00018781756616811075
0.0009449391664144143   -0.0011999137787122125   -0.00019947307982609282
0.0005395033669335433   -0.0004403662581453948   -0.00011937947274548803
0.0009292485300165576   -0.0011900526022229894   -0.00022649029992343606
0.0002526704177481947   -0.00039644370361397255   -0.00011836948292472699
0.0005244597459310456   -0.0004312206694654401   -0.00015031811641733712
0.0009292485300165576   -0.0011900526022229894   -0.00022649029992343606
0.0005395033669335433   -0.0004403662581453948   -0.00011937947274548803
0.0002526704177481947   -0.00039644370361397255   -0.00011836948292472699
0.0009292485300165576   -0.0011900526022229894   -0.00022649029992343606
0.0004576385472221948   -0.0011633406560237903   -0.00019984358475788497
0.00045824400556969045   -0.001169790716572491   -0.00018781756616811075
0.0002526704177481947   -0.00039644370361397255   -0.00011836948292472699
0.0009292485300165576   -0.0011900526022229894   -0.00022649029992343606
0.00045824400556969045   -0.001169790716572491   -0.00018781756616811075
0.0005395033669335433   -0.0004403662581453948   -0.00011937947274548803
0.0002526704177481947   -0.00039644370361397255   -0.00011836948292472699
0.0004576385472221948   -0.0011633406560237903   -0.00019984358475788497
0.0005244597459310456   -0.0004312206694654401   -0.00015031811641733712
0.00025842875312942867   -0.0003814942863596982   -0.00013358010704081144
0.0004576385472221948   -0.0011633406560237903   -0.00019984358475788497
0.0009292485300165576   -0.0011900526022229894   -0.00022649029992343606
0.0005244597459310456   -0.0004312206694654401   -0.00015031811641733712
0.0009047866013431112   -0.0011686076388861461   -0.0002547618529397129
0.00025842875312942867   -0.0003814942863596982   -0.00013358010704081144
0.0005014349116758311   -0.00040813473355004036   -0.000183261357147735
0.0009047866013431112   -0.0011686076388861461   -0.0002547618529397129
0.0005244597459310456   -0.0004312206694654401   -0.00015031811641733712
0.00025842875312942867   -0.0003814942863596982   -0.00013358010704081144
0.0009047866013431112   -0.0011686076388861461   -0.0002547618529397129
0.00045784003713338165   -0.0011492122198847115   -0.00021295701741505074
0.0004576385472221948   -0.0011633406560237903   -0.00019984358475788497
0.00025842875312942867   -0.0003814942863596982   -0.00013358010704081144
0.0009047866013431112   -0.0011686076388861461   -0.0002547618529397129
0.0004576385472221948   -0.0011633406560237903   -0.00019984358475788497
0.0005244597459310456   -0.0004312206694654401   -0.00015031811641733712
-0.001206686502928488   -0.0012068599124682381   -0.00029498769609359024
-0.0016427991971861   -0.002241184924617168   -0.00033723075186305326
-0.0007697929521459802   -0.0011690846021330397   -0.00024367769490057147
-0.001241093124095782   -0.0012341789918793636   -0.0002567493655134584
-0.0016427991971861   -0.002241184924617168   -0.00033723075186305326
-0.00105736566305421   -0.002212678747984094   -0.00029626565773122266
-0.0007697929521459802   -0.0011690846021330397   -0.00024367769490057147
-0.0010580810590283994   -0.0022292615496093157   -0.0002781186486535283
-0.001241093124095782   -0.0012341789918793636   -0.0002567493655134584
-0.0007693872005737537   -0.0011885636530047916   -0.00022000776158075252
-0.0010580810590283994   -0.0022292615496093157   -0.0002781186486535283
-0.0007697929521459802   -0.0011690846021330397   -0.00024367769490057147
-0.001241093124095782   -0.0012341789918793636   -0.0002567493655134584
-0.0010580810590283994   -0.0022292615496093157   -0.0002781186486535283
-0.0016698099623518093   -0.0022639397261107895   -0.0003092064158826423
-0.0016427991971861   -0.002241184924617168   -0.00033723075186305326
-0.001241093124095782   -0.0012341789918793636   -0.0002567493655134584
-0.0010580810590283994   -0.0022292615496093157   -0.0002781186486535283
-0.0016427991971861   -0.002241184924617168   -0.00033723075186305326
-0.0007697929521459802   -0.0011690846021330397   -0.00024367769490057147
-0.001241093124095782   -0.0012341789918793636   -0.0002567493655134584
-0.0016698099623518093   -0.0022639397261107895   -0.0003092064158826423
-0.0007693872005737537   -0.0011885636530047916   -0.00022000776158075252
-0.0012644436059521232   -0.0012497233934084296   -0.00021942581485006346
-0.0016698099623518093   -0.0022639397261107895   -0.0003092064158826423
-0.0010580810590283994   -0.0022292615496093157   -0.0002781186486535283
-0.0007693872005737537   -0.0011885636530047916   -0.00022000776158075252
-0.001059118990656129   -0.0022409317676879564   -0.0002613431252704802
-0.0012644436059521232   -0.0012497233934084296   -0.00021942581485006346
-0.0007710039291110441   -0.0012005589429055971   -0.00019734757887583136
-0.001059118990656129   -0.0022409317676879564   -0.0002613431252704802
-0.0007693872005737537   -0.0011885636530047916   -0.00022000776158075252
-0.0012644436059521232   -0.0012497233934084296   -0.00021942581485006346
-0.001059118990656129   -0.0022409317676879564   -0.0002613431252704802
-0.0016861024146990224   -0.002278355438975847   -0.0002831868244235336
-0.0016698099623518093   -0.0022639397261107895   -0.0003092064158826423
-0.0012644436059521232   -0.0012497233934084296   -0.00021942581485006346
-0.001059118990656129   -0.0022409317676879564   -0.0002613431252704802
-0.0016698099623518093   -0.0022639397261107895   -0.0003092064158826423
-0.0007693872005737537   -0.0011885636530047916   -0.00022000776158075252
-0.0012644436059521232   -0.0012497233934084296   -0.00021942581485006346
-0.0016861024146990224   -0.002278355438975847   -0.0002831868244235336
-0.0007710039291110441   -0.0012005589429055971   -0.00019734757887583136
-0.001291982683946497   -0.0012591191590969396   -0.00018565829386992647
-0.0016861024146990224   -0.002278355438975847   -0.0002831868244235336
-0.001059118990656129   -0.0022409317676879564   -0.0002613431252704802
-0.0007710039291110441   -0.0012005589429055971   -0.00019734757887583136
-0.0010554380958991195   -0.002248809010898592   -0.0002456429501608037
-0.001291982683946497   -0.0012591191590969396   -0.00018565829386992647
-0.0007672406963525127   -0.0012069842381974597   -0.00017622241641223086
-0.0010554380958991195   -0.002248809010898592   -0.0002456429501608037
-0.0007710039291110441   -0.0012005589429055971   -0.00019734757887583136
-0.001291982683946497   -0.0012591191590969396   -0.00018565829386992647
-0.0010554380958991195   -0.002248809010898592   -0.0002456429501608037
-0.0017046386485467266   -0.002289046093228789   -0.0002593608963832677
-0.0016861024146990224   -0.002278355438975847   -0.0002831868244235336
-0.001291982683946497   -0.0012591191590969396   -0.00018565829386992647
-0.0010554380958991195   -0.002248809010898592   -0.0002456429501608037
-0.0016861024146990224   -0.002278355438975847   -0.0002831868244235336
-0.0007710039291110441   -0.0012005589429055971   -0.00019734757887583136
-0.0007697929521459802   -0.0011690846021330397   -0.00024367769490057147
-0.00105736566305421   -0.002212678747984094   -0.00029626565773122266
-0.0003594605174329743   -0.0011514976366023342   -0.00020877640713811045
-0.0007693872005737537   -0.0011885636530047916   -0.00022000776158075252
-0.00105736566305421   -0.002212678747984094   -0.00029626565773122266
-0.0005076300092328276   -0.0021983293596678213   -0.00026787530065718024
-0.0003594605174329743   -0.0011514976366023342   -0.00020877640713811045
-0.0005047668163480123   -0.002208813214527447   -0.0002574643187526207
-0.0007693872005737537   -0.0011885636530047916   -0.00022000776158075252
-0.0003550194328707098   -0.0011637737736921736   -0.00019652320540892835
-0.0005047668163480123   -0.002208813214527447   -0.0002574643187526207
-0.0003594605174329743   -0.0011514976366023342   -0.00020877640713811045
-0.0007693872005737537   -0.0011885636530047916   -0.00022000776158075252
-0.0005047668163480123   -0.002208813214527447   -0.0002574643187526207
-0.0010580810590283994   -0.0022292615496093157   -0.0002781186486535283
-0.00105736566305421   -0.002212678747984094   -0.00029626565773122266
-0.0007693872005737537   -0.0011885636530047916   -0.00022000776158075252
-0.0005047668163480123   -0.002208813214527447   -0.0002574643187526207
-0.00105736566305421   -0.002212678747984094   -0.00029626565773122266
-0.0003594605174329743   -0.0011514976366023342   -0.00020877640713811045
-0.0007693872005737537   -0.0011885636530047916   -0.00022000776158075252
-0.0010580810590283994   -0.0022292615496093157   -0.0002781186486535283
-0.0003550194328707098   -0.0011637737736921736   -0.00019652320540892835
-0.0007710039291110441   -0.0012005589429055971   -0.00019734757887583136
-0.0010580810590283994   -0.0022292615496093157   -0.0002781186486535283
-0.0005047668163480123   -0.002208813214527447   -0.0002574643187526207
-0.0003550194328707098   -0.0011637737736921736   -0.00019652320540892835
-0.0005016271318942922   -0.0022150222335286423   -0.00024834940708595824
-0.0007710039291110441   -0.0012005589429055971   -0.00019734757887583136
-0.00035093298919849995   -0.0011697732136111167   -0.00018547273339880938
-0.0005016271318942922   -0.0022150222335286423   -0.00024834940708595824
-0.0003550194328707098   -0.0011637737736921736   -0.00019652320540892835
-0.0007710039291110441   -0.0012005589429055971   -0.00019734757887583136
-0.0005016271318942922   -0.0022150222335286423   -0.00024834940708595824
-0.001059118990656129   -0.0022409317676879564   -0.0002613431252704802
-0.0010580810590283994   -0.0022292615496093157   -0.0002781186486535283
-0.0007710039291110441   -0.0012005589429055971   -0.00019734757887583136
-0.0005016271318942922   -0.0022150222335286423   -0.00024834940708595824
-0.0010580810590283994   -0.0022292615496093157   -0.0002781186486535283
-0.0003550194328707098   -0.0011637737736921736   -0.00019652320540892835
-0.0007710039291110441   -0.0012005589429055971   -0.00019734757887583136
-0.001059118990656129   -0.0022409317676879564   -0.0002613431252704802
-0.00035093298919849995   -0.0011697732136111167   -0.00018547273339880938
-0.0007672406963525127   -0.0012069842381974597   -0.00017622241641223086
-0.001059118990656129   -0.0022409317676879564   -0.0002613431252704802
-0.0005016271318942922   -0.0022150222335286423   -0.00024834940708595824
-0.00035093298919849995   -0.0011697732136111167   -0.00018547273339880938
-0.0004974613787798994   -0.0022170448396090408   -0.0002405313158205742
-0.0007672406963525127   -0.0012069842381974597   -0.00017622241641223086
-0.00034545987811662103   -0.001169718703278131   -0.0001759199006528565
-0.0004974613787798994   -0.0022170448396090408   -0.0002405313158205742
-0.00035093298919849995   -0.0011697732136111167   -0.00018547273339880938
-0.0007672406963525127   -0.0012069842381974597   -0.00017622241641223086
-0.0004974613787798994   -0.0022170448396090408   -0.0002405313158205742
-0.0010554380958991195   -0.002248809010898592   -0.0002456429501608037
-0.001059118990656129   -0.0022409317676879564   -0.0002613431252704802
-0.0007672406963525127   -0.0012069842381974597   -0.00017622241641223086
-0.0004974613787798994   -0.0022170448396090408   -0.0002405313158205742
-0.001059118990656129   -0.0022409317676879564   -0.0002613431252704802
-0.00035093298919849995   -0.0011697732136111167   -0.00018547273339880938
-0.0003594605174329743   -0.0011514976366023342   -0.00020877640713811045
-0.0005076300092328276   -0.0021983293596678213   -0.00026787530065718024
3.53694373909649e-05   -0.001152101648099402   -0.0001870092559858857
-0.0003550194328707098   -0.0011637737736921736   -0.00019652320540892835
-0.0005076300092328276   -0.0021983293596678213   -0.00026787530065718024
2.528135092969944e-05   -0.002197538852181335   -0.00025059049263908477
3.53694373909649e-05   -0.001152101648099402   -0.0001870092559858857
2.926901771430336e-05   -0.0022019799602139615   -0.00024788433426377104
-0.0003550194328707098   -0.0011637737736921736   -0.00019652320540892835
4.059512984487428e-05   -0.0011577258834684298   -0.00018595005959502544
2.926901771430336e-05   -0.0022019799602139615   -0.00024788433426377104
3.53694373909649e-05   -0.001152101648099402   -0.0001870092559858857
-0.0003550194328707098   -0.0011637737736921736   -0.00019652320540892835
2.926901771430336e-05   -0.0022019799602139615   -0.00024788433426377104
-0.0005047668163480123   -0.002208813214527447   -0.0002574643187526207
-0.0005076300092328276   -0.0021983293596678213   -0.00026787530065718024
-0.0003550194328707098   -0.0011637737736921736   -0.00019652320540892835
2.926901771430336e-05   -0.0022019799602139615   -0.00024788433426377104
-0.0005076300092328276   -0.0021983293596678213   -0.00026787530065718024
3.53694373909649e-05   -0.001152101648099402   -0.0001870092559858857
-0.0003550194328707098   -0.0011637737736921736   -0.00019652320540892835
-0.0005047668163480123   -0.002208813214527447   -0.0002574643187526207
4.059512984487428e-05   -0.0011577258834684298   -0.00018595005959502544
-0.00035093298919849995   -0.0011697732136111167   -0.00018547273339880938
-0.0005047668163480123   -0.002208813214527447   -0.0002574643187526207
2.926901771430336e-05   -0.0022019799602139615   -0.00024788433426377104
4.059512984487428e-05   -0.0011577258834684298   -0.00018595005959502544
3.239316206839091e-05   -0.0022021602202882394   -0.0002464457881872893
-0.00035093298919849995   -0.0011697732136111167   -0.00018547273339880938
4.4536695625753704e-05   -0.0011572159031368893   -0.0001862508397049188
3.239316206839091e-05   -0.0022021602202882394   -0.0002464457881872893
4.059512984487428e-05   -0.0011577258834684298   -0.00018595005959502544
-0.00035093298919849995   -0.0011697732136111167   -0.00018547273339880938
3.239316206839091e-05   -0.0022021602202882394   -0.0002464457881872893
-0.0005016271318942922   -0.0022150222335286423   -0.00024834940708595824
-0.0005047668163480123   -0.002208813214527447   -0.0002574643187526207
-0.00035093298919849995   -0.0011697732136111167   -0.00018547273339880938
3.239316206839091e-05   -0.0022021602202882394   -0.0002464457881872893
-0.0005047668163480123   -0.002208813214527447   -0.0002574643187526207
4.059512984487428e-05   -0.0011577258834684298   -0.00018595005959502544
-0.00035093298919849995   -0.0011697732136111167   -0.00018547273339880938
-0.0005016271318942922   -0.0022150222335286423   -0.00024834940708595824
4.4536695625753704e-05   -0.0011572159031368893   -0.0001862508397049188
-0.00034545987811662103   -0.001169718703278131   -0.0001759199006528565
-0.0005016271318942922   -0.0022150222335286423   -0.00024834940708595824
3.239316206839091e-05   -0.0022021602202882394   -0.0002464457881872893
4.4536695625753704e-05   -0.0011572159031368893   -0.0001862508397049188
3.511131888678511e-05   -0.002198018260674847   -0.0002463458429530458
-0.00034545987811662103   -0.001169718703278131   -0.0001759199006528565
4.8665559404574626e-05   -0.0011503910577841682   -0.00018793141195085812
3.511131888678511e-05   -0.002198018260674847   -0.0002463458429530458
4.4536695625753704e-05   -0.0011572159031368893   -0.0001862508397049188
-0.00034545987811662103   -0.001169718703278131   -0.0001759199006528565
3.511131888678511e-05   -0.002198018260674847   -0.0002463458429530458
-0.0004974613787798994   -0.0022170448396090408   -0.0002405313158205742
-0.0005016271318942922   -0.0022150222335286423   -0.00024834940708595824
-0.00034545987811662103   -0.001169718703278131   -0.0001759199006528565
3.511131888678511e-05   -0.002198018260674847   -0.0002463458429530458
-0.0005016271318942922   -0.0022150222335286423   -0.00024834940708595824
4.4536695625753704e-05   -0.0011572159031368893   -0.0001862508397049188
3.53694373909649e-05   -0.001152101648099402   -0.0001870092559858857
2.528135092969944e-05   -0.002197538852181335   -0.00025059049263908477
0.0004545227873184955   -0.0011702661866492255   -0.00017732907854818073
4.059512984487428e-05   -0.0011577258834684298   -0.00018595005959502544
2.528135092969944e-05   -0.002197538852181335   -0.00025059049263908477
0.0005813876489098798   -0.002209486948481163   -0.0002441624327094787
0.0004545227873184955   -0.0011702661866492255   -0.00017732907854818073
0.0005852320421639641   -0.0022083334343529597   -0.0002493082194616773
4.059512984487428e-05   -0.0011577258834684298   -0.00018595005959502544
0.00045824400556969045   -0.001169790716572491   -0.00018781756616811075
0.0005852320421639641   -0.0022083334343529597   -0.0002493082194616773
0.0004545227873184955   -0.0011702661866492255   -0.00017732907854818073
4.059512984487428e-05   -0.0011577258834684298   -0.00018595005959502544
0.0005852320421639641   -0.0022083334343529597   -0.0002493082194616773
2.926901771430336e-05   -0.0022019799602139615   -0.00024788433426377104
2.528135092969944e-05   -0.002197538852181335   -0.00025059049263908477
4.059512984487428e-05   -0.0011577258834684298   -0.00018595005959502544
0.0005852320421639641   -0.0022083334343529597   -0.0002493082194616773
2.528135092969944e-05   -0.002197538852181335   -0.00025059049263908477
0.0004545227873184955   -0.0011702661866492255   -0.00017732907854818073
4.059512984487428e-05   -0.0011577258834684298   -0.00018595005959502544
2.926901771430336e-05   -0.0022019799602139615   -0.00024788433426377104
0.00045824400556969045   -0.001169790716572491   -0.00018781756616811075
4.4536695625753704e-05   -0.0011572159031368893   -0.0001862508397049188
2.926901771430336e-05   -0.0022019799602139615   -0.00024788433426377104
0.0005852320421639641   -0.0022083334343529597   -0.0002493082194616773
0.00045824400556969045   -0.001169790716572491   -0.00018781756616811075
0.0005855559033274506   -0.0022030638523179323   -0.0002556284983075415
4.4536695625753704e-05   -0.0011572159031368893   -0.0001862508397049188
0.0004576385472221948   -0.0011633406560237903   -0.00019984358475788497
0.0005855559033274506   -0.0022030638523179323   -0.0002556284983075415
0.00045824400556969045   -0.001169790716572491   -0.00018781756616811075
4.4536695625753704e-05   -0.0011572159031368893   -0.0001862508397049188
0.0005855559033274506   -0.0022030638523179323   -0.0002556284983075415
3.239316206839091e-05   -0.0022021602202882394   -0.0002464457881872893
2.926901771430336e-05   -0.0022019799602139615   -0.00024788433426377104
4.4536695625753704e-05   -0.0011572159031368893   -0.0001862508397049188
0.0005855559033274506   -0.0022030638523179323   -0.0002556284983075415
2.926901771430336e-05   -0.0022019799602139615   -0.00024788433426377104
0.00045824400556969045   -0.001169790716572491   -0.00018781756616811075
4.4536695625753704e-05   -0.0011572159031368893   -0.0001862508397049188
3.239316206839091e-05   -0.0022021602202882394   -0.0002464457881872893
0.0004576385472221948   -0.0011633406560237903   -0.00019984358475788497
4.8665559404574626e-05   -0.0011503910577841682   -0.00018793141195085812
3.239316206839091e-05   -0.0022021602202882394   -0.0002464457881872893
0.0005855559033274506   -0.0022030638523179323   -0.0002556284983075415
0.0004576385472221948   -0.0011633406560237903   -0.00019984358475788497
0.0005850276001172644   -0.0021925996596728883   -0.00026326727841066055
4.8665559404574626e-05   -0.0011503910577841682   -0.00018793141195085812
0.00045784003713338165   -0.0011492122198847115   -0.00021295701741505074
0.0005850276001172644   -0.0021925996596728883   -0.00026326727841066055
0.0004576385472221948   -0.0011633406560237903   -0.00019984358475788497
4.8665559404574626e-05   -0.0011503910577841682   -0.00018793141195085812
0.0005850276001172644   -0.0021925996596728883   -0.00026326727841066055
3.511131888678511e-05   -0.002198018260674847   -0.0002463458429530458
3.239316206839091e-05   -0.0022021602202882394   -0.0002464457881872893
4.8665559404574626e-05   -0.0011503910577841682   -0.00018793141195085812
0.0005850276001172644   -0.0021925996596728883   -0.00026326727841066055
3.239316206839091e-05   -0.0022021602202882394   -0.0002464457881872893
0.0004576385472221948   -0.0011633406560237903   -0.00019984358475788497
0.0004545227873184955   -0.0011702661866492255   -0.00017732907854818073
0.0005813876489098798   -0.002209486948481163   -0.0002441624327094787
0.0009622831993388723   -0.001203762052318087   -0.00017567298124595779
0.00045824400556969045   -0.001169790716572491   -0.00018781756616811075
0.0005813876489098798   -0.002209486948481163   -0.0002441624327094787
0.0012156464002790566   -0.0022308018597284687   -0.000245571000405182
0.0009622831993388723   -0.001203762052318087   -0.00017567298124595779
0.0012077090444887896   -0.002226336714031383   -0.0002594052170277954
0.00045824400556969045   -0.001169790716572491   -0.00018781756616811075
0.0009449391664144143   -0.0011999137787122125   -0.00019947307982609282
0.0012077090444887896   -0.002226336714031383   -0.0002594052170277954
0.0009622831993388723   -0.001203762052318087   -0.00017567298124595779
0.00045824400556969045   -0.001169790716572491   -0.00018781756616811075
0.0012077090444887896   -0.002226336714031383   -0.0002594052170277954
0.0005852320421639641   -0.0022083334343529597   -0.0002493082194616773
0.0005813876489098798   -0.002209486948481163   -0.0002441624327094787
0.00045824400556969045   -0.001169790716572491   -0.00018781756616811075
0.0012077090444887896   -0.002226336714031383   -0.0002594052170277954
0.0005813876489098798   -0.002209486948481163   -0.0002441624327094787
0.0009622831993388723   -0.001203762052318087   -0.00017567298124595779
0.00045824400556969045   -0.001169790716572491   -0.00018781756616811075
0.0005852320421639641   -0.0022083334343529597   -0.0002493082194616773
0.0009449391664144143   -0.0011999137787122125   -0.00019947307982609282
0.0004576385472221948   -0.0011633406560237903   -0.00019984358475788497
0.0005852320421639641   -0.0022083334343529597   -0.0002493082194616773
0.0012077090444887896   -0.002226336714031383   -0.0002594052170277954
0.0009449391664144143   -0.0011999137787122125   -0.00019947307982609282
0.0011994150675913135   -0.0022183276501901612   -0.0002753587160666416
0.0004576385472221948   -0.0011633406560237903   -0.00019984358475788497
0.0009292485300165576   -0.0011900526022229894   -0.00022649029992343606
0.0011994150675913135   -0.0022183276501901612   -0.0002753587160666416
0.0009449391664144143   -0.0011999137787122125   -0.00019947307982609282
0.0004576385472221948   -0.0011633406560237903   -0.00019984358475788497
0.0011994150675913135   -0.0022183276501901612   -0.0002753587160666416
0.0005855559033274506   -0.0022030638523179323   -0.0002556284983075415
0.0005852320421639641   -0.0022083334343529597   -0.0002493082194616773
0.0004576385472221948   -0.0011633406560237903   -0.00019984358475788497
0.0011994150675913135   -0.0022183276501901612   -0.0002753587160666416
0.0005852320421639641   -0.0022083334343529597   -0.0002493082194616773
0.0009449391664144143   -0.0011999137787122125   -0.00019947307982609282
0.0004576385472221948   -0.0011633406560237903   -0.00019984358475788497
0.0005855559033274506   -0.0022030638523179323   -0.0002556284983075415
0.0009292485300165576   -0.0011900526022229894   -0.00022649029992343606
0.00045784003713338165   -0.0011492122198847115   -0.00021295701741505074
0.0005855559033274506   -0.0022030638523179323   -0.0002556284983075415
0.0011994150675913135   -0.0022183276501901612   -0.0002753587160666416
0.0009292485300165576   -0.0011900526022229894   -0.00022649029992343606
0.0011829771749186035   -0.002202092819939227   -0.00029343438949809266
0.00045784003713338165   -0.0011492122198847115   -0.00021295701741505074
0.0009047866013431112   -0.0011686076388861461   -0.0002547618529397129
0.0011829771749186035   -0.002202092819939227   -0.00029343438949809266
0.0009292485300165576   -0.0011900526022229894   -0.00022649029992343606
0.00045784003713338165   -0.0011492122198847115   -0.00021295701741505074
0.0011829771749186035   -0.002202092819939227   -0.00029343438949809266
0.0005850276001172644   -0.0021925996596728883   -0.00026326727841066055
0.0005855559033274506   -0.0022030638523179323   -0.0002556284983075415
0.00045784003713338165   -0.0011492122198847115   -0.00021295701741505074
0.0011829771749186035   -0.002202092819939227   -0.00029343438949809266
0.0005855559033274506   -0.0022030638523179323   -0.0002556284983075415
0.0009292485300165576   -0.0011900526022229894   -0.00022649029992343606
-0.0016427991971861   -0.002241184924617168   -0.00033723075186305326
-0.001950332782590708   -0.0034546845750739815   -0.0003613548842751008
-0.00105736566305421   -0.002212678747984094   -0.00029626565773122266
-0.0016698099623518093   -0.0022639397261107895   -0.0003092064158826423
-0.001950332782590708   -0.0034546845750739815   -0.0003613548842751008
-0.0012690458524409036   -0.0034368871241055345   -0.0003285359877430839
-0.00105736566305421   -0.002212678747984094   -0.00029626565773122266
-0.0012689458048880714   -0.003450921337070443   -0.00031571757975090324
-0.0016698099623518093   -0.0022639397261107895   -0.0003092064158826423
-0.0010580810590283994   -0.0022292615496093157   -0.0002781186486535283
-0.0012689458048880714   -0.003450921337070443   -0.00031571757975090324
-0.00105736566305421   -0.002212678747984094   -0.00029626565773122266
-0.0016698099623518093   -0.0022639397261107895   -0.0003092064158826423
-0.0012689458048880714   -0.003450921337070443   -0.00031571757975090324
-0.001967600663838644   -0.003473751287254155   -0.0003431576961674731
-0.001950332782590708   -0.0034546845750739815   -0.0003613548842751008
-0.0016698099623518093   -0.0022639397261107895   -0.0003092064158826423
-0.0012689458048880714   -0.003450921337070443   -0.00031571757975090324
-0.001950332782590708   -0.0034546845750739815   -0.0003613548842751008
-0.00105736566305421   -0.002212678747984094   -0.00029626565773122266
-0.0016698099623518093   -0.0022639397261107895   -0.0003092064158826423
-0.001967600663838644   -0.003473751287254155   -0.0003431576961674731
-0.0010580810590283994   -0.0022292615496093157   -0.0002781186486535283
-0.0016861024146990224   -0.002278355438975847   -0.0002831868244235336
-0.001967600663838644   -0.003473751287254155   -0.0003431576961674731
-0.0012689458048880714   -0.003450921337070443   -0.00031571757975090324
-0.0010580810590283994   -0.0022292615496093157   -0.0002781186486535283
-0.0012683542474465313   -0.003462185358065561   -0.00030420508188482503
-0.0016861024146990224   -0.002278355438975847   -0.0002831868244235336
-0.001059118990656129   -0.0022409317676879564   -0.0002613431252704802
-0.0012683542474465313   -0.003462185358065561   -0.00030420508188482503
-0.0010580810590283994   -0.0022292615496093157   -0.0002781186486535283
-0.0016861024146990224   -0.002278355438975847   -0.0002831868244235336
-0.0012683542474465313   -0.003462185358065561   -0.00030420508188482503
-0.0019767060092077855   -0.003487407237477306   -0.0003267760506592094
-0.001967600663838644   -0.003473751287254155   -0.0003431576961674731
-0.0016861024146990224   -0.002278355438975847   -0.0002831868244235336
-0.0012683542474465313   -0.003462185358065561   -0.00030420508188482503
-0.001967600663838644   -0.003473751287254155   -0.0003431576961674731
-0.0010580810590283994   -0.0022292615496093157   -0.0002781186486535283
-0.0016861024146990224   -0.002278355438975847   -0.0002831868244235336
-0.0019767060092077855   -0.003487407237477306   -0.0003267760506592094
-0.001059118990656129   -0.0022409317676879564   -0.0002613431252704802
-0.0017046386485467266   -0.002289046093228789   -0.0002593608963832677
-0.0019767060092077855   -0.003487407237477306   -0.0003267760506592094
-0.0012683542474465313   -0.003462185358065561   -0.00030420508188482503
-0.001059118990656129   -0.0022409317676879564   -0.0002613431252704802
-0.001264083728549531   -0.003471628378929953   -0.0002938146429296627
-0.0017046386485467266   -0.002289046093228789   -0.0002593608963832677
-0.0010554380958991195   -0.002248809010898592   -0.0002456429501608037
-0.001264083728549531   -0.003471628378929953   -0.0002938146429296627
-0.001059118990656129   -0.0022409317676879564   -0.0002613431252704802
-0.0017046386485467266   -0.002289046093228789   -0.0002593608963832677
-0.001264083728549531   -0.003471628378929953   -0.0002938146429296627
-0.0019859500521486966   -0.003499930538942031   -0.0003124351771919959
-0.0019767060092077855   -0.003487407237477306   -0.0003267760506592094
-0.0017046386485467266   -0.002289046093228789   -0.0002593608963832677
-0.001264083728549531   -0.003471628378929953   -0.0002938146429296627
-0.0019767060092077855   -0.003487407237477306   -0.0003267760506592094
-0.001059118990656129   -0.0022409317676879564   -0.0002613431252704802
-0.00105736566305421   -0.002212678747984094   -0.00029626565773122266
-0.0012690458524409036   -0.0034368871241055345   -0.0003285359877430839
-0.0005076300092328276   -0.0021983293596678213   -0.00026787530065718024
-0.0010580810590283994   -0.0022292615496093157   -0.0002781186486535283
-0.0012690458524409036   -0.0034368871241055345   -0.0003285359877430839
-0.0006317182461199493   -0.003427461133944343   -0.000305861819093606
-0.0005076300092328276   -0.0021983293596678213   -0.00026787530065718024
-0.0006289373519733739   -0.003436150009080645   -0.00029721273991519236
-0.0010580810590283994   -0.0022292615496093157   -0.0002781186486535283
-0.0005047668163480123   -0.002208813214527447   -0.0002574643187526207
-0.0006289373519733739   -0.003436150009080645   -0.00029721273991519236
-0.0005076300092328276   -0.0021983293596678213   -0.00026787530065718024
-0.0010580810590283994   -0.0022292615496093157   -0.0002781186486535283
-0.0006289373519733739   -0.003436150009080645   -0.00029721273991519236
-0.0012689458048880714   -0.003450921337070443   -0.00031571757975090324
-0.0012690458524409036   -0.0034368871241055345   -0.0003285359877430839
-0.0010580810590283994   -0.0022292615496093157   -0.0002781186486535283
-0.0006289373519733739   -0.003436150009080645   -0.00029721273991519236
-0.0012690458524409036   -0.0034368871241055345   -0.0003285359877430839
-0.0005076300092328276   -0.0021983293596678213   -0.00026787530065718024
-0.0010580810590283994   -0.0022292615496093157   -0.0002781186486535283
-0.0012689458048880714   -0.003450921337070443   -0.00031571757975090324
-0.0005047668163480123   -0.002208813214527447   -0.0002574643187526207
-0.001059118990656129   -0.0022409317676879564   -0.0002613431252704802
-0.0012689458048880714   -0.003450921337070443   -0.00031571757975090324
-0.0006289373519733739   -0.003436150009080645   -0.00029721273991519236
-0.0005047668163480123   -0.002208813214527447   -0.0002574643187526207
-0.0006257384195018635   -0.003442503005203116   -0.00028984175235305273
-0.001059118990656129   -0.0022409317676879564   -0.0002613431252704802
-0.0005016271318942922   -0.0022150222335286423   -0.00024834940708595824
-0.0006257384195018635   -0.003442503005203116   -0.00028984175235305273
-0.0005047668163480123   -0.002208813214527447   -0.0002574643187526207
-0.001059118990656129   -0.0022409317676879564   -0.0002613431252704802
-0.0006257384195018635   -0.003442503005203116   -0.00028984175235305273
-0.0012683542474465313   -0.003462185358065561   -0.00030420508188482503
-0.0012689458048880714   -0.003450921337070443   -0.00031571757975090324
-0.001059118990656129   -0.0022409317676879564   -0.0002613431252704802
-0.0006257384195018635   -0.003442503005203116   -0.00028984175235305273
-0.0012689458048880714   -0.003450921337070443   -0.00031571757975090324
-0.0005047668163480123   -0.002208813214527447   -0.0002574643187526207
-0.001059118990656129   -0.0022409317676879564   -0.0002613431252704802
-0.0012683542474465313   -0.003462185358065561   -0.00030420508188482503
-0.0005016271318942922   -0.0022150222335286423   -0.00024834940708595824
-0.0010554380958991195   -0.002248809010898592   -0.0002456429501608037
-0.0012683542474465313   -0.003462185358065561   -0.00030420508188482503
-0.0006257384195018635   -0.003442503005203116   -0.00028984175235305273
-0.0005016271318942922   -0.0022150222335286423   -0.00024834940708595824
-0.0006217201723778388   -0.003446563485533244   -0.0002837759759979899
-0.0010554380958991195   -0.002248809010898592   -0.0002456429501608037
-0.0004974613787798994   -0.0022170448396090408   -0.0002405313158205742
-0.0006217201723778388   -0.003446563485533244   -0.0002837759759979899
-0.0005016271318942922   -0.0022150222335286423   -0.00024834940708595824
-0.0010554380958991195   -0.002248809010898592   -0.0002456429501608037
-0.0006217201723778388   -0.003446563485533244   -0.0002837759759979899
-0.001264083728549531   -0.003471628378929953   -0.0002938146429296627
-0.0012683542474465313   -0.003462185358065561   -0.00030420508188482503
-0.0010554380958991195   -0.002248809010898592   -0.0002456429501608037
-0.0006217201723778388   -0.003446563485533244   -0.0002837759759979899
-0.0012683542474465313   -0.003462185358065561   -0.00030420508188482503
-0.0005016271318942922   -0.0022150222335286423   -0.00024834940708595824
-0.0005076300092328276   -0.0021983293596678213   -0.00026787530065718024
-0.0006317182461199493   -0.003427461133944343   -0.000305861819093606
2.528135092969944e-05   -0.002197538852181335   -0.00025059049263908477
-0.0005047668163480123   -0.002208813214527447   -0.0002574643187526207
-0.0006317182461199493   -0.003427461133944343   -0.000305861819093606
-1.208765351161797e-05   -0.003425698308414178   -0.00029299313733407284
2.528135092969944e-05   -0.002197538852181335   -0.00025059049263908477
-8.208105604817742e-06   -0.0034289635687127042   -0.0002885651738879367
-0.0005047668163480123   -0.002208813214527447   -0.0002574643187526207
2.926901771430336e-05   -0.0022019799602139615   -0.00024788433426377104
-8.208105604817742e-06   -0.0034289635687127042   -0.0002885651738879367
2.528135092969944e-05   -0.002197538852181335   -0.00025059049263908477
-0.0005047668163480123   -0.002208813214527447   -0.0002574643187526207
-8.208105604817742e-06   -0.0034289635687127042   -0.0002885651738879367
-0.0006289373519733739   -0.003436150009080645   -0.00029721273991519236
-0.0006317182461199493   -0.003427461133944343   -0.000305861819093606
-0.0005047668163480123   -0.002208813214527447   -0.0002574643187526207
-8.208105604817742e-06   -0.0034289635687127042   -0.0002885651738879367
-0.0006317182461199493   -0.003427461133944343   -0.000305861819093606
2.528135092969944e-05   -0.002197538852181335   -0.00025059049263908477
-0.0005047668163480123   -0.002208813214527447   -0.0002574643187526207
-0.0006289373519733739   -0.003436150009080645   -0.00029721273991519236
2.926901771430336e-05   -0.0022019799602139615   -0.00024788433426377104
-0.0005016271318942922   -0.0022150222335286423   -0.00024834940708595824
-0.0006289373519733739   -0.003436150009080645   -0.00029721273991519236
-8.208105604817742e-06   -0.0034289635687127042   -0.0002885651738879367
2.926901771430336e-05   -0.0022019799602139615   -0.00024788433426377104
-4.993599732864812e-06   -0.003429874835680437   -0.0002854048050026483
-0.0005016271318942922   -0.0022150222335286423   -0.00024834940708595824
3.239316206839091e-05   -0.0022021602202882394   -0.0002464457881872893
-4.993599732864812e-06   -0.003429874835680437   -0.0002854048050026483
2.926901771430336e-05   -0.0022019799602139615   -0.00024788433426377104
-0.0005016271318942922   -0.0022150222335286423   -0.00024834940708595824
-4.993599732864812e-06   -0.003429874835680437   -0.0002854048050026483
-0.0006257384195018635   -0.003442503005203116   -0.00028984175235305273
-0.0006289373519733739   -0.003436150009080645   -0.00029721273991519236
-0.0005016271318942922   -0.0022150222335286423   -0.00024834940708595824
-4.993599732864812e-06   -0.003429874835680437   -0.0002854048050026483
-0.0006289373519733739   -0.003436150009080645   -0.00029721273991519236
2.926901771430336e-05   -0.0022019799602139615   -0.00024788433426377104
-0.0005016271318942922   -0.0022150222335286423   -0.00024834940708595824
-0.0006257384195018635   -0.003442503005203116   -0.00028984175235305273
3.239316206839091e-05   -0.0022021602202882394   -0.0002464457881872893
-0.0004974613787798994   -0.0022170448396090408   -0.0002405313158205742
-0.0006257384195018635   -0.003442503005203116   -0.00028984175235305273
-4.993599732864812e-06   -0.003429874835680437   -0.0002854048050026483
3.239316206839091e-05   -0.0022021602202882394   -0.0002464457881872893
-2.3469479595700607e-06   -0.003428398471659296   -0.0002835633086838949
-0.0004974613787798994   -0.0022170448396090408   -0.0002405313158205742
3.511131888678511e-05   -0.002198018260674847   -0.0002463458429530458
-2.3469479595700607e-06   -0.003428398471659296   -0.0002835633086838949
3.239316206839091e-05   -0.0022021602202882394   -0.0002464457881872893
-0.0004974613787798994   -0.0022170448396090408   -0.0002405313158205742
-2.3469479595700607e-06   -0.003428398471659296   -0.0002835633086838949
-0.0006217201723778388   -0.003446563485533244   -0.0002837759759979899
-0.0006257384195018635   -0.003442503005203116   -0.00028984175235305273
-0.0004974613787798994   -0.0022170448396090408   -0.0002405313158205742
-2.3469479595700607e-06   -0.003428398471659296   -0.0002835633086838949
-0.0006257384195018635   -0.003442503005203116   -0.00028984175235305273
3.239316206839091e-05   -0.0022021602202882394   -0.0002464457881872893
2.528135092969944e-05   -0.002197538852181335   -0.00025059049263908477
-1.208765351161797e-05   -0.003425698308414178   -0.00029299313733407284
0.0005813876489098798   -0.002209486948481163   -0.0002441624327094787
2.926901771430336e-05   -0.0022019799602139615   -0.00024788433426377104
-1.208765351161797e-05   -0.003425698308414178   -0.00029299313733407284
0.0006289433106862335   -0.003430904512507583   -0.00028993750692950135
0.0005813876489098798   -0.002209486948481163   -0.0002441624327094787
0.0006334619904870052   -0.003429011469487138   -0.00028980700329135026
2.926901771430336e-05   -0.0022019799602139615   -0.00024788433426377104
0.0005852320421639641   -0.0022083334343529597   -0.0002493082194616773
0.0006334619904870052   -0.003429011469487138   -0.00028980700329135026
0.0005813876489098798   -0.002209486948481163   -0.0002441624327094787
2.926901771430336e-05   -0.0022019799602139615   -0.00024788433426377104
0.0006334619904870052   -0.003429011469487138   -0.00028980700329135026
-8.208105604817742e-06   -0.0034289635687127042   -0.0002885651738879367
-1.208765351161797e-05   -0.003425698308414178   -0.00029299313733407284
2.926901771430336e-05   -0.0022019799602139615   -0.00024788433426377104
0.0006334619904870052   -0.003429011469487138   -0.00028980700329135026
-1.208765351161797e-05   -0.003425698308414178   -0.00029299313733407284
0.0005813876489098798   -0.002209486948481163   -0.0002441624327094787
2.926901771430336e-05   -0.0022019799602139615   -0.00024788433426377104
-8.208105604817742e-06   -0.0034289635687127042   -0.0002885651738879367
0.0005852320421639641   -0.0022083334343529597   -0.0002493082194616773
3.239316206839091e-05   -0.0022021602202882394   -0.0002464457881872893
-8.208105604817742e-06   -0.0034289635687127042   -0.0002885651738879367
0.0006334619904870052   -0.003429011469487138   -0.00028980700329135026
0.0005852320421639641   -0.0022083334343529597   -0.0002493082194616773
0.0006355089562415741   -0.003425006353156262   -0.0002908715958425709
3.239316206839091e-05   -0.0022021602202882394   -0.0002464457881872893
0.0005855559033274506   -0.0022030638523179323   -0.0002556284983075415
0.0006355089562415741   -0.003425006353156262   -0.0002908715958425709
0.0005852320421639641   -0.0022083334343529597   -0.0002493082194616773
3.239316206839091e-05   -0.0022021602202882394   -0.0002464457881872893
0.0006355089562415741   -0.003425006353156262   -0.0002908715958425709
-4.993599732864812e-06   -0.003429874835680437   -0.0002854048050026483
-8.208105604817742e-06   -0.0034289635687127042   -0.0002885651738879367
3.239316206839091e-05   -0.0022021602202882394   -0.0002464457881872893
0.0006355089562415741   -0.003425006353156262   -0.0002908715958425709
-8.208105604817742e-06   -0.0034289635687127042   -0.0002885651738879367
0.0005852320421639641   -0.0022083334343529597   -0.0002493082194616773
3.239316206839091e-05   -0.0022021602202882394   -0.0002464457881872893
-4.993599732864812e-06   -0.003429874835680437   -0.0002854048050026483
0.0005855559033274506   -0.0022030638523179323   -0.0002556284983075415
3.511131888678511e-05   -0.002198018260674847   -0.0002463458429530458
-4.993599732864812e-06   -0.003429874835680437   -0.0002854048050026483
0.0006355089562415741   -0.003425006353156262   -0.0002908715958425709
0.0005855559033274506   -0.0022030638523179323   -0.0002556284983075415
0.000635858041799491   -0.0034179466906151487   -0.00029318243152802513
3.511131888678511e-05   -0.002198018260674847   -0.0002463458429530458
0.0005850276001172644   -0.0021925996596728883   -0.00026326727841066055
0.000635858041799491   -0.0034179466906151487   -0.00029318243152802513
0.0005855559033274506   -0.0022030638523179323   -0.0002556284983075415
3.511131888678511e-05   -0.002198018260674847   -0.0002463458429530458
0.000635858041799491   -0.0034179466906151487   -0.00029318243152802513
-2.3469479595700607e-06   -0.003428398471659296   -0.0002835633086838949
-4.993599732864812e-06   -0.003429874835680437   -0.0002854048050026483
3.511131888678511e-05   -0.002198018260674847   -0.0002463458429530458
0.000635858041799491   -0.0034179466906151487   -0.00029318243152802513
-4.993599732864812e-06   -0.003429874835680437   -0.0002854048050026483
0.0005855559033274506   -0.0022030638523179323   -0.0002556284983075415
0.0005813876489098798   -0.002209486948481163   -0.0002441624327094787
0.0006289433106862335   -0.003430904512507583   -0.00028993750692950135
0.0012156464002790566   -0.0022308018597284687   -0.000245571000405182
0.0005852320421639641   -0.0022083334343529597   -0.0002493082194616773
0.0006289433106862335   -0.003430904512507583   -0.00028993750692950135
0.00133663117428541   -0.0034401863359654456   -0.00029484230681971885
0.0012156464002790566   -0.0022308018597284687   -0.000245571000405182
0.0013381266004980593   -0.003434735046858702   -0.00029916242114084356
0.0005852320421639641   -0.0022083334343529597   -0.0002493082194616773
0.0012077090444887896   -0.002226336714031383   -0.0002594052170277954
0.0013381266004980593   -0.003434735046858702   -0.00029916242114084356
0.0012156464002790566   -0.0022308018597284687   -0.000245571000405182
0.0005852320421639641   -0.0022083334343529597   -0.0002493082194616773
0.0013381266004980593   -0.003434735046858702   -0.00029916242114084356
0.0006334619904870052   -0.003429011469487138   -0.00028980700329135026
0.0006289433106862335   -0.003430904512507583   -0.00028993750692950135
0.0005852320421639641   -0.0022083334343529597   -0.0002493082194616773
0.0013381266004980593   -0.003434735046858702   -0.00029916242114084356
0.0006289433106862335   -0.003430904512507583   -0.00028993750692950135
0.0012156464002790566   -0.0022308018597284687   -0.000245571000405182
0.0005852320421639641   -0.0022083334343529597   -0.0002493082194616773
0.0006334619904870052   -0.003429011469487138   -0.00028980700329135026
0.0012077090444887896   -0.002226336714031383   -0.0002594052170277954
0.0005855559033274506   -0.0022030638523179323   -0.0002556284983075415
0.0006334619904870052   -0.003429011469487138   -0.00028980700329135026
0.0013381266004980593   -0.003434735046858702   -0.00029916242114084356
0.0012077090444887896   -0.002226336714031383   -0.0002594052170277954
0.0013371796557651446   -0.003428330839476594   -0.00030543304458077183
0.0005855559033274506   -0.0022030638523179323   -0.0002556284983075415
0.0011994150675913135   -0.0022183276501901612   -0.0002753587160666416
0.0013371796557651446   -0.003428330839476594   -0.00030543304458077183
0.0012077090444887896   -0.002226336714031383   -0.0002594052170277954
0.0005855559033274506   -0.0022030638523179323   -0.0002556284983075415
0.0013371796557651446   -0.003428330839476594   -0.00030543304458077183
0.0006355089562415741   -0.003425006353156262   -0.0002908715958425709
0.0006334619904870052   -0.003429011469487138   -0.00028980700329135026
0.0005855559033274506   -0.0022030638523179323   -0.0002556284983075415
0.0013371796557651446   -0.003428330839476594   -0.00030543304458077183
0.0006334619904870052   -0.003429011469487138   -0.00028980700329135026
0.0012077090444887896   -0.002226336714031383   -0.0002594052170277954
0.0005855559033274506   -0.0022030638523179323   -0.0002556284983075415
0.0006355089562415741   -0.003425006353156262   -0.0002908715958425709
0.0011994150675913135   -0.0022183276501901612   -0.0002753587160666416
0.0005850276001172644   -0.0021925996596728883   -0.00026326727841066055
0.0006355089562415741   -0.003425006353156262   -0.0002908715958425709
0.0013371796557651446   -0.003428330839476594   -0.00030543304458077183
0.0011994150675913135   -0.0022183276501901612   -0.0002753587160666416
0.0013306280922446372   -0.003416663705943319   -0.00031363978786243225
0.0005850276001172644   -0.0021925996596728883   -0.00026326727841066055
0.0011829771749186035   -0.002202092819939227   -0.00029343438949809266
0.0013306280922446372   -0.003416663705943319   -0.00031363978786243225
0.0011994150675913135   -0.0022183276501901612   -0.0002753587160666416
0.0005850276001172644   -0.0021925996596728883   -0.00026326727841066055
0.0013306280922446372   -0.003416663705943319   -0.00031363978786243225
0.000635858041799491   -0.0034179466906151487   -0.00029318243152802513
0.0006355089562415741   -0.003425006353156262   -0.0002908715958425709
0.0005850276001172644   -0.0021925996596728883   -0.00026326727841066055
0.0013306280922446372   -0.003416663705943319   -0.00031363978786243225
0.0006355089562415741   -0.003425006353156262   -0.0002908715958425709
0.0011994150675913135   -0.0022183276501901612   -0.0002753587160666416
-0.001950332782590708   -0.0034546845750739815   -0.0003613548842751008
-0.002131308749020791   -0.004763224332305751   -0.00036984947846793563
-0.0012690458524409036   -0.0034368871241055345   -0.0003285359877430839
-0.001967600663838644   -0.003473751287254155   -0.0003431576961674731
-0.002131308749020791   -0.004763224332305751   -0.00036984947846793563
-0.0014057159958374092   -0.004756277957115761   -0.0003442214777121524
-0.0012690458524409036   -0.0034368871241055345   -0.0003285359877430839
-0.0014037745596639296   -0.0047680372827111316   -0.00033647820625958924
-0.001967600663838644   -0.003473751287254155   -0.0003431576961674731
-0.0012689458048880714   -0.003450921337070443   -0.00031571757975090324
-0.0014037745596639296   -0.0047680372827111316   -0.00033647820625958924
-0.0012690458524409036   -0.0034368871241055345   -0.0003285359877430839
-0.001967600663838644   -0.003473751287254155   -0.0003431576961674731
-0.0014037745596639296   -0.0047680372827111316   -0.00033647820625958924
-0.0021383677135611147   -0.00477910593975577   -0.0003608390152888489
-0.002131308749020791   -0.004763224332305751   -0.00036984947846793563
-0.001967600663838644   -0.003473751287254155   -0.0003431576961674731
-0.0014037745596639296   -0.0047680372827111316   -0.00033647820625958924
-0.002131308749020791   -0.004763224332305751   -0.00036984947846793563
-0.0012690458524409036   -0.0034368871241055345   -0.0003285359877430839
-0.001967600663838644   -0.003473751287254155   -0.0003431576961674731
-0.0021383677135611147   -0.00477910593975577   -0.0003608390152888489
-0.0012689458048880714   -0.003450921337070443   -0.00031571757975090324
-0.0019767060092077855   -0.003487407237477306   -0.0003267760506592094
-0.0021383677135611147   -0.00477910593975577   -0.0003608390152888489
-0.0014037745596639296   -0.0047680372827111316   -0.00033647820625958924
-0.0012689458048880714   -0.003450921337070443   -0.00031571757975090324
-0.001400503065554741   -0.0047790453958688845   -0.00033002572646658845
-0.0019767060092077855   -0.003487407237477306   -0.0003267760506592094
-0.0012683542474465313   -0.003462185358065561   -0.00030420508188482503
-0.001400503065554741   -0.0047790453958688845   -0.00033002572646658845
-0.0012689458048880714   -0.003450921337070443   -0.00031571757975090324
-0.0019767060092077855   -0.003487407237477306   -0.0003267760506592094
-0.001400503065554741   -0.0047790453958688845   -0.00033002572646658845
-0.002139481053481775   -0.004792253805317121   -0.00035368157689983764
-0.0021383677135611147   -0.00477910593975577   -0.0003608390152888489
-0.0019767060092077855   -0.003487407237477306   -0.0003267760506592094
-0.001400503065554741   -0.0047790453958688845   -0.00033002572646658845
-0.0021383677135611147   -0.00477910593975577   -0.0003608390152888489
-0.0012689458048880714   -0.003450921337070443   -0.00031571757975090324
-0.0019767060092077855   -0.003487407237477306   -0.0003267760506592094
-0.002139481053481775   -0.004792253805317121   -0.00035368157689983764
-0.0012683542474465313   -0.003462185358065561   -0.00030420508188482503
-0.0019859500521486966   -0.003499930538942031   -0.0003124351771919959
-0.002139481053481775   -0.004792253805317121   -0.00035368157689983764
-0.001400503065554741   -0.0047790453958688845   -0.00033002572646658845
-0.0012683542474465313   -0.003462185358065561   -0.00030420508188482503
-0.0013945426630850586   -0.004790156454540547   -0.00032475990513258486
-0.0019859500521486966   -0.003499930538942031   -0.0003124351771919959
-0.001264083728549531   -0.003471628378929953   -0.0002938146429296627
-0.0013945426630850586   -0.004790156454540547   -0.00032475990513258486
-0.0012683542474465313   -0.003462185358065561   -0.00030420508188482503
-0.0019859500521486966   -0.003499930538942031   -0.0003124351771919959
-0.0013945426630850586   -0.004790156454540547   -0.00032475990513258486
-0.0021385853413596746   -0.00480678234686146   -0.0003485516770277036
-0.002139481053481775   -0.004792253805317121   -0.00035368157689983764
-0.0019859500521486966   -0.003499930538942031   -0.0003124351771919959
-0.0013945426630850586   -0.004790156454540547   -0.00032475990513258486
-0.002139481053481775   -0.004792253805317121   -0.00035368157689983764
-0.0012683542474465313   -0.003462185358065561   -0.00030420508188482503
-0.0012690458524409036   -0.0034368871241055345   -0.0003285359877430839
-0.0014057159958374092   -0.004756277957115761   -0.0003442214777121524
-0.0006317182461199493   -0.003427461133944343   -0.000305861819093606
-0.0012689458048880714   -0.003450921337070443   -0.00031571757975090324
-0.0014057159958374092   -0.004756277957115761   -0.0003442214777121524
-0.0007320165109878443   -0.0047519825525564495   -0.000326821983788052
-0.0006317182461199493   -0.003427461133944343   -0.000305861819093606
-0.0007281461912278643   -0.004758983914915585   -0.00031984810006864826
-0.0012689458048880714   -0.003450921337070443   -0.00031571757975090324
-0.0006289373519733739   -0.003436150009080645   -0.00029721273991519236
-0.0007281461912278643   -0.004758983914915585   -0.00031984810006864826
-0.0006317182461199493   -0.003427461133944343   -0.000305861819093606
-0.0012689458048880714   -0.003450921337070443   -0.00031571757975090324
-0.0007281461912278643   -0.004758983914915585   -0.00031984810006864826
-0.0014037745596639296   -0.0047680372827111316   -0.00033647820625958924
-0.0014057159958374092   -0.004756277957115761   -0.0003442214777121524
-0.0012689458048880714   -0.003450921337070443   -0.00031571757975090324
-0.0007281461912278643   -0.004758983914915585   -0.00031984810006864826
-0.0014057159958374092   -0.004756277957115761   -0.0003442214777121524
-0.0006317182461199493   -0.003427461133944343   -0.000305861819093606
-0.0012689458048880714   -0.003450921337070443   -0.00031571757975090324
-0.0014037745596639296   -0.0047680372827111316   -0.00033647820625958924
-0.0006289373519733739   -0.003436150009080645   -0.00029721273991519236
-0.0012683542474465313   -0.003462185358065561   -0.00030420508188482503
-0.0014037745596639296   -0.0047680372827111316   -0.00033647820625958924
-0.0007281461912278643   -0.004758983914915585   -0.00031984810006864826
-0.0006289373519733739   -0.003436150009080645   -0.00029721273991519236
-0.0007237281947898565   -0.004765520024244063   -0.00031415875620763653
-0.0012683542474465313   -0.003462185358065561   -0.00030420508188482503
-0.0006257384195018635   -0.003442503005203116   -0.00028984175235305273
-0.0007237281947898565   -0.004765520024244063   -0.00031415875620763653
-0.0006289373519733739   -0.003436150009080645   -0.00029721273991519236
-0.0012683542474465313   -0.003462185358065561   -0.00030420508188482503
-0.0007237281947898565   -0.004765520024244063   -0.00031415875620763653
-0.001400503065554741   -0.0047790453958688845   -0.00033002572646658845
-0.0014037745596639296   -0.0047680372827111316   -0.00033647820625958924
-0.0012683542474465313   -0.003462185358065561   -0.00030420508188482503
-0.0007237281947898565   -0.004765520024244063   -0.00031415875620763653
-0.0014037745596639296   -0.0047680372827111316   -0.00033647820625958924
-0.0006289373519733739   -0.003436150009080645   -0.00029721273991519236
-0.0012683542474465313   -0.003462185358065561   -0.00030420508188482503
-0.001400503065554741   -0.0047790453958688845   -0.00033002572646658845
-0.0006257384195018635   -0.003442503005203116   -0.00028984175235305273
-0.001264083728549531   -0.003471628378929953   -0.0002938146429296627
-0.001400503065554741   -0.0047790453958688845   -0.00033002572646658845
-0.0007237281947898565   -0.004765520024244063   -0.00031415875620763653
-0.0006257384195018635   -0.003442503005203116   -0.00028984175235305273
-0.0007186711070261512   -0.004771615085208985   -0.00030979183206047533
-0.001264083728549531   -0.003471628378929953   -0.0002938146429296627
-0.0006217201723778388   -0.003446563485533244   -0.0002837759759979899
-0.0007186711070261512   -0.004771615085208985   -0.00030979183206047533
-0.0006257384195018635   -0.003442503005203116   -0.00028984175235305273
-0.001264083728549531   -0.003471628378929953   -0.0002938146429296627
-0.0007186711070261512   -0.004771615085208985   -0.00030979183206047533
-0.0013945426630850586   -0.004790156454540547   -0.00032475990513258486
-0.001400503065554741   -0.0047790453958688845   -0.00033002572646658845
-0.001264083728549531   -0.003471628378929953   -0.0002938146429296627
-0.0007186711070261512   -0.004771615085208985   -0.00030979183206047533
-0.001400503065554741   -0.0047790453958688845   -0.00033002572646658845
-0.0006257384195018635   -0.003442503005203116   -0.00028984175235305273
-0.0006317182461199493   -0.003427461133944343   -0.000305861819093606
-0.0007320165109878443   -0.0047519825525564495   -0.000326821983788052
-1.208765351161797e-05   -0.003425698308414178   -0.00029299313733407284
-0.0006289373519733739   -0.003436150009080645   -0.00029721273991519236
-0.0007320165109878443   -0.0047519825525564495   -0.000326821983788052
-7.662615502492705e-05   -0.004749316974332877   -0.00031819017004591413
-1.208765351161797e-05   -0.003425698308414178   -0.00029299313733407284
-7.171269476448107e-05   -0.004751418560487779   -0.0003120718395581668
-0.0006289373519733739   -0.003436150009080645   -0.00029721273991519236
-8.208105604817742e-06   -0.0034289635687127042   -0.0002885651738879367
-7.171269476448107e-05   -0.004751418560487779   -0.0003120718395581668
-1.208765351161797e-05   -0.003425698308414178   -0.00029299313733407284
-0.0006289373519733739   -0.003436150009080645   -0.00029721273991519236
-7.171269476448107e-05   -0.004751418560487779   -0.0003120718395581668
-0.0007281461912278643   -0.004758983914915585   -0.00031984810006864826
-0.0007320165109878443   -0.0047519825525564495   -0.000326821983788052
-0.0006289373519733739   -0.003436150009080645   -0.00029721273991519236
-7.171269476448107e-05   -0.004751418560487779   -0.0003120718395581668
-0.0007320165109878443   -0.0047519825525564495   -0.000326821983788052
-1.208765351161797e-05   -0.003425698308414178   -0.00029299313733407284
-0.0006289373519733739   -0.003436150009080645   -0.00029721273991519236
-0.0007281461912278643   -0.004758983914915585   -0.00031984810006864826
-8.208105604817742e-06   -0.0034289635687127042   -0.0002885651738879367
-0.0006257384195018635   -0.003442503005203116   -0.00028984175235305273
-0.0007281461912278643   -0.004758983914915585   -0.00031984810006864826
-7.171269476448107e-05   -0.004751418560487779   -0.0003120718395581668
-8.208105604817742e-06   -0.0034289635687127042   -0.0002885651738879367
-6.728449322018837e-05   -0.004753014427323967   -0.0003072329700052105
-0.0006257384195018635   -0.003442503005203116   -0.00028984175235305273
-4.993599732864812e-06   -0.003429874835680437   -0.0002854048050026483
-6.728449322018837e-05   -0.004753014427323967   -0.0003072329700052105
-8.208105604817742e-06   -0.0034289635687127042   -0.0002885651738879367
-0.0006257384195018635   -0.003442503005203116   -0.00028984175235305273
-6.728449322018837e-05   -0.004753014427323967   -0.0003072329700052105
-0.0007237281947898565   -0.004765520024244063   -0.00031415875620763653
-0.0007281461912278643   -0.004758983914915585   -0.00031984810006864826
-0.0006257384195018635   -0.003442503005203116   -0.00028984175235305273
-6.728449322018837e-05   -0.004753014427323967   -0.0003072329700052105
-0.0007281461912278643   -0.004758983914915585   -0.00031984810006864826
-8.208105604817742e-06   -0.0034289635687127042   -0.0002885651738879367
-0.0006257384195018635   -0.003442503005203116   -0.00028984175235305273
-0.0007237281947898565   -0.004765520024244063   -0.00031415875620763653
-4.993599732864812e-06   -0.003429874835680437   -0.0002854048050026483
-0.0006217201723778388   -0.003446563485533244   -0.0002837759759979899
-0.0007237281947898565   -0.004765520024244063   -0.00031415875620763653
-6.728449322018837e-05   -0.004753014427323967   -0.0003072329700052105
-4.993599732864812e-06   -0.003429874835680437   -0.0002854048050026483
-6.356197461824731e-05   -0.004754091838844011   -0.00030371639712049577
-0.0006217201723778388   -0.003446563485533244   -0.0002837759759979899
-2.3469479595700607e-06   -0.003428398471659296   -0.0002835633086838949
-6.356197461824731e-05   -0.004754091838844011   -0.00030371639712049577
-4.993599732864812e-06   -0.003429874835680437   -0.0002854048050026483
-0.0006217201723778388   -0.003446563485533244   -0.0002837759759979899
-6.356197461824731e-05   -0.004754091838844011   -0.00030371639712049577
-0.0007186711070261512   -0.004771615085208985   -0.00030979183206047533
-0.0007237281947898565   -0.004765520024244063   -0.00031415875620763653
-0.0006217201723778388   -0.003446563485533244   -0.0002837759759979899
-6.356197461824731e-05   -0.004754091838844011   -0.00030371639712049577
-0.0007237281947898565   -0.004765520024244063   -0.00031415875620763653
-4.993599732864812e-06   -0.003429874835680437   -0.0002854048050026483
-1.208765351161797e-05   -0.003425698308414178   -0.00029299313733407284
-7.662615502492705e-05   -0.004749316974332877   -0.00031819017004591413
0.0006289433106862335   -0.003430904512507583   -0.00028993750692950135
-8.208105604817742e-06   -0.0034289635687127042   -0.0002885651738879367
-7.662615502492705e-05   -0.004749316974332877   -0.00031819017004591413
0.0005984665273770034   -0.0047478111740515425   -0.00031846241788292535
0.0006289433106862335   -0.003430904512507583   -0.00028993750692950135
0.0006046510366880971   -0.004745125000481667   -0.00031323551895196607
-8.208105604817742e-06   -0.0034289635687127042   -0.0002885651738879367
0.0006334619904870052   -0.003429011469487138   -0.00028980700329135026
0.0006046510366880971   -0.004745125000481667   -0.00031323551895196607
0.0006289433106862335   -0.003430904512507583   -0.00028993750692950135
-8.208105604817742e-06   -0.0034289635687127042   -0.0002885651738879367
0.0006046510366880971   -0.004745125000481667   -0.00031323551895196607
-7.171269476448107e-05   -0.004751418560487779   -0.0003120718395581668
-7.662615502492705e-05   -0.004749316974332877   -0.00031819017004591413
-8.208105604817742e-06   -0.0034289635687127042   -0.0002885651738879367
0.0006046510366880971   -0.004745125000481667   -0.00031323551895196607
-7.662615502492705e-05   -0.004749316974332877   -0.00031819017004591413
0.0006289433106862335   -0.003430904512507583   -0.00028993750692950135
-8.208105604817742e-06   -0.0034289635687127042   -0.0002885651738879367
-7.171269476448107e-05   -0.004751418560487779   -0.0003120718395581668
0.0006334619904870052   -0.003429011469487138   -0.00028980700329135026
-4.993599732864812e-06   -0.003429874835680437   -0.0002854048050026483
-7.171269476448107e-05   -0.004751418560487779   -0.0003120718395581668
0.0006046510366880971   -0.004745125000481667   -0.00031323551895196607
0.0006334619904870052   -0.003429011469487138   -0.00028980700329135026
0.0006093677898149012   -0.0047422502728437866   -0.00030924669094119103
-4.993599732864812e-06   -0.003429874835680437   -0.0002854048050026483
0.0006355089562415741   -0.003425006353156262   -0.0002908715958425709
0.0006093677898149012   -0.0047422502728437866   -0.00030924669094119103
0.0006334619904870052   -0.003429011469487138   -0.00028980700329135026
-4.993599732864812e-06   -0.003429874835680437   -0.0002854048050026483
0.0006093677898149012   -0.0047422502728437866   -0.00030924669094119103
-6.728449322018837e-05   -0.004753014427323967   -0.0003072329700052105
-7.171269476448107e-05   -0.004751418560487779   -0.0003120718395581668
-4.993599732864812e-06   -0.003429874835680437   -0.0002854048050026483
0.0006093677898149012   -0.0047422502728437866   -0.00030924669094119103
-7.171269476448107e-05   -0.004751418560487779   -0.0003120718395581668
0.0006334619904870052   -0.003429011469487138   -0.00028980700329135026
-4.993599732864812e-06   -0.003429874835680437   -0.0002854048050026483
-6.728449322018837e-05   -0.004753014427323967   -0.0003072329700052105
0.0006355089562415741   -0.003425006353156262   -0.0002908715958425709
-2.3469479595700607e-06   -0.003428398471659296   -0.0002835633086838949
-6.728449322018837e-05   -0.004753014427323967   -0.0003072329700052105
0.0006093677898149012   -0.0047422502728437866   -0.00030924669094119103
0.0006355089562415741   -0.003425006353156262   -0.0002908715958425709
0.0006115475624285389   -0.004738325061951139   -0.0003064740466657711
-2.3469479595700607e-06   -0.003428398471659296   -0.0002835633086838949
0.000635858041799491   -0.0034179466906151487   -0.00029318243152802513
0.0006115475624285389   -0.004738325061951139   -0.0003064740466657711
0.0006355089562415741   -0.003425006353156262   -0.0002908715958425709
-2.3469479595700607e-06   -0.003428398471659296   -0.0002835633086838949
0.0006115475624285389   -0.004738325061951139   -0.0003064740466657711
-6.356197461824731e-05   -0.004754091838844011   -0.00030371639712049577
-6.728449322018837e-05   -0.004753014427323967   -0.0003072329700052105
-2.3469479595700607e-06   -0.003428398471659296   -0.0002835633086838949
0.0006115475624285389   -0.004738325061951139   -0.0003064740466657711
-6.728449322018837e-05   -0.004753014427323967   -0.0003072329700052105
0.0006355089562415741   -0.003425006353156262   -0.0002908715958425709
0.0006289433106862335   -0.003430904512507583   -0.00028993750692950135
0.0005984665273770034   -0.0047478111740515425   -0.00031846241788292535
0.00133663117428541   -0.0034401863359654456   -0.00029484230681971885
0.0006334619904870052   -0.003429011469487138   -0.00028980700329135026
0.0005984665273770034   -0.0047478111740515425   -0.00031846241788292535
0.0013288334841643323   -0.004745313704638552   -0.0003269842994363673
0.00133663117428541   -0.0034401863359654456   -0.00029484230681971885
0.001340393110605557   -0.0047387915664109746   -0.0003221588858055237
0.0006334619904870052   -0.003429011469487138   -0.00028980700329135026
0.0013381266004980593   -0.003434735046858702   -0.00029916242114084356
0.001340393110605557   -0.0047387915664109746   -0.0003221588858055237
0.00133663117428541   -0.0034401863359654456   -0.00029484230681971885
0.0006334619904870052   -0.003429011469487138   -0.00028980700329135026
0.001340393110605557   -0.0047387915664109746   -0.0003221588858055237
0.0006046510366880971   -0.004745125000481667   -0.00031323551895196607
0.0005984665273770034   -0.0047478111740515425   -0.00031846241788292535
0.0006334619904870052   -0.003429011469487138   -0.00028980700329135026
0.001340393110605557   -0.0047387915664109746   -0.0003221588858055237
0.0005984665273770034   -0.0047478111740515425   -0.00031846241788292535
0.00133663117428541   -0.0034401863359654456   -0.00029484230681971885
0.0006334619904870052   -0.003429011469487138   -0.00028980700329135026
0.0006046510366880971   -0.004745125000481667   -0.00031323551895196607
0.0013381266004980593   -0.003434735046858702   -0.00029916242114084356
0.0006355089562415741   -0.003425006353156262   -0.0002908715958425709
0.0006046510366880971   -0.004745125000481667   -0.00031323551895196607
0.001340393110605557   -0.0047387915664109746   -0.0003221588858055237
0.0013381266004980593   -0.003434735046858702   -0.00029916242114084356
0.0013474223101787922   -0.004733786312619098   -0.0003192312794396658
0.0006355089562415741   -0.003425006353156262   -0.0002908715958425709
0.0013371796557651446   -0.003428330839476594   -0.00030543304458077183
0.0013474223101787922   -0.004733786312619098   -0.0003192312794396658
0.0013381266004980593   -0.003434735046858702   -0.00029916242114084356
0.0006355089562415741   -0.003425006353156262   -0.0002908715958425709
0.0013474223101787922   -0.004733786312619098   -0.0003192312794396658
0.0006093677898149012   -0.0047422502728437866   -0.00030924669094119103
0.0006046510366880971   -0.004745125000481667   -0.00031323551895196607
0.0006355089562415741   -0.003425006353156262   -0.0002908715958425709
0.0013474223101787922   -0.004733786312619098   -0.0003192312794396658
0.0006046510366880971   -0.004745125000481667   -0.00031323551895196607
0.0013381266004980593   -0.003434735046858702   -0.00029916242114084356
0.0006355089562415741   -0.003425006353156262   -0.0002908715958425709
0.0006093677898149012   -0.0047422502728437866   -0.00030924669094119103
0.0013371796557651446   -0.003428330839476594   -0.00030543304458077183
0.000635858041799491   -0.0034179466906151487   -0.00029318243152802513
0.0006093677898149012   -0.0047422502728437866   -0.00030924669094119103
0.0013474223101787922   -0.004733786312619098   -0.0003192312794396658
0.0013371796557651446   -0.003428330839476594   -0.00030543304458077183
0.001351115151902304   -0.004726208067001831   -0.0003182345538839457
0.000635858041799491   -0.0034179466906151487   -0.00029318243152802513
0.0013306280922446372   -0.003416663705943319   -0.00031363978786243225
0.001351115151902304   -0.004726208067001831   -0.0003182345538839457
0.0013371796557651446   -0.003428330839476594   -0.00030543304458077183
0.000635858041799491   -0.0034179466906151487   -0.00029318243152802513
0.001351115151902304   -0.004726208067001831   -0.0003182345538839457
0.0006115475624285389   -0.004738325061951139   -0.0003064740466657711
0.0006093677898149012   -0.0047422502728437866   -0.00030924669094119103
0.000635858041799491   -0.0034179466906151487   -0.00029318243152802513
0.001351115151902304   -0.004726208067001831   -0.0003182345538839457
0.0006093677898149012   -0.0047422502728437866   -0.00030924669094119103
0.0013371796557651446   -0.003428330839476594   -0.00030543304458077183
-0.002131308749020791   -0.004763224332305751   -0.00036984947846793563
-0.0021888384390999385   -0.006083678627627435   -0.00036539152801289546
-0.0014057159958374092   -0.004756277957115761   -0.0003442214777121524
-0.0021383677135611147   -0.00477910593975577   -0.0003608390152888489
-0.0021888384390999385   -0.006083678627627435   -0.00036539152801289546
-0.001469334903021988   -0.0060873947676938715   -0.0003468813913511094
-0.0014057159958374092   -0.004756277957115761   -0.0003442214777121524
-0.00146451634213471   -0.006096907468570395   -0.00034402182316441507
-0.0021383677135611147   -0.00477910593975577   -0.0003608390152888489
-0.0014037745596639296   -0.0047680372827111316   -0.00033647820625958924
-0.00146451634213471   -0.006096907468570395   -0.00034402182316441507
-0.0014057159958374092   -0.004756277957115761   -0.0003442214777121524
-0.0021383677135611147   -0.00477910593975577   -0.0003608390152888489
-0.00146451634213471   -0.006096907468570395   -0.00034402182316441507
-0.002184911381342934   -0.0060964633799893255   -0.00036530705407975943
-0.0021888384390999385   -0.006083678627627435   -0.00036539152801289546
-0.0021383677135611147   -0.00477910593975577   -0.0003608390152888489
-0.00146451634213471   -0.006096907468570395   -0.00034402182316441507
-0.0021888384390999385   -0.006083678627627435   -0.00036539152801289546
-0.0014057159958374092   -0.004756277957115761   -0.0003442214777121524
-0.0021383677135611147   -0.00477910593975577   -0.0003608390152888489
-0.002184911381342934   -0.0060964633799893255   -0.00036530705407975943
-0.0014037745596639296   -0.0047680372827111316   -0.00033647820625958924
-0.002139481053481775   -0.004792253805317121   -0.00035368157689983764
-0.002184911381342934   -0.0060964633799893255   -0.00036530705407975943
-0.00146451634213471   -0.006096907468570395   -0.00034402182316441507
-0.0014037745596639296   -0.0047680372827111316   -0.00033647820625958924
-0.001457551305014818   -0.00610764823553821   -0.00034245106176424364
-0.002139481053481775   -0.004792253805317121   -0.00035368157689983764
-0.001400503065554741   -0.0047790453958688845   -0.00033002572646658845
-0.001457551305014818   -0.00610764823553821   -0.00034245106176424364
-0.0014037745596639296   -0.0047680372827111316   -0.00033647820625958924
-0.002139481053481775   -0.004792253805317121   -0.00035368157689983764
-0.001457551305014818   -0.00610764823553821   -0.00034245106176424364
-0.0021771197881586065   -0.0061091207727619135   -0.00036714364605947925
-0.002184911381342934   -0.0060964633799893255   -0.00036530705407975943
-0.002139481053481775   -0.004792253805317121   -0.00035368157689983764
-0.001457551305014818   -0.00610764823553821   -0.00034245106176424364
-0.002184911381342934   -0.0060964633799893255   -0.00036530705407975943
-0.0014037745596639296   -0.0047680372827111316   -0.00033647820625958924
-0.002139481053481775   -0.004792253805317121   -0.00035368157689983764
-0.0021771197881586065   -0.0061091207727619135   -0.00036714364605947925
-0.001400503065554741   -0.0047790453958688845   -0.00033002572646658845
-0.0021385853413596746   -0.00480678234686146   -0.0003485516770277036
-0.0021771197881586065   -0.0061091207727619135   -0.00036714364605947925
-0.001457551305014818   -0.00610764823553821   -0.00034245106176424364
-0.001400503065554741   -0.0047790453958688845   -0.00033002572646658845
-0.0014488591518253913   -0.006120370778829678   -0.00034213360592983235
-0.0021385853413596746   -0.00480678234686146   -0.0003485516770277036
-0.0013945426630850586   -0.004790156454540547   -0.00032475990513258486
-0.0014488591518253913   -0.006120370778829678   -0.00034213360592983235
-0.001400503065554741   -0.0047790453958688845   -0.00033002572646658845
-0.0021385853413596746   -0.00480678234686146   -0.0003485516770277036
-0.0014488591518253913   -0.006120370778829678   -0.00034213360592983235
-0.0021652291015607558   -0.006125643126939847   -0.00037101688542553226
-0.0021771197881586065   -0.0061091207727619135   -0.00036714364605947925
-0.0021385853413596746   -0.00480678234686146   -0.0003485516770277036
-0.0014488591518253913   -0.006120370778829678   -0.00034213360592983235
-0.0021771197881586065   -0.0061091207727619135   -0.00036714364605947925
-0.001400503065554741   -0.0047790453958688845   -0.00033002572646658845
-0.0014057159958374092   -0.004756277957115761   -0.0003442214777121524
-0.001469334903021988   -0.0060873947676938715   -0.0003468813913511094
-0.0007320165109878443   -0.0047519825525564495   -0.000326821983788052
-0.0014037745596639296   -0.0047680372827111316   -0.00033647820625958924
-0.001469334903021988   -0.0060873947676938715   -0.0003468813913511094
-0.0008094358850485713   -0.006087985319102901   -0.00033463391557495974
-0.0007320165109878443   -0.0047519825525564495   -0.000326821983788052
-0.0008033595332319577   -0.006093326769413999   -0.0003292530798022673
-0.0014037745596639296   -0.0047680372827111316   -0.00033647820625958924
-0.0007281461912278643   -0.004758983914915585   -0.00031984810006864826
-0.0008033595332319577   -0.006093326769413999   -0.0003292530798022673
-0.0007320165109878443   -0.0047519825525564495   -0.000326821983788052
-0.0014037745596639296   -0.0047680372827111316   -0.00033647820625958924
-0.0008033595332319577   -0.006093326769413999   -0.0003292530798022673
-0.00146451634213471   -0.006096907468570395   -0.00034402182316441507
-0.001469334903021988   -0.0060873947676938715   -0.0003468813913511094
-0.0014037745596639296   -0.0047680372827111316   -0.00033647820625958924
-0.0008033595332319577   -0.006093326769413999   -0.0003292530798022673
-0.001469334903021988   -0.0060873947676938715   -0.0003468813913511094
-0.0007320165109878443   -0.0047519825525564495   -0.000326821983788052
-0.0014037745596639296   -0.0047680372827111316   -0.00033647820625958924
-0.00146451634213471   -0.006096907468570395   -0.00034402182316441507
-0.0007281461912278643   -0.004758983914915585   -0.00031984810006864826
-0.001400503065554741   -0.0047790453958688845   -0.00033002572646658845
-0.00146451634213471   -0.006096907468570395   -0.00034402182316441507
-0.0008033595332319577   -0.006093326769413999   -0.0003292530798022673
-0.0007281461912278643   -0.004758983914915585   -0.00031984810006864826
-0.0007966366957780046   -0.006100008243486569   -0.00032516035850106413
-0.001400503065554741   -0.0047790453958688845   -0.00033002572646658845
-0.0007237281947898565   -0.004765520024244063   -0.00031415875620763653
-0.0007966366957780046   -0.006100008243486569   -0.00032516035850106413
-0.0007281461912278643   -0.004758983914915585   -0.00031984810006864826
-0.001400503065554741   -0.0047790453958688845   -0.00033002572646658845
-0.0007966366957780046   -0.006100008243486569   -0.00032516035850106413
-0.001457551305014818   -0.00610764823553821   -0.00034245106176424364
-0.00146451634213471   -0.006096907468570395   -0.00034402182316441507
-0.001400503065554741   -0.0047790453958688845   -0.00033002572646658845
-0.0007966366957780046   -0.006100008243486569   -0.00032516035850106413
-0.00146451634213471   -0.006096907468570395   -0.00034402182316441507
-0.0007281461912278643   -0.004758983914915585   -0.00031984810006864826
-0.001400503065554741   -0.0047790453958688845   -0.00033002572646658845
-0.001457551305014818   -0.00610764823553821   -0.00034245106176424364
-0.0007237281947898565   -0.004765520024244063   -0.00031415875620763653
-0.0013945426630850586   -0.004790156454540547   -0.00032475990513258486
-0.001457551305014818   -0.00610764823553821   -0.00034245106176424364
-0.0007966366957780046   -0.006100008243486569   -0.00032516035850106413
-0.0007237281947898565   -0.004765520024244063   -0.00031415875620763653
-0.0007894503167181753   -0.006108051000351753   -0.00032240518538399613
-0.0013945426630850586   -0.004790156454540547   -0.00032475990513258486
-0.0007186711070261512   -0.004771615085208985   -0.00030979183206047533
-0.0007894503167181753   -0.006108051000351753   -0.00032240518538399613
-0.0007237281947898565   -0.004765520024244063   -0.00031415875620763653
-0.0013945426630850586   -0.004790156454540547   -0.00032475990513258486
-0.0007894503167181753   -0.006108051000351753   -0.00032240518538399613
-0.0014488591518253913   -0.006120370778829678   -0.00034213360592983235
-0.001457551305014818   -0.00610764823553821   -0.00034245106176424364
-0.0013945426630850586   -0.004790156454540547   -0.00032475990513258486
-0.0007894503167181753   -0.006108051000351753   -0.00032240518538399613
-0.001457551305014818   -0.00610764823553821   -0.00034245106176424364
-0.0007237281947898565   -0.004765520024244063   -0.00031415875620763653
-0.0007320165109878443   -0.0047519825525564495   -0.000326821983788052
-0.0008094358850485713   -0.006087985319102901   -0.00033463391557495974
-7.662615502492705e-05   -0.004749316974332877   -0.00031819017004591413
-0.0007281461912278643   -0.004758983914915585   -0.00031984810006864826
-0.0008094358850485713   -0.006087985319102901   -0.00033463391557495974
-0.000168016435610794   -0.00608422829424128   -0.00033005496641949416
-7.662615502492705e-05   -0.004749316974332877   -0.00031819017004591413
-0.0001609629893382007   -0.006085202521707313   -0.0003222810601705531
-0.0007281461912278643   -0.004758983914915585   -0.00031984810006864826
-7.171269476448107e-05   -0.004751418560487779   -0.0003120718395581668
-0.0001609629893382007   -0.006085202521707313   -0.0003222810601705531
-7.662615502492705e-05   -0.004749316974332877   -0.00031819017004591413
-0.0007281461912278643   -0.004758983914915585   -0.00031984810006864826
-0.0001609629893382007   -0.006085202521707313   -0.0003222810601705531
-0.0008033595332319577   -0.006093326769413999   -0.0003292530798022673
-0.0008094358850485713   -0.006087985319102901   -0.00033463391557495974
-0.0007281461912278643   -0.004758983914915585   -0.00031984810006864826
-0.0001609629893382007   -0.006085202521707313   -0.0003222810601705531
-0.0008094358850485713   -0.006087985319102901   -0.00033463391557495974
-7.662615502492705e-05   -0.004749316974332877   -0.00031819017004591413
-0.0007281461912278643   -0.004758983914915585   -0.00031984810006864826
-0.0008033595332319577   -0.006093326769413999   -0.0003292530798022673
-7.171269476448107e-05   -0.004751418560487779   -0.0003120718395581668
-0.0007237281947898565   -0.004765520024244063   -0.00031415875620763653
-0.0008033595332319577   -0.006093326769413999   -0.0003292530798022673
-0.0001609629893382007   -0.006085202521707313   -0.0003222810601705531
-7.171269476448107e-05   -0.004751418560487779   -0.0003120718395581668
-0.00015424170820881305   -0.00608742962928916   -0.0003157924724046267
-0.0007237281947898565   -0.004765520024244063   -0.00031415875620763653
-6.728449322018837e-05   -0.004753014427323967   -0.0003072329700052105
-0.00015424170820881305   -0.00608742962928916   -0.0003157924724046267
-7.171269476448107e-05   -0.004751418560487779   -0.0003120718395581668
-0.0007237281947898565   -0.004765520024244063   -0.00031415875620763653
-0.00015424170820881305   -0.00608742962928916   -0.0003157924724046267
-0.0007966366957780046   -0.006100008243486569   -0.00032516035850106413
-0.0008033595332319577   -0.006093326769413999   -0.0003292530798022673
-0.0007237281947898565   -0.004765520024244063   -0.00031415875620763653
-0.00015424170820881305   -0.00608742962928916   -0.0003157924724046267
-0.0008033595332319577   -0.006093326769413999   -0.0003292530798022673
-7.171269476448107e-05   -0.004751418560487779   -0.0003120718395581668
-0.0007237281947898565   -0.004765520024244063   -0.00031415875620763653
-0.0007966366957780046   -0.006100008243486569   -0.00032516035850106413
-6.728449322018837e-05   -0.004753014427323967   -0.0003072329700052105
-0.0007186711070261512   -0.004771615085208985   -0.00030979183206047533
-0.0007966366957780046   -0.006100008243486569   -0.00032516035850106413
-0.00015424170820881305   -0.00608742962928916   -0.0003157924724046267
-6.728449322018837e-05   -0.004753014427323967   -0.0003072329700052105
-0.0001483675443078752   -0.006090952074791903   -0.0003106306618616471
-0.0007186711070261512   -0.004771615085208985   -0.00030979183206047533
-6.356197461824731e-05   -0.004754091838844011   -0.00030371639712049577
-0.0001483675443078752   -0.006090952074791903   -0.0003106306618616471
-6.728449322018837e-05   -0.004753014427323967   -0.0003072329700052105
-0.0007186711070261512   -0.004771615085208985   -0.00030979183206047533
-0.0001483675443078752   -0.006090952074791903   -0.0003106306618616471
-0.0007894503167181753   -0.006108051000351753   -0.00032240518538399613
-0.0007966366957780046   -0.006100008243486569   -0.00032516035850106413
-0.0007186711070261512   -0.004771615085208985   -0.00030979183206047533
-0.0001483675443078752   -0.006090952074791903   -0.0003106306618616471
-0.0007966366957780046   -0.006100008243486569   -0.00032516035850106413
-6.728449322018837e-05   -0.004753014427323967   -0.0003072329700052105
-7.662615502492705e-05   -0.004749316974332877   -0.00031819017004591413
-0.000168016435610794   -0.00608422829424128   -0.00033005496641949416
0.0005984665273770034   -0.0047478111740515425   -0.00031846241788292535
-7.171269476448107e-05   -0.004751418560487779   -0.0003120718395581668
-0.000168016435610794   -0.00608422829424128   -0.00033005496641949416
0.0004919279681365807   -0.006075997331260918   -0.0003334299174075918
0.0005984665273770034   -0.0047478111740515425   -0.00031846241788292535
0.0005007846601917003   -0.006072560032513515   -0.0003232802799265746
-7.171269476448107e-05   -0.004751418560487779   -0.0003120718395581668
0.0006046510366880971   -0.004745125000481667   -0.00031323551895196607
0.0005007846601917003   -0.006072560032513515   -0.0003232802799265746
0.0005984665273770034   -0.0047478111740515425   -0.00031846241788292535
-7.171269476448107e-05   -0.004751418560487779   -0.0003120718395581668
0.0005007846601917003   -0.006072560032513515   -0.0003232802799265746
-0.0001609629893382007   -0.006085202521707313   -0.0003222810601705531
-0.000168016435610794   -0.00608422829424128   -0.00033005496641949416
-7.171269476448107e-05   -0.004751418560487779   -0.0003120718395581668
0.0005007846601917003   -0.006072560032513515   -0.0003232802799265746
-0.000168016435610794   -0.00608422829424128   -0.00033005496641949416
0.0005984665273770034   -0.0047478111740515425   -0.00031846241788292535
-7.171269476448107e-05   -0.004751418560487779   -0.0003120718395581668
-0.0001609629893382007   -0.006085202521707313   -0.0003222810601705531
0.0006046510366880971   -0.004745125000481667   -0.00031323551895196607
-6.728449322018837e-05   -0.004753014427323967   -0.0003072329700052105
-0.0001609629893382007   -0.006085202521707313   -0.0003222810601705531
0.0005007846601917003   -0.006072560032513515   -0.0003232802799265746
0.0006046510366880971   -0.004745125000481667   -0.00031323551895196607
0.0005091449365356624   -0.0060707532572204966   -0.0003144080969879395
-6.728449322018837e-05   -0.004753014427323967   -0.0003072329700052105
0.0006093677898149012   -0.0047422502728437866   -0.00030924669094119103
0.0005091449365356624   -0.0060707532572204966   -0.0003144080969879395
0.0006046510366880971   -0.004745125000481667   -0.00031323551895196607
-6.728449322018837e-05   -0.004753014427323967   -0.0003072329700052105
0.0005091449365356624   -0.0060707532572204966   -0.0003144080969879395
-0.00015424170820881305   -0.00608742962928916   -0.0003157924724046267
-0.0001609629893382007   -0.006085202521707313   -0.0003222810601705531
-6.728449322018837e-05   -0.004753014427323967   -0.0003072329700052105
0.0005091449365356624   -0.0060707532572204966   -0.0003144080969879395
-0.0001609629893382007   -0.006085202521707313   -0.0003222810601705531
0.0006046510366880971   -0.004745125000481667   -0.00031323551895196607
-6.728449322018837e-05   -0.004753014427323967   -0.0003072329700052105
-0.00015424170820881305   -0.00608742962928916   -0.0003157924724046267
0.0006093677898149012   -0.0047422502728437866   -0.00030924669094119103
-6.356197461824731e-05   -0.004754091838844011   -0.00030371639712049577
-0.00015424170820881305   -0.00608742962928916   -0.0003157924724046267
0.0005091449365356624   -0.0060707532572204966   -0.0003144080969879395
0.0006093677898149012   -0.0047422502728437866   -0.00030924669094119103
0.0005141388225533938   -0.006069811290009567   -0.0003067298862406396
-6.356197461824731e-05   -0.004754091838844011   -0.00030371639712049577
0.0006115475624285389   -0.004738325061951139   -0.0003064740466657711
0.0005141388225533938   -0.006069811290009567   -0.0003067298862406396
0.0006093677898149012   -0.0047422502728437866   -0.00030924669094119103
-6.356197461824731e-05   -0.004754091838844011   -0.00030371639712049577
0.0005141388225533938   -0.006069811290009567   -0.0003067298862406396
-0.0001483675443078752   -0.006090952074791903   -0.0003106306618616471
-0.00015424170820881305   -0.00608742962928916   -0.0003157924724046267
-6.356197461824731e-05   -0.004754091838844011   -0.00030371639712049577
0.0005141388225533938   -0.006069811290009567   -0.0003067298862406396
-0.00015424170820881305   -0.00608742962928916   -0.0003157924724046267
0.0006093677898149012   -0.0047422502728437866   -0.00030924669094119103
0.0005984665273770034   -0.0047478111740515425   -0.00031846241788292535
0.0004919279681365807   -0.006075997331260918   -0.0003334299174075918
0.0013288334841643323   -0.004745313704638552   -0.0003269842994363673
0.0006046510366880971   -0.004745125000481667   -0.00031323551895196607
0.0004919279681365807   -0.006075997331260918   -0.0003334299174075918
0.001196256400416105   -0.006061944860972326   -0.0003453440712054137
0.0013288334841643323   -0.004745313704638552   -0.0003269842994363673
0.0012185292185831222   -0.006054458516224093   -0.0003317724355491717
0.0006046510366880971   -0.004745125000481667   -0.00031323551895196607
0.001340393110605557   -0.0047387915664109746   -0.0003221588858055237
0.0012185292185831222   -0.006054458516224093   -0.0003317724355491717
0.0013288334841643323   -0.004745313704638552   -0.0003269842994363673
0.0006046510366880971   -0.004745125000481667   -0.00031323551895196607
0.0012185292185831222   -0.006054458516224093   -0.0003317724355491717
0.0005007846601917003   -0.006072560032513515   -0.0003232802799265746
0.0004919279681365807   -0.006075997331260918   -0.0003334299174075918
0.0006046510366880971   -0.004745125000481667   -0.00031323551895196607
0.0012185292185831222   -0.006054458516224093   -0.0003317724355491717
0.0004919279681365807   -0.006075997331260918   -0.0003334299174075918
0.0013288334841643323   -0.004745313704638552   -0.0003269842994363673
0.0006046510366880971   -0.004745125000481667   -0.00031323551895196607
0.0005007846601917003   -0.006072560032513515   -0.0003232802799265746
0.001340393110605557   -0.0047387915664109746   -0.0003221588858055237
0.0006093677898149012   -0.0047422502728437866   -0.00030924669094119103
0.0005007846601917003   -0.006072560032513515   -0.0003232802799265746
0.0012185292185831222   -0.006054458516224093   -0.0003317724355491717
0.001340393110605557   -0.0047387915664109746   -0.0003221588858055237
0.0012342719678478616   -0.0060508023217513635   -0.00032003820705097324
0.0006093677898149012   -0.0047422502728437866   -0.00030924669094119103
0.0013474223101787922   -0.004733786312619098   -0.0003192312794396658
0.0012342719678478616   -0.0060508023217513635   -0.00032003820705097324
0.001340393110605557   -0.0047387915664109746   -0.0003221588858055237
0.0006093677898149012   -0.0047422502728437866   -0.00030924669094119103
0.0012342719678478616   -0.0060508023217513635   -0.00032003820705097324
0.0005091449365356624   -0.0060707532572204966   -0.0003144080969879395
0.0005007846601917003   -0.006072560032513515   -0.0003232802799265746
0.0006093677898149012   -0.0047422502728437866   -0.00030924669094119103
0.0012342719678478616   -0.0060508023217513635   -0.00032003820705097324
0.0005007846601917003   -0.006072560032513515   -0.0003232802799265746
0.001340393110605557   -0.0047387915664109746   -0.0003221588858055237
0.0006093677898149012   -0.0047422502728437866   -0.00030924669094119103
0.0005091449365356624   -0.0060707532572204966   -0.0003144080969879395
0.0013474223101787922   -0.004733786312619098   -0.0003192312794396658
0.0006115475624285389   -0.004738325061951139   -0.0003064740466657711
0.0005091449365356624   -0.0060707532572204966   -0.0003144080969879395
0.0012342719678478616   -0.0060508023217513635   -0.00032003820705097324
0.0013474223101787922   -0.004733786312619098   -0.0003192312794396658
0.0012488280796066047   -0.0060471322354011   -0.00031022214778039494
0.0006115475624285389   -0.004738325061951139   -0.0003064740466657711
0.001351115151902304   -0.004726208067001831   -0.0003182345538839457
0.0012488280796066047   -0.0060471322354011   -0.00031022214778039494
0.0013474223101787922   -0.004733786312619098   -0.0003192312794396658
0.0006115475624285389   -0.004738325061951139   -0.0003064740466657711
0.0012488280796066047   -0.0060471322354011   -0.00031022214778039494
0.0005141388225533938   -0.006069811290009567   -0.0003067298862406396
0.0005091449365356624   -0.0060707532572204966   -0.0003144080969879395
0.0006115475624285389   -0.004738325061951139   -0.0003064740466657711
0.0012488280796066047   -0.0060471322354011   -0.00031022214778039494
0.0005091449365356624   -0.0060707532572204966   -0.0003144080969879395
0.0013474223101787922   -0.004733786312619098   -0.0003192312794396658
-0.0021888384390999385   -0.006083678627627435   -0.00036539152801289546
-0.002125110954891693   -0.007334171010898331   -0.0003508357887542498
-0.001469334903021988   -0.0060873947676938715   -0.0003468813913511094
-0.002184911381342934   -0.0060964633799893255   -0.00036530705407975943
-0.002125110954891693   -0.007334171010898331   -0.0003508357887542498
-0.0014618161755557467   -0.007348445165144072   -0.0003400235839155646
-0.001469334903021988   -0.0060873947676938715   -0.0003468813913511094
-0.0014531268513811174   -0.007355428635383324   -0.00034181316208172
-0.002184911381342934   -0.0060964633799893255   -0.00036530705407975943
-0.00146451634213471   -0.006096907468570395   -0.00034402182316441507
-0.0014531268513811174   -0.007355428635383324   -0.00034181316208172
-0.001469334903021988   -0.0060873947676938715   -0.0003468813913511094
-0.002184911381342934   -0.0060964633799893255   -0.00036530705407975943
-0.0014531268513811174   -0.007355428635383324   -0.00034181316208172
-0.0021093585866460976   -0.007343619747417972   -0.0003594693535844105
-0.002125110954891693   -0.007334171010898331   -0.0003508357887542498
-0.002184911381342934   -0.0060964633799893255   -0.00036530705407975943
-0.0014531268513811174   -0.007355428635383324   -0.00034181316208172
-0.002125110954891693   -0.007334171010898331   -0.0003508357887542498
-0.001469334903021988   -0.0060873947676938715   -0.0003468813913511094
-0.002184911381342934   -0.0060964633799893255   -0.00036530705407975943
-0.0021093585866460976   -0.007343619747417972   -0.0003594693535844105
-0.00146451634213471   -0.006096907468570395   -0.00034402182316441507
-0.0021771197881586065   -0.0061091207727619135   -0.00036714364605947925
-0.0021093585866460976   -0.007343619747417972   -0.0003594693535844105
-0.0014531268513811174   -0.007355428635383324   -0.00034181316208172
-0.00146451634213471   -0.006096907468570395   -0.00034402182316441507
-0.0014415419871012403   -0.0073656234964295676   -0.00034488569084268293
-0.0021771197881586065   -0.0061091207727619135   -0.00036714364605947925
-0.001457551305014818   -0.00610764823553821   -0.00034245106176424364
-0.0014415419871012403   -0.0073656234964295676   -0.00034488569084268293
-0.00146451634213471   -0.006096907468570395   -0.00034402182316441507
-0.0021771197881586065   -0.0061091207727619135   -0.00036714364605947925
-0.0014415419871012403   -0.0073656234964295676   -0.00034488569084268293
-0.002091761038560266   -0.0073555344154596245   -0.00037011389715669137
-0.0021093585866460976   -0.007343619747417972   -0.0003594693535844105
-0.0021771197881586065   -0.0061091207727619135   -0.00036714364605947925
-0.0014415419871012403   -0.0073656234964295676   -0.00034488569084268293
-0.0021093585866460976   -0.007343619747417972   -0.0003594693535844105
-0.00146451634213471   -0.006096907468570395   -0.00034402182316441507
-0.0021771197881586065   -0.0061091207727619135   -0.00036714364605947925
-0.002091761038560266   -0.0073555344154596245   -0.00037011389715669137
-0.001457551305014818   -0.00610764823553821   -0.00034245106176424364
-0.0021652291015607558   -0.006125643126939847   -0.00037101688542553226
-0.002091761038560266   -0.0073555344154596245   -0.00037011389715669137
-0.0014415419871012403   -0.0073656234964295676   -0.00034488569084268293
-0.001457551305014818   -0.00610764823553821   -0.00034245106176424364
-0.0014291928305699354   -0.0073796639151890156   -0.0003492663929557151
-0.0021652291015607558   -0.006125643126939847   -0.00037101688542553226
-0.0014488591518253913   -0.006120370778829678   -0.00034213360592983235
-0.0014291928305699354   -0.0073796639151890156   -0.0003492663929557151
-0.001457551305014818   -0.00610764823553821   -0.00034245106176424364
-0.0021652291015607558   -0.006125643126939847   -0.00037101688542553226
-0.0014291928305699354   -0.0073796639151890156   -0.0003492663929557151
-0.0020680745524050935   -0.007373833885313364   -0.00038282596187632414
-0.002091761038560266   -0.0073555344154596245   -0.00037011389715669137
-0.0021652291015607558   -0.006125643126939847   -0.00037101688542553226
-0.0014291928305699354   -0.0073796639151890156   -0.0003492663929557151
-0.002091761038560266   -0.0073555344154596245   -0.00037011389715669137
-0.001457551305014818   -0.00610764823553821   -0.00034245106176424364
-0.001469334903021988   -0.0060873947676938715   -0.0003468813913511094
-0.0014618161755557467   -0.007348445165144072   -0.0003400235839155646
-0.0008094358850485713   -0.006087985319102901   -0.00033463391557495974
-0.00146451634213471   -0.006096907468570395   -0.00034402182316441507
-0.0014618161755557467   -0.007348445165144072   -0.0003400235839155646
-0.0008651583346922854   -0.00735377771687148   -0.00033318127810020426
-0.0008094358850485713   -0.006087985319102901   -0.00033463391557495974
-0.0008557963379094043   -0.007357298039826122   -0.00032924824496988073
-0.00146451634213471   -0.006096907468570395   -0.00034402182316441507
-0.0008033595332319577   -0.006093326769413999   -0.0003292530798022673
-0.0008557963379094043   -0.007357298039826122   -0.00032924824496988073
-0.0008094358850485713   -0.006087985319102901   -0.00033463391557495974
-0.00146451634213471   -0.006096907468570395   -0.00034402182316441507
-0.0008557963379094043   -0.007357298039826122   -0.00032924824496988073
-0.0014531268513811174   -0.007355428635383324   -0.00034181316208172
-0.0014618161755557467   -0.007348445165144072   -0.0003400235839155646
-0.00146451634213471   -0.006096907468570395   -0.00034402182316441507
-0.0008557963379094043   -0.007357298039826122   -0.00032924824496988073
-0.0014618161755557467   -0.007348445165144072   -0.0003400235839155646
-0.0008094358850485713   -0.006087985319102901   -0.00033463391557495974
-0.00146451634213471   -0.006096907468570395   -0.00034402182316441507
-0.0014531268513811174   -0.007355428635383324   -0.00034181316208172
-0.0008033595332319577   -0.006093326769413999   -0.0003292530798022673
-0.001457551305014818   -0.00610764823553821   -0.00034245106176424364
-0.0014531268513811174   -0.007355428635383324   -0.00034181316208172
-0.0008557963379094043   -0.007357298039826122   -0.00032924824496988073
-0.0008033595332319577   -0.006093326769413999   -0.0003292530798022673
-0.0008457645045136341   -0.007363885130595269   -0.00032658015007472303
-0.001457551305014818   -0.00610764823553821   -0.00034245106176424364
-0.0007966366957780046   -0.006100008243486569   -0.00032516035850106413
-0.0008457645045136341   -0.007363885130595269   -0.00032658015007472303
-0.0008033595332319577   -0.006093326769413999   -0.0003292530798022673
-0.001457551305014818   -0.00610764823553821   -0.00034245106176424364
-0.0008457645045136341   -0.007363885130595269   -0.00032658015007472303
-0.0014415419871012403   -0.0073656234964295676   -0.00034488569084268293
-0.0014531268513811174   -0.007355428635383324   -0.00034181316208172
-0.001457551305014818   -0.00610764823553821   -0.00034245106176424364
-0.0008457645045136341   -0.007363885130595269   -0.00032658015007472303
-0.0014531268513811174   -0.007355428635383324   -0.00034181316208172
-0.0008033595332319577   -0.006093326769413999   -0.0003292530798022673
-0.001457551305014818   -0.00610764823553821   -0.00034245106176424364
-0.0014415419871012403   -0.0073656234964295676   -0.00034488569084268293
-0.0007966366957780046   -0.006100008243486569   -0.00032516035850106413
-0.0014488591518253913   -0.006120370778829678   -0.00034213360592983235
-0.0014415419871012403   -0.0073656234964295676   -0.00034488569084268293
-0.0008457645045136341   -0.007363885130595269   -0.00032658015007472303
-0.0007966366957780046   -0.006100008243486569   -0.00032516035850106413
-0.0008354550299946553   -0.007373611830950607   -0.0003252468719469651
-0.0014488591518253913   -0.006120370778829678   -0.00034213360592983235
-0.0007894503167181753   -0.006108051000351753   -0.00032240518538399613
-0.0008354550299946553   -0.007373611830950607   -0.0003252468719469651
-0.0007966366957780046   -0.006100008243486569   -0.00032516035850106413
-0.0014488591518253913   -0.006120370778829678   -0.00034213360592983235
-0.0008354550299946553   -0.007373611830950607   -0.0003252468719469651
-0.0014291928305699354   -0.0073796639151890156   -0.0003492663929557151
-0.0014415419871012403   -0.0073656234964295676   -0.00034488569084268293
-0.0014488591518253913   -0.006120370778829678   -0.00034213360592983235
-0.0008354550299946553   -0.007373611830950607   -0.0003252468719469651
-0.0014415419871012403   -0.0073656234964295676   -0.00034488569084268293
-0.0007966366957780046   -0.006100008243486569   -0.00032516035850106413
-0.0008094358850485713   -0.006087985319102901   -0.00033463391557495974
-0.0008651583346922854   -0.00735377771687148   -0.00033318127810020426
-0.000168016435610794   -0.00608422829424128   -0.00033005496641949416
-0.0008033595332319577   -0.006093326769413999   -0.0003292530798022673
-0.0008651583346922854   -0.00735377771687148   -0.00033318127810020426
-0.00028622871296239883   -0.0073490609391699295   -0.0003325957912275354
-0.000168016435610794   -0.00608422829424128   -0.00033005496641949416
-0.00027589089765210845   -0.007348863589462244   -0.000323136398003241
-0.0008033595332319577   -0.006093326769413999   -0.0003292530798022673
-0.0001609629893382007   -0.006085202521707313   -0.0003222810601705531
-0.00027589089765210845   -0.007348863589462244   -0.000323136398003241
-0.000168016435610794   -0.00608422829424128   -0.00033005496641949416
-0.0008033595332319577   -0.006093326769413999   -0.0003292530798022673
-0.00027589089765210845   -0.007348863589462244   -0.000323136398003241
-0.0008557963379094043   -0.007357298039826122   -0.00032924824496988073
-0.0008651583346922854   -0.00735377771687148   -0.00033318127810020426
-0.0008033595332319577   -0.006093326769413999   -0.0003292530798022673
-0.00027589089765210845   -0.007348863589462244   -0.000323136398003241
-0.0008651583346922854   -0.00735377771687148   -0.00033318127810020426
-0.000168016435610794   -0.00608422829424128   -0.00033005496641949416
-0.0008033595332319577   -0.006093326769413999   -0.0003292530798022673
-0.0008557963379094043   -0.007357298039826122   -0.00032924824496988073
-0.0001609629893382007   -0.006085202521707313   -0.0003222810601705531
-0.0007966366957780046   -0.006100008243486569   -0.00032516035850106413
-0.0008557963379094043   -0.007357298039826122   -0.00032924824496988073
-0.00027589089765210845   -0.007348863589462244   -0.000323136398003241
-0.0001609629893382007   -0.006085202521707313   -0.0003222810601705531
-0.0002657974790516726   -0.007351539113982574   -0.0003149504851881909
-0.0007966366957780046   -0.006100008243486569   -0.00032516035850106413
-0.00015424170820881305   -0.00608742962928916   -0.0003157924724046267
-0.0002657974790516726   -0.007351539113982574   -0.0003149504851881909
-0.0001609629893382007   -0.006085202521707313   -0.0003222810601705531
-0.0007966366957780046   -0.006100008243486569   -0.00032516035850106413
-0.0002657974790516726   -0.007351539113982574   -0.0003149504851881909
-0.0008457645045136341   -0.007363885130595269   -0.00032658015007472303
-0.0008557963379094043   -0.007357298039826122   -0.00032924824496988073
-0.0007966366957780046   -0.006100008243486569   -0.00032516035850106413
-0.0002657974790516726   -0.007351539113982574   -0.0003149504851881909
-0.0008557963379094043   -0.007357298039826122   -0.00032924824496988073
-0.0001609629893382007   -0.006085202521707313   -0.0003222810601705531
-0.0007966366957780046   -0.006100008243486569   -0.00032516035850106413
-0.0008457645045136341   -0.007363885130595269   -0.00032658015007472303
-0.00015424170820881305   -0.00608742962928916   -0.0003157924724046267
-0.0007894503167181753   -0.006108051000351753   -0.00032240518538399613
-0.0008457645045136341   -0.007363885130595269   -0.00032658015007472303
-0.0002657974790516726   -0.007351539113982574   -0.0003149504851881909
-0.00015424170820881305   -0.00608742962928916   -0.0003157924724046267
-0.00025671444999281456   -0.007357283899938626   -0.0003080798693820616
-0.0007894503167181753   -0.006108051000351753   -0.00032240518538399613
-0.0001483675443078752   -0.006090952074791903   -0.0003106306618616471
-0.00025671444999281456   -0.007357283899938626   -0.0003080798693820616
-0.00015424170820881305   -0.00608742962928916   -0.0003157924724046267
-0.0007894503167181753   -0.006108051000351753   -0.00032240518538399613
-0.00025671444999281456   -0.007357283899938626   -0.0003080798693820616
-0.0008354550299946553   -0.007373611830950607   -0.0003252468719469651
-0.0008457645045136341   -0.007363885130595269   -0.00032658015007472303
-0.0007894503167181753   -0.006108051000351753   -0.00032240518538399613
-0.00025671444999281456   -0.007357283899938626   -0.0003080798693820616
-0.0008457645045136341   -0.007363885130595269   -0.00032658015007472303
-0.00015424170820881305   -0.00608742962928916   -0.0003157924724046267
-0.000168016435610794   -0.00608422829424128   -0.00033005496641949416
-0.00028622871296239883   -0.0073490609391699295   -0.0003325957912275354
0.0004919279681365807   -0.006075997331260918   -0.0003334299174075918
-0.0001609629893382007   -0.006085202521707313   -0.0003222810601705531
-0.00028622871296239883   -0.0073490609391699295   -0.0003325957912275354
0.000311186928659592   -0.007334454327786256   -0.0003387479483869331
0.0004919279681365807   -0.006075997331260918   -0.0003334299174075918
0.00032385783640751653   -0.007330284444131961   -0.0003237860828771851
-0.0001609629893382007   -0.006085202521707313   -0.0003222810601705531
0.0005007846601917003   -0.006072560032513515   -0.0003232802799265746
0.00032385783640751653   -0.007330284444131961   -0.0003237860828771851
0.0004919279681365807   -0.006075997331260918   -0.0003334299174075918
-0.0001609629893382007   -0.006085202521707313   -0.0003222810601705531
0.00032385783640751653   -0.007330284444131961   -0.0003237860828771851
-0.00027589089765210845   -0.007348863589462244   -0.000323136398003241
-0.00028622871296239883   -0.0073490609391699295   -0.0003325957912275354
-0.0001609629893382007   -0.006085202521707313   -0.0003222810601705531
0.00032385783640751653   -0.007330284444131961   -0.0003237860828771851
-0.00028622871296239883   -0.0073490609391699295   -0.0003325957912275354
0.0004919279681365807   -0.006075997331260918   -0.0003334299174075918
-0.0001609629893382007   -0.006085202521707313   -0.0003222810601705531
-0.00027589089765210845   -0.007348863589462244   -0.000323136398003241
0.0005007846601917003   -0.006072560032513515   -0.0003232802799265746
-0.00015424170820881305   -0.00608742962928916   -0.0003157924724046267
-0.00027589089765210845   -0.007348863589462244   -0.000323136398003241
0.00032385783640751653   -0.007330284444131961   -0.0003237860828771851
0.0005007846601917003   -0.006072560032513515   -0.0003232802799265746
0.0003369571734967519   -0.007329410515533485   -0.00031017178235713484
-0.00015424170820881305   -0.00608742962928916   -0.0003157924724046267
0.0005091449365356624   -0.0060707532572204966   -0.0003144080969879395
0.0003369571734967519   -0.007329410515533485   -0.00031017178235713484
0.0005007846601917003   -0.006072560032513515   -0.0003232802799265746
-0.00015424170820881305   -0.00608742962928916   -0.0003157924724046267
0.0003369571734967519   -0.007329410515533485   -0.00031017178235713484
-0.0002657974790516726   -0.007351539113982574   -0.0003149504851881909
-0.00027589089765210845   -0.007348863589462244   -0.000323136398003241
-0.00015424170820881305   -0.00608742962928916   -0.0003157924724046267
0.0003369571734967519   -0.007329410515533485   -0.00031017178235713484
-0.00027589089765210845   -0.007348863589462244   -0.000323136398003241
0.0005007846601917003   -0.006072560032513515   -0.0003232802799265746
-0.00015424170820881305   -0.00608742962928916   -0.0003157924724046267
-0.0002657974790516726   -0.007351539113982574   -0.0003149504851881909
0.0005091449365356624   -0.0060707532572204966   -0.0003144080969879395
-0.0001483675443078752   -0.006090952074791903   -0.0003106306618616471
-0.0002657974790516726   -0.007351539113982574   -0.0003149504851881909
0.0003369571734967519   -0.007329410515533485   -0.00031017178235713484
0.0005091449365356624   -0.0060707532572204966   -0.0003144080969879395
0.00034585495918844984   -0.007331246814785145   -0.0002977249862774836
-0.0001483675443078752   -0.006090952074791903   -0.0003106306618616471
0.0005141388225533938   -0.006069811290009567   -0.0003067298862406396
0.00034585495918844984   -0.007331246814785145   -0.0002977249862774836
0.0005091449365356624   -0.0060707532572204966   -0.0003144080969879395
-0.0001483675443078752   -0.006090952074791903   -0.0003106306618616471
0.00034585495918844984   -0.007331246814785145   -0.0002977249862774836
-0.00025671444999281456   -0.007357283899938626   -0.0003080798693820616
-0.0002657974790516726   -0.007351539113982574   -0.0003149504851881909
-0.0001483675443078752   -0.006090952074791903   -0.0003106306618616471
0.00034585495918844984   -0.007331246814785145   -0.0002977249862774836
-0.0002657974790516726   -0.007351539113982574   -0.0003149504851881909
0.0005091449365356624   -0.0060707532572204966   -0.0003144080969879395
0.0004919279681365807   -0.006075997331260918   -0.0003334299174075918
0.000311186928659592   -0.007334454327786256   -0.0003387479483869331
0.001196256400416105   -0.006061944860972326   -0.0003453440712054137
0.0005007846601917003   -0.006072560032513515   -0.0003232802799265746
0.000311186928659592   -0.007334454327786256   -0.0003387479483869331
0.000943398130718657   -0.007309252452583656   -0.0003536298268409135
0.001196256400416105   -0.006061944860972326   -0.0003453440712054137
0.0009772287370866776   -0.0073009070332731504   -0.0003316973150898305
0.0005007846601917003   -0.006072560032513515   -0.0003232802799265746
0.0012185292185831222   -0.006054458516224093   -0.0003317724355491717
0.0009772287370866776   -0.0073009070332731504   -0.0003316973150898305
0.001196256400416105   -0.006061944860972326   -0.0003453440712054137
0.0005007846601917003   -0.006072560032513515   -0.0003232802799265746
0.0009772287370866776   -0.0073009070332731504   -0.0003316973150898305
0.00032385783640751653   -0.007330284444131961   -0.0003237860828771851
0.000311186928659592   -0.007334454327786256   -0.0003387479483869331
0.0005007846601917003   -0.006072560032513515   -0.0003232802799265746
0.0009772287370866776   -0.0073009070332731504   -0.0003316973150898305
0.000311186928659592   -0.007334454327786256   -0.0003387479483869331
0.001196256400416105   -0.006061944860972326   -0.0003453440712054137
0.0005007846601917003   -0.006072560032513515   -0.0003232802799265746
0.00032385783640751653   -0.007330284444131961   -0.0003237860828771851
0.0012185292185831222   -0.006054458516224093   -0.0003317724355491717
0.0005091449365356624   -0.0060707532572204966   -0.0003144080969879395
0.00032385783640751653   -0.007330284444131961   -0.0003237860828771851
0.0009772287370866776   -0.0073009070332731504   -0.0003316973150898305
0.0012185292185831222   -0.006054458516224093   -0.0003317724355491717
0.0010025169782284698   -0.0072985201314013665   -0.00031157292201168725
0.0005091449365356624   -0.0060707532572204966   -0.0003144080969879395
0.0012342719678478616   -0.0060508023217513635   -0.00032003820705097324
0.0010025169782284698   -0.0072985201314013665   -0.00031157292201168725
0.0012185292185831222   -0.006054458516224093   -0.0003317724355491717
0.0005091449365356624   -0.0060707532572204966   -0.0003144080969879395
0.0010025169782284698   -0.0072985201314013665   -0.00031157292201168725
0.0003369571734967519   -0.007329410515533485   -0.00031017178235713484
0.00032385783640751653   -0.007330284444131961   -0.0003237860828771851
0.0005091449365356624   -0.0060707532572204966   -0.0003144080969879395
0.0010025169782284698   -0.0072985201314013665   -0.00031157292201168725
0.00032385783640751653   -0.007330284444131961   -0.0003237860828771851
0.0012185292185831222   -0.006054458516224093   -0.0003317724355491717
0.0005091449365356624   -0.0060707532572204966   -0.0003144080969879395
0.0003369571734967519   -0.007329410515533485   -0.00031017178235713484
0.0012342719678478616   -0.0060508023217513635   -0.00032003820705097324
0.0005141388225533938   -0.006069811290009567   -0.0003067298862406396
0.0003369571734967519   -0.007329410515533485   -0.00031017178235713484
0.0010025169782284698   -0.0072985201314013665   -0.00031157292201168725
0.0012342719678478616   -0.0060508023217513635   -0.00032003820705097324
0.0010285852080727743   -0.007298586603102194   -0.0002933508192012385
0.0005141388225533938   -0.006069811290009567   -0.0003067298862406396
0.0012488280796066047   -0.0060471322354011   -0.00031022214778039494
0.0010285852080727743   -0.007298586603102194   -0.0002933508192012385
0.0012342719678478616   -0.0060508023217513635   -0.00032003820705097324
0.0005141388225533938   -0.006069811290009567   -0.0003067298862406396
0.0010285852080727743   -0.007298586603102194   -0.0002933508192012385
0.00034585495918844984   -0.007331246814785145   -0.0002977249862774836
0.0003369571734967519   -0.007329410515533485   -0.00031017178235713484
0.0005141388225533938   -0.006069811290009567   -0.0003067298862406396
0.0010285852080727743   -0.007298586603102194   -0.0002933508192012385
0.0003369571734967519   -0.007329410515533485   -0.00031017178235713484
0.0012342719678478616   -0.0060508023217513635   -0.00032003820705097324
-0.002125110954891693   -0.007334171010898331   -0.0003508357887542498
-0.001941062646559855   -0.00843254013720291   -0.000328293244237004
-0.0014618161755557467   -0.007348445165144072   -0.0003400235839155646
-0.0021093585866460976   -0.007343619747417972   -0.0003594693535844105
-0.001941062646559855   -0.00843254013720291   -0.000328293244237004
-0.0013848624562989925   -0.00845761082824392   -0.00032678822642589464
-0.0014618161755557467   -0.007348445165144072   -0.0003400235839155646
-0.0013715064084380657   -0.008461191855785791   -0.00033281422460838833
-0.0021093585866460976   -0.007343619747417972   -0.0003594693535844105
-0.0014531268513811174   -0.007355428635383324   -0.00034181316208172
-0.0013715064084380657   -0.008461191855785791   -0.00033281422460838833
-0.0014618161755557467   -0.007348445165144072   -0.0003400235839155646
-0.0021093585866460976   -0.007343619747417972   -0.0003594693535844105
-0.0013715064084380657   -0.008461191855785791   -0.00033281422460838833
-0.0019127341588865076   -0.008437798115922057   -0.0003453983335299678
-0.001941062646559855   -0.00843254013720291   -0.000328293244237004
-0.0021093585866460976   -0.007343619747417972   -0.0003594693535844105
-0.0013715064084380657   -0.008461191855785791   -0.00033281422460838833
-0.001941062646559855   -0.00843254013720291   -0.000328293244237004
-0.0014618161755557467   -0.007348445165144072   -0.0003400235839155646
-0.0021093585866460976   -0.007343619747417972   -0.0003594693535844105
-0.0019127341588865076   -0.008437798115922057   -0.0003453983335299678
-0.0014531268513811174   -0.007355428635383324   -0.00034181316208172
-0.002091761038560266   -0.0073555344154596245   -0.00037011389715669137
-0.0019127341588865076   -0.008437798115922057   -0.0003453983335299678
-0.0013715064084380657   -0.008461191855785791   -0.00033281422460838833
-0.0014531268513811174   -0.007355428635383324   -0.00034181316208172
-0.0013547093691514429   -0.008469998539193977   -0.0003401055837120166
-0.002091761038560266   -0.0073555344154596245   -0.00037011389715669137
-0.0014415419871012403   -0.0073656234964295676   -0.00034488569084268293
-0.0013547093691514429   -0.008469998539193977   -0.0003401055837120166
-0.0014531268513811174   -0.007355428635383324   -0.00034181316208172
-0.002091761038560266   -0.0073555344154596245   -0.00037011389715669137
-0.0013547093691514429   -0.008469998539193977   -0.0003401055837120166
-0.0018847435901693061   -0.0084481433974877   -0.00036456044853810465
-0.0019127341588865076   -0.008437798115922057   -0.0003453983335299678
-0.002091761038560266   -0.0073555344154596245   -0.00037011389715669137
-0.0013547093691514429   -0.008469998539193977   -0.0003401055837120166
-0.0019127341588865076   -0.008437798115922057   -0.0003453983335299678
-0.0014531268513811174   -0.007355428635383324   -0.00034181316208172
-0.002091761038560266   -0.0073555344154596245   -0.00037011389715669137
-0.0018847435901693061   -0.0084481433974877   -0.00036456044853810465
-0.0014415419871012403   -0.0073656234964295676   -0.00034488569084268293
-0.0020680745524050935   -0.007373833885313364   -0.00038282596187632414
-0.0018847435901693061   -0.0084481433974877   -0.00036456044853810465
-0.0013547093691514429   -0.008469998539193977   -0.0003401055837120166
-0.0014415419871012403   -0.0073656234964295676   -0.00034488569084268293
-0.0013381867076791118   -0.008484535684038962   -0.0003486496238326204
-0.0020680745524050935   -0.007373833885313364   -0.00038282596187632414
-0.0014291928305699354   -0.0073796639151890156   -0.0003492663929557151
-0.0013381867076791118   -0.008484535684038962   -0.0003486496238326204
-0.0014415419871012403   -0.0073656234964295676   -0.00034488569084268293
-0.0020680745524050935   -0.007373833885313364   -0.00038282596187632414
-0.0013381867076791118   -0.008484535684038962   -0.0003486496238326204
-0.0018489652465989578   -0.008467436753987324   -0.0003857627409517552
-0.0018847435901693061   -0.0084481433974877   -0.00036456044853810465
-0.0020680745524050935   -0.007373833885313364   -0.00038282596187632414
-0.0013381867076791118   -0.008484535684038962   -0.0003486496238326204
-0.0018847435901693061   -0.0084481433974877   -0.00036456044853810465
-0.0014415419871012403   -0.0073656234964295676   -0.00034488569084268293
-0.0014618161755557467   -0.007348445165144072   -0.0003400235839155646
-0.0013848624562989925   -0.00845761082824392   -0.00032678822642589464
-0.0008651583346922854   -0.00735377771687148   -0.00033318127810020426
-0.0014531268513811174   -0.007355428635383324   -0.00034181316208172
-0.0013848624562989925   -0.00845761082824392   -0.00032678822642589464
-0.0008999820769054712   -0.008468845398856808   -0.00032634648766228207
-0.0008651583346922854   -0.00735377771687148   -0.00033318127810020426
-0.0008863742331361585   -0.008469940851435754   -0.0003235248122584888
-0.0014531268513811174   -0.007355428635383324   -0.00034181316208172
-0.0008557963379094043   -0.007357298039826122   -0.00032924824496988073
-0.0008863742331361585   -0.008469940851435754   -0.0003235248122584888
-0.0008651583346922854   -0.00735377771687148   -0.00033318127810020426
-0.0014531268513811174   -0.007355428635383324   -0.00034181316208172
-0.0008863742331361585   -0.008469940851435754   -0.0003235248122584888
-0.0013715064084380657   -0.008461191855785791   -0.00033281422460838833
-0.0013848624562989925   -0.00845761082824392   -0.00032678822642589464
-0.0014531268513811174   -0.007355428635383324   -0.00034181316208172
-0.0008863742331361585   -0.008469940851435754   -0.0003235248122584888
-0.0013848624562989925   -0.00845761082824392   -0.00032678822642589464
-0.0008651583346922854   -0.00735377771687148   -0.00033318127810020426
-0.0014531268513811174   -0.007355428635383324   -0.00034181316208172
-0.0013715064084380657   -0.008461191855785791   -0.00033281422460838833
-0.0008557963379094043   -0.007357298039826122   -0.00032924824496988073
-0.0014415419871012403   -0.0073656234964295676   -0.00034488569084268293
-0.0013715064084380657   -0.008461191855785791   -0.00033281422460838833
-0.0008863742331361585   -0.008469940851435754   -0.0003235248122584888
-0.0008557963379094043   -0.007357298039826122   -0.00032924824496988073
-0.0008722919783784026   -0.008475723831909301   -0.00032193049805508177
-0.0014415419871012403   -0.0073656234964295676   -0.00034488569084268293
-0.0008457645045136341   -0.007363885130595269   -0.00032658015007472303
-0.0008722919783784026   -0.008475723831909301   -0.00032193049805508177
-0.0008557963379094043   -0.007357298039826122   -0.00032924824496988073
-0.0014415419871012403   -0.0073656234964295676   -0.00034488569084268293
-0.0008722919783784026   -0.008475723831909301   -0.00032193049805508177
-0.0013547093691514429   -0.008469998539193977   -0.0003401055837120166
-0.0013715064084380657   -0.008461191855785791   -0.00033281422460838833
-0.0014415419871012403   -0.0073656234964295676   -0.00034488569084268293
-0.0008722919783784026   -0.008475723831909301   -0.00032193049805508177
-0.0013715064084380657   -0.008461191855785791   -0.00033281422460838833
-0.0008557963379094043   -0.007357298039826122   -0.00032924824496988073
-0.0014415419871012403   -0.0073656234964295676   -0.00034488569084268293
-0.0013547093691514429   -0.008469998539193977   -0.0003401055837120166
-0.0008457645045136341   -0.007363885130595269   -0.00032658015007472303
-0.0014291928305699354   -0.0073796639151890156   -0.0003492663929557151
-0.0013547093691514429   -0.008469998539193977   -0.0003401055837120166
-0.0008722919783784026   -0.008475723831909301   -0.00032193049805508177
-0.0008457645045136341   -0.007363885130595269   -0.00032658015007472303
-0.0008582128060023346   -0.008486422872101121   -0.0003215631567342619
-0.0014291928305699354   -0.0073796639151890156   -0.0003492663929557151
-0.0008354550299946553   -0.007373611830950607   -0.0003252468719469651
-0.0008582128060023346   -0.008486422872101121   -0.0003215631567342619
-0.0008457645045136341   -0.007363885130595269   -0.00032658015007472303
-0.0014291928305699354   -0.0073796639151890156   -0.0003492663929557151
-0.0008582128060023346   -0.008486422872101121   -0.0003215631567342619
-0.0013381867076791118   -0.008484535684038962   -0.0003486496238326204
-0.0013547093691514429   -0.008469998539193977   -0.0003401055837120166
-0.0014291928305699354   -0.0073796639151890156   -0.0003492663929557151
-0.0008582128060023346   -0.008486422872101121   -0.0003215631567342619
-0.0013547093691514429   -0.008469998539193977   -0.0003401055837120166
-0.0008457645045136341   -0.007363885130595269   -0.00032658015007472303
-0.0008651583346922854   -0.00735377771687148   -0.00033318127810020426
-0.0008999820769054712   -0.008468845398856808   -0.00032634648766228207
-0.00028622871296239883   -0.0073490609391699295   -0.0003325957912275354
-0.0008557963379094043   -0.007357298039826122   -0.00032924824496988073
-0.0008999820769054712   -0.008468845398856808   -0.00032634648766228207
-0.0004308545914047501   -0.00846580064987542   -0.0003302260418506798
-0.00028622871296239883   -0.0073490609391699295   -0.0003325957912275354
-0.0004159592921320786   -0.00846406657235817   -0.00031885679434492145
-0.0008557963379094043   -0.007357298039826122   -0.00032924824496988073
-0.00027589089765210845   -0.007348863589462244   -0.000323136398003241
-0.0004159592921320786   -0.00846406657235817   -0.00031885679434492145
-0.00028622871296239883   -0.0073490609391699295   -0.0003325957912275354
-0.0008557963379094043   -0.007357298039826122   -0.00032924824496988073
-0.0004159592921320786   -0.00846406657235817   -0.00031885679434492145
-0.0008863742331361585   -0.008469940851435754   -0.0003235248122584888
-0.0008999820769054712   -0.008468845398856808   -0.00032634648766228207
-0.0008557963379094043   -0.007357298039826122   -0.00032924824496988073
-0.0004159592921320786   -0.00846406657235817   -0.00031885679434492145
-0.0008999820769054712   -0.008468845398856808   -0.00032634648766228207
-0.00028622871296239883   -0.0073490609391699295   -0.0003325957912275354
-0.0008557963379094043   -0.007357298039826122   -0.00032924824496988073
-0.0008863742331361585   -0.008469940851435754   -0.0003235248122584888
-0.00027589089765210845   -0.007348863589462244   -0.000323136398003241
-0.0008457645045136341   -0.007363885130595269   -0.00032658015007472303
-0.0008863742331361585   -0.008469940851435754   -0.0003235248122584888
-0.0004159592921320786   -0.00846406657235817   -0.00031885679434492145
-0.00027589089765210845   -0.007348863589462244   -0.000323136398003241
-0.0004014480176941522   -0.008466628218720604   -0.00030879804808679956
-0.0008457645045136341   -0.007363885130595269   -0.00032658015007472303
-0.0002657974790516726   -0.007351539113982574   -0.0003149504851881909
-0.0004014480176941522   -0.008466628218720604   -0.00030879804808679956
-0.00027589089765210845   -0.007348863589462244   -0.000323136398003241
-0.0008457645045136341   -0.007363885130595269   -0.00032658015007472303
-0.0004014480176941522   -0.008466628218720604   -0.00030879804808679956
-0.0008722919783784026   -0.008475723831909301   -0.00032193049805508177
-0.0008863742331361585   -0.008469940851435754   -0.0003235248122584888
-0.0008457645045136341   -0.007363885130595269   -0.00032658015007472303
-0.0004014480176941522   -0.008466628218720604   -0.00030879804808679956
-0.0008863742331361585   -0.008469940851435754   -0.0003235248122584888
-0.00027589089765210845   -0.007348863589462244   -0.000323136398003241
-0.0008457645045136341   -0.007363885130595269   -0.00032658015007472303
-0.0008722919783784026   -0.008475723831909301   -0.00032193049805508177
-0.0002657974790516726   -0.007351539113982574   -0.0003149504851881909
-0.0008354550299946553   -0.007373611830950607   -0.0003252468719469651
-0.0008722919783784026   -0.008475723831909301   -0.00032193049805508177
-0.0004014480176941522   -0.008466628218720604   -0.00030879804808679956
-0.0002657974790516726   -0.007351539113982574   -0.0003149504851881909
-0.0003882864385694192   -0.008474008591666351   -0.00029994439918341117
-0.0008354550299946553   -0.007373611830950607   -0.0003252468719469651
-0.00025671444999281456   -0.007357283899938626   -0.0003080798693820616
-0.0003882864385694192   -0.008474008591666351   -0.00029994439918341117
-0.0002657974790516726   -0.007351539113982574   -0.0003149504851881909
-0.0008354550299946553   -0.007373611830950607   -0.0003252468719469651
-0.0003882864385694192   -0.008474008591666351   -0.00029994439918341117
-0.0008582128060023346   -0.008486422872101121   -0.0003215631567342619
-0.0008722919783784026   -0.008475723831909301   -0.00032193049805508177
-0.0008354550299946553   -0.007373611830950607   -0.0003252468719469651
-0.0003882864385694192   -0.008474008591666351   -0.00029994439918341117
-0.0008722919783784026   -0.008475723831909301   -0.00032193049805508177
-0.0002657974790516726   -0.007351539113982574   -0.0003149504851881909
-0.00028622871296239883   -0.0073490609391699295   -0.0003325957912275354
-0.0004308545914047501   -0.00846580064987542   -0.0003302260418506798
0.000311186928659592   -0.007334454327786256   -0.0003387479483869331
-0.00027589089765210845   -0.007348863589462244   -0.000323136398003241
-0.0004308545914047501   -0.00846580064987542   -0.0003302260418506798
5.783225228186114e-05   -0.008447945615723708   -0.0003391216357943482
0.000311186928659592   -0.007334454327786256   -0.0003387479483869331
7.605704368471392e-05   -0.008442687667400941   -0.0003192042514607368
-0.00027589089765210845   -0.007348863589462244   -0.000323136398003241
0.00032385783640751653   -0.007330284444131961   -0.0003237860828771851
7.605704368471392e-05   -0.008442687667400941   -0.0003192042514607368
0.000311186928659592   -0.007334454327786256   -0.0003387479483869331
-0.00027589089765210845   -0.007348863589462244   -0.000323136398003241
7.605704368471392e-05   -0.008442687667400941   -0.0003192042514607368
-0.0004159592921320786   -0.00846406657235817   -0.00031885679434492145
-0.0004308545914047501   -0.00846580064987542   -0.0003302260418506798
-0.00027589089765210845   -0.007348863589462244   -0.000323136398003241
7.605704368471392e-05   -0.008442687667400941   -0.0003192042514607368
-0.0004308545914047501   -0.00846580064987542   -0.0003302260418506798
0.000311186928659592   -0.007334454327786256   -0.0003387479483869331
-0.00027589089765210845   -0.007348863589462244   -0.000323136398003241
-0.0004159592921320786   -0.00846406657235817   -0.00031885679434492145
0.00032385783640751653   -0.007330284444131961   -0.0003237860828771851
-0.0002657974790516726   -0.007351539113982574   -0.0003149504851881909
-0.0004159592921320786   -0.00846406657235817   -0.00031885679434492145
7.605704368471392e-05   -0.008442687667400941   -0.0003192042514607368
0.00032385783640751653   -0.007330284444131961   -0.0003237860828771851
9.543587553324907e-05   -0.008442225080498862   -0.0003009339109806569
-0.0002657974790516726   -0.007351539113982574   -0.0003149504851881909
0.0003369571734967519   -0.007329410515533485   -0.00031017178235713484
9.543587553324907e-05   -0.008442225080498862   -0.0003009339109806569
0.00032385783640751653   -0.007330284444131961   -0.0003237860828771851
-0.0002657974790516726   -0.007351539113982574   -0.0003149504851881909
9.543587553324907e-05   -0.008442225080498862   -0.0003009339109806569
-0.0004014480176941522   -0.008466628218720604   -0.00030879804808679956
-0.0004159592921320786   -0.00846406657235817   -0.00031885679434492145
-0.0002657974790516726   -0.007351539113982574   -0.0003149504851881909
9.543587553324907e-05   -0.008442225080498862   -0.0003009339109806569
-0.0004159592921320786   -0.00846406657235817   -0.00031885679434492145
0.00032385783640751653   -0.007330284444131961   -0.0003237860828771851
-0.0002657974790516726   -0.007351539113982574   -0.0003149504851881909
-0.0004014480176941522   -0.008466628218720604   -0.00030879804808679956
0.0003369571734967519   -0.007329410515533485   -0.00031017178235713484
-0.00025671444999281456   -0.007357283899938626   -0.0003080798693820616
-0.0004014480176941522   -0.008466628218720604   -0.00030879804808679956
9.543587553324907e-05   -0.008442225080498862   -0.0003009339109806569
0.0003369571734967519   -0.007329410515533485   -0.00031017178235713484
0.0001096046287871658   -0.00844631458940746   -0.0002837910080204843
-0.00025671444999281456   -0.007357283899938626   -0.0003080798693820616
0.00034585495918844984   -0.007331246814785145   -0.0002977249862774836
0.0001096046287871658   -0.00844631458940746   -0.0002837910080204843
0.0003369571734967519   -0.007329410515533485   -0.00031017178235713484
-0.00025671444999281456   -0.007357283899938626   -0.0003080798693820616
0.0001096046287871658   -0.00844631458940746   -0.0002837910080204843
-0.0003882864385694192   -0.008474008591666351   -0.00029994439918341117
-0.0004014480176941522   -0.008466628218720604   -0.00030879804808679956
-0.00025671444999281456   -0.007357283899938626   -0.0003080798693820616
0.0001096046287871658   -0.00844631458940746   -0.0002837910080204843
-0.0004014480176941522   -0.008466628218720604   -0.00030879804808679956
0.0003369571734967519   -0.007329410515533485   -0.00031017178235713484
0.000311186928659592   -0.007334454327786256   -0.0003387479483869331
5.783225228186114e-05   -0.008447945615723708   -0.0003391216357943482
0.000943398130718657   -0.007309252452583656   -0.0003536298268409135
0.00032385783640751653   -0.007330284444131961   -0.0003237860828771851
5.783225228186114e-05   -0.008447945615723708   -0.0003391216357943482
0.0005742026462681721   -0.008413661013944942   -0.0003573088505420256
0.000943398130718657   -0.007309252452583656   -0.0003536298268409135
0.0006217250509322929   -0.008403710647426725   -0.0003267477273651677
0.00032385783640751653   -0.007330284444131961   -0.0003237860828771851
0.0009772287370866776   -0.0073009070332731504   -0.0003316973150898305
0.0006217250509322929   -0.008403710647426725   -0.0003267477273651677
0.000943398130718657   -0.007309252452583656   -0.0003536298268409135
0.00032385783640751653   -0.007330284444131961   -0.0003237860828771851
0.0006217250509322929   -0.008403710647426725   -0.0003267477273651677
7.605704368471392e-05   -0.008442687667400941   -0.0003192042514607368
5.783225228186114e-05   -0.008447945615723708   -0.0003391216357943482
0.00032385783640751653   -0.007330284444131961   -0.0003237860828771851
0.0006217250509322929   -0.008403710647426725   -0.0003267477273651677
5.783225228186114e-05   -0.008447945615723708   -0.0003391216357943482
0.000943398130718657   -0.007309252452583656   -0.0003536298268409135
0.00032385783640751653   -0.007330284444131961   -0.0003237860828771851
7.605704368471392e-05   -0.008442687667400941   -0.0003192042514607368
0.0009772287370866776   -0.0073009070332731504   -0.0003316973150898305
0.0003369571734967519   -0.007329410515533485   -0.00031017178235713484
7.605704368471392e-05   -0.008442687667400941   -0.0003192042514607368
0.0006217250509322929   -0.008403710647426725   -0.0003267477273651677
0.0009772287370866776   -0.0073009070332731504   -0.0003316973150898305
0.0006582613770875658   -0.008401982365146271   -0.00029823473842501274
0.0003369571734967519   -0.007329410515533485   -0.00031017178235713484
0.0010025169782284698   -0.0072985201314013665   -0.00031157292201168725
0.0006582613770875658   -0.008401982365146271   -0.00029823473842501274
0.0009772287370866776   -0.0073009070332731504   -0.0003316973150898305
0.0003369571734967519   -0.007329410515533485   -0.00031017178235713484
0.0006582613770875658   -0.008401982365146271   -0.00029823473842501274
9.543587553324907e-05   -0.008442225080498862   -0.0003009339109806569
7.605704368471392e-05   -0.008442687667400941   -0.0003192042514607368
0.0003369571734967519   -0.007329410515533485   -0.00031017178235713484
0.0006582613770875658   -0.008401982365146271   -0.00029823473842501274
7.605704368471392e-05   -0.008442687667400941   -0.0003192042514607368
0.0009772287370866776   -0.0073009070332731504   -0.0003316973150898305
0.0003369571734967519   -0.007329410515533485   -0.00031017178235713484
9.543587553324907e-05   -0.008442225080498862   -0.0003009339109806569
0.0010025169782284698   -0.0072985201314013665   -0.00031157292201168725
0.00034585495918844984   -0.007331246814785145   -0.0002977249862774836
9.543587553324907e-05   -0.008442225080498862   -0.0003009339109806569
0.0006582613770875658   -0.008401982365146271   -0.00029823473842501274
0.0010025169782284698   -0.0072985201314013665   -0.00031157292201168725
0.000696700847852168   -0.008405150160915127   -0.0002719923067764904
0.00034585495918844984   -0.007331246814785145   -0.0002977249862774836
0.0010285852080727743   -0.007298586603102194   -0.0002933508192012385
0.000696700847852168   -0.008405150160915127   -0.0002719923067764904
0.0010025169782284698   -0.0072985201314013665   -0.00031157292201168725
0.00034585495918844984   -0.007331246814785145   -0.0002977249862774836
0.000696700847852168   -0.008405150160915127   -0.0002719923067764904
0.0001096046287871658   -0.00844631458940746   -0.0002837910080204843
9.543587553324907e-05   -0.008442225080498862   -0.0003009339109806569
0.00034585495918844984   -0.007331246814785145   -0.0002977249862774836
0.000696700847852168   -0.008405150160915127   -0.0002719923067764904
9.543587553324907e-05   -0.008442225080498862   -0.0003009339109806569
0.0010025169782284698   -0.0072985201314013665   -0.00031157292201168725
-0.001941062646559855   -0.00843254013720291   -0.000328293244237004
-0.0016378832419622306   -0.009291003452879202   -0.000298819638943334
-0.0013848624562989925   -0.00845761082824392   -0.00032678822642589464
-0.0019127341588865076   -0.008437798115922057   -0.0003453983335299678
-0.0016378832419622306   -0.009291003452879202   -0.000298819638943334
-0.0012406429325197946   -0.009327360583148163   -0.00030956329438269824
-0.0013848624562989925   -0.00845761082824392   -0.00032678822642589464
-0.0012221671879337455   -0.009325749537175299   -0.000318795203328284
-0.0019127341588865076   -0.008437798115922057   -0.0003453983335299678
-0.0013715064084380657   -0.008461191855785791   -0.00033281422460838833
-0.0012221671879337455   -0.009325749537175299   -0.000318795203328284
-0.0013848624562989925   -0.00845761082824392   -0.00032678822642589464
-0.0019127341588865076   -0.008437798115922057   -0.0003453983335299678
-0.0012221671879337455   -0.009325749537175299   -0.000318795203328284
-0.001596921523941101   -0.009290151299602341   -0.0003236617555085593
-0.0016378832419622306   -0.009291003452879202   -0.000298819638943334
-0.0019127341588865076   -0.008437798115922057   -0.0003453983335299678
-0.0012221671879337455   -0.009325749537175299   -0.000318795203328284
-0.0016378832419622306   -0.009291003452879202   -0.000298819638943334
-0.0013848624562989925   -0.00845761082824392   -0.00032678822642589464
-0.0019127341588865076   -0.008437798115922057   -0.0003453983335299678
-0.001596921523941101   -0.009290151299602341   -0.0003236617555085593
-0.0013715064084380657   -0.008461191855785791   -0.00033281422460838833
-0.0018847435901693061   -0.0084481433974877   -0.00036456044853810465
-0.001596921523941101   -0.009290151299602341   -0.0003236617555085593
-0.0012221671879337455   -0.009325749537175299   -0.000318795203328284
-0.0013715064084380657   -0.008461191855785791   -0.00033281422460838833
-0.0012002568386270578   -0.0093314422826735   -0.00032928619757870625
-0.0018847435901693061   -0.0084481433974877   -0.00036456044853810465
-0.0013547093691514429   -0.008469998539193977   -0.0003401055837120166
-0.0012002568386270578   -0.0093314422826735   -0.00032928619757870625
-0.0013715064084380657   -0.008461191855785791   -0.00033281422460838833
-0.0018847435901693061   -0.0084481433974877   -0.00036456044853810465
-0.0012002568386270578   -0.0093314422826735   -0.00032928619757870625
-0.0015593485299163767   -0.009297110275648527   -0.00035029046197357784
-0.001596921523941101   -0.009290151299602341   -0.0003236617555085593
-0.0018847435901693061   -0.0084481433974877   -0.00036456044853810465
-0.0012002568386270578   -0.0093314422826735   -0.00032928619757870625
-0.001596921523941101   -0.009290151299602341   -0.0003236617555085593
-0.0013715064084380657   -0.008461191855785791   -0.00033281422460838833
-0.0018847435901693061   -0.0084481433974877   -0.00036456044853810465
-0.0015593485299163767   -0.009297110275648527   -0.00035029046197357784
-0.0013547093691514429   -0.008469998539193977   -0.0003401055837120166
-0.0018489652465989578   -0.008467436753987324   -0.0003857627409517552
-0.0015593485299163767   -0.009297110275648527   -0.00035029046197357784
-0.0012002568386270578   -0.0093314422826735   -0.00032928619757870625
-0.0013547093691514429   -0.008469998539193977   -0.0003401055837120166
-0.0011803897882390116   -0.009344595833325395   -0.00034095948921551836
-0.0018489652465989578   -0.008467436753987324   -0.0003857627409517552
-0.0013381867076791118   -0.008484535684038962   -0.0003486496238326204
-0.0011803897882390116   -0.009344595833325395   -0.00034095948921551836
-0.0013547093691514429   -0.008469998539193977   -0.0003401055837120166
-0.0018489652465989578   -0.008467436753987324   -0.0003857627409517552
-0.0011803897882390116   -0.009344595833325395   -0.00034095948921551836
-0.0015133950578523113   -0.009315092569831783   -0.00037862120138298873
-0.0015593485299163767   -0.009297110275648527   -0.00035029046197357784
-0.0018489652465989578   -0.008467436753987324   -0.0003857627409517552
-0.0011803897882390116   -0.009344595833325395   -0.00034095948921551836
-0.0015593485299163767   -0.009297110275648527   -0.00035029046197357784
-0.0013547093691514429   -0.008469998539193977   -0.0003401055837120166
-0.0013848624562989925   -0.00845761082824392   -0.00032678822642589464
-0.0012406429325197946   -0.009327360583148163   -0.00030956329438269824
-0.0008999820769054712   -0.008468845398856808   -0.00032634648766228207
-0.0013715064084380657   -0.008461191855785791   -0.00033281422460838833
-0.0012406429325197946   -0.009327360583148163   -0.00030956329438269824
-0.0009121032452364573   -0.009349696247988428   -0.00031801360623868986
-0.0008999820769054712   -0.008468845398856808   -0.00032634648766228207
-0.0008933140890923947   -0.00934684524949291   -0.00031522020956969554
-0.0013715064084380657   -0.008461191855785791   -0.00033281422460838833
-0.0008863742331361585   -0.008469940851435754   -0.0003235248122584888
-0.0008933140890923947   -0.00934684524949291   -0.00031522020956969554
-0.0008999820769054712   -0.008468845398856808   -0.00032634648766228207
-0.0013715064084380657   -0.008461191855785791   -0.00033281422460838833
-0.0008933140890923947   -0.00934684524949291   -0.00031522020956969554
-0.0012221671879337455   -0.009325749537175299   -0.000318795203328284
-0.0012406429325197946   -0.009327360583148163   -0.00030956329438269824
-0.0013715064084380657   -0.008461191855785791   -0.00033281422460838833
-0.0008933140890923947   -0.00934684524949291   -0.00031522020956969554
-0.0012406429325197946   -0.009327360583148163   -0.00030956329438269824
-0.0008999820769054712   -0.008468845398856808   -0.00032634648766228207
-0.0013715064084380657   -0.008461191855785791   -0.00033281422460838833
-0.0012221671879337455   -0.009325749537175299   -0.000318795203328284
-0.0008863742331361585   -0.008469940851435754   -0.0003235248122584888
-0.0013547093691514429   -0.008469998539193977   -0.0003401055837120166
-0.0012221671879337455   -0.009325749537175299   -0.000318795203328284
-0.0008933140890923947   -0.00934684524949291   -0.00031522020956969554
-0.0008863742331361585   -0.008469940851435754   -0.0003235248122584888
-0.0008746855429828656   -0.009350354718930276   -0.00031366205346677276
-0.0013547093691514429   -0.008469998539193977   -0.0003401055837120166
-0.0008722919783784026   -0.008475723831909301   -0.00032193049805508177
-0.0008746855429828656   -0.009350354718930276   -0.00031366205346677276
-0.0008863742331361585   -0.008469940851435754   -0.0003235248122584888
-0.0013547093691514429   -0.008469998539193977   -0.0003401055837120166
-0.0008746855429828656   -0.009350354718930276   -0.00031366205346677276
-0.0012002568386270578   -0.0093314422826735   -0.00032928619757870625
-0.0012221671879337455   -0.009325749537175299   -0.000318795203328284
-0.0013547093691514429   -0.008469998539193977   -0.0003401055837120166
-0.0008746855429828656   -0.009350354718930276   -0.00031366205346677276
-0.0012221671879337455   -0.009325749537175299   -0.000318795203328284
-0.0008863742331361585   -0.008469940851435754   -0.0003235248122584888
-0.0013547093691514429   -0.008469998539193977   -0.0003401055837120166
-0.0012002568386270578   -0.0093314422826735   -0.00032928619757870625
-0.0008722919783784026   -0.008475723831909301   -0.00032193049805508177
-0.0013381867076791118   -0.008484535684038962   -0.0003486496238326204
-0.0012002568386270578   -0.0093314422826735   -0.00032928619757870625
-0.0008746855429828656   -0.009350354718930276   -0.00031366205346677276
-0.0008722919783784026   -0.008475723831909301   -0.00032193049805508177
-0.0008574342323579097   -0.009360392229304815   -0.00031357958189287826
-0.0013381867076791118   -0.008484535684038962   -0.0003486496238326204
-0.0008582128060023346   -0.008486422872101121   -0.0003215631567342619
-0.0008574342323579097   -0.009360392229304815   -0.00031357958189287826
-0.0008722919783784026   -0.008475723831909301   -0.00032193049805508177
-0.0013381867076791118   -0.008484535684038962   -0.0003486496238326204
-0.0008574342323579097   -0.009360392229304815   -0.00031357958189287826
-0.0011803897882390116   -0.009344595833325395   -0.00034095948921551836
-0.0012002568386270578   -0.0093314422826735   -0.00032928619757870625
-0.0013381867076791118   -0.008484535684038962   -0.0003486496238326204
-0.0008574342323579097   -0.009360392229304815   -0.00031357958189287826
-0.0012002568386270578   -0.0093314422826735   -0.00032928619757870625
-0.0008722919783784026   -0.008475723831909301   -0.00032193049805508177
-0.0008999820769054712   -0.008468845398856808   -0.00032634648766228207
-0.0009121032452364573   -0.009349696247988428   -0.00031801360623868986
-0.0004308545914047501   -0.00846580064987542   -0.0003302260418506798
-0.0008863742331361585   -0.008469940851435754   -0.0003235248122584888
-0.0009121032452364573   -0.009349696247988428   -0.00031801360623868986
-0.0005970168304874731   -0.009359522782163619   -0.00032841775214810173
-0.0004308545914047501   -0.00846580064987542   -0.0003302260418506798
-0.0005758773910427374   -0.00935515734595046   -0.0003142096734468419
-0.0008863742331361585   -0.008469940851435754   -0.0003235248122584888
-0.0004159592921320786   -0.00846406657235817   -0.00031885679434492145
-0.0005758773910427374   -0.00935515734595046   -0.0003142096734468419
-0.0004308545914047501   -0.00846580064987542   -0.0003302260418506798
-0.0008863742331361585   -0.008469940851435754   -0.0003235248122584888
-0.0005758773910427374   -0.00935515734595046   -0.0003142096734468419
-0.0008933140890923947   -0.00934684524949291   -0.00031522020956969554
-0.0009121032452364573   -0.009349696247988428   -0.00031801360623868986
-0.0008863742331361585   -0.008469940851435754   -0.0003235248122584888
-0.0005758773910427374   -0.00935515734595046   -0.0003142096734468419
-0.0009121032452364573   -0.009349696247988428   -0.00031801360623868986
-0.0004308545914047501   -0.00846580064987542   -0.0003302260418506798
-0.0008863742331361585   -0.008469940851435754   -0.0003235248122584888
-0.0008933140890923947   -0.00934684524949291   -0.00031522020956969554
-0.0004159592921320786   -0.00846406657235817   -0.00031885679434492145
-0.0008722919783784026   -0.008475723831909301   -0.00032193049805508177
-0.0008933140890923947   -0.00934684524949291   -0.00031522020956969554
-0.0005758773910427374   -0.00935515734595046   -0.0003142096734468419
-0.0004159592921320786   -0.00846406657235817   -0.00031885679434492145
-0.0005556407738619192   -0.009356489529871262   -0.0003011383444859289
-0.0008722919783784026   -0.008475723831909301   -0.00032193049805508177
-0.0004014480176941522   -0.008466628218720604   -0.00030879804808679956
-0.0005556407738619192   -0.009356489529871262   -0.0003011383444859289
-0.0004159592921320786   -0.00846406657235817   -0.00031885679434492145
-0.0008722919783784026   -0.008475723831909301   -0.00032193049805508177
-0.0005556407738619192   -0.009356489529871262   -0.0003011383444859289
-0.0008746855429828656   -0.009350354718930276   -0.00031366205346677276
-0.0008933140890923947   -0.00934684524949291   -0.00031522020956969554
-0.0008722919783784026   -0.008475723831909301   -0.00032193049805508177
-0.0005556407738619192   -0.009356489529871262   -0.0003011383444859289
-0.0008933140890923947   -0.00934684524949291   -0.00031522020956969554
-0.0004159592921320786   -0.00846406657235817   -0.00031885679434492145
-0.0008722919783784026   -0.008475723831909301   -0.00032193049805508177
-0.0008746855429828656   -0.009350354718930276   -0.00031366205346677276
-0.0004014480176941522   -0.008466628218720604   -0.00030879804808679956
-0.0008582128060023346   -0.008486422872101121   -0.0003215631567342619
-0.0008746855429828656   -0.009350354718930276   -0.00031366205346677276
-0.0005556407738619192   -0.009356489529871262   -0.0003011383444859289
-0.0004014480176941522   -0.008466628218720604   -0.00030879804808679956
-0.0005386442968333586   -0.009364436877558146   -0.00028981057123939074
-0.0008582128060023346   -0.008486422872101121   -0.0003215631567342619
-0.0003882864385694192   -0.008474008591666351   -0.00029994439918341117
-0.0005386442968333586   -0.009364436877558146   -0.00028981057123939074
-0.0004014480176941522   -0.008466628218720604   -0.00030879804808679956
-0.0008582128060023346   -0.008486422872101121   -0.0003215631567342619
-0.0005386442968333586   -0.009364436877558146   -0.00028981057123939074
-0.0008574342323579097   -0.009360392229304815   -0.00031357958189287826
-0.0008746855429828656   -0.009350354718930276   -0.00031366205346677276
-0.0008582128060023346   -0.008486422872101121   -0.0003215631567342619
-0.0005386442968333586   -0.009364436877558146   -0.00028981057123939074
-0.0008746855429828656   -0.009350354718930276   -0.00031366205346677276
-0.0004014480176941522   -0.008466628218720604   -0.00030879804808679956
-0.0004308545914047501   -0.00846580064987542   -0.0003302260418506798
-0.0005970168304874731   -0.009359522782163619   -0.00032841775214810173
5.783225228186114e-05   -0.008447945615723708   -0.0003391216357943482
-0.0004159592921320786   -0.00846406657235817   -0.00031885679434492145
-0.0005970168304874731   -0.009359522782163619   -0.00032841775214810173
-0.0002649382649954344   -0.009352949190077712   -0.00034102918234070305
5.783225228186114e-05   -0.008447945615723708   -0.0003391216357943482
-0.0002377905749447315   -0.009346036578524541   -0.0003157964270021975
-0.0004159592921320786   -0.00846406657235817   -0.00031885679434492145
7.605704368471392e-05   -0.008442687667400941   -0.0003192042514607368
-0.0002377905749447315   -0.009346036578524541   -0.0003157964270021975
5.783225228186114e-05   -0.008447945615723708   -0.0003391216357943482
-0.0004159592921320786   -0.00846406657235817   -0.00031885679434492145
-0.0002377905749447315   -0.009346036578524541   -0.0003157964270021975
-0.0005758773910427374   -0.00935515734595046   -0.0003142096734468419
-0.0005970168304874731   -0.009359522782163619   -0.00032841775214810173
-0.0004159592921320786   -0.00846406657235817   -0.00031885679434492145
-0.0002377905749447315   -0.009346036578524541   -0.0003157964270021975
-0.0005970168304874731   -0.009359522782163619   -0.00032841775214810173
5.783225228186114e-05   -0.008447945615723708   -0.0003391216357943482
-0.0004159592921320786   -0.00846406657235817   -0.00031885679434492145
-0.0005758773910427374   -0.00935515734595046   -0.0003142096734468419
7.605704368471392e-05   -0.008442687667400941   -0.0003192042514607368
-0.0004014480176941522   -0.008466628218720604   -0.00030879804808679956
-0.0005758773910427374   -0.00935515734595046   -0.0003142096734468419
-0.0002377905749447315   -0.009346036578524541   -0.0003157964270021975
7.605704368471392e-05   -0.008442687667400941   -0.0003192042514607368
-0.00020964418745856057   -0.009345050361271886   -0.00029175292655509724
-0.0004014480176941522   -0.008466628218720604   -0.00030879804808679956
9.543587553324907e-05   -0.008442225080498862   -0.0003009339109806569
-0.00020964418745856057   -0.009345050361271886   -0.00029175292655509724
7.605704368471392e-05   -0.008442687667400941   -0.0003192042514607368
-0.0004014480176941522   -0.008466628218720604   -0.00030879804808679956
-0.00020964418745856057   -0.009345050361271886   -0.00029175292655509724
-0.0005556407738619192   -0.009356489529871262   -0.0003011383444859289
-0.0005758773910427374   -0.00935515734595046   -0.0003142096734468419
-0.0004014480176941522   -0.008466628218720604   -0.00030879804808679956
-0.00020964418745856057   -0.009345050361271886   -0.00029175292655509724
-0.0005758773910427374   -0.00935515734595046   -0.0003142096734468419
7.605704368471392e-05   -0.008442687667400941   -0.0003192042514607368
-0.0004014480176941522   -0.008466628218720604   -0.00030879804808679956
-0.0005556407738619192   -0.009356489529871262   -0.0003011383444859289
9.543587553324907e-05   -0.008442225080498862   -0.0003009339109806569
-0.0003882864385694192   -0.008474008591666351   -0.00029994439918341117
-0.0005556407738619192   -0.009356489529871262   -0.0003011383444859289
-0.00020964418745856057   -0.009345050361271886   -0.00029175292655509724
9.543587553324907e-05   -0.008442225080498862   -0.0003009339109806569
-0.0001890308286284377   -0.009351093224921978   -0.0002697167043104911
-0.0003882864385694192   -0.008474008591666351   -0.00029994439918341117
0.0001096046287871658   -0.00844631458940746   -0.0002837910080204843
-0.0001890308286284377   -0.009351093224921978   -0.0002697167043104911
9.543587553324907e-05   -0.008442225080498862   -0.0003009339109806569
-0.0003882864385694192   -0.008474008591666351   -0.00029994439918341117
-0.0001890308286284377   -0.009351093224921978   -0.0002697167043104911
-0.0005386442968333586   -0.009364436877558146   -0.00028981057123939074
-0.0005556407738619192   -0.009356489529871262   -0.0003011383444859289
-0.0003882864385694192   -0.008474008591666351   -0.00029994439918341117
-0.0001890308286284377   -0.009351093224921978   -0.0002697167043104911
-0.0005556407738619192   -0.009356489529871262   -0.0003011383444859289
9.543587553324907e-05   -0.008442225080498862   -0.0003009339109806569
5.783225228186114e-05   -0.008447945615723708   -0.0003391216357943482
-0.0002649382649954344   -0.009352949190077712   -0.00034102918234070305
0.0005742026462681721   -0.008413661013944942   -0.0003573088505420256
7.605704368471392e-05   -0.008442687667400941   -0.0003192042514607368
-0.0002649382649954344   -0.009352949190077712   -0.00034102918234070305
8.658744736084499e-05   -0.00931979029651574   -0.00036563973878761687
0.0005742026462681721   -0.008413661013944942   -0.0003573088505420256
0.00015284544024224642   -0.009305141844730618   -0.0003245733773225289
7.605704368471392e-05   -0.008442687667400941   -0.0003192042514607368
0.0006217250509322929   -0.008403710647426725   -0.0003267477273651677
0.00015284544024224642   -0.009305141844730618   -0.0003245733773225289
0.0005742026462681721   -0.008413661013944942   -0.0003573088505420256
7.605704368471392e-05   -0.008442687667400941   -0.0003192042514607368
0.00015284544024224642   -0.009305141844730618   -0.0003245733773225289
-0.0002377905749447315   -0.009346036578524541   -0.0003157964270021975
-0.0002649382649954344   -0.009352949190077712   -0.00034102918234070305
7.605704368471392e-05   -0.008442687667400941   -0.0003192042514607368
0.00015284544024224642   -0.009305141844730618   -0.0003245733773225289
-0.0002649382649954344   -0.009352949190077712   -0.00034102918234070305
0.0005742026462681721   -0.008413661013944942   -0.0003573088505420256
7.605704368471392e-05   -0.008442687667400941   -0.0003192042514607368
-0.0002377905749447315   -0.009346036578524541   -0.0003157964270021975
0.0006217250509322929   -0.008403710647426725   -0.0003267477273651677
9.543587553324907e-05   -0.008442225080498862   -0.0003009339109806569
-0.0002377905749447315   -0.009346036578524541   -0.0003157964270021975
0.00015284544024224642   -0.009305141844730618   -0.0003245733773225289
0.0006217250509322929   -0.008403710647426725   -0.0003267477273651677
0.0002047497369174422   -0.009302368033531502   -0.00028576392581788673
9.543587553324907e-05   -0.008442225080498862   -0.0003009339109806569
0.0006582613770875658   -0.008401982365146271   -0.00029823473842501274
0.0002047497369174422   -0.009302368033531502   -0.00028576392581788673
0.0006217250509322929   -0.008403710647426725   -0.0003267477273651677
9.543587553324907e-05   -0.008442225080498862   -0.0003009339109806569
0.0002047497369174422   -0.009302368033531502   -0.00028576392581788673
-0.00020964418745856057   -0.009345050361271886   -0.00029175292655509724
-0.0002377905749447315   -0.009346036578524541   -0.0003157964270021975
9.543587553324907e-05   -0.008442225080498862   -0.0003009339109806569
0.0002047497369174422   -0.009302368033531502   -0.00028576392581788673
-0.0002377905749447315   -0.009346036578524541   -0.0003157964270021975
0.0006217250509322929   -0.008403710647426725   -0.0003267477273651677
9.543587553324907e-05   -0.008442225080498862   -0.0003009339109806569
-0.00020964418745856057   -0.009345050361271886   -0.00029175292655509724
0.0006582613770875658   -0.008401982365146271   -0.00029823473842501274
0.0001096046287871658   -0.00844631458940746   -0.0002837910080204843
-0.00020964418745856057   -0.009345050361271886   -0.00029175292655509724
0.0002047497369174422   -0.009302368033531502   -0.00028576392581788673
0.0006582613770875658   -0.008401982365146271   -0.00029823473842501274
0.0002594436102966914   -0.009305664969045073   -0.0002500179480799291
0.0001096046287871658   -0.00844631458940746   -0.0002837910080204843
0.000696700847852168   -0.008405150160915127   -0.0002719923067764904
0.0002594436102966914   -0.009305664969045073   -0.0002500179480799291
0.0006582613770875658   -0.008401982365146271   -0.00029823473842501274
0.0001096046287871658   -0.00844631458940746   -0.0002837910080204843
0.0002594436102966914   -0.009305664969045073   -0.0002500179480799291
-0.0001890308286284377   -0.009351093224921978   -0.0002697167043104911
-0.00020964418745856057   -0.009345050361271886   -0.00029175292655509724
0.0001096046287871658   -0.00844631458940746   -0.0002837910080204843
0.0002594436102966914   -0.009305664969045073   -0.0002500179480799291
-0.00020964418745856057   -0.009345050361271886   -0.00029175292655509724
0.0006582613770875658   -0.008401982365146271   -0.00029823473842501274
-0.0016378832419622306   -0.009291003452879202   -0.000298819638943334
-0.0012282272965984465   -0.009806657188465809   -0.00026384360096618474
-0.0012406429325197946   -0.009327360583148163   -0.00030956329438269824
-0.001596921523941101   -0.009290151299602341   -0.0003236617555085593
-0.0012282272965984465   -0.009806657188465809   -0.00026384360096618474
-0.0010367494855010556   -0.00985203869230015   -0.0002902724536541081
-0.0012406429325197946   -0.009327360583148163   -0.00030956329438269824
-0.0010139651065575828   -0.00984368236878986   -0.00030031179618430495
-0.001596921523941101   -0.009290151299602341   -0.0003236617555085593
-0.0012221671879337455   -0.009325749537175299   -0.000318795203328284
-0.0010139651065575828   -0.00984368236878986   -0.00030031179618430495
-0.0012406429325197946   -0.009327360583148163   -0.00030956329438269824
-0.001596921523941101   -0.009290151299602341   -0.0003236617555085593
-0.0010139651065575828   -0.00984368236878986   -0.00030031179618430495
-0.0011779301862315577   -0.009797161471020626   -0.00029349714978201696
-0.0012282272965984465   -0.009806657188465809   -0.00026384360096618474
-0.001596921523941101   -0.009290151299602341   -0.0003236617555085593
-0.0010139651065575828   -0.00984368236878986   -0.00030031179618430495
-0.0012282272965984465   -0.009806657188465809   -0.00026384360096618474
-0.0012406429325197946   -0.009327360583148163   -0.00030956329438269824
-0.001596921523941101   -0.009290151299602341   -0.0003236617555085593
-0.0011779301862315577   -0.009797161471020626   -0.00029349714978201696
-0.0012221671879337455   -0.009325749537175299   -0.000318795203328284
-0.0015593485299163767   -0.009297110275648527   -0.00035029046197357784
-0.0011779301862315577   -0.009797161471020626   -0.00029349714978201696
-0.0010139651065575828   -0.00984368236878986   -0.00030031179618430495
-0.0012221671879337455   -0.009325749537175299   -0.000318795203328284
-0.0009884287013735098   -0.009844907702133915   -0.00031046700611569045
-0.0015593485299163767   -0.009297110275648527   -0.00035029046197357784
-0.0012002568386270578   -0.0093314422826735   -0.00032928619757870625
-0.0009884287013735098   -0.009844907702133915   -0.00031046700611569045
-0.0012221671879337455   -0.009325749537175299   -0.000318795203328284
-0.0015593485299163767   -0.009297110275648527   -0.00035029046197357784
-0.0009884287013735098   -0.009844907702133915   -0.00031046700611569045
-0.001134607794370186   -0.009798887062407606   -0.00032310810901299515
-0.0011779301862315577   -0.009797161471020626   -0.00029349714978201696
-0.0015593485299163767   -0.009297110275648527   -0.00035029046197357784
-0.0009884287013735098   -0.009844907702133915   -0.00031046700611569045
-0.0011779301862315577   -0.009797161471020626   -0.00029349714978201696
-0.0012221671879337455   -0.009325749537175299   -0.000318795203328284
-0.0015593485299163767   -0.009297110275648527   -0.00035029046197357784
-0.001134607794370186   -0.009798887062407606   -0.00032310810901299515
-0.0012002568386270578   -0.0093314422826735   -0.00032928619757870625
-0.0015133950578523113   -0.009315092569831783   -0.00037862120138298873
-0.001134607794370186   -0.009798887062407606   -0.00032310810901299515
-0.0009884287013735098   -0.009844907702133915   -0.00031046700611569045
-0.0012002568386270578   -0.0093314422826735   -0.00032928619757870625
-0.0009648721950449373   -0.009855797202054825   -0.0003207786915665182
-0.0015133950578523113   -0.009315092569831783   -0.00037862120138298873
-0.0011803897882390116   -0.009344595833325395   -0.00034095948921551836
-0.0009648721950449373   -0.009855797202054825   -0.0003207786915665182
-0.0012002568386270578   -0.0093314422826735   -0.00032928619757870625
-0.0015133950578523113   -0.009315092569831783   -0.00037862120138298873
-0.0009648721950449373   -0.009855797202054825   -0.0003207786915665182
-0.0010829850748652538   -0.00981256575340627   -0.0003533341186838186
-0.001134607794370186   -0.009798887062407606   -0.00032310810901299515
-0.0015133950578523113   -0.009315092569831783   -0.00037862120138298873
-0.0009648721950449373   -0.009855797202054825   -0.0003207786915665182
-0.001134607794370186   -0.009798887062407606   -0.00032310810901299515
-0.0012002568386270578   -0.0093314422826735   -0.00032928619757870625
-0.0012406429325197946   -0.009327360583148163   -0.00030956329438269824
-0.0010367494855010556   -0.00985203869230015   -0.0002902724536541081
-0.0009121032452364573   -0.009349696247988428   -0.00031801360623868986
-0.0012221671879337455   -0.009325749537175299   -0.000318795203328284
-0.0010367494855010556   -0.00985203869230015   -0.0002902724536541081
-0.0008933343287805484   -0.009894624006560902   -0.0003134238573628959
-0.0009121032452364573   -0.009349696247988428   -0.00031801360623868986
-0.000869587761063375   -0.009885892969262356   -0.0003072453448507626
-0.0012221671879337455   -0.009325749537175299   -0.000318795203328284
-0.0008933140890923947   -0.00934684524949291   -0.00031522020956969554
-0.000869587761063375   -0.009885892969262356   -0.0003072453448507626
-0.0009121032452364573   -0.009349696247988428   -0.00031801360623868986
-0.0012221671879337455   -0.009325749537175299   -0.000318795203328284
-0.000869587761063375   -0.009885892969262356   -0.0003072453448507626
-0.0010139651065575828   -0.00984368236878986   -0.00030031179618430495
-0.0010367494855010556   -0.00985203869230015   -0.0002902724536541081
-0.0012221671879337455   -0.009325749537175299   -0.000318795203328284
-0.000869587761063375   -0.009885892969262356   -0.0003072453448507626
-0.0010367494855010556   -0.00985203869230015   -0.0002902724536541081
-0.0009121032452364573   -0.009349696247988428   -0.00031801360623868986
-0.0012221671879337455   -0.009325749537175299   -0.000318795203328284
-0.0010139651065575828   -0.00984368236878986   -0.00030031179618430495
-0.0008933140890923947   -0.00934684524949291   -0.00031522020956969554
-0.0012002568386270578   -0.0093314422826735   -0.00032928619757870625
-0.0010139651065575828   -0.00984368236878986   -0.00030031179618430495
-0.000869587761063375   -0.009885892969262356   -0.0003072453448507626
-0.0008933140890923947   -0.00934684524949291   -0.00031522020956969554
-0.0008464924177640934   -0.009886341189447376   -0.0003010106298758972
-0.0012002568386270578   -0.0093314422826735   -0.00032928619757870625
-0.0008746855429828656   -0.009350354718930276   -0.00031366205346677276
-0.0008464924177640934   -0.009886341189447376   -0.0003010106298758972
-0.0008933140890923947   -0.00934684524949291   -0.00031522020956969554
-0.0012002568386270578   -0.0093314422826735   -0.00032928619757870625
-0.0008464924177640934   -0.009886341189447376   -0.0003010106298758972
-0.0009884287013735098   -0.009844907702133915   -0.00031046700611569045
-0.0010139651065575828   -0.00984368236878986   -0.00030031179618430495
-0.0012002568386270578   -0.0093314422826735   -0.00032928619757870625
-0.0008464924177640934   -0.009886341189447376   -0.0003010106298758972
-0.0010139651065575828   -0.00984368236878986   -0.00030031179618430495
-0.0008933140890923947   -0.00934684524949291   -0.00031522020956969554
-0.0012002568386270578   -0.0093314422826735   -0.00032928619757870625
-0.0009884287013735098   -0.009844907702133915   -0.00031046700611569045
-0.0008746855429828656   -0.009350354718930276   -0.00031366205346677276
-0.0011803897882390116   -0.009344595833325395   -0.00034095948921551836
-0.0009884287013735098   -0.009844907702133915   -0.00031046700611569045
-0.0008464924177640934   -0.009886341189447376   -0.0003010106298758972
-0.0008746855429828656   -0.009350354718930276   -0.00031366205346677276
-0.0008225202210025817   -0.009895814594937975   -0.0002950726238694816
-0.0011803897882390116   -0.009344595833325395   -0.00034095948921551836
-0.0008574342323579097   -0.009360392229304815   -0.00031357958189287826
-0.0008225202210025817   -0.009895814594937975   -0.0002950726238694816
-0.0008746855429828656   -0.009350354718930276   -0.00031366205346677276
-0.0011803897882390116   -0.009344595833325395   -0.00034095948921551836
-0.0008225202210025817   -0.009895814594937975   -0.0002950726238694816
-0.0009648721950449373   -0.009855797202054825   -0.0003207786915665182
-0.0009884287013735098   -0.009844907702133915   -0.00031046700611569045
-0.0011803897882390116   -0.009344595833325395   -0.00034095948921551836
-0.0008225202210025817   -0.009895814594937975   -0.0002950726238694816
-0.0009884287013735098   -0.009844907702133915   -0.00031046700611569045
-0.0008746855429828656   -0.009350354718930276   -0.00031366205346677276
-0.0009121032452364573   -0.009349696247988428   -0.00031801360623868986
-0.0008933343287805484   -0.009894624006560902   -0.0003134238573628959
-0.0005970168304874731   -0.009359522782163619   -0.00032841775214810173
-0.0008933140890923947   -0.00934684524949291   -0.00031522020956969554
-0.0008933343287805484   -0.009894624006560902   -0.0003134238573628959
-0.0007612321487878512   -0.009942878619153585   -0.0003393443273465698
-0.0005970168304874731   -0.009359522782163619   -0.00032841775214810173
-0.0007323115899965035   -0.009934975236177996   -0.0003161016522737902
-0.0008933140890923947   -0.00934684524949291   -0.00031522020956969554
-0.0005758773910427374   -0.00935515734595046   -0.0003142096734468419
-0.0007323115899965035   -0.009934975236177996   -0.0003161016522737902
-0.0005970168304874731   -0.009359522782163619   -0.00032841775214810173
-0.0008933140890923947   -0.00934684524949291   -0.00031522020956969554
-0.0007323115899965035   -0.009934975236177996   -0.0003161016522737902
-0.000869587761063375   -0.009885892969262356   -0.0003072453448507626
-0.0008933343287805484   -0.009894624006560902   -0.0003134238573628959
-0.0008933140890923947   -0.00934684524949291   -0.00031522020956969554
-0.0007323115899965035   -0.009934975236177996   -0.0003161016522737902
-0.0008933343287805484   -0.009894624006560902   -0.0003134238573628959
-0.0005970168304874731   -0.009359522782163619   -0.00032841775214810173
-0.0008933140890923947   -0.00934684524949291   -0.00031522020956969554
-0.000869587761063375   -0.009885892969262356   -0.0003072453448507626
-0.0005758773910427374   -0.00935515734595046   -0.0003142096734468419
-0.0008746855429828656   -0.009350354718930276   -0.00031366205346677276
-0.000869587761063375   -0.009885892969262356   -0.0003072453448507626
-0.0007323115899965035   -0.009934975236177996   -0.0003161016522737902
-0.0005758773910427374   -0.00935515734595046   -0.0003142096734468419
-0.0007053021313478489   -0.009934904890565944   -0.00029281081188415665
-0.0008746855429828656   -0.009350354718930276   -0.00031366205346677276
-0.0005556407738619192   -0.009356489529871262   -0.0003011383444859289
-0.0007053021313478489   -0.009934904890565944   -0.00029281081188415665
-0.0005758773910427374   -0.00935515734595046   -0.0003142096734468419
-0.0008746855429828656   -0.009350354718930276   -0.00031366205346677276
-0.0007053021313478489   -0.009934904890565944   -0.00029281081188415665
-0.0008464924177640934   -0.009886341189447376   -0.0003010106298758972
-0.000869587761063375   -0.009885892969262356   -0.0003072453448507626
-0.0008746855429828656   -0.009350354718930276   -0.00031366205346677276
-0.0007053021313478489   -0.009934904890565944   -0.00029281081188415665
-0.000869587761063375   -0.009885892969262356   -0.0003072453448507626
-0.0005758773910427374   -0.00935515734595046   -0.0003142096734468419
-0.0008746855429828656   -0.009350354718930276   -0.00031366205346677276
-0.0008464924177640934   -0.009886341189447376   -0.0003010106298758972
-0.0005556407738619192   -0.009356489529871262   -0.0003011383444859289
-0.0008574342323579097   -0.009360392229304815   -0.00031357958189287826
-0.0008464924177640934   -0.009886341189447376   -0.0003010106298758972
-0.0007053021313478489   -0.009934904890565944   -0.00029281081188415665
-0.0005556407738619192   -0.009356489529871262   -0.0003011383444859289
-0.0006765776410234272   -0.00994233694644466   -0.00026968325291036377
-0.0008574342323579097   -0.009360392229304815   -0.00031357958189287826
-0.0005386442968333586   -0.009364436877558146   -0.00028981057123939074
-0.0006765776410234272   -0.00994233694644466   -0.00026968325291036377
-0.0005556407738619192   -0.009356489529871262   -0.0003011383444859289
-0.0008574342323579097   -0.009360392229304815   -0.00031357958189287826
-0.0006765776410234272   -0.00994233694644466   -0.00026968325291036377
-0.0008225202210025817   -0.009895814594937975   -0.0002950726238694816
-0.0008464924177640934   -0.009886341189447376   -0.0003010106298758972
-0.0008574342323579097   -0.009360392229304815   -0.00031357958189287826
-0.0006765776410234272   -0.00994233694644466   -0.00026968325291036377
-0.0008464924177640934   -0.009886341189447376   -0.0003010106298758972
-0.0005556407738619192   -0.009356489529871262   -0.0003011383444859289
-0.0005970168304874731   -0.009359522782163619   -0.00032841775214810173
-0.0007612321487878512   -0.009942878619153585   -0.0003393443273465698
-0.0002649382649954344   -0.009352949190077712   -0.00034102918234070305
-0.0005758773910427374   -0.00935515734595046   -0.0003142096734468419
-0.0007612321487878512   -0.009942878619153585   -0.0003393443273465698
-0.0006312127902450944   -0.01   -0.00036090235798926965
-0.0002649382649954344   -0.009352949190077712   -0.00034102918234070305
-0.0005943720969585762   -0.01   -0.0003243034799786354
-0.0005758773910427374   -0.00935515734595046   -0.0003142096734468419
-0.0002377905749447315   -0.009346036578524541   -0.0003157964270021975
-0.0005943720969585762   -0.01   -0.0003243034799786354
-0.0002649382649954344   -0.009352949190077712   -0.00034102918234070305
-0.0005758773910427374   -0.00935515734595046   -0.0003142096734468419
-0.0005943720969585762   -0.01   -0.0003243034799786354
-0.0007323115899965035   -0.009934975236177996   -0.0003161016522737902
-0.0007612321487878512   -0.009942878619153585   -0.0003393443273465698
-0.0005758773910427374   -0.00935515734595046   -0.0003142096734468419
-0.0005943720969585762   -0.01   -0.0003243034799786354
-0.0007612321487878512   -0.009942878619153585   -0.0003393443273465698
-0.0002649382649954344   -0.009352949190077712   -0.00034102918234070305
-0.0005758773910427374   -0.00935515734595046   -0.0003142096734468419
-0.0007323115899965035   -0.009934975236177996   -0.0003161016522737902
-0.0002377905749447315   -0.009346036578524541   -0.0003157964270021975
-0.0005556407738619192   -0.009356489529871262   -0.0003011383444859289
-0.0007323115899965035   -0.009934975236177996   -0.0003161016522737902
-0.0005943720969585762   -0.01   -0.0003243034799786354
-0.0002377905749447315   -0.009346036578524541   -0.0003157964270021975
-0.000556978705989134   -0.01   -0.00028728340221187133
-0.0005556407738619192   -0.009356489529871262   -0.0003011383444859289
-0.00020964418745856057   -0.009345050361271886   -0.00029175292655509724
-0.000556978705989134   -0.01   -0.00028728340221187133
-0.0002377905749447315   -0.009346036578524541   -0.0003157964270021975
-0.0005556407738619192   -0.009356489529871262   -0.0003011383444859289
-0.000556978705989134   -0.01   -0.00028728340221187133
-0.0007053021313478489   -0.009934904890565944   -0.00029281081188415665
-0.0007323115899965035   -0.009934975236177996   -0.0003161016522737902
-0.0005556407738619192   -0.009356489529871262   -0.0003011383444859289
-0.000556978705989134   -0.01   -0.00028728340221187133
-0.0007323115899965035   -0.009934975236177996   -0.0003161016522737902
-0.0002377905749447315   -0.009346036578524541   -0.0003157964270021975
-0.0005556407738619192   -0.009356489529871262   -0.0003011383444859289
-0.0007053021313478489   -0.009934904890565944   -0.00029281081188415665
-0.00020964418745856057   -0.009345050361271886   -0.00029175292655509724
-0.0005386442968333586   -0.009364436877558146   -0.00028981057123939074
-0.0007053021313478489   -0.009934904890565944   -0.00029281081188415665
-0.000556978705989134   -0.01   -0.00028728340221187133
-0.00020964418745856057   -0.009345050361271886   -0.00029175292655509724
-0.0005208993696719069   -0.01   -0.00025078523548721556
-0.0005386442968333586   -0.009364436877558146   -0.00028981057123939074
-0.0001890308286284377   -0.009351093224921978   -0.0002697167043104911
-0.0005208993696719069   -0.01   -0.00025078523548721556
-0.00020964418745856057   -0.009345050361271886   -0.00029175292655509724
-0.0005386442968333586   -0.009364436877558146   -0.00028981057123939074
-0.0005208993696719069   -0.01   -0.00025078523548721556
-0.0006765776410234272   -0.00994233694644466   -0.00026968325291036377
-0.0007053021313478489   -0.009934904890565944   -0.00029281081188415665
-0.0005386442968333586   -0.009364436877558146   -0.00028981057123939074
-0.0005208993696719069   -0.01   -0.00025078523548721556
-0.0007053021313478489   -0.009934904890565944   -0.00029281081188415665
-0.00020964418745856057   -0.009345050361271886   -0.00029175292655509724
-0.0002649382649954344   -0.009352949190077712   -0.00034102918234070305
-0.0006312127902450944   -0.01   -0.00036090235798926965
8.658744736084499e-05   -0.00931979029651574   -0.00036563973878761687
-0.0002377905749447315   -0.009346036578524541   -0.0003157964270021975
-0.0006312127902450944   -0.01   -0.00036090235798926965
-0.0005327729907870925   -0.01   -0.00038699934029155786
8.658744736084499e-05   -0.00931979029651574   -0.00036563973878761687
-0.00045269873999984793   -0.01   -0.000333368613869469
-0.0002377905749447315   -0.009346036578524541   -0.0003157964270021975
0.00015284544024224642   -0.009305141844730618   -0.0003245733773225289
-0.00045269873999984793   -0.01   -0.000333368613869469
8.658744736084499e-05   -0.00931979029651574   -0.00036563973878761687
-0.0002377905749447315   -0.009346036578524541   -0.0003157964270021975
-0.00045269873999984793   -0.01   -0.000333368613869469
-0.0005943720969585762   -0.01   -0.0003243034799786354
-0.0006312127902450944   -0.01   -0.00036090235798926965
-0.0002377905749447315   -0.009346036578524541   -0.0003157964270021975
-0.00045269873999984793   -0.01   -0.000333368613869469
-0.0006312127902450944   -0.01   -0.00036090235798926965
8.658744736084499e-05   -0.00931979029651574   -0.00036563973878761687
-0.0002377905749447315   -0.009346036578524541   -0.0003157964270021975
-0.0005943720969585762   -0.01   -0.0003243034799786354
0.00015284544024224642   -0.009305141844730618   -0.0003245733773225289
-0.00020964418745856057   -0.009345050361271886   -0.00029175292655509724
-0.0005943720969585762   -0.01   -0.0003243034799786354
-0.00045269873999984793   -0.01   -0.000333368613869469
0.00015284544024224642   -0.009305141844730618   -0.0003245733773225289
-0.00038887155533306415   -0.01   -0.0002821027615973595
-0.00020964418745856057   -0.009345050361271886   -0.00029175292655509724
0.0002047497369174422   -0.009302368033531502   -0.00028576392581788673
-0.00038887155533306415   -0.01   -0.0002821027615973595
0.00015284544024224642   -0.009305141844730618   -0.0003245733773225289
-0.00020964418745856057   -0.009345050361271886   -0.00029175292655509724
-0.00038887155533306415   -0.01   -0.0002821027615973595
-0.000556978705989134   -0.01   -0.00028728340221187133
-0.0005943720969585762   -0.01   -0.0003243034799786354
-0.00020964418745856057   -0.009345050361271886   -0.00029175292655509724
-0.00038887155533306415   -0.01   -0.0002821027615973595
-0.0005943720969585762   -0.01   -0.0003243034799786354
0.00015284544024224642   -0.009305141844730618   -0.0003245733773225289
-0.00020964418745856057   -0.009345050361271886   -0.00029175292655509724
-0.000556978705989134   -0.01   -0.00028728340221187133
0.0002047497369174422   -0.009302368033531502   -0.00028576392581788673
-0.0001890308286284377   -0.009351093224921978   -0.0002697167043104911
-0.000556978705989134   -0.01   -0.00028728340221187133
-0.00038887155533306415   -0.01   -0.0002821027615973595
0.0002047497369174422   -0.009302368033531502   -0.00028576392581788673
-0.00031014917746897735   -0.01   -0.0002288495119461122
-0.0001890308286284377   -0.009351093224921978   -0.0002697167043104911
0.0002594436102966914   -0.009305664969045073   -0.0002500179480799291
-0.00031014917746897735   -0.01   -0.0002288495119461122
0.0002047497369174422   -0.009302368033531502   -0.00028576392581788673
-0.0001890308286284377   -0.009351093224921978   -0.0002697167043104911
-0.00031014917746897735   -0.01   -0.0002288495119461122
-0.0005208993696719069   -0.01   -0.00025078523548721556
-0.000556978705989134   -0.01   -0.00028728340221187133
-0.0001890308286284377   -0.009351093224921978   -0.0002697167043104911
-0.00031014917746897735   -0.01   -0.0002288495119461122
-0.000556978705989134   -0.01   -0.00028728340221187133
0.0002047497369174422   -0.009302368033531502   -0.00028576392581788673
-0.0012282272965984465   -0.009806657188465809   -0.00026384360096618474
-0.0007751788961180709   -0.009859315507469033   -0.00022640380932155015
-0.0010367494855010556   -0.00985203869230015   -0.0002902724536541081
-0.0011779301862315577   -0.009797161471020626   -0.00029349714978201696
-0.0007751788961180709   -0.009859315507469033   -0.00022640380932155015
-0.0008042601157530253   -0.009895474915529447   -0.0002605158499232221
-0.0010367494855010556   -0.00985203869230015   -0.0002902724536541081
-0.0007868007997981576   -0.009883926347189003   -0.0002738018846837698
-0.0011779301862315577   -0.009797161471020626   -0.00029349714978201696
-0.0010139651065575828   -0.00984368236878986   -0.00030031179618430495
-0.0007868007997981576   -0.009883926347189003   -0.0002738018846837698
-0.0010367494855010556   -0.00985203869230015   -0.0002902724536541081
-0.0011779301862315577   -0.009797161471020626   -0.00029349714978201696
-0.0007868007997981576   -0.009883926347189003   -0.0002738018846837698
-0.0007290015544042859   -0.00984439278571938   -0.00025764595600558836
-0.0007751788961180709   -0.009859315507469033   -0.00022640380932155015
-0.0011779301862315577   -0.009797161471020626   -0.00029349714978201696
-0.0007868007997981576   -0.009883926347189003   -0.0002738018846837698
-0.0007751788961180709   -0.009859315507469033   -0.00022640380932155015
-0.0010367494855010556   -0.00985203869230015   -0.0002902724536541081
-0.0011779301862315577   -0.009797161471020626   -0.00029349714978201696
-0.0007290015544042859   -0.00984439278571938   -0.00025764595600558836
-0.0010139651065575828   -0.00984368236878986   -0.00030031179618430495
-0.001134607794370186   -0.009798887062407606   -0.00032310810901299515
-0.0007290015544042859   -0.00984439278571938   -0.00025764595600558836
-0.0007868007997981576   -0.009883926347189003   -0.0002738018846837698
-0.0010139651065575828   -0.00984368236878986   -0.00030031179618430495
-0.0007661306630084907   -0.00988048587395052   -0.000286191230355408
-0.001134607794370186   -0.009798887062407606   -0.00032310810901299515
-0.0009884287013735098   -0.009844907702133915   -0.00031046700611569045
-0.0007661306630084907   -0.00988048587395052   -0.000286191230355408
-0.0010139651065575828   -0.00984368236878986   -0.00030031179618430495
-0.001134607794370186   -0.009798887062407606   -0.00032310810901299515
-0.0007661306630084907   -0.00988048587395052   -0.000286191230355408
-0.0006906324653101391   -0.00984073188968727   -0.0002877827406514909
-0.0007290015544042859   -0.00984439278571938   -0.00025764595600558836
-0.001134607794370186   -0.009798887062407606   -0.00032310810901299515
-0.0007661306630084907   -0.00988048587395052   -0.000286191230355408
-0.0007290015544042859   -0.00984439278571938   -0.00025764595600558836
-0.0010139651065575828   -0.00984368236878986   -0.00030031179618430495
-0.001134607794370186   -0.009798887062407606   -0.00032310810901299515
-0.0006906324653101391   -0.00984073188968727   -0.0002877827406514909
-0.0009884287013735098   -0.009844907702133915   -0.00031046700611569045
-0.0010829850748652538   -0.00981256575340627   -0.0003533341186838186
-0.0006906324653101391   -0.00984073188968727   -0.0002877827406514909
-0.0007661306630084907   -0.00988048587395052   -0.000286191230355408
-0.0009884287013735098   -0.009844907702133915   -0.00031046700611569045
-0.0007485376497812466   -0.009885240605540253   -0.0002976329925591039
-0.0010829850748652538   -0.00981256575340627   -0.0003533341186838186
-0.0009648721950449373   -0.009855797202054825   -0.0003207786915665182
-0.0007485376497812466   -0.009885240605540253   -0.0002976329925591039
-0.0009884287013735098   -0.009844907702133915   -0.00031046700611569045
-0.0010829850748652538   -0.00981256575340627   -0.0003533341186838186
-0.0007485376497812466   -0.009885240605540253   -0.0002976329925591039
-0.000646788029246343   -0.009846622392049923   -0.0003167088618866725
-0.0006906324653101391   -0.00984073188968727   -0.0002877827406514909
-0.0010829850748652538   -0.00981256575340627   -0.0003533341186838186
-0.0007485376497812466   -0.009885240605540253   -0.0002976329925591039
-0.0006906324653101391   -0.00984073188968727   -0.0002877827406514909
-0.0009884287013735098   -0.009844907702133915   -0.00031046700611569045
-0.0010367494855010556   -0.00985203869230015   -0.0002902724536541081
-0.0008042601157530253   -0.009895474915529447   -0.0002605158499232221
-0.0008933343287805484   -0.009894624006560902   -0.0003134238573628959
-0.0010139651065575828   -0.00984368236878986   -0.00030031179618430495
-0.0008042601157530253   -0.009895474915529447   -0.0002605158499232221
-0.0008510737997001917   -0.009916469301601746   -0.00028758501069517503
-0.0008933343287805484   -0.009894624006560902   -0.0003134238573628959
-0.0008357432071779494   -0.009906098748501364   -0.00028774041450624485
-0.0010139651065575828   -0.00984368236878986   -0.00030031179618430495
-0.000869587761063375   -0.009885892969262356   -0.0003072453448507626
-0.0008357432071779494   -0.009906098748501364   -0.00028774041450624485
-0.0008933343287805484   -0.009894624006560902   -0.0003134238573628959
-0.0010139651065575828   -0.00984368236878986   -0.00030031179618430495
-0.0008357432071779494   -0.009906098748501364   -0.00028774041450624485
-0.0007868007997981576   -0.009883926347189003   -0.0002738018846837698
-0.0008042601157530253   -0.009895474915529447   -0.0002605158499232221
-0.0010139651065575828   -0.00984368236878986   -0.00030031179618430495
-0.0008357432071779494   -0.009906098748501364   -0.00028774041450624485
-0.0008042601157530253   -0.009895474915529447   -0.0002605158499232221
-0.0008933343287805484   -0.009894624006560902   -0.0003134238573628959
-0.0010139651065575828   -0.00984368236878986   -0.00030031179618430495
-0.0007868007997981576   -0.009883926347189003   -0.0002738018846837698
-0.000869587761063375   -0.009885892969262356   -0.0003072453448507626
-0.0009884287013735098   -0.009844907702133915   -0.00031046700611569045
-0.0007868007997981576   -0.009883926347189003   -0.0002738018846837698
-0.0008357432071779494   -0.009906098748501364   -0.00028774041450624485
-0.000869587761063375   -0.009885892969262356   -0.0003072453448507626
-0.0008187293742733408   -0.009903062010242098   -0.0002867350649611033
-0.0009884287013735098   -0.009844907702133915   -0.00031046700611569045
-0.0008464924177640934   -0.009886341189447376   -0.0003010106298758972
-0.0008187293742733408   -0.009903062010242098   -0.0002867350649611033
-0.000869587761063375   -0.009885892969262356   -0.0003072453448507626
-0.0009884287013735098   -0.009844907702133915   -0.00031046700611569045
-0.0008187293742733408   -0.009903062010242098   -0.0002867350649611033
-0.0007661306630084907   -0.00988048587395052   -0.000286191230355408
-0.0007868007997981576   -0.009883926347189003   -0.0002738018846837698
-0.0009884287013735098   -0.009844907702133915   -0.00031046700611569045
-0.0008187293742733408   -0.009903062010242098   -0.0002867350649611033
-0.0007868007997981576   -0.009883926347189003   -0.0002738018846837698
-0.000869587761063375   -0.009885892969262356   -0.0003072453448507626
-0.0009884287013735098   -0.009844907702133915   -0.00031046700611569045
-0.0007661306630084907   -0.00988048587395052   -0.000286191230355408
-0.0008464924177640934   -0.009886341189447376   -0.0003010106298758972
-0.0009648721950449373   -0.009855797202054825   -0.0003207786915665182
-0.0007661306630084907   -0.00988048587395052   -0.000286191230355408
-0.0008187293742733408   -0.009903062010242098   -0.0002867350649611033
-0.0008464924177640934   -0.009886341189447376   -0.0003010106298758972
-0.0008014893148036942   -0.0099070938898821   -0.0002848157698904534
-0.0009648721950449373   -0.009855797202054825   -0.0003207786915665182
-0.0008225202210025817   -0.009895814594937975   -0.0002950726238694816
-0.0008014893148036942   -0.0099070938898821   -0.0002848157698904534
-0.0008464924177640934   -0.009886341189447376   -0.0003010106298758972
-0.0009648721950449373   -0.009855797202054825   -0.0003207786915665182
-0.0008014893148036942   -0.0099070938898821   -0.0002848157698904534
-0.0007485376497812466   -0.009885240605540253   -0.0002976329925591039
-0.0007661306630084907   -0.00988048587395052   -0.000286191230355408
-0.0009648721950449373   -0.009855797202054825   -0.0003207786915665182
-0.0008014893148036942   -0.0099070938898821   -0.0002848157698904534
-0.0007661306630084907   -0.00988048587395052   -0.000286191230355408
-0.0008464924177640934   -0.009886341189447376   -0.0003010106298758972
-0.0008933343287805484   -0.009894624006560902   -0.0003134238573628959
-0.0008510737997001917   -0.009916469301601746   -0.00028758501069517503
-0.0007612321487878512   -0.009942878619153585   -0.0003393443273465698
-0.000869587761063375   -0.009885892969262356   -0.0003072453448507626
-0.0008510737997001917   -0.009916469301601746   -0.00028758501069517503
-0.0009022303786187308   -0.009923192324276842   -0.0003144460568874192
-0.0007612321487878512   -0.009942878619153585   -0.0003393443273465698
-0.0008863417765479875   -0.009913131010524996   -0.0003019569875053711
-0.000869587761063375   -0.009885892969262356   -0.0003072453448507626
-0.0007323115899965035   -0.009934975236177996   -0.0003161016522737902
-0.0008863417765479875   -0.009913131010524996   -0.0003019569875053711
-0.0007612321487878512   -0.009942878619153585   -0.0003393443273465698
-0.000869587761063375   -0.009885892969262356   -0.0003072453448507626
-0.0008863417765479875   -0.009913131010524996   -0.0003019569875053711
-0.0008357432071779494   -0.009906098748501364   -0.00028774041450624485
-0.0008510737997001917   -0.009916469301601746   -0.00028758501069517503
-0.000869587761063375   -0.009885892969262356   -0.0003072453448507626
-0.0008863417765479875   -0.009913131010524996   -0.0003019569875053711
-0.0008510737997001917   -0.009916469301601746   -0.00028758501069517503
-0.0007612321487878512   -0.009942878619153585   -0.0003393443273465698
-0.000869587761063375   -0.009885892969262356   -0.0003072453448507626
-0.0008357432071779494   -0.009906098748501364   -0.00028774041450624485
-0.0007323115899965035   -0.009934975236177996   -0.0003161016522737902
-0.0008464924177640934   -0.009886341189447376   -0.0003010106298758972
-0.0008357432071779494   -0.009906098748501364   -0.00028774041450624485
-0.0008863417765479875   -0.009913131010524996   -0.0003019569875053711
-0.0007323115899965035   -0.009934975236177996   -0.0003161016522737902
-0.0008674302281869154   -0.009910505448787264   -0.00028804930967186147
-0.0008464924177640934   -0.009886341189447376   -0.0003010106298758972
-0.0007053021313478489   -0.009934904890565944   -0.00029281081188415665
-0.0008674302281869154   -0.009910505448787264   -0.00028804930967186147
-0.0007323115899965035   -0.009934975236177996   -0.0003161016522737902
-0.0008464924177640934   -0.009886341189447376   -0.0003010106298758972
-0.0008674302281869154   -0.009910505448787264   -0.00028804930967186147
-0.0008187293742733408   -0.009903062010242098   -0.0002867350649611033
-0.0008357432071779494   -0.009906098748501364   -0.00028774041450624485
-0.0008464924177640934   -0.009886341189447376   -0.0003010106298758972
-0.0008674302281869154   -0.009910505448787264   -0.00028804930967186147
-0.0008357432071779494   -0.009906098748501364   -0.00028774041450624485
-0.0007323115899965035   -0.009934975236177996   -0.0003161016522737902
-0.0008464924177640934   -0.009886341189447376   -0.0003010106298758972
-0.0008187293742733408   -0.009903062010242098   -0.0002867350649611033
-0.0007053021313478489   -0.009934904890565944   -0.00029281081188415665
-0.0008225202210025817   -0.009895814594937975   -0.0002950726238694816
-0.0008187293742733408   -0.009903062010242098   -0.0002867350649611033
-0.0008674302281869154   -0.009910505448787264   -0.00028804930967186147
-0.0007053021313478489   -0.009934904890565944   -0.00029281081188415665
-0.0008480722893262794   -0.009914321193829493   -0.0002733238360453238
-0.0008225202210025817   -0.009895814594937975   -0.0002950726238694816
-0.0006765776410234272   -0.00994233694644466   -0.00026968325291036377
-0.0008480722893262794   -0.009914321193829493   -0.0002733238360453238
-0.0007053021313478489   -0.009934904890565944   -0.00029281081188415665
-0.0008225202210025817   -0.009895814594937975   -0.0002950726238694816
-0.0008480722893262794   -0.009914321193829493   -0.0002733238360453238
-0.0008014893148036942   -0.0099070938898821   -0.0002848157698904534
-0.0008187293742733408   -0.009903062010242098   -0.0002867350649611033
-0.0008225202210025817   -0.009895814594937975   -0.0002950726238694816
-0.0008480722893262794   -0.009914321193829493   -0.0002733238360453238
-0.0008187293742733408   -0.009903062010242098   -0.0002867350649611033
-0.0007053021313478489   -0.009934904890565944   -0.00029281081188415665
-0.0007612321487878512   -0.009942878619153585   -0.0003393443273465698
-0.0009022303786187308   -0.009923192324276842   -0.0003144460568874192
-0.0006312127902450944   -0.01   -0.00036090235798926965
-0.0007323115899965035   -0.009934975236177996   -0.0003161016522737902
-0.0009022303786187308   -0.009923192324276842   -0.0003144460568874192
-0.0009769556587001557   -0.009909947056141132   -0.0003405386542842507
-0.0006312127902450944   -0.01   -0.00036090235798926965
-0.0009562693632497266   -0.00990013002767817   -0.0003158793134532485
-0.0007323115899965035   -0.009934975236177996   -0.0003161016522737902
-0.0005943720969585762   -0.01   -0.0003243034799786354
-0.0009562693632497266   -0.00990013002767817   -0.0003158793134532485
-0.0006312127902450944   -0.01   -0.00036090235798926965
-0.0007323115899965035   -0.009934975236177996   -0.0003161016522737902
-0.0009562693632497266   -0.00990013002767817   -0.0003158793134532485
-0.0008863417765479875   -0.009913131010524996   -0.0003019569875053711
-0.0009022303786187308   -0.009923192324276842   -0.0003144460568874192
-0.0007323115899965035   -0.009934975236177996   -0.0003161016522737902
-0.0009562693632497266   -0.00990013002767817   -0.0003158793134532485
-0.0009022303786187308   -0.009923192324276842   -0.0003144460568874192
-0.0006312127902450944   -0.01   -0.00036090235798926965
-0.0007323115899965035   -0.009934975236177996   -0.0003161016522737902
-0.0008863417765479875   -0.009913131010524996   -0.0003019569875053711
-0.0005943720969585762   -0.01   -0.0003243034799786354
-0.0007053021313478489   -0.009934904890565944   -0.00029281081188415665
-0.0008863417765479875   -0.009913131010524996   -0.0003019569875053711
-0.0009562693632497266   -0.00990013002767817   -0.0003158793134532485
-0.0005943720969585762   -0.01   -0.0003243034799786354
-0.0009286239162508844   -0.009898333997730964   -0.0002895865556769397
-0.0007053021313478489   -0.009934904890565944   -0.00029281081188415665
-0.000556978705989134   -0.01   -0.00028728340221187133
-0.0009286239162508844   -0.009898333997730964   -0.0002895865556769397
-0.0005943720969585762   -0.01   -0.0003243034799786354
-0.0007053021313478489   -0.009934904890565944   -0.00029281081188415665
-0.0009286239162508844   -0.009898333997730964   -0.0002895865556769397
-0.0008674302281869154   -0.009910505448787264   -0.00028804930967186147
-0.0008863417765479875   -0.009913131010524996   -0.0003019569875053711
-0.0007053021313478489   -0.009934904890565944   -0.00029281081188415665
-0.0009286239162508844   -0.009898333997730964   -0.0002895865556769397
-0.0008863417765479875   -0.009913131010524996   -0.0003019569875053711
-0.0005943720969585762   -0.01   -0.0003243034799786354
-0.0007053021313478489   -0.009934904890565944   -0.00029281081188415665
-0.0008674302281869154   -0.009910505448787264   -0.00028804930967186147
-0.000556978705989134   -0.01   -0.00028728340221187133
-0.0006765776410234272   -0.00994233694644466   -0.00026968325291036377
-0.0008674302281869154   -0.009910505448787264   -0.00028804930967186147
-0.0009286239162508844   -0.009898333997730964   -0.0002895865556769397
-0.000556978705989134   -0.01   -0.00028728340221187133
-0.0009031610403346806   -0.009903138210168928   -0.0002623978601360139
-0.0006765776410234272   -0.00994233694644466   -0.00026968325291036377
-0.0005208993696719069   -0.01   -0.00025078523548721556
-0.0009031610403346806   -0.009903138210168928   -0.0002623978601360139
-0.000556978705989134   -0.01   -0.00028728340221187133
-0.0006765776410234272   -0.00994233694644466   -0.00026968325291036377
-0.0009031610403346806   -0.009903138210168928   -0.0002623978601360139
-0.0008480722893262794   -0.009914321193829493   -0.0002733238360453238
-0.0008674302281869154   -0.009910505448787264   -0.00028804930967186147
-0.0006765776410234272   -0.00994233694644466   -0.00026968325291036377
-0.0009031610403346806   -0.009903138210168928   -0.0002623978601360139
-0.0008674302281869154   -0.009910505448787264   -0.00028804930967186147
-0.000556978705989134   -0.01   -0.00028728340221187133
-0.0006312127902450944   -0.01   -0.00036090235798926965
-0.0009769556587001557   -0.009909947056141132   -0.0003405386542842507
-0.0005327729907870925   -0.01   -0.00038699934029155786
-0.0005943720969585762   -0.01   -0.0003243034799786354
-0.0009769556587001557   -0.009909947056141132   -0.0003405386542842507
-0.0011299903506690875   -0.009862155095487244   -0.00036929700573592344
-0.0005327729907870925   -0.01   -0.00038699934029155786
-0.0010712622316144552   -0.009853334822318016   -0.00032891661815824725
-0.0005943720969585762   -0.01   -0.0003243034799786354
-0.00045269873999984793   -0.01   -0.000333368613869469
-0.0010712622316144552   -0.009853334822318016   -0.00032891661815824725
-0.0005327729907870925   -0.01   -0.00038699934029155786
-0.0005943720969585762   -0.01   -0.0003243034799786354
-0.0010712622316144552   -0.009853334822318016   -0.00032891661815824725
-0.0009562693632497266   -0.00990013002767817   -0.0003158793134532485
-0.0009769556587001557   -0.009909947056141132   -0.0003405386542842507
-0.0005943720969585762   -0.01   -0.0003243034799786354
-0.0010712622316144552   -0.009853334822318016   -0.00032891661815824725
-0.0009769556587001557   -0.009909947056141132   -0.0003405386542842507
-0.0005327729907870925   -0.01   -0.00038699934029155786
-0.0005943720969585762   -0.01   -0.0003243034799786354
-0.0009562693632497266   -0.00990013002767817   -0.0003158793134532485
-0.00045269873999984793   -0.01   -0.000333368613869469
-0.000556978705989134   -0.01   -0.00028728340221187133
-0.0009562693632497266   -0.00990013002767817   -0.0003158793134532485
-0.0010712622316144552   -0.009853334822318016   -0.00032891661815824725
-0.00045269873999984793   -0.01   -0.000333368613869469
-0.0010180710230061158   -0.009852490683921779   -0.0002861659728047954
-0.000556978705989134   -0.01   -0.00028728340221187133
-0.00038887155533306415   -0.01   -0.0002821027615973595
-0.0010180710230061158   -0.009852490683921779   -0.0002861659728047954
-0.00045269873999984793   -0.01   -0.000333368613869469
-0.000556978705989134   -0.01   -0.00028728340221187133
-0.0010180710230061158   -0.009852490683921779   -0.0002861659728047954
-0.0009286239162508844   -0.009898333997730964   -0.0002895865556769397
-0.0009562693632497266   -0.00990013002767817   -0.0003158793134532485
-0.000556978705989134   -0.01   -0.00028728340221187133
-0.0010180710230061158   -0.009852490683921779   -0.0002861659728047954
-0.0009562693632497266   -0.00990013002767817   -0.0003158793134532485
-0.00045269873999984793   -0.01   -0.000333368613869469
-0.000556978705989134   -0.01   -0.00028728340221187133
-0.0009286239162508844   -0.009898333997730964   -0.0002895865556769397
-0.00038887155533306415   -0.01   -0.0002821027615973595
-0.0005208993696719069   -0.01   -0.00025078523548721556
-0.0009286239162508844   -0.009898333997730964   -0.0002895865556769397
-0.0010180710230061158   -0.009852490683921779   -0.0002861659728047954
-0.00038887155533306415   -0.01   -0.0002821027615973595
-0.0009507535263746623   -0.00986391817669767   -0.00024175685844123217
-0.0005208993696719069   -0.01   -0.00025078523548721556
-0.00031014917746897735   -0.01   -0.0002288495119461122
-0.0009507535263746623   -0.00986391817669767   -0.00024175685844123217
-0.00038887155533306415   -0.01   -0.0002821027615973595
-0.0005208993696719069   -0.01   -0.00025078523548721556
-0.0009507535263746623   -0.00986391817669767   -0.00024175685844123217
-0.0009031610403346806   -0.009903138210168928   -0.0002623978601360139
-0.0009286239162508844   -0.009898333997730964   -0.0002895865556769397
-0.0005208993696719069   -0.01   -0.00025078523548721556
-0.0009507535263746623   -0.00986391817669767   -0.00024175685844123217
-0.0009286239162508844   -0.009898333997730964   -0.0002895865556769397
-0.00038887155533306415   -0.01   -0.0002821027615973595
-0.0007751788961180709   -0.009859315507469033   -0.00022640380932155015
-0.00036805449351616764   -0.009529384528249883   -0.00019410556154839687
-0.0008042601157530253   -0.009895474915529447   -0.0002605158499232221
-0.0007290015544042859   -0.00984439278571938   -0.00025764595600558836
-0.00036805449351616764   -0.009529384528249883   -0.00019410556154839687
-0.0006001559535653526   -0.009557632606315264   -0.00023059300034341637
-0.0008042601157530253   -0.009895474915529447   -0.0002605158499232221
-0.0005875783646540115   -0.00954359316591988   -0.0002426649802227025
-0.0007290015544042859   -0.00984439278571938   -0.00025764595600558836
-0.0007868007997981576   -0.009883926347189003   -0.0002738018846837698
-0.0005875783646540115   -0.00954359316591988   -0.0002426649802227025
-0.0008042601157530253   -0.009895474915529447   -0.0002605158499232221
-0.0007290015544042859   -0.00984439278571938   -0.00025764595600558836
-0.0005875783646540115   -0.00954359316591988   -0.0002426649802227025
-0.00033037193505464616   -0.009511838616276363   -0.0002217288078223134
-0.00036805449351616764   -0.009529384528249883   -0.00019410556154839687
-0.0007290015544042859   -0.00984439278571938   -0.00025764595600558836
-0.0005875783646540115   -0.00954359316591988   -0.0002426649802227025
-0.00036805449351616764   -0.009529384528249883   -0.00019410556154839687
-0.0008042601157530253   -0.009895474915529447   -0.0002605158499232221
-0.0007290015544042859   -0.00984439278571938   -0.00025764595600558836
-0.00033037193505464616   -0.009511838616276363   -0.0002217288078223134
-0.0007868007997981576   -0.009883926347189003   -0.0002738018846837698
-0.0006906324653101391   -0.00984073188968727   -0.0002877827406514909
-0.00033037193505464616   -0.009511838616276363   -0.0002217288078223134
-0.0005875783646540115   -0.00954359316591988   -0.0002426649802227025
-0.0007868007997981576   -0.009883926347189003   -0.0002738018846837698
-0.0005731887820910331   -0.0095366632754134   -0.000253772330754882
-0.0006906324653101391   -0.00984073188968727   -0.0002877827406514909
-0.0007661306630084907   -0.00988048587395052   -0.000286191230355408
-0.0005731887820910331   -0.0095366632754134   -0.000253772330754882
-0.0007868007997981576   -0.009883926347189003   -0.0002738018846837698
-0.0006906324653101391   -0.00984073188968727   -0.0002877827406514909
-0.0005731887820910331   -0.0095366632754134   -0.000253772330754882
-0.00030069746414680546   -0.009504450465422304   -0.00024792965569703777
-0.00033037193505464616   -0.009511838616276363   -0.0002217288078223134
-0.0006906324653101391   -0.00984073188968727   -0.0002877827406514909
-0.0005731887820910331   -0.0095366632754134   -0.000253772330754882
-0.00033037193505464616   -0.009511838616276363   -0.0002217288078223134
-0.0007868007997981576   -0.009883926347189003   -0.0002738018846837698
-0.0006906324653101391   -0.00984073188968727   -0.0002877827406514909
-0.00030069746414680546   -0.009504450465422304   -0.00024792965569703777
-0.0007661306630084907   -0.00988048587395052   -0.000286191230355408
-0.000646788029246343   -0.009846622392049923   -0.0003167088618866725
-0.00030069746414680546   -0.009504450465422304   -0.00024792965569703777
-0.0005731887820910331   -0.0095366632754134   -0.000253772330754882
-0.0007661306630084907   -0.00988048587395052   -0.000286191230355408
-0.0005622234141986723   -0.00953663857669733   -0.00026395365849796485
-0.000646788029246343   -0.009846622392049923   -0.0003167088618866725
-0.0007485376497812466   -0.009885240605540253   -0.0002976329925591039
-0.0005622234141986723   -0.00953663857669733   -0.00026395365849796485
-0.0007661306630084907   -0.00988048587395052   -0.000286191230355408
-0.000646788029246343   -0.009846622392049923   -0.0003167088618866725
-0.0005622234141986723   -0.00953663857669733   -0.00026395365849796485
-0.0002677685883188568   -0.00950490918875285   -0.0002726578591018509
-0.00030069746414680546   -0.009504450465422304   -0.00024792965569703777
-0.000646788029246343   -0.009846622392049923   -0.0003167088618866725
-0.0005622234141986723   -0.00953663857669733   -0.00026395365849796485
-0.00030069746414680546   -0.009504450465422304   -0.00024792965569703777
-0.0007661306630084907   -0.00988048587395052   -0.000286191230355408
-0.0008042601157530253   -0.009895474915529447   -0.0002605158499232221
-0.0006001559535653526   -0.009557632606315264   -0.00023059300034341637
-0.0008510737997001917   -0.009916469301601746   -0.00028758501069517503
-0.0007868007997981576   -0.009883926347189003   -0.0002738018846837698
-0.0006001559535653526   -0.009557632606315264   -0.00023059300034341637
-0.0008330600673441807   -0.009567259103208494   -0.0002599847455900597
-0.0008510737997001917   -0.009916469301601746   -0.00028758501069517503
-0.0008226301279784039   -0.009555042620487595   -0.00026044295586228933
-0.0007868007997981576   -0.009883926347189003   -0.0002738018846837698
-0.0008357432071779494   -0.009906098748501364   -0.00028774041450624485
-0.0008226301279784039   -0.009555042620487595   -0.00026044295586228933
-0.0008510737997001917   -0.009916469301601746   -0.00028758501069517503
-0.0007868007997981576   -0.009883926347189003   -0.0002738018846837698
-0.0008226301279784039   -0.009555042620487595   -0.00026044295586228933
-0.0005875783646540115   -0.00954359316591988   -0.0002426649802227025
-0.0006001559535653526   -0.009557632606315264   -0.00023059300034341637
-0.0007868007997981576   -0.009883926347189003   -0.0002738018846837698
-0.0008226301279784039   -0.009555042620487595   -0.00026044295586228933
-0.0006001559535653526   -0.009557632606315264   -0.00023059300034341637
-0.0008510737997001917   -0.009916469301601746   -0.00028758501069517503
-0.0007868007997981576   -0.009883926347189003   -0.0002738018846837698
-0.0005875783646540115   -0.00954359316591988   -0.0002426649802227025
-0.0008357432071779494   -0.009906098748501364   -0.00028774041450624485
-0.0007661306630084907   -0.00988048587395052   -0.000286191230355408
-0.0005875783646540115   -0.00954359316591988   -0.0002426649802227025
-0.0008226301279784039   -0.009555042620487595   -0.00026044295586228933
-0.0008357432071779494   -0.009906098748501364   -0.00028774041450624485
-0.0008118170279530962   -0.009549223731099399   -0.0002600044365319196
-0.0007661306630084907   -0.00988048587395052   -0.000286191230355408
-0.0008187293742733408   -0.009903062010242098   -0.0002867350649611033
-0.0008118170279530962   -0.009549223731099399   -0.0002600044365319196
-0.0008357432071779494   -0.009906098748501364   -0.00028774041450624485
-0.0007661306630084907   -0.00988048587395052   -0.000286191230355408
-0.0008118170279530962   -0.009549223731099399   -0.0002600044365319196
-0.0005731887820910331   -0.0095366632754134   -0.000253772330754882
-0.0005875783646540115   -0.00954359316591988   -0.0002426649802227025
-0.0007661306630084907   -0.00988048587395052   -0.000286191230355408
-0.0008118170279530962   -0.009549223731099399   -0.0002600044365319196
-0.0005875783646540115   -0.00954359316591988   -0.0002426649802227025
-0.0008357432071779494   -0.009906098748501364   -0.00028774041450624485
-0.0007661306630084907   -0.00988048587395052   -0.000286191230355408
-0.0005731887820910331   -0.0095366632754134   -0.000253772330754882
-0.0008187293742733408   -0.009903062010242098   -0.0002867350649611033
-0.0007485376497812466   -0.009885240605540253   -0.0002976329925591039
-0.0005731887820910331   -0.0095366632754134   -0.000253772330754882
-0.0008118170279530962   -0.009549223731099399   -0.0002600044365319196
-0.0008187293742733408   -0.009903062010242098   -0.0002867350649611033
-0.0008014205785384557   -0.009549552073244986   -0.000258676200664885
-0.0007485376497812466   -0.009885240605540253   -0.0002976329925591039
-0.0008014893148036942   -0.0099070938898821   -0.0002848157698904534
-0.0008014205785384557   -0.009549552073244986   -0.000258676200664885
-0.0008187293742733408   -0.009903062010242098   -0.0002867350649611033
-0.0007485376497812466   -0.009885240605540253   -0.0002976329925591039
-0.0008014205785384557   -0.009549552073244986   -0.000258676200664885
-0.0005622234141986723   -0.00953663857669733   -0.00026395365849796485
-0.0005731887820910331   -0.0095366632754134   -0.000253772330754882
-0.0007485376497812466   -0.009885240605540253   -0.0002976329925591039
-0.0008014205785384557   -0.009549552073244986   -0.000258676200664885
-0.0005731887820910331   -0.0095366632754134   -0.000253772330754882
-0.0008187293742733408   -0.009903062010242098   -0.0002867350649611033
-0.0008510737997001917   -0.009916469301601746   -0.00028758501069517503
-0.0008330600673441807   -0.009567259103208494   -0.0002599847455900597
-0.0009022303786187308   -0.009923192324276842   -0.0003144460568874192
-0.0008357432071779494   -0.009906098748501364   -0.00028774041450624485
-0.0008330600673441807   -0.009567259103208494   -0.0002599847455900597
-0.0010649186484347685   -0.009557964285114122   -0.0002875852931401899
-0.0009022303786187308   -0.009923192324276842   -0.0003144460568874192
-0.0010545725800658236   -0.00954703179246971   -0.00027687360667175246
-0.0008357432071779494   -0.009906098748501364   -0.00028774041450624485
-0.0008863417765479875   -0.009913131010524996   -0.0003019569875053711
-0.0010545725800658236   -0.00954703179246971   -0.00027687360667175246
-0.0009022303786187308   -0.009923192324276842   -0.0003144460568874192
-0.0008357432071779494   -0.009906098748501364   -0.00028774041450624485
-0.0010545725800658236   -0.00954703179246971   -0.00027687360667175246
-0.0008226301279784039   -0.009555042620487595   -0.00026044295586228933
-0.0008330600673441807   -0.009567259103208494   -0.0002599847455900597
-0.0008357432071779494   -0.009906098748501364   -0.00028774041450624485
-0.0010545725800658236   -0.00954703179246971   -0.00027687360667175246
-0.0008330600673441807   -0.009567259103208494   -0.0002599847455900597
-0.0009022303786187308   -0.009923192324276842   -0.0003144460568874192
-0.0008357432071779494   -0.009906098748501364   -0.00028774041450624485
-0.0008226301279784039   -0.009555042620487595   -0.00026044295586228933
-0.0008863417765479875   -0.009913131010524996   -0.0003019569875053711
-0.0008187293742733408   -0.009903062010242098   -0.0002867350649611033
-0.0008226301279784039   -0.009555042620487595   -0.00026044295586228933
-0.0010545725800658236   -0.00954703179246971   -0.00027687360667175246
-0.0008863417765479875   -0.009913131010524996   -0.0003019569875053711
-0.00104296713792396   -0.009542407244167727   -0.000265285464358057
-0.0008187293742733408   -0.009903062010242098   -0.0002867350649611033
-0.0008674302281869154   -0.009910505448787264   -0.00028804930967186147
-0.00104296713792396   -0.009542407244167727   -0.000265285464358057
-0.0008863417765479875   -0.009913131010524996   -0.0003019569875053711
-0.0008187293742733408   -0.009903062010242098   -0.0002867350649611033
-0.00104296713792396   -0.009542407244167727   -0.000265285464358057
-0.0008118170279530962   -0.009549223731099399   -0.0002600044365319196
-0.0008226301279784039   -0.009555042620487595   -0.00026044295586228933
-0.0008187293742733408   -0.009903062010242098   -0.0002867350649611033
-0.00104296713792396   -0.009542407244167727   -0.000265285464358057
-0.0008226301279784039   -0.009555042620487595   -0.00026044295586228933
-0.0008863417765479875   -0.009913131010524996   -0.0003019569875053711
-0.0008187293742733408   -0.009903062010242098   -0.0002867350649611033
-0.0008118170279530962   -0.009549223731099399   -0.0002600044365319196
-0.0008674302281869154   -0.009910505448787264   -0.00028804930967186147
-0.0008014893148036942   -0.0099070938898821   -0.0002848157698904534
-0.0008118170279530962   -0.009549223731099399   -0.0002600044365319196
-0.00104296713792396   -0.009542407244167727   -0.000265285464358057
-0.0008674302281869154   -0.009910505448787264   -0.00028804930967186147
-0.0010313901712314692   -0.00954356823119591   -0.00025271535799486626
-0.0008014893148036942   -0.0099070938898821   -0.0002848157698904534
-0.0008480722893262794   -0.009914321193829493   -0.0002733238360453238
-0.0010313901712314692   -0.00954356823119591   -0.00025271535799486626
-0.0008674302281869154   -0.009910505448787264   -0.00028804930967186147
-0.0008014893148036942   -0.0099070938898821   -0.0002848157698904534
-0.0010313901712314692   -0.00954356823119591   -0.00025271535799486626
-0.0008014205785384557   -0.009549552073244986   -0.000258676200664885
-0.0008118170279530962   -0.009549223731099399   -0.0002600044365319196
-0.0008014893148036942   -0.0099070938898821   -0.0002848157698904534
-0.0010313901712314692   -0.00954356823119591   -0.00025271535799486626
-0.0008118170279530962   -0.009549223731099399   -0.0002600044365319196
-0.0008674302281869154   -0.009910505448787264   -0.00028804930967186147
-0.0009022303786187308   -0.009923192324276842   -0.0003144460568874192
-0.0010649186484347685   -0.009557964285114122   -0.0002875852931401899
-0.0009769556587001557   -0.009909947056141132   -0.0003405386542842507
-0.0008863417765479875   -0.009913131010524996   -0.0003019569875053711
-0.0010649186484347685   -0.009557964285114122   -0.0002875852931401899
-0.0013181091181596678   -0.009528649188091032   -0.0003132365111030092
-0.0009769556587001557   -0.009909947056141132   -0.0003405386542842507
-0.0013052305860994991   -0.009518942033782816   -0.0002915221594221278
-0.0008863417765479875   -0.009913131010524996   -0.0003019569875053711
-0.0009562693632497266   -0.00990013002767817   -0.0003158793134532485
-0.0013052305860994991   -0.009518942033782816   -0.0002915221594221278
-0.0009769556587001557   -0.009909947056141132   -0.0003405386542842507
-0.0008863417765479875   -0.009913131010524996   -0.0003019569875053711
-0.0013052305860994991   -0.009518942033782816   -0.0002915221594221278
-0.0010545725800658236   -0.00954703179246971   -0.00027687360667175246
-0.0010649186484347685   -0.009557964285114122   -0.0002875852931401899
-0.0008863417765479875   -0.009913131010524996   -0.0003019569875053711
-0.0013052305860994991   -0.009518942033782816   -0.0002915221594221278
-0.0010649186484347685   -0.009557964285114122   -0.0002875852931401899
-0.0009769556587001557   -0.009909947056141132   -0.0003405386542842507
-0.0008863417765479875   -0.009913131010524996   -0.0003019569875053711
-0.0010545725800658236   -0.00954703179246971   -0.00027687360667175246
-0.0009562693632497266   -0.00990013002767817   -0.0003158793134532485
-0.0008674302281869154   -0.009910505448787264   -0.00028804930967186147
-0.0010545725800658236   -0.00954703179246971   -0.00027687360667175246
-0.0013052305860994991   -0.009518942033782816   -0.0002915221594221278
-0.0009562693632497266   -0.00990013002767817   -0.0003158793134532485
-0.0012872444236776235   -0.009515507601346819   -0.0002690172055296413
-0.0008674302281869154   -0.009910505448787264   -0.00028804930967186147
-0.0009286239162508844   -0.009898333997730964   -0.0002895865556769397
-0.0012872444236776235   -0.009515507601346819   -0.0002690172055296413
-0.0009562693632497266   -0.00990013002767817   -0.0003158793134532485
-0.0008674302281869154   -0.009910505448787264   -0.00028804930967186147
-0.0012872444236776235   -0.009515507601346819   -0.0002690172055296413
-0.00104296713792396   -0.009542407244167727   -0.000265285464358057
-0.0010545725800658236   -0.00954703179246971   -0.00027687360667175246
-0.0008674302281869154   -0.009910505448787264   -0.00028804930967186147
-0.0012872444236776235   -0.009515507601346819   -0.0002690172055296413
-0.0010545725800658236   -0.00954703179246971   -0.00027687360667175246
-0.0009562693632497266   -0.00990013002767817   -0.0003158793134532485
-0.0008674302281869154   -0.009910505448787264   -0.00028804930967186147
-0.00104296713792396   -0.009542407244167727   -0.000265285464358057
-0.0009286239162508844   -0.009898333997730964   -0.0002895865556769397
-0.0008480722893262794   -0.009914321193829493   -0.0002733238360453238
-0.00104296713792396   -0.009542407244167727   -0.000265285464358057
-0.0012872444236776235   -0.009515507601346819   -0.0002690172055296413
-0.0009286239162508844   -0.009898333997730964   -0.0002895865556769397
-0.0012718997332806182   -0.009518333353344828   -0.0002451515196235394
-0.0008480722893262794   -0.009914321193829493   -0.0002733238360453238
-0.0009031610403346806   -0.009903138210168928   -0.0002623978601360139
-0.0012718997332806182   -0.009518333353344828   -0.0002451515196235394
-0.0009286239162508844   -0.009898333997730964   -0.0002895865556769397
-0.0008480722893262794   -0.009914321193829493   -0.0002733238360453238
-0.0012718997332806182   -0.009518333353344828   -0.0002451515196235394
-0.0010313901712314692   -0.00954356823119591   -0.00025271535799486626
-0.00104296713792396   -0.009542407244167727   -0.000265285464358057
-0.0008480722893262794   -0.009914321193829493   -0.0002733238360453238
-0.0012718997332806182   -0.009518333353344828   -0.0002451515196235394
-0.00104296713792396   -0.009542407244167727   -0.000265285464358057
-0.0009286239162508844   -0.009898333997730964   -0.0002895865556769397
-0.0009769556587001557   -0.009909947056141132   -0.0003405386542842507
-0.0013181091181596678   -0.009528649188091032   -0.0003132365111030092
-0.0011299903506690875   -0.009862155095487244   -0.00036929700573592344
-0.0009562693632497266   -0.00990013002767817   -0.0003158793134532485
-0.0013181091181596678   -0.009528649188091032   -0.0003132365111030092
-0.0016438373038297719   -0.009480970678366184   -0.0003387658398304331
-0.0011299903506690875   -0.009862155095487244   -0.00036929700573592344
-0.0015992771020673692   -0.009470061561204194   -0.0003043855459527135
-0.0009562693632497266   -0.00990013002767817   -0.0003158793134532485
-0.0010712622316144552   -0.009853334822318016   -0.00032891661815824725
-0.0015992771020673692   -0.009470061561204194   -0.0003043855459527135
-0.0011299903506690875   -0.009862155095487244   -0.00036929700573592344
-0.0009562693632497266   -0.00990013002767817   -0.0003158793134532485
-0.0015992771020673692   -0.009470061561204194   -0.0003043855459527135
-0.0013052305860994991   -0.009518942033782816   -0.0002915221594221278
-0.0013181091181596678   -0.009528649188091032   -0.0003132365111030092
-0.0009562693632497266   -0.00990013002767817   -0.0003158793134532485
-0.0015992771020673692   -0.009470061561204194   -0.0003043855459527135
-0.0013181091181596678   -0.009528649188091032   -0.0003132365111030092
-0.0011299903506690875   -0.009862155095487244   -0.00036929700573592344
-0.0009562693632497266   -0.00990013002767817   -0.0003158793134532485
-0.0013052305860994991   -0.009518942033782816   -0.0002915221594221278
-0.0010712622316144552   -0.009853334822318016   -0.00032891661815824725
-0.0009286239162508844   -0.009898333997730964   -0.0002895865556769397
-0.0013052305860994991   -0.009518942033782816   -0.0002915221594221278
-0.0015992771020673692   -0.009470061561204194   -0.0003043855459527135
-0.0010712622316144552   -0.009853334822318016   -0.00032891661815824725
-0.0015599688883388718   -0.009466884970756756   -0.0002682997276082624
-0.0009286239162508844   -0.009898333997730964   -0.0002895865556769397
-0.0010180710230061158   -0.009852490683921779   -0.0002861659728047954
-0.0015599688883388718   -0.009466884970756756   -0.0002682997276082624
-0.0010712622316144552   -0.009853334822318016   -0.00032891661815824725
-0.0009286239162508844   -0.009898333997730964   -0.0002895865556769397
-0.0015599688883388718   -0.009466884970756756   -0.0002682997276082624
-0.0012872444236776235   -0.009515507601346819   -0.0002690172055296413
-0.0013052305860994991   -0.009518942033782816   -0.0002915221594221278
-0.0009286239162508844   -0.009898333997730964   -0.0002895865556769397
-0.0015599688883388718   -0.009466884970756756   -0.0002682997276082624
-0.0013052305860994991   -0.009518942033782816   -0.0002915221594221278
-0.0010712622316144552   -0.009853334822318016   -0.00032891661815824725
-0.0009286239162508844   -0.009898333997730964   -0.0002895865556769397
-0.0012872444236776235   -0.009515507601346819   -0.0002690172055296413
-0.0010180710230061158   -0.009852490683921779   -0.0002861659728047954
-0.0009031610403346806   -0.009903138210168928   -0.0002623978601360139
-0.0012872444236776235   -0.009515507601346819   -0.0002690172055296413
-0.0015599688883388718   -0.009466884970756756   -0.0002682997276082624
-0.0010180710230061158   -0.009852490683921779   -0.0002861659728047954
-0.0015091048483474375   -0.00947328583231661   -0.00023082631194380185
-0.0009031610403346806   -0.009903138210168928   -0.0002623978601360139
-0.0009507535263746623   -0.00986391817669767   -0.00024175685844123217
-0.0015091048483474375   -0.00947328583231661   -0.00023082631194380185
-0.0010180710230061158   -0.009852490683921779   -0.0002861659728047954
-0.0009031610403346806   -0.009903138210168928   -0.0002623978601360139
-0.0015091048483474375   -0.00947328583231661   -0.00023082631194380185
-0.0012718997332806182   -0.009518333353344828   -0.0002451515196235394
-0.0012872444236776235   -0.009515507601346819   -0.0002690172055296413
-0.0009031610403346806   -0.009903138210168928   -0.0002623978601360139
-0.0015091048483474375   -0.00947328583231661   -0.00023082631194380185
-0.0012872444236776235   -0.009515507601346819   -0.0002690172055296413
-0.0010180710230061158   -0.009852490683921779   -0.0002861659728047954
-0.00036805449351616764   -0.009529384528249883   -0.00019410556154839687
-2.8358707207254514e-05   -0.00888823216860552   -0.00015926099493655945
-0.0006001559535653526   -0.009557632606315264   -0.00023059300034341637
-0.00033037193505464616   -0.009511838616276363   -0.0002217288078223134
-2.8358707207254514e-05   -0.00888823216860552   -0.00015926099493655945
-0.0004334437528865002   -0.008909699624150974   -0.00019531508515586952
-0.0006001559535653526   -0.009557632606315264   -0.00023059300034341637
-0.0004265168900237528   -0.00889493267126815   -0.00020516863459799046
-0.00033037193505464616   -0.009511838616276363   -0.0002217288078223134
-0.0005875783646540115   -0.00954359316591988   -0.0002426649802227025
-0.0004265168900237528   -0.00889493267126815   -0.00020516863459799046
-0.0006001559535653526   -0.009557632606315264   -0.00023059300034341637
-0.00033037193505464616   -0.009511838616276363   -0.0002217288078223134
-0.0004265168900237528   -0.00889493267126815   -0.00020516863459799046
-9.982553684705418e-07   -0.008870259393835263   -0.00018194081722903584
-2.8358707207254514e-05   -0.00888823216860552   -0.00015926099493655945
-0.00033037193505464616   -0.009511838616276363   -0.0002217288078223134
-0.0004265168900237528   -0.00889493267126815   -0.00020516863459799046
-2.8358707207254514e-05   -0.00888823216860552   -0.00015926099493655945
-0.0006001559535653526   -0.009557632606315264   -0.00023059300034341637
-0.00033037193505464616   -0.009511838616276363   -0.0002217288078223134
-9.982553684705418e-07   -0.008870259393835263   -0.00018194081722903584
-0.0005875783646540115   -0.00954359316591988   -0.0002426649802227025
-0.00030069746414680546   -0.009504450465422304   -0.00024792965569703777
-9.982553684705418e-07   -0.008870259393835263   -0.00018194081722903584
-0.0004265168900237528   -0.00889493267126815   -0.00020516863459799046
-0.0005875783646540115   -0.00954359316591988   -0.0002426649802227025
-0.00041844902258142766   -0.00888613521167199   -0.00021400456207663706
-0.00030069746414680546   -0.009504450465422304   -0.00024792965569703777
-0.0005731887820910331   -0.0095366632754134   -0.000253772330754882
-0.00041844902258142766   -0.00888613521167199   -0.00021400456207663706
-0.0005875783646540115   -0.00954359316591988   -0.0002426649802227025
-0.00030069746414680546   -0.009504450465422304   -0.00024792965569703777
-0.00041844902258142766   -0.00888613521167199   -0.00021400456207663706
1.9240136686495478e-05   -0.008860860720653882   -0.00020319530943205605
-9.982553684705418e-07   -0.008870259393835263   -0.00018194081722903584
-0.00030069746414680546   -0.009504450465422304   -0.00024792965569703777
-0.00041844902258142766   -0.00888613521167199   -0.00021400456207663706
-9.982553684705418e-07   -0.008870259393835263   -0.00018194081722903584
-0.0005875783646540115   -0.00954359316591988   -0.0002426649802227025
-0.00030069746414680546   -0.009504450465422304   -0.00024792965569703777
1.9240136686495478e-05   -0.008860860720653882   -0.00020319530943205605
-0.0005731887820910331   -0.0095366632754134   -0.000253772330754882
-0.0002677685883188568   -0.00950490918875285   -0.0002726578591018509
1.9240136686495478e-05   -0.008860860720653882   -0.00020319530943205605
-0.00041844902258142766   -0.00888613521167199   -0.00021400456207663706
-0.0005731887820910331   -0.0095366632754134   -0.000253772330754882
-0.0004136037369750099   -0.008883017352110582   -0.00022192457759008977
-0.0002677685883188568   -0.00950490918875285   -0.0002726578591018509
-0.0005622234141986723   -0.00953663857669733   -0.00026395365849796485
-0.0004136037369750099   -0.008883017352110582   -0.00022192457759008977
-0.0005731887820910331   -0.0095366632754134   -0.000253772330754882
-0.0002677685883188568   -0.00950490918875285   -0.0002726578591018509
-0.0004136037369750099   -0.008883017352110582   -0.00022192457759008977
4.139787473747025e-05   -0.008857718055869226   -0.0002230256120638771
1.9240136686495478e-05   -0.008860860720653882   -0.00020319530943205605
-0.0002677685883188568   -0.00950490918875285   -0.0002726578591018509
-0.0004136037369750099   -0.008883017352110582   -0.00022192457759008977
1.9240136686495478e-05   -0.008860860720653882   -0.00020319530943205605
-0.0005731887820910331   -0.0095366632754134   -0.000253772330754882
-0.0006001559535653526   -0.009557632606315264   -0.00023059300034341637
-0.0004334437528865002   -0.008909699624150974   -0.00019531508515586952
-0.0008330600673441807   -0.009567259103208494   -0.0002599847455900597
-0.0005875783646540115   -0.00954359316591988   -0.0002426649802227025
-0.0004334437528865002   -0.008909699624150974   -0.00019531508515586952
-0.0008287921438669434   -0.008913891833976043   -0.00022448673923588646
-0.0008330600673441807   -0.009567259103208494   -0.0002599847455900597
-0.0008238318256095547   -0.008901343326638266   -0.00022458835134198587
-0.0005875783646540115   -0.00954359316591988   -0.0002426649802227025
-0.0008226301279784039   -0.009555042620487595   -0.00026044295586228933
-0.0008238318256095547   -0.008901343326638266   -0.00022458835134198587
-0.0008330600673441807   -0.009567259103208494   -0.0002599847455900597
-0.0005875783646540115   -0.00954359316591988   -0.0002426649802227025
-0.0008238318256095547   -0.008901343326638266   -0.00022458835134198587
-0.0004265168900237528   -0.00889493267126815   -0.00020516863459799046
-0.0004334437528865002   -0.008909699624150974   -0.00019531508515586952
-0.0005875783646540115   -0.00954359316591988   -0.0002426649802227025
-0.0008238318256095547   -0.008901343326638266   -0.00022458835134198587
-0.0004334437528865002   -0.008909699624150974   -0.00019531508515586952
-0.0008330600673441807   -0.009567259103208494   -0.0002599847455900597
-0.0005875783646540115   -0.00954359316591988   -0.0002426649802227025
-0.0004265168900237528   -0.00889493267126815   -0.00020516863459799046
-0.0008226301279784039   -0.009555042620487595   -0.00026044295586228933
-0.0005731887820910331   -0.0095366632754134   -0.000253772330754882
-0.0004265168900237528   -0.00889493267126815   -0.00020516863459799046
-0.0008238318256095547   -0.008901343326638266   -0.00022458835134198587
-0.0008226301279784039   -0.009555042620487595   -0.00026044295586228933
-0.000818707390035956   -0.008894124676774052   -0.00022370760304449375
-0.0005731887820910331   -0.0095366632754134   -0.000253772330754882
-0.0008118170279530962   -0.009549223731099399   -0.0002600044365319196
-0.000818707390035956   -0.008894124676774052   -0.00022370760304449375
-0.0008226301279784039   -0.009555042620487595   -0.00026044295586228933
-0.0005731887820910331   -0.0095366632754134   -0.000253772330754882
-0.000818707390035956   -0.008894124676774052   -0.00022370760304449375
-0.00041844902258142766   -0.00888613521167199   -0.00021400456207663706
-0.0004265168900237528   -0.00889493267126815   -0.00020516863459799046
-0.0005731887820910331   -0.0095366632754134   -0.000253772330754882
-0.000818707390035956   -0.008894124676774052   -0.00022370760304449375
-0.0004265168900237528   -0.00889493267126815   -0.00020516863459799046
-0.0008226301279784039   -0.009555042620487595   -0.00026044295586228933
-0.0005731887820910331   -0.0095366632754134   -0.000253772330754882
-0.00041844902258142766   -0.00888613521167199   -0.00021400456207663706
-0.0008118170279530962   -0.009549223731099399   -0.0002600044365319196
-0.0005622234141986723   -0.00953663857669733   -0.00026395365849796485
-0.00041844902258142766   -0.00888613521167199   -0.00021400456207663706
-0.000818707390035956   -0.008894124676774052   -0.00022370760304449375
-0.0008118170279530962   -0.009549223731099399   -0.0002600044365319196
-0.0008142345092037598   -0.008892169094470489   -0.00022192137539630438
-0.0005622234141986723   -0.00953663857669733   -0.00026395365849796485
-0.0008014205785384557   -0.009549552073244986   -0.000258676200664885
-0.0008142345092037598   -0.008892169094470489   -0.00022192137539630438
-0.0008118170279530962   -0.009549223731099399   -0.0002600044365319196
-0.0005622234141986723   -0.00953663857669733   -0.00026395365849796485
-0.0008142345092037598   -0.008892169094470489   -0.00022192137539630438
-0.0004136037369750099   -0.008883017352110582   -0.00022192457759008977
-0.00041844902258142766   -0.00888613521167199   -0.00021400456207663706
-0.0005622234141986723   -0.00953663857669733   -0.00026395365849796485
-0.0008142345092037598   -0.008892169094470489   -0.00022192137539630438
-0.00041844902258142766   -0.00888613521167199   -0.00021400456207663706
-0.0008118170279530962   -0.009549223731099399   -0.0002600044365319196
-0.0008330600673441807   -0.009567259103208494   -0.0002599847455900597
-0.0008287921438669434   -0.008913891833976043   -0.00022448673923588646
-0.0010649186484347685   -0.009557964285114122   -0.0002875852931401899
-0.0008226301279784039   -0.009555042620487595   -0.00026044295586228933
-0.0008287921438669434   -0.008913891833976043   -0.00022448673923588646
-0.0012186629490859866   -0.008900957203399408   -0.000250764861301657
-0.0010649186484347685   -0.009557964285114122   -0.0002875852931401899
-0.0012140582251590987   -0.00889017491859873   -0.00024134029437657383
-0.0008226301279784039   -0.009555042620487595   -0.00026044295586228933
-0.0010545725800658236   -0.00954703179246971   -0.00027687360667175246
-0.0012140582251590987   -0.00889017491859873   -0.00024134029437657383
-0.0010649186484347685   -0.009557964285114122   -0.0002875852931401899
-0.0008226301279784039   -0.009555042620487595   -0.00026044295586228933
-0.0012140582251590987   -0.00889017491859873   -0.00024134029437657383
-0.0008238318256095547   -0.008901343326638266   -0.00022458835134198587
-0.0008287921438669434   -0.008913891833976043   -0.00022448673923588646
-0.0008226301279784039   -0.009555042620487595   -0.00026044295586228933
-0.0012140582251590987   -0.00889017491859873   -0.00024134029437657383
-0.0008287921438669434   -0.008913891833976043   -0.00022448673923588646
-0.0010649186484347685   -0.009557964285114122   -0.0002875852931401899
-0.0008226301279784039   -0.009555042620487595   -0.00026044295586228933
-0.0008238318256095547   -0.008901343326638266   -0.00022458835134198587
-0.0010545725800658236   -0.00954703179246971   -0.00027687360667175246
-0.0008118170279530962   -0.009549223731099399   -0.0002600044365319196
-0.0008238318256095547   -0.008901343326638266   -0.00022458835134198587
-0.0012140582251590987   -0.00889017491859873   -0.00024134029437657383
-0.0010545725800658236   -0.00954703179246971   -0.00027687360667175246
-0.0012084802468671561   -0.008884667659791665   -0.00023096105744880216
-0.0008118170279530962   -0.009549223731099399   -0.0002600044365319196
-0.00104296713792396   -0.009542407244167727   -0.000265285464358057
-0.0012084802468671561   -0.008884667659791665   -0.00023096105744880216
-0.0010545725800658236   -0.00954703179246971   -0.00027687360667175246
-0.0008118170279530962   -0.009549223731099399   -0.0002600044365319196
-0.0012084802468671561   -0.008884667659791665   -0.00023096105744880216
-0.000818707390035956   -0.008894124676774052   -0.00022370760304449375
-0.0008238318256095547   -0.008901343326638266   -0.00022458835134198587
-0.0008118170279530962   -0.009549223731099399   -0.0002600044365319196
-0.0012084802468671561   -0.008884667659791665   -0.00023096105744880216
-0.0008238318256095547   -0.008901343326638266   -0.00022458835134198587
-0.0010545725800658236   -0.00954703179246971   -0.00027687360667175246
-0.0008118170279530962   -0.009549223731099399   -0.0002600044365319196
-0.000818707390035956   -0.008894124676774052   -0.00022370760304449375
-0.00104296713792396   -0.009542407244167727   -0.000265285464358057
-0.0008014205785384557   -0.009549552073244986   -0.000258676200664885
-0.000818707390035956   -0.008894124676774052   -0.00022370760304449375
-0.0012084802468671561   -0.008884667659791665   -0.00023096105744880216
-0.00104296713792396   -0.009542407244167727   -0.000265285464358057
-0.001203103020803503   -0.00888423040359655   -0.00021965499512179758
-0.0008014205785384557   -0.009549552073244986   -0.000258676200664885
-0.0010313901712314692   -0.00954356823119591   -0.00025271535799486626
-0.001203103020803503   -0.00888423040359655   -0.00021965499512179758
-0.00104296713792396   -0.009542407244167727   -0.000265285464358057
-0.0008014205785384557   -0.009549552073244986   -0.000258676200664885
-0.001203103020803503   -0.00888423040359655   -0.00021965499512179758
-0.0008142345092037598   -0.008892169094470489   -0.00022192137539630438
-0.000818707390035956   -0.008894124676774052   -0.00022370760304449375
-0.0008014205785384557   -0.009549552073244986   -0.000258676200664885
-0.001203103020803503   -0.00888423040359655   -0.00021965499512179758
-0.000818707390035956   -0.008894124676774052   -0.00022370760304449375
-0.00104296713792396   -0.009542407244167727   -0.000265285464358057
-0.0010649186484347685   -0.009557964285114122   -0.0002875852931401899
-0.0012186629490859866   -0.008900957203399408   -0.000250764861301657
-0.0013181091181596678   -0.009528649188091032   -0.0003132365111030092
-0.0010545725800658236   -0.00954703179246971   -0.00027687360667175246
-0.0012186629490859866   -0.008900957203399408   -0.000250764861301657
-0.0016262472350133087   -0.008871251992625916   -0.0002741814351382039
-0.0013181091181596678   -0.009528649188091032   -0.0003132365111030092
-0.001620016668666096   -0.00886208523495145   -0.0002551838500502145
-0.0010545725800658236   -0.00954703179246971   -0.00027687360667175246
-0.0013052305860994991   -0.009518942033782816   -0.0002915221594221278
-0.001620016668666096   -0.00886208523495145   -0.0002551838500502145
-0.0013181091181596678   -0.009528649188091032   -0.0003132365111030092
-0.0010545725800658236   -0.00954703179246971   -0.00027687360667175246
-0.001620016668666096   -0.00886208523495145   -0.0002551838500502145
-0.0012140582251590987   -0.00889017491859873   -0.00024134029437657383
-0.0012186629490859866   -0.008900957203399408   -0.000250764861301657
-0.0010545725800658236   -0.00954703179246971   -0.00027687360667175246
-0.001620016668666096   -0.00886208523495145   -0.0002551838500502145
-0.0012186629490859866   -0.008900957203399408   -0.000250764861301657
-0.0013181091181596678   -0.009528649188091032   -0.0003132365111030092
-0.0010545725800658236   -0.00954703179246971   -0.00027687360667175246
-0.0012140582251590987   -0.00889017491859873   -0.00024134029437657383
-0.0013052305860994991   -0.009518942033782816   -0.0002915221594221278
-0.00104296713792396   -0.009542407244167727   -0.000265285464358057
-0.0012140582251590987   -0.00889017491859873   -0.00024134029437657383
-0.001620016668666096   -0.00886208523495145   -0.0002551838500502145
-0.0013052305860994991   -0.009518942033782816   -0.0002915221594221278
-0.0016093328967000662   -0.008858128456268941   -0.00023538845054687339
-0.00104296713792396   -0.009542407244167727   -0.000265285464358057
-0.0012872444236776235   -0.009515507601346819   -0.0002690172055296413
-0.0016093328967000662   -0.008858128456268941   -0.00023538845054687339
-0.0013052305860994991   -0.009518942033782816   -0.0002915221594221278
-0.00104296713792396   -0.009542407244167727   -0.000265285464358057
-0.0016093328967000662   -0.008858128456268941   -0.00023538845054687339
-0.0012084802468671561   -0.008884667659791665   -0.00023096105744880216
-0.0012140582251590987   -0.00889017491859873   -0.00024134029437657383
-0.00104296713792396   -0.009542407244167727   -0.000265285464358057
-0.0016093328967000662   -0.008858128456268941   -0.00023538845054687339
-0.0012140582251590987   -0.00889017491859873   -0.00024134029437657383
-0.0013052305860994991   -0.009518942033782816   -0.0002915221594221278
-0.00104296713792396   -0.009542407244167727   -0.000265285464358057
-0.0012084802468671561   -0.008884667659791665   -0.00023096105744880216
-0.0012872444236776235   -0.009515507601346819   -0.0002690172055296413
-0.0010313901712314692   -0.00954356823119591   -0.00025271535799486626
-0.0012084802468671561   -0.008884667659791665   -0.00023096105744880216
-0.0016093328967000662   -0.008858128456268941   -0.00023538845054687339
-0.0012872444236776235   -0.009515507601346819   -0.0002690172055296413
-0.0016009084756334298   -0.008859640184618657   -0.0002145251484658264
-0.0010313901712314692   -0.00954356823119591   -0.00025271535799486626
-0.0012718997332806182   -0.009518333353344828   -0.0002451515196235394
-0.0016009084756334298   -0.008859640184618657   -0.0002145251484658264
-0.0012872444236776235   -0.009515507601346819   -0.0002690172055296413
-0.0010313901712314692   -0.00954356823119591   -0.00025271535799486626
-0.0016009084756334298   -0.008859640184618657   -0.0002145251484658264
-0.001203103020803503   -0.00888423040359655   -0.00021965499512179758
-0.0012084802468671561   -0.008884667659791665   -0.00023096105744880216
-0.0010313901712314692   -0.00954356823119591   -0.00025271535799486626
-0.0016009084756334298   -0.008859640184618657   -0.0002145251484658264
-0.0012084802468671561   -0.008884667659791665   -0.00023096105744880216
-0.0012872444236776235   -0.009515507601346819   -0.0002690172055296413
-0.0013181091181596678   -0.009528649188091032   -0.0003132365111030092
-0.0016262472350133087   -0.008871251992625916   -0.0002741814351382039
-0.0016438373038297719   -0.009480970678366184   -0.0003387658398304331
-0.0013052305860994991   -0.009518942033782816   -0.0002915221594221278
-0.0016262472350133087   -0.008871251992625916   -0.0002741814351382039
-0.0021010828977017096   -0.008827786470582003   -0.0002966511360957789
-0.0016438373038297719   -0.009480970678366184   -0.0003387658398304331
-0.0020670201010457895   -0.008817934215088323   -0.0002667666797133186
-0.0013052305860994991   -0.009518942033782816   -0.0002915221594221278
-0.0015992771020673692   -0.009470061561204194   -0.0003043855459527135
-0.0020670201010457895   -0.008817934215088323   -0.0002667666797133186
-0.0016438373038297719   -0.009480970678366184   -0.0003387658398304331
-0.0013052305860994991   -0.009518942033782816   -0.0002915221594221278
-0.0020670201010457895   -0.008817934215088323   -0.0002667666797133186
-0.001620016668666096   -0.00886208523495145   -0.0002551838500502145
-0.0016262472350133087   -0.008871251992625916   -0.0002741814351382039
-0.0013052305860994991   -0.009518942033782816   -0.0002915221594221278
-0.0020670201010457895   -0.008817934215088323   -0.0002667666797133186
-0.0016262472350133087   -0.008871251992625916   -0.0002741814351382039
-0.0016438373038297719   -0.009480970678366184   -0.0003387658398304331
-0.0013052305860994991   -0.009518942033782816   -0.0002915221594221278
-0.001620016668666096   -0.00886208523495145   -0.0002551838500502145
-0.0015992771020673692   -0.009470061561204194   -0.0003043855459527135
-0.0012872444236776235   -0.009515507601346819   -0.0002690172055296413
-0.001620016668666096   -0.00886208523495145   -0.0002551838500502145
-0.0020670201010457895   -0.008817934215088323   -0.0002667666797133186
-0.0015992771020673692   -0.009470061561204194   -0.0003043855459527135
-0.0020378643449398695   -0.008814400439744689   -0.00023553688359842522
-0.0012872444236776235   -0.009515507601346819   -0.0002690172055296413
-0.0015599688883388718   -0.009466884970756756   -0.0002682997276082624
-0.0020378643449398695   -0.008814400439744689   -0.00023553688359842522
-0.0015992771020673692   -0.009470061561204194   -0.0003043855459527135
-0.0012872444236776235   -0.009515507601346819   -0.0002690172055296413
-0.0020378643449398695   -0.008814400439744689   -0.00023553688359842522
-0.0016093328967000662   -0.008858128456268941   -0.00023538845054687339
-0.001620016668666096   -0.00886208523495145   -0.0002551838500502145
-0.0012872444236776235   -0.009515507601346819   -0.0002690172055296413
-0.0020378643449398695   -0.008814400439744689   -0.00023553688359842522
-0.001620016668666096   -0.00886208523495145   -0.0002551838500502145
-0.0015992771020673692   -0.009470061561204194   -0.0003043855459527135
-0.0012872444236776235   -0.009515507601346819   -0.0002690172055296413
-0.0016093328967000662   -0.008858128456268941   -0.00023538845054687339
-0.0015599688883388718   -0.009466884970756756   -0.0002682997276082624
-0.0012718997332806182   -0.009518333353344828   -0.0002451515196235394
-0.0016093328967000662   -0.008858128456268941   -0.00023538845054687339
-0.0020378643449398695   -0.008814400439744689   -0.00023553688359842522
-0.0015599688883388718   -0.009466884970756756   -0.0002682997276082624
-0.001998758813741312   -0.008819124022379072   -0.00020315508001432923
-0.0012718997332806182   -0.009518333353344828   -0.0002451515196235394
-0.0015091048483474375   -0.00947328583231661   -0.00023082631194380185
-0.001998758813741312   -0.008819124022379072   -0.00020315508001432923
-0.0015599688883388718   -0.009466884970756756   -0.0002682997276082624
-0.0012718997332806182   -0.009518333353344828   -0.0002451515196235394
-0.001998758813741312   -0.008819124022379072   -0.00020315508001432923
-0.0016009084756334298   -0.008859640184618657   -0.0002145251484658264
-0.0016093328967000662   -0.008858128456268941   -0.00023538845054687339
-0.0012718997332806182   -0.009518333353344828   -0.0002451515196235394
-0.001998758813741312   -0.008819124022379072   -0.00020315508001432923
-0.0016093328967000662   -0.008858128456268941   -0.00023538845054687339
-0.0015599688883388718   -0.009466884970756756   -0.0002682997276082624
-2.8358707207254514e-05   -0.00888823216860552   -0.00015926099493655945
0.0002385544159677632   -0.007994263916538317   -0.00012090492890311382
-0.0004334437528865002   -0.008909699624150974   -0.00019531508515586952
-9.982553684705418e-07   -0.008870259393835263   -0.00018194081722903584
0.0002385544159677632   -0.007994263916538317   -0.00012090492890311382
-0.00030859721881517553   -0.008009119949031446   -0.00015542555507476612
-0.0004334437528865002   -0.008909699624150974   -0.00019531508515586952
-0.00030679372209212245   -0.007994420883639265   -0.00016255559222892407
-9.982553684705418e-07   -0.008870259393835263   -0.00018194081722903584
-0.0004265168900237528   -0.00889493267126815   -0.00020516863459799046
-0.00030679372209212245   -0.007994420883639265   -0.00016255559222892407
-0.0004334437528865002   -0.008909699624150974   -0.00019531508515586952
-9.982553684705418e-07   -0.008870259393835263   -0.00018194081722903584
-0.00030679372209212245   -0.007994420883639265   -0.00016255559222892407
0.000255939535728445   -0.007976634283544566   -0.00013833546811115865
0.0002385544159677632   -0.007994263916538317   -0.00012090492890311382
-9.982553684705418e-07   -0.008870259393835263   -0.00018194081722903584
-0.00030679372209212245   -0.007994420883639265   -0.00016255559222892407
0.0002385544159677632   -0.007994263916538317   -0.00012090492890311382
-0.0004334437528865002   -0.008909699624150974   -0.00019531508515586952
-9.982553684705418e-07   -0.008870259393835263   -0.00018194081722903584
0.000255939535728445   -0.007976634283544566   -0.00013833546811115865
-0.0004265168900237528   -0.00889493267126815   -0.00020516863459799046
1.9240136686495478e-05   -0.008860860720653882   -0.00020319530943205605
0.000255939535728445   -0.007976634283544566   -0.00013833546811115865
-0.00030679372209212245   -0.007994420883639265   -0.00016255559222892407
-0.0004265168900237528   -0.00889493267126815   -0.00020516863459799046
-0.0003044417399756506   -0.007984578271231883   -0.0001687236380110636
1.9240136686495478e-05   -0.008860860720653882   -0.00020319530943205605
-0.00041844902258142766   -0.00888613521167199   -0.00021400456207663706
-0.0003044417399756506   -0.007984578271231883   -0.0001687236380110636
-0.0004265168900237528   -0.00889493267126815   -0.00020516863459799046
1.9240136686495478e-05   -0.008860860720653882   -0.00020319530943205605
-0.0003044417399756506   -0.007984578271231883   -0.0001687236380110636
0.00026735824314849454   -0.00796604522946212   -0.00015439914793091838
0.000255939535728445   -0.007976634283544566   -0.00013833546811115865
1.9240136686495478e-05   -0.008860860720653882   -0.00020319530943205605
-0.0003044417399756506   -0.007984578271231883   -0.0001687236380110636
0.000255939535728445   -0.007976634283544566   -0.00013833546811115865
-0.0004265168900237528   -0.00889493267126815   -0.00020516863459799046
1.9240136686495478e-05   -0.008860860720653882   -0.00020319530943205605
0.00026735824314849454   -0.00796604522946212   -0.00015439914793091838
-0.00041844902258142766   -0.00888613521167199   -0.00021400456207663706
4.139787473747025e-05   -0.008857718055869226   -0.0002230256120638771
0.00026735824314849454   -0.00796604522946212   -0.00015439914793091838
-0.0003044417399756506   -0.007984578271231883   -0.0001687236380110636
-0.00041844902258142766   -0.00888613521167199   -0.00021400456207663706
-0.0003049086707135427   -0.00797923157334077   -0.0001739986220503746
4.139787473747025e-05   -0.008857718055869226   -0.0002230256120638771
-0.0004136037369750099   -0.008883017352110582   -0.00022192457759008977
-0.0003049086707135427   -0.00797923157334077   -0.0001739986220503746
-0.00041844902258142766   -0.00888613521167199   -0.00021400456207663706
4.139787473747025e-05   -0.008857718055869226   -0.0002230256120638771
-0.0003049086707135427   -0.00797923157334077   -0.0001739986220503746
0.00027954873654611545   -0.007960170066987028   -0.00016913147561265673
0.00026735824314849454   -0.00796604522946212   -0.00015439914793091838
4.139787473747025e-05   -0.008857718055869226   -0.0002230256120638771
-0.0003049086707135427   -0.00797923157334077   -0.0001739986220503746
0.00026735824314849454   -0.00796604522946212   -0.00015439914793091838
-0.00041844902258142766   -0.00888613521167199   -0.00021400456207663706
-0.0004334437528865002   -0.008909699624150974   -0.00019531508515586952
-0.00030859721881517553   -0.008009119949031446   -0.00015542555507476612
-0.0008287921438669434   -0.008913891833976043   -0.00022448673923588646
-0.0004265168900237528   -0.00889493267126815   -0.00020516863459799046
-0.00030859721881517553   -0.008009119949031446   -0.00015542555507476612
-0.000837954640448929   -0.008009547969331255   -0.00018321516499304435
-0.0008287921438669434   -0.008913891833976043   -0.00022448673923588646
-0.0008378450784218642   -0.007997334047447765   -0.00018252309276980396
-0.0004265168900237528   -0.00889493267126815   -0.00020516863459799046
-0.0008238318256095547   -0.008901343326638266   -0.00022458835134198587
-0.0008378450784218642   -0.007997334047447765   -0.00018252309276980396
-0.0008287921438669434   -0.008913891833976043   -0.00022448673923588646
-0.0004265168900237528   -0.00889493267126815   -0.00020516863459799046
-0.0008378450784218642   -0.007997334047447765   -0.00018252309276980396
-0.00030679372209212245   -0.007994420883639265   -0.00016255559222892407
-0.00030859721881517553   -0.008009119949031446   -0.00015542555507476612
-0.0004265168900237528   -0.00889493267126815   -0.00020516863459799046
-0.0008378450784218642   -0.007997334047447765   -0.00018252309276980396
-0.00030859721881517553   -0.008009119949031446   -0.00015542555507476612
-0.0008287921438669434   -0.008913891833976043   -0.00022448673923588646
-0.0004265168900237528   -0.00889493267126815   -0.00020516863459799046
-0.00030679372209212245   -0.007994420883639265   -0.00016255559222892407
-0.0008238318256095547   -0.008901343326638266   -0.00022458835134198587
-0.00041844902258142766   -0.00888613521167199   -0.00021400456207663706
-0.00030679372209212245   -0.007994420883639265   -0.00016255559222892407
-0.0008378450784218642   -0.007997334047447765   -0.00018252309276980396
-0.0008238318256095547   -0.008901343326638266   -0.00022458835134198587
-0.0008376885392585913   -0.007989389221124426   -0.00018086468911094526
-0.00041844902258142766   -0.00888613521167199   -0.00021400456207663706
-0.000818707390035956   -0.008894124676774052   -0.00022370760304449375
-0.0008376885392585913   -0.007989389221124426   -0.00018086468911094526
-0.0008238318256095547   -0.008901343326638266   -0.00022458835134198587
-0.00041844902258142766   -0.00888613521167199   -0.00021400456207663706
-0.0008376885392585913   -0.007989389221124426   -0.00018086468911094526
-0.0003044417399756506   -0.007984578271231883   -0.0001687236380110636
-0.00030679372209212245   -0.007994420883639265   -0.00016255559222892407
-0.00041844902258142766   -0.00888613521167199   -0.00021400456207663706
-0.0008376885392585913   -0.007989389221124426   -0.00018086468911094526
-0.00030679372209212245   -0.007994420883639265   -0.00016255559222892407
-0.0008238318256095547   -0.008901343326638266   -0.00022458835134198587
-0.00041844902258142766   -0.00888613521167199   -0.00021400456207663706
-0.0003044417399756506   -0.007984578271231883   -0.0001687236380110636
-0.000818707390035956   -0.008894124676774052   -0.00022370760304449375
-0.0004136037369750099   -0.008883017352110582   -0.00022192457759008977
-0.0003044417399756506   -0.007984578271231883   -0.0001687236380110636
-0.0008376885392585913   -0.007989389221124426   -0.00018086468911094526
-0.000818707390035956   -0.008894124676774052   -0.00022370760304449375
-0.000838219038785056   -0.00798572444061503   -0.0001783006358152174
-0.0004136037369750099   -0.008883017352110582   -0.00022192457759008977
-0.0008142345092037598   -0.008892169094470489   -0.00022192137539630438
-0.000838219038785056   -0.00798572444061503   -0.0001783006358152174
-0.000818707390035956   -0.008894124676774052   -0.00022370760304449375
-0.0004136037369750099   -0.008883017352110582   -0.00022192457759008977
-0.000838219038785056   -0.00798572444061503   -0.0001783006358152174
-0.0003049086707135427   -0.00797923157334077   -0.0001739986220503746
-0.0003044417399756506   -0.007984578271231883   -0.0001687236380110636
-0.0004136037369750099   -0.008883017352110582   -0.00022192457759008977
-0.000838219038785056   -0.00798572444061503   -0.0001783006358152174
-0.0003044417399756506   -0.007984578271231883   -0.0001687236380110636
-0.000818707390035956   -0.008894124676774052   -0.00022370760304449375
-0.0008287921438669434   -0.008913891833976043   -0.00022448673923588646
-0.000837954640448929   -0.008009547969331255   -0.00018321516499304435
-0.0012186629490859866   -0.008900957203399408   -0.000250764861301657
-0.0008238318256095547   -0.008901343326638266   -0.00022458835134198587
-0.000837954640448929   -0.008009547969331255   -0.00018321516499304435
-0.0013590091120035852   -0.007996097365889441   -0.000207344122290128
-0.0012186629490859866   -0.008900957203399408   -0.000250764861301657
-0.0013593155901740878   -0.007985998648376106   -0.00019893336473710037
-0.0008238318256095547   -0.008901343326638266   -0.00022458835134198587
-0.0012140582251590987   -0.00889017491859873   -0.00024134029437657383
-0.0013593155901740878   -0.007985998648376106   -0.00019893336473710037
-0.0012186629490859866   -0.008900957203399408   -0.000250764861301657
-0.0008238318256095547   -0.008901343326638266   -0.00022458835134198587
-0.0013593155901740878   -0.007985998648376106   -0.00019893336473710037
-0.0008378450784218642   -0.007997334047447765   -0.00018252309276980396
-0.000837954640448929   -0.008009547969331255   -0.00018321516499304435
-0.0008238318256095547   -0.008901343326638266   -0.00022458835134198587
-0.0013593155901740878   -0.007985998648376106   -0.00019893336473710037
-0.000837954640448929   -0.008009547969331255   -0.00018321516499304435
-0.0012186629490859866   -0.008900957203399408   -0.000250764861301657
-0.0008238318256095547   -0.008901343326638266   -0.00022458835134198587
-0.0008378450784218642   -0.007997334047447765   -0.00018252309276980396
-0.0012140582251590987   -0.00889017491859873   -0.00024134029437657383
-0.000818707390035956   -0.008894124676774052   -0.00022370760304449375
-0.0008378450784218642   -0.007997334047447765   -0.00018252309276980396
-0.0013593155901740878   -0.007985998648376106   -0.00019893336473710037
-0.0012140582251590987   -0.00889017491859873   -0.00024134029437657383
-0.001358752784790041   -0.007980132258546444   -0.00018958059972163448
-0.000818707390035956   -0.008894124676774052   -0.00022370760304449375
-0.0012084802468671561   -0.008884667659791665   -0.00023096105744880216
-0.001358752784790041   -0.007980132258546444   -0.00018958059972163448
-0.0012140582251590987   -0.00889017491859873   -0.00024134029437657383
-0.000818707390035956   -0.008894124676774052   -0.00022370760304449375
-0.001358752784790041   -0.007980132258546444   -0.00018958059972163448
-0.0008376885392585913   -0.007989389221124426   -0.00018086468911094526
-0.0008378450784218642   -0.007997334047447765   -0.00018252309276980396
-0.000818707390035956   -0.008894124676774052   -0.00022370760304449375
-0.001358752784790041   -0.007980132258546444   -0.00018958059972163448
-0.0008378450784218642   -0.007997334047447765   -0.00018252309276980396
-0.0012140582251590987   -0.00889017491859873   -0.00024134029437657383
-0.000818707390035956   -0.008894124676774052   -0.00022370760304449375
-0.0008376885392585913   -0.007989389221124426   -0.00018086468911094526
-0.0012084802468671561   -0.008884667659791665   -0.00023096105744880216
-0.0008142345092037598   -0.008892169094470489   -0.00022192137539630438
-0.0008376885392585913   -0.007989389221124426   -0.00018086468911094526
-0.001358752784790041   -0.007980132258546444   -0.00018958059972163448
-0.0012084802468671561   -0.008884667659791665   -0.00023096105744880216
-0.0013583716653049853   -0.007978434453870135   -0.00017931057137853592
-0.0008142345092037598   -0.008892169094470489   -0.00022192137539630438
-0.001203103020803503   -0.00888423040359655   -0.00021965499512179758
-0.0013583716653049853   -0.007978434453870135   -0.00017931057137853592
-0.0012084802468671561   -0.008884667659791665   -0.00023096105744880216
-0.0008142345092037598   -0.008892169094470489   -0.00022192137539630438
-0.0013583716653049853   -0.007978434453870135   -0.00017931057137853592
-0.000838219038785056   -0.00798572444061503   -0.0001783006358152174
-0.0008376885392585913   -0.007989389221124426   -0.00018086468911094526
-0.0008142345092037598   -0.008892169094470489   -0.00022192137539630438
-0.0013583716653049853   -0.007978434453870135   -0.00017931057137853592
-0.0008376885392585913   -0.007989389221124426   -0.00018086468911094526
-0.0012084802468671561   -0.008884667659791665   -0.00023096105744880216
-0.0012186629490859866   -0.008900957203399408   -0.000250764861301657
-0.0013590091120035852   -0.007996097365889441   -0.000207344122290128
-0.0016262472350133087   -0.008871251992625916   -0.0002741814351382039
-0.0012140582251590987   -0.00889017491859873   -0.00024134029437657383
-0.0013590091120035852   -0.007996097365889441   -0.000207344122290128
-0.00189585180274086   -0.007969193531678985   -0.00022795892781541947
-0.0016262472350133087   -0.008871251992625916   -0.0002741814351382039
-0.0018949348699766773   -0.007961061289864573   -0.00021172220319938537
-0.0012140582251590987   -0.00889017491859873   -0.00024134029437657383
-0.001620016668666096   -0.00886208523495145   -0.0002551838500502145
-0.0018949348699766773   -0.007961061289864573   -0.00021172220319938537
-0.0016262472350133087   -0.008871251992625916   -0.0002741814351382039
-0.0012140582251590987   -0.00889017491859873   -0.00024134029437657383
-0.0018949348699766773   -0.007961061289864573   -0.00021172220319938537
-0.0013593155901740878   -0.007985998648376106   -0.00019893336473710037
-0.0013590091120035852   -0.007996097365889441   -0.000207344122290128
-0.0012140582251590987   -0.00889017491859873   -0.00024134029437657383
-0.0018949348699766773   -0.007961061289864573   -0.00021172220319938537
-0.0013590091120035852   -0.007996097365889441   -0.000207344122290128
-0.0016262472350133087   -0.008871251992625916   -0.0002741814351382039
-0.0012140582251590987   -0.00889017491859873   -0.00024134029437657383
-0.0013593155901740878   -0.007985998648376106   -0.00019893336473710037
-0.001620016668666096   -0.00886208523495145   -0.0002551838500502145
-0.0012084802468671561   -0.008884667659791665   -0.00023096105744880216
-0.0013593155901740878   -0.007985998648376106   -0.00019893336473710037
-0.0018949348699766773   -0.007961061289864573   -0.00021172220319938537
-0.001620016668666096   -0.00886208523495145   -0.0002551838500502145
-0.0018900539499401444   -0.007957082548233824   -0.00019468917625646407
-0.0012084802468671561   -0.008884667659791665   -0.00023096105744880216
-0.0016093328967000662   -0.008858128456268941   -0.00023538845054687339
-0.0018900539499401444   -0.007957082548233824   -0.00019468917625646407
-0.001620016668666096   -0.00886208523495145   -0.0002551838500502145
-0.0012084802468671561   -0.008884667659791665   -0.00023096105744880216
-0.0018900539499401444   -0.007957082548233824   -0.00019468917625646407
-0.001358752784790041   -0.007980132258546444   -0.00018958059972163448
-0.0013593155901740878   -0.007985998648376106   -0.00019893336473710037
-0.0012084802468671561   -0.008884667659791665   -0.00023096105744880216
-0.0018900539499401444   -0.007957082548233824   -0.00019468917625646407
-0.0013593155901740878   -0.007985998648376106   -0.00019893336473710037
-0.001620016668666096   -0.00886208523495145   -0.0002551838500502145
-0.0012084802468671561   -0.008884667659791665   -0.00023096105744880216
-0.001358752784790041   -0.007980132258546444   -0.00018958059972163448
-0.0016093328967000662   -0.008858128456268941   -0.00023538845054687339
-0.001203103020803503   -0.00888423040359655   -0.00021965499512179758
-0.001358752784790041   -0.007980132258546444   -0.00018958059972163448
-0.0018900539499401444   -0.007957082548233824   -0.00019468917625646407
-0.0016093328967000662   -0.008858128456268941   -0.00023538845054687339
-0.0018868801548435103   -0.007957633810497583   -0.00017665922194062461
-0.001203103020803503   -0.00888423040359655   -0.00021965499512179758
-0.0016009084756334298   -0.008859640184618657   -0.0002145251484658264
-0.0018868801548435103   -0.007957633810497583   -0.00017665922194062461
-0.0016093328967000662   -0.008858128456268941   -0.00023538845054687339
-0.001203103020803503   -0.00888423040359655   -0.00021965499512179758
-0.0018868801548435103   -0.007957633810497583   -0.00017665922194062461
-0.0013583716653049853   -0.007978434453870135   -0.00017931057137853592
-0.001358752784790041   -0.007980132258546444   -0.00018958059972163448
-0.001203103020803503   -0.00888423040359655   -0.00021965499512179758
-0.0018868801548435103   -0.007957633810497583   -0.00017665922194062461
-0.001358752784790041   -0.007980132258546444   -0.00018958059972163448
-0.0016093328967000662   -0.008858128456268941   -0.00023538845054687339
-0.0016262472350133087   -0.008871251992625916   -0.0002741814351382039
-0.00189585180274086   -0.007969193531678985   -0.00022795892781541947
-0.0021010828977017096   -0.008827786470582003   -0.0002966511360957789
-0.001620016668666096   -0.00886208523495145   -0.0002551838500502145
-0.00189585180274086   -0.007969193531678985   -0.00022795892781541947
-0.0024956686305941185   -0.007931388780718768   -0.00024690395502507484
-0.0021010828977017096   -0.008827786470582003   -0.0002966511360957789
-0.002471265571341019   -0.007923231762327718   -0.00022185217278407828
-0.001620016668666096   -0.00886208523495145   -0.0002551838500502145
-0.0020670201010457895   -0.008817934215088323   -0.0002667666797133186
-0.002471265571341019   -0.007923231762327718   -0.00022185217278407828
-0.0021010828977017096   -0.008827786470582003   -0.0002966511360957789
-0.001620016668666096   -0.00886208523495145   -0.0002551838500502145
-0.002471265571341019   -0.007923231762327718   -0.00022185217278407828
-0.0018949348699766773   -0.007961061289864573   -0.00021172220319938537
-0.00189585180274086   -0.007969193531678985   -0.00022795892781541947
-0.001620016668666096   -0.00886208523495145   -0.0002551838500502145
-0.002471265571341019   -0.007923231762327718   -0.00022185217278407828
-0.00189585180274086   -0.007969193531678985   -0.00022795892781541947
-0.0021010828977017096   -0.008827786470582003   -0.0002966511360957789
-0.001620016668666096   -0.00886208523495145   -0.0002551838500502145
-0.0018949348699766773   -0.007961061289864573   -0.00021172220319938537
-0.0020670201010457895   -0.008817934215088323   -0.0002667666797133186
-0.0016093328967000662   -0.008858128456268941   -0.00023538845054687339
-0.0018949348699766773   -0.007961061289864573   -0.00021172220319938537
-0.002471265571341019   -0.007923231762327718   -0.00022185217278407828
-0.0020670201010457895   -0.008817934215088323   -0.0002667666797133186
-0.002450656211871188   -0.007919952828980444   -0.0001954375419879418
-0.0016093328967000662   -0.008858128456268941   -0.00023538845054687339
-0.0020378643449398695   -0.008814400439744689   -0.00023553688359842522
-0.002450656211871188   -0.007919952828980444   -0.0001954375419879418
-0.0020670201010457895   -0.008817934215088323   -0.0002667666797133186
-0.0016093328967000662   -0.008858128456268941   -0.00023538845054687339
-0.002450656211871188   -0.007919952828980444   -0.0001954375419879418
-0.0018900539499401444   -0.007957082548233824   -0.00019468917625646407
-0.0018949348699766773   -0.007961061289864573   -0.00021172220319938537
-0.0016093328967000662   -0.008858128456268941   -0.00023538845054687339
-0.002450656211871188   -0.007919952828980444   -0.0001954375419879418
-0.0018949348699766773   -0.007961061289864573   -0.00021172220319938537
-0.0020670201010457895   -0.008817934215088323   -0.0002667666797133186
-0.0016093328967000662   -0.008858128456268941   -0.00023538845054687339
-0.0018900539499401444   -0.007957082548233824   -0.00019468917625646407
-0.0020378643449398695   -0.008814400439744689   -0.00023553688359842522
-0.0016009084756334298   -0.008859640184618657   -0.0002145251484658264
-0.0018900539499401444   -0.007957082548233824   -0.00019468917625646407
-0.002450656211871188   -0.007919952828980444   -0.0001954375419879418
-0.0020378643449398695   -0.008814400439744689   -0.00023553688359842522
-0.0024212727316109874   -0.007923761831568434   -0.0001678584049189477
-0.0016009084756334298   -0.008859640184618657   -0.0002145251484658264
-0.001998758813741312   -0.008819124022379072   -0.00020315508001432923
-0.0024212727316109874   -0.007923761831568434   -0.0001678584049189477
-0.0020378643449398695   -0.008814400439744689   -0.00023553688359842522
-0.0016009084756334298   -0.008859640184618657   -0.0002145251484658264
-0.0024212727316109874   -0.007923761831568434   -0.0001678584049189477
-0.0018868801548435103   -0.007957633810497583   -0.00017665922194062461
-0.0018900539499401444   -0.007957082548233824   -0.00019468917625646407
-0.0016009084756334298   -0.008859640184618657   -0.0002145251484658264
-0.0024212727316109874   -0.007923761831568434   -0.0001678584049189477
-0.0018900539499401444   -0.007957082548233824   -0.00019468917625646407
-0.0020378643449398695   -0.008814400439744689   -0.00023553688359842522
0.0002385544159677632   -0.007994263916538317   -0.00012090492890311382
0.0004310237391362484   -0.006898348626629998   -8.095621421742345e-05
-0.00030859721881517553   -0.008009119949031446   -0.00015542555507476612
0.000255939535728445   -0.007976634283544566   -0.00013833546811115865
0.0004310237391362484   -0.006898348626629998   -8.095621421742345e-05
-0.0002281959711083237   -0.0069063894571426586   -0.00011336937750118373
-0.00030859721881517553   -0.008009119949031446   -0.00015542555507476612
-0.00023062199962184174   -0.006892097186127387   -0.00011754819002903959
0.000255939535728445   -0.007976634283544566   -0.00013833546811115865
-0.00030679372209212245   -0.007994420883639265   -0.00016255559222892407
-0.00023062199962184174   -0.006892097186127387   -0.00011754819002903959
-0.00030859721881517553   -0.008009119949031446   -0.00015542555507476612
0.000255939535728445   -0.007976634283544566   -0.00013833546811115865
-0.00023062199962184174   -0.006892097186127387   -0.00011754819002903959
0.00043926563806544227   -0.006881353831125598   -9.302545837172252e-05
0.0004310237391362484   -0.006898348626629998   -8.095621421742345e-05
0.000255939535728445   -0.007976634283544566   -0.00013833546811115865
-0.00023062199962184174   -0.006892097186127387   -0.00011754819002903959
0.0004310237391362484   -0.006898348626629998   -8.095621421742345e-05
-0.00030859721881517553   -0.008009119949031446   -0.00015542555507476612
0.000255939535728445   -0.007976634283544566   -0.00013833546811115865
0.00043926563806544227   -0.006881353831125598   -9.302545837172252e-05
-0.00030679372209212245   -0.007994420883639265   -0.00016255559222892407
0.00026735824314849454   -0.00796604522946212   -0.00015439914793091838
0.00043926563806544227   -0.006881353831125598   -9.302545837172252e-05
-0.00023062199962184174   -0.006892097186127387   -0.00011754819002903959
-0.00030679372209212245   -0.007994420883639265   -0.00016255559222892407
-0.0002330896134862316   -0.006881535994917688   -0.00012083494706631222
0.00026735824314849454   -0.00796604522946212   -0.00015439914793091838
-0.0003044417399756506   -0.007984578271231883   -0.0001687236380110636
-0.0002330896134862316   -0.006881535994917688   -0.00012083494706631222
-0.00030679372209212245   -0.007994420883639265   -0.00016255559222892407
0.00026735824314849454   -0.00796604522946212   -0.00015439914793091838
-0.0002330896134862316   -0.006881535994917688   -0.00012083494706631222
0.00044276451622482217   -0.0068699058477477955   -0.00010377049255313114
0.00043926563806544227   -0.006881353831125598   -9.302545837172252e-05
0.00026735824314849454   -0.00796604522946212   -0.00015439914793091838
-0.0002330896134862316   -0.006881535994917688   -0.00012083494706631222
0.00043926563806544227   -0.006881353831125598   -9.302545837172252e-05
-0.00030679372209212245   -0.007994420883639265   -0.00016255559222892407
0.00026735824314849454   -0.00796604522946212   -0.00015439914793091838
0.00044276451622482217   -0.0068699058477477955   -0.00010377049255313114
-0.0003044417399756506   -0.007984578271231883   -0.0001687236380110636
0.00027954873654611545   -0.007960170066987028   -0.00016913147561265673
0.00044276451622482217   -0.0068699058477477955   -0.00010377049255313114
-0.0002330896134862316   -0.006881535994917688   -0.00012083494706631222
-0.0003044417399756506   -0.007984578271231883   -0.0001687236380110636
-0.0002379060902770167   -0.006874319168542974   -0.0001232579586296433
0.00027954873654611545   -0.007960170066987028   -0.00016913147561265673
-0.0003049086707135427   -0.00797923157334077   -0.0001739986220503746
-0.0002379060902770167   -0.006874319168542974   -0.0001232579586296433
-0.0003044417399756506   -0.007984578271231883   -0.0001687236380110636
0.00027954873654611545   -0.007960170066987028   -0.00016913147561265673
-0.0002379060902770167   -0.006874319168542974   -0.0001232579586296433
0.0004458515619832077   -0.006861656698892751   -0.00011325816571643529
0.00044276451622482217   -0.0068699058477477955   -0.00010377049255313114
0.00027954873654611545   -0.007960170066987028   -0.00016913147561265673
-0.0002379060902770167   -0.006874319168542974   -0.0001232579586296433
0.00044276451622482217   -0.0068699058477477955   -0.00010377049255313114
-0.0003044417399756506   -0.007984578271231883   -0.0001687236380110636
-0.00030859721881517553   -0.008009119949031446   -0.00015542555507476612
-0.0002281959711083237   -0.0069063894571426586   -0.00011336937750118373
-0.000837954640448929   -0.008009547969331255   -0.00018321516499304435
-0.00030679372209212245   -0.007994420883639265   -0.00016255559222892407
-0.0002281959711083237   -0.0069063894571426586   -0.00011336937750118373
-0.000862074325294346   -0.006903237908836855   -0.0001392490096602047
-0.000837954640448929   -0.008009547969331255   -0.00018321516499304435
-0.0008658813507844547   -0.006891604446467121   -0.0001375676123324971
-0.00030679372209212245   -0.007994420883639265   -0.00016255559222892407
-0.0008378450784218642   -0.007997334047447765   -0.00018252309276980396
-0.0008658813507844547   -0.006891604446467121   -0.0001375676123324971
-0.000837954640448929   -0.008009547969331255   -0.00018321516499304435
-0.00030679372209212245   -0.007994420883639265   -0.00016255559222892407
-0.0008658813507844547   -0.006891604446467121   -0.0001375676123324971
-0.00023062199962184174   -0.006892097186127387   -0.00011754819002903959
-0.0002281959711083237   -0.0069063894571426586   -0.00011336937750118373
-0.00030679372209212245   -0.007994420883639265   -0.00016255559222892407
-0.0008658813507844547   -0.006891604446467121   -0.0001375676123324971
-0.0002281959711083237   -0.0069063894571426586   -0.00011336937750118373
-0.000837954640448929   -0.008009547969331255   -0.00018321516499304435
-0.00030679372209212245   -0.007994420883639265   -0.00016255559222892407
-0.00023062199962184174   -0.006892097186127387   -0.00011754819002903959
-0.0008378450784218642   -0.007997334047447765   -0.00018252309276980396
-0.0003044417399756506   -0.007984578271231883   -0.0001687236380110636
-0.00023062199962184174   -0.006892097186127387   -0.00011754819002903959
-0.0008658813507844547   -0.006891604446467121   -0.0001375676123324971
-0.0008378450784218642   -0.007997334047447765   -0.00018252309276980396
-0.0008697448107332235   -0.006883161041598125   -0.00013496008456523025
-0.0003044417399756506   -0.007984578271231883   -0.0001687236380110636
-0.0008376885392585913   -0.007989389221124426   -0.00018086468911094526
-0.0008697448107332235   -0.006883161041598125   -0.00013496008456523025
-0.0008378450784218642   -0.007997334047447765   -0.00018252309276980396
-0.0003044417399756506   -0.007984578271231883   -0.0001687236380110636
-0.0008697448107332235   -0.006883161041598125   -0.00013496008456523025
-0.0002330896134862316   -0.006881535994917688   -0.00012083494706631222
-0.00023062199962184174   -0.006892097186127387   -0.00011754819002903959
-0.0003044417399756506   -0.007984578271231883   -0.0001687236380110636
-0.0008697448107332235   -0.006883161041598125   -0.00013496008456523025
-0.00023062199962184174   -0.006892097186127387   -0.00011754819002903959
-0.0008378450784218642   -0.007997334047447765   -0.00018252309276980396
-0.0003044417399756506   -0.007984578271231883   -0.0001687236380110636
-0.0002330896134862316   -0.006881535994917688   -0.00012083494706631222
-0.0008376885392585913   -0.007989389221124426   -0.00018086468911094526
-0.0003049086707135427   -0.00797923157334077   -0.0001739986220503746
-0.0002330896134862316   -0.006881535994917688   -0.00012083494706631222
-0.0008697448107332235   -0.006883161041598125   -0.00013496008456523025
-0.0008376885392585913   -0.007989389221124426   -0.00018086468911094526
-0.0008742733779469068   -0.0068779578282139   -0.00013148090753651497
-0.0003049086707135427   -0.00797923157334077   -0.0001739986220503746
-0.000838219038785056   -0.00798572444061503   -0.0001783006358152174
-0.0008742733779469068   -0.0068779578282139   -0.00013148090753651497
-0.0008376885392585913   -0.007989389221124426   -0.00018086468911094526
-0.0003049086707135427   -0.00797923157334077   -0.0001739986220503746
-0.0008742733779469068   -0.0068779578282139   -0.00013148090753651497
-0.0002379060902770167   -0.006874319168542974   -0.0001232579586296433
-0.0002330896134862316   -0.006881535994917688   -0.00012083494706631222
-0.0003049086707135427   -0.00797923157334077   -0.0001739986220503746
-0.0008742733779469068   -0.0068779578282139   -0.00013148090753651497
-0.0002330896134862316   -0.006881535994917688   -0.00012083494706631222
-0.0008376885392585913   -0.007989389221124426   -0.00018086468911094526
-0.000837954640448929   -0.008009547969331255   -0.00018321516499304435
-0.000862074325294346   -0.006903237908836855   -0.0001392490096602047
-0.0013590091120035852   -0.007996097365889441   -0.000207344122290128
-0.0008378450784218642   -0.007997334047447765   -0.00018252309276980396
-0.000862074325294346   -0.006903237908836855   -0.0001392490096602047
-0.001485685107570589   -0.006889804282645346   -0.00016101769184556918
-0.0013590091120035852   -0.007996097365889441   -0.000207344122290128
-0.0014898895855702833   -0.006880522440903191   -0.00015352411115197992
-0.0008378450784218642   -0.007997334047447765   -0.00018252309276980396
-0.0013593155901740878   -0.007985998648376106   -0.00019893336473710037
-0.0014898895855702833   -0.006880522440903191   -0.00015352411115197992
-0.0013590091120035852   -0.007996097365889441   -0.000207344122290128
-0.0008378450784218642   -0.007997334047447765   -0.00018252309276980396
-0.0014898895855702833   -0.006880522440903191   -0.00015352411115197992
-0.0008658813507844547   -0.006891604446467121   -0.0001375676123324971
-0.000862074325294346   -0.006903237908836855   -0.0001392490096602047
-0.0008378450784218642   -0.007997334047447765   -0.00018252309276980396
-0.0014898895855702833   -0.006880522440903191   -0.00015352411115197992
-0.000862074325294346   -0.006903237908836855   -0.0001392490096602047
-0.0013590091120035852   -0.007996097365889441   -0.000207344122290128
-0.0008378450784218642   -0.007997334047447765   -0.00018252309276980396
-0.0008658813507844547   -0.006891604446467121   -0.0001375676123324971
-0.0013593155901740878   -0.007985998648376106   -0.00019893336473710037
-0.0008376885392585913   -0.007989389221124426   -0.00018086468911094526
-0.0008658813507844547   -0.006891604446467121   -0.0001375676123324971
-0.0014898895855702833   -0.006880522440903191   -0.00015352411115197992
-0.0013593155901740878   -0.007985998648376106   -0.00019893336473710037
-0.0014933047837364637   -0.006874401643645008   -0.00014512546985006393
-0.0008376885392585913   -0.007989389221124426   -0.00018086468911094526
-0.001358752784790041   -0.007980132258546444   -0.00018958059972163448
-0.0014933047837364637   -0.006874401643645008   -0.00014512546985006393
-0.0013593155901740878   -0.007985998648376106   -0.00019893336473710037
-0.0008376885392585913   -0.007989389221124426   -0.00018086468911094526
-0.0014933047837364637   -0.006874401643645008   -0.00014512546985006393
-0.0008697448107332235   -0.006883161041598125   -0.00013496008456523025
-0.0008658813507844547   -0.006891604446467121   -0.0001375676123324971
-0.0008376885392585913   -0.007989389221124426   -0.00018086468911094526
-0.0014933047837364637   -0.006874401643645008   -0.00014512546985006393
-0.0008658813507844547   -0.006891604446467121   -0.0001375676123324971
-0.0013593155901740878   -0.007985998648376106   -0.00019893336473710037
-0.0008376885392585913   -0.007989389221124426   -0.00018086468911094526
-0.0008697448107332235   -0.006883161041598125   -0.00013496008456523025
-0.001358752784790041   -0.007980132258546444   -0.00018958059972163448
-0.000838219038785056   -0.00798572444061503   -0.0001783006358152174
-0.0008697448107332235   -0.006883161041598125   -0.00013496008456523025
-0.0014933047837364637   -0.006874401643645008   -0.00014512546985006393
-0.001358752784790041   -0.007980132258546444   -0.00018958059972163448
-0.001496841635618276   -0.006871425193610373   -0.00013584529272869748
-0.000838219038785056   -0.00798572444061503   -0.0001783006358152174
-0.0013583716653049853   -0.007978434453870135   -0.00017931057137853592
-0.001496841635618276   -0.006871425193610373   -0.00013584529272869748
-0.001358752784790041   -0.007980132258546444   -0.00018958059972163448
-0.000838219038785056   -0.00798572444061503   -0.0001783006358152174
-0.001496841635618276   -0.006871425193610373   -0.00013584529272869748
-0.0008742733779469068   -0.0068779578282139   -0.00013148090753651497
-0.0008697448107332235   -0.006883161041598125   -0.00013496008456523025
-0.000838219038785056   -0.00798572444061503   -0.0001783006358152174
-0.001496841635618276   -0.006871425193610373   -0.00013584529272869748
-0.0008697448107332235   -0.006883161041598125   -0.00013496008456523025
-0.001358752784790041   -0.007980132258546444   -0.00018958059972163448
-0.0013590091120035852   -0.007996097365889441   -0.000207344122290128
-0.001485685107570589   -0.006889804282645346   -0.00016101769184556918
-0.00189585180274086   -0.007969193531678985   -0.00022795892781541947
-0.0013593155901740878   -0.007985998648376106   -0.00019893336473710037
-0.001485685107570589   -0.006889804282645346   -0.00016101769184556918
-0.0021240747173729623   -0.006866318360733334   -0.000178841340953831
-0.00189585180274086   -0.007969193531678985   -0.00022795892781541947
-0.0021273794731089886   -0.0068592887366775495   -0.00016544699831130656
-0.0013593155901740878   -0.007985998648376106   -0.00019893336473710037
-0.0018949348699766773   -0.007961061289864573   -0.00021172220319938537
-0.0021273794731089886   -0.0068592887366775495   -0.00016544699831130656
-0.00189585180274086   -0.007969193531678985   -0.00022795892781541947
-0.0013593155901740878   -0.007985998648376106   -0.00019893336473710037
-0.0021273794731089886   -0.0068592887366775495   -0.00016544699831130656
-0.0014898895855702833   -0.006880522440903191   -0.00015352411115197992
-0.001485685107570589   -0.006889804282645346   -0.00016101769184556918
-0.0013593155901740878   -0.007985998648376106   -0.00019893336473710037
-0.0021273794731089886   -0.0068592887366775495   -0.00016544699831130656
-0.001485685107570589   -0.006889804282645346   -0.00016101769184556918
-0.00189585180274086   -0.007969193531678985   -0.00022795892781541947
-0.0013593155901740878   -0.007985998648376106   -0.00019893336473710037
-0.0014898895855702833   -0.006880522440903191   -0.00015352411115197992
-0.0018949348699766773   -0.007961061289864573   -0.00021172220319938537
-0.001358752784790041   -0.007980132258546444   -0.00018958059972163448
-0.0014898895855702833   -0.006880522440903191   -0.00015352411115197992
-0.0021273794731089886   -0.0068592887366775495   -0.00016544699831130656
-0.0018949348699766773   -0.007961061289864573   -0.00021172220319938537
-0.002127212514433603   -0.006855299781970206   -0.00015127122338631324
-0.001358752784790041   -0.007980132258546444   -0.00018958059972163448
-0.0018900539499401444   -0.007957082548233824   -0.00019468917625646407
-0.002127212514433603   -0.006855299781970206   -0.00015127122338631324
-0.0018949348699766773   -0.007961061289864573   -0.00021172220319938537
-0.001358752784790041   -0.007980132258546444   -0.00018958059972163448
-0.002127212514433603   -0.006855299781970206   -0.00015127122338631324
-0.0014933047837364637   -0.006874401643645008   -0.00014512546985006393
-0.0014898895855702833   -0.006880522440903191   -0.00015352411115197992
-0.001358752784790041   -0.007980132258546444   -0.00018958059972163448
-0.002127212514433603   -0.006855299781970206   -0.00015127122338631324
-0.0014898895855702833   -0.006880522440903191   -0.00015352411115197992
-0.0018949348699766773   -0.007961061289864573   -0.00021172220319938537
-0.001358752784790041   -0.007980132258546444   -0.00018958059972163448
-0.0014933047837364637   -0.006874401643645008   -0.00014512546985006393
-0.0018900539499401444   -0.007957082548233824   -0.00019468917625646407
-0.0013583716653049853   -0.007978434453870135   -0.00017931057137853592
-0.0014933047837364637   -0.006874401643645008   -0.00014512546985006393
-0.002127212514433603   -0.006855299781970206   -0.00015127122338631324
-0.0018900539499401444   -0.007957082548233824   -0.00019468917625646407
-0.0021281704386498733   -0.0068547536714203385   -0.00013614348662215807
-0.0013583716653049853   -0.007978434453870135   -0.00017931057137853592
-0.0018868801548435103   -0.007957633810497583   -0.00017665922194062461
-0.0021281704386498733   -0.0068547536714203385   -0.00013614348662215807
-0.0018900539499401444   -0.007957082548233824   -0.00019468917625646407
-0.0013583716653049853   -0.007978434453870135   -0.00017931057137853592
-0.0021281704386498733   -0.0068547536714203385   -0.00013614348662215807
-0.001496841635618276   -0.006871425193610373   -0.00013584529272869748
-0.0014933047837364637   -0.006874401643645008   -0.00014512546985006393
-0.0013583716653049853   -0.007978434453870135   -0.00017931057137853592
-0.0021281704386498733   -0.0068547536714203385   -0.00013614348662215807
-0.0014933047837364637   -0.006874401643645008   -0.00014512546985006393
-0.0018900539499401444   -0.007957082548233824   -0.00019468917625646407
-0.00189585180274086   -0.007969193531678985   -0.00022795892781541947
-0.0021240747173729623   -0.006866318360733334   -0.000178841340953831
-0.0024956686305941185   -0.007931388780718768   -0.00024690395502507484
-0.0018949348699766773   -0.007961061289864573   -0.00021172220319938537
-0.0021240747173729623   -0.006866318360733334   -0.000178841340953831
-0.0028212290913677027   -0.006834812137018285   -0.00019410571828440548
-0.0024956686305941185   -0.007931388780718768   -0.00024690395502507484
-0.0028058064155679187   -0.006828382786102586   -0.00017425355962316164
-0.0018949348699766773   -0.007961061289864573   -0.00021172220319938537
-0.002471265571341019   -0.007923231762327718   -0.00022185217278407828
-0.0028058064155679187   -0.006828382786102586   -0.00017425355962316164
-0.0024956686305941185   -0.007931388780718768   -0.00024690395502507484
-0.0018949348699766773   -0.007961061289864573   -0.00021172220319938537
-0.0028058064155679187   -0.006828382786102586   -0.00017425355962316164
-0.0021273794731089886   -0.0068592887366775495   -0.00016544699831130656
-0.0021240747173729623   -0.006866318360733334   -0.000178841340953831
-0.0018949348699766773   -0.007961061289864573   -0.00021172220319938537
-0.0028058064155679187   -0.006828382786102586   -0.00017425355962316164
-0.0021240747173729623   -0.006866318360733334   -0.000178841340953831
-0.0024956686305941185   -0.007931388780718768   -0.00024690395502507484
-0.0018949348699766773   -0.007961061289864573   -0.00021172220319938537
-0.0021273794731089886   -0.0068592887366775495   -0.00016544699831130656
-0.002471265571341019   -0.007923231762327718   -0.00022185217278407828
-0.0018900539499401444   -0.007957082548233824   -0.00019468917625646407
-0.0021273794731089886   -0.0068592887366775495   -0.00016544699831130656
-0.0028058064155679187   -0.006828382786102586   -0.00017425355962316164
-0.002471265571341019   -0.007923231762327718   -0.00022185217278407828
-0.0027929301701951404   -0.006825308255833458   -0.00015302265490341768
-0.0018900539499401444   -0.007957082548233824   -0.00019468917625646407
-0.002450656211871188   -0.007919952828980444   -0.0001954375419879418
-0.0027929301701951404   -0.006825308255833458   -0.00015302265490341768
-0.002471265571341019   -0.007923231762327718   -0.00022185217278407828
-0.0018900539499401444   -0.007957082548233824   -0.00019468917625646407
-0.0027929301701951404   -0.006825308255833458   -0.00015302265490341768
-0.002127212514433603   -0.006855299781970206   -0.00015127122338631324
-0.0021273794731089886   -0.0068592887366775495   -0.00016544699831130656
-0.0018900539499401444   -0.007957082548233824   -0.00019468917625646407
-0.0027929301701951404   -0.006825308255833458   -0.00015302265490341768
-0.0021273794731089886   -0.0068592887366775495   -0.00016544699831130656
-0.002471265571341019   -0.007923231762327718   -0.00022185217278407828
-0.0018900539499401444   -0.007957082548233824   -0.00019468917625646407
-0.002127212514433603   -0.006855299781970206   -0.00015127122338631324
-0.002450656211871188   -0.007919952828980444   -0.0001954375419879418
-0.0018868801548435103   -0.007957633810497583   -0.00017665922194062461
-0.002127212514433603   -0.006855299781970206   -0.00015127122338631324
-0.0027929301701951404   -0.006825308255833458   -0.00015302265490341768
-0.002450656211871188   -0.007919952828980444   -0.0001954375419879418
-0.0027724280155350003   -0.006827971596549863   -0.00013058926815833478
-0.0018868801548435103   -0.007957633810497583   -0.00017665922194062461
-0.0024212727316109874   -0.007923761831568434   -0.0001678584049189477
-0.0027724280155350003   -0.006827971596549863   -0.00013058926815833478
-0.002450656211871188   -0.007919952828980444   -0.0001954375419879418
-0.0018868801548435103   -0.007957633810497583   -0.00017665922194062461
-0.0027724280155350003   -0.006827971596549863   -0.00013058926815833478
-0.0021281704386498733   -0.0068547536714203385   -0.00013614348662215807
-0.002127212514433603   -0.006855299781970206   -0.00015127122338631324
-0.0018868801548435103   -0.007957633810497583   -0.00017665922194062461
-0.0027724280155350003   -0.006827971596549863   -0.00013058926815833478
-0.002127212514433603   -0.006855299781970206   -0.00015127122338631324
-0.002450656211871188   -0.007919952828980444   -0.0001954375419879418
0.0004310237391362484   -0.006898348626629998   -8.095621421742345e-05
0.0005471244695432458   -0.0056496501022806995   -4.2488594070683993e-05
-0.0002281959711083237   -0.0069063894571426586   -0.00011336937750118373
0.00043926563806544227   -0.006881353831125598   -9.302545837172252e-05
0.0005471244695432458   -0.0056496501022806995   -4.2488594070683993e-05
-0.00019425987137525208   -0.005650701990045416   -7.227439346429444e-05
-0.0002281959711083237   -0.0069063894571426586   -0.00011336937750118373
-0.00019999709186498604   -0.005636994034356461   -7.334631582694425e-05
0.00043926563806544227   -0.006881353831125598   -9.302545837172252e-05
-0.00023062199962184174   -0.006892097186127387   -0.00011754819002903959
-0.00019999709186498604   -0.005636994034356461   -7.334631582694425e-05
-0.0002281959711083237   -0.0069063894571426586   -0.00011336937750118373
0.00043926563806544227   -0.006881353831125598   -9.302545837172252e-05
-0.00019999709186498604   -0.005636994034356461   -7.334631582694425e-05
0.0005470760566210592   -0.00563346712903481   -4.9049049359572904e-05
0.0005471244695432458   -0.0056496501022806995   -4.2488594070683993e-05
0.00043926563806544227   -0.006881353831125598   -9.302545837172252e-05
-0.00019999709186498604   -0.005636994034356461   -7.334631582694425e-05
0.0005471244695432458   -0.0056496501022806995   -4.2488594070683993e-05
-0.0002281959711083237   -0.0069063894571426586   -0.00011336937750118373
0.00043926563806544227   -0.006881353831125598   -9.302545837172252e-05
0.0005470760566210592   -0.00563346712903481   -4.9049049359572904e-05
-0.00023062199962184174   -0.006892097186127387   -0.00011754819002903959
0.00044276451622482217   -0.0068699058477477955   -0.00010377049255313114
0.0005470760566210592   -0.00563346712903481   -4.9049049359572904e-05
-0.00019999709186498604   -0.005636994034356461   -7.334631582694425e-05
-0.00023062199962184174   -0.006892097186127387   -0.00011754819002903959
-0.00020638881647651907   -0.005625828236125894   -7.359430943026956e-05
0.00044276451622482217   -0.0068699058477477955   -0.00010377049255313114
-0.0002330896134862316   -0.006881535994917688   -0.00012083494706631222
-0.00020638881647651907   -0.005625828236125894   -7.359430943026956e-05
-0.00023062199962184174   -0.006892097186127387   -0.00011754819002903959
0.00044276451622482217   -0.0068699058477477955   -0.00010377049255313114
-0.00020638881647651907   -0.005625828236125894   -7.359430943026956e-05
0.000543480518856957   -0.005621296065097632   -5.4288655883830557e-05
0.0005470760566210592   -0.00563346712903481   -4.9049049359572904e-05
0.00044276451622482217   -0.0068699058477477955   -0.00010377049255313114
-0.00020638881647651907   -0.005625828236125894   -7.359430943026956e-05
0.0005470760566210592   -0.00563346712903481   -4.9049049359572904e-05
-0.00023062199962184174   -0.006892097186127387   -0.00011754819002903959
0.00044276451622482217   -0.0068699058477477955   -0.00010377049255313114
0.000543480518856957   -0.005621296065097632   -5.4288655883830557e-05
-0.0002330896134862316   -0.006881535994917688   -0.00012083494706631222
0.0004458515619832077   -0.006861656698892751   -0.00011325816571643529
0.000543480518856957   -0.005621296065097632   -5.4288655883830557e-05
-0.00020638881647651907   -0.005625828236125894   -7.359430943026956e-05
-0.0002330896134862316   -0.006881535994917688   -0.00012083494706631222
-0.0002146391652958395   -0.00561686406093171   -7.298588774239791e-05
0.0004458515619832077   -0.006861656698892751   -0.00011325816571643529
-0.0002379060902770167   -0.006874319168542974   -0.0001232579586296433
-0.0002146391652958395   -0.00561686406093171   -7.298588774239791e-05
-0.0002330896134862316   -0.006881535994917688   -0.00012083494706631222
0.0004458515619832077   -0.006861656698892751   -0.00011325816571643529
-0.0002146391652958395   -0.00561686406093171   -7.298588774239791e-05
0.0005381522457349522   -0.005610774427714943   -5.8299989845487015e-05
0.000543480518856957   -0.005621296065097632   -5.4288655883830557e-05
0.0004458515619832077   -0.006861656698892751   -0.00011325816571643529
-0.0002146391652958395   -0.00561686406093171   -7.298588774239791e-05
0.000543480518856957   -0.005621296065097632   -5.4288655883830557e-05
-0.0002330896134862316   -0.006881535994917688   -0.00012083494706631222
-0.0002281959711083237   -0.0069063894571426586   -0.00011336937750118373
-0.00019425987137525208   -0.005650701990045416   -7.227439346429444e-05
-0.000862074325294346   -0.006903237908836855   -0.0001392490096602047
-0.00023062199962184174   -0.006892097186127387   -0.00011754819002903959
-0.00019425987137525208   -0.005650701990045416   -7.227439346429444e-05
-0.0009023908677521246   -0.005644259118632626   -9.593338739397168e-05
-0.000862074325294346   -0.006903237908836855   -0.0001392490096602047
-0.0009091423396935213   -0.005633265614749085   -9.31343308703363e-05
-0.00023062199962184174   -0.006892097186127387   -0.00011754819002903959
-0.0008658813507844547   -0.006891604446467121   -0.0001375676123324971
-0.0009091423396935213   -0.005633265614749085   -9.31343308703363e-05
-0.000862074325294346   -0.006903237908836855   -0.0001392490096602047
-0.00023062199962184174   -0.006892097186127387   -0.00011754819002903959
-0.0009091423396935213   -0.005633265614749085   -9.31343308703363e-05
-0.00019999709186498604   -0.005636994034356461   -7.334631582694425e-05
-0.00019425987137525208   -0.005650701990045416   -7.227439346429444e-05
-0.00023062199962184174   -0.006892097186127387   -0.00011754819002903959
-0.0009091423396935213   -0.005633265614749085   -9.31343308703363e-05
-0.00019425987137525208   -0.005650701990045416   -7.227439346429444e-05
-0.000862074325294346   -0.006903237908836855   -0.0001392490096602047
-0.00023062199962184174   -0.006892097186127387   -0.00011754819002903959
-0.00019999709186498604   -0.005636994034356461   -7.334631582694425e-05
-0.0008658813507844547   -0.006891604446467121   -0.0001375676123324971
-0.0002330896134862316   -0.006881535994917688   -0.00012083494706631222
-0.00019999709186498604   -0.005636994034356461   -7.334631582694425e-05
-0.0009091423396935213   -0.005633265614749085   -9.31343308703363e-05
-0.0008658813507844547   -0.006891604446467121   -0.0001375676123324971
-0.0009160511971171323   -0.005624339311524372   -8.946868341986659e-05
-0.0002330896134862316   -0.006881535994917688   -0.00012083494706631222
-0.0008697448107332235   -0.006883161041598125   -0.00013496008456523025
-0.0009160511971171323   -0.005624339311524372   -8.946868341986659e-05
-0.0008658813507844547   -0.006891604446467121   -0.0001375676123324971
-0.0002330896134862316   -0.006881535994917688   -0.00012083494706631222
-0.0009160511971171323   -0.005624339311524372   -8.946868341986659e-05
-0.00020638881647651907   -0.005625828236125894   -7.359430943026956e-05
-0.00019999709186498604   -0.005636994034356461   -7.334631582694425e-05
-0.0002330896134862316   -0.006881535994917688   -0.00012083494706631222
-0.0009160511971171323   -0.005624339311524372   -8.946868341986659e-05
-0.00019999709186498604   -0.005636994034356461   -7.334631582694425e-05
-0.0008658813507844547   -0.006891604446467121   -0.0001375676123324971
-0.0002330896134862316   -0.006881535994917688   -0.00012083494706631222
-0.00020638881647651907   -0.005625828236125894   -7.359430943026956e-05
-0.0008697448107332235   -0.006883161041598125   -0.00013496008456523025
-0.0002379060902770167   -0.006874319168542974   -0.0001232579586296433
-0.00020638881647651907   -0.005625828236125894   -7.359430943026956e-05
-0.0009160511971171323   -0.005624339311524372   -8.946868341986659e-05
-0.0008697448107332235   -0.006883161041598125   -0.00013496008456523025
-0.0009235968240237011   -0.005617589095309293   -8.498663376176363e-05
-0.0002379060902770167   -0.006874319168542974   -0.0001232579586296433
-0.0008742733779469068   -0.0068779578282139   -0.00013148090753651497
-0.0009235968240237011   -0.005617589095309293   -8.498663376176363e-05
-0.0008697448107332235   -0.006883161041598125   -0.00013496008456523025
-0.0002379060902770167   -0.006874319168542974   -0.0001232579586296433
-0.0009235968240237011   -0.005617589095309293   -8.498663376176363e-05
-0.0002146391652958395   -0.00561686406093171   -7.298588774239791e-05
-0.00020638881647651907   -0.005625828236125894   -7.359430943026956e-05
-0.0002379060902770167   -0.006874319168542974   -0.0001232579586296433
-0.0009235968240237011   -0.005617589095309293   -8.498663376176363e-05
-0.00020638881647651907   -0.005625828236125894   -7.359430943026956e-05
-0.0008697448107332235   -0.006883161041598125   -0.00013496008456523025
-0.000862074325294346   -0.006903237908836855   -0.0001392490096602047
-0.0009023908677521246   -0.005644259118632626   -9.593338739397168e-05
-0.001485685107570589   -0.006889804282645346   -0.00016101769184556918
-0.0008658813507844547   -0.006891604446467121   -0.0001375676123324971
-0.0009023908677521246   -0.005644259118632626   -9.593338739397168e-05
-0.0015985975933656223   -0.0056314014476250155   -0.00011537773985259491
-0.001485685107570589   -0.006889804282645346   -0.00016101769184556918
-0.0016056590553677303   -0.005622848172382856   -0.00010874324530414818
-0.0008658813507844547   -0.006891604446467121   -0.0001375676123324971
-0.0014898895855702833   -0.006880522440903191   -0.00015352411115197992
-0.0016056590553677303   -0.005622848172382856   -0.00010874324530414818
-0.001485685107570589   -0.006889804282645346   -0.00016101769184556918
-0.0008658813507844547   -0.006891604446467121   -0.0001375676123324971
-0.0016056590553677303   -0.005622848172382856   -0.00010874324530414818
-0.0009091423396935213   -0.005633265614749085   -9.31343308703363e-05
-0.0009023908677521246   -0.005644259118632626   -9.593338739397168e-05
-0.0008658813507844547   -0.006891604446467121   -0.0001375676123324971
-0.0016056590553677303   -0.005622848172382856   -0.00010874324530414818
-0.0009023908677521246   -0.005644259118632626   -9.593338739397168e-05
-0.001485685107570589   -0.006889804282645346   -0.00016101769184556918
-0.0008658813507844547   -0.006891604446467121   -0.0001375676123324971
-0.0009091423396935213   -0.005633265614749085   -9.31343308703363e-05
-0.0014898895855702833   -0.006880522440903191   -0.00015352411115197992
-0.0008697448107332235   -0.006883161041598125   -0.00013496008456523025
-0.0009091423396935213   -0.005633265614749085   -9.31343308703363e-05
-0.0016056590553677303   -0.005622848172382856   -0.00010874324530414818
-0.0014898895855702833   -0.006880522440903191   -0.00015352411115197992
-0.001612012611733552   -0.005616347767122495   -0.00010126541299009065
-0.0008697448107332235   -0.006883161041598125   -0.00013496008456523025
-0.0014933047837364637   -0.006874401643645008   -0.00014512546985006393
-0.001612012611733552   -0.005616347767122495   -0.00010126541299009065
-0.0014898895855702833   -0.006880522440903191   -0.00015352411115197992
-0.0008697448107332235   -0.006883161041598125   -0.00013496008456523025
-0.001612012611733552   -0.005616347767122495   -0.00010126541299009065
-0.0009160511971171323   -0.005624339311524372   -8.946868341986659e-05
-0.0009091423396935213   -0.005633265614749085   -9.31343308703363e-05
-0.0008697448107332235   -0.006883161041598125   -0.00013496008456523025
-0.001612012611733552   -0.005616347767122495   -0.00010126541299009065
-0.0009091423396935213   -0.005633265614749085   -9.31343308703363e-05
-0.0014898895855702833   -0.006880522440903191   -0.00015352411115197992
-0.0008697448107332235   -0.006883161041598125   -0.00013496008456523025
-0.0009160511971171323   -0.005624339311524372   -8.946868341986659e-05
-0.0014933047837364637   -0.006874401643645008   -0.00014512546985006393
-0.0008742733779469068   -0.0068779578282139   -0.00013148090753651497
-0.0009160511971171323   -0.005624339311524372   -8.946868341986659e-05
-0.001612012611733552   -0.005616347767122495   -0.00010126541299009065
-0.0014933047837364637   -0.006874401643645008   -0.00014512546985006393
-0.0016184335467449677   -0.005611904143480368   -9.297275717319935e-05
-0.0008742733779469068   -0.0068779578282139   -0.00013148090753651497
-0.001496841635618276   -0.006871425193610373   -0.00013584529272869748
-0.0016184335467449677   -0.005611904143480368   -9.297275717319935e-05
-0.0014933047837364637   -0.006874401643645008   -0.00014512546985006393
-0.0008742733779469068   -0.0068779578282139   -0.00013148090753651497
-0.0016184335467449677   -0.005611904143480368   -9.297275717319935e-05
-0.0009235968240237011   -0.005617589095309293   -8.498663376176363e-05
-0.0009160511971171323   -0.005624339311524372   -8.946868341986659e-05
-0.0008742733779469068   -0.0068779578282139   -0.00013148090753651497
-0.0016184335467449677   -0.005611904143480368   -9.297275717319935e-05
-0.0009160511971171323   -0.005624339311524372   -8.946868341986659e-05
-0.0014933047837364637   -0.006874401643645008   -0.00014512546985006393
-0.001485685107570589   -0.006889804282645346   -0.00016101769184556918
-0.0015985975933656223   -0.0056314014476250155   -0.00011537773985259491
-0.0021240747173729623   -0.006866318360733334   -0.000178841340953831
-0.0014898895855702833   -0.006880522440903191   -0.00015352411115197992
-0.0015985975933656223   -0.0056314014476250155   -0.00011537773985259491
-0.002308824798508283   -0.00561187245656846   -0.0001307114423137377
-0.0021240747173729623   -0.006866318360733334   -0.000178841340953831
-0.0023152787123524978   -0.005605751586233482   -0.00012020701457142176
-0.0014898895855702833   -0.006880522440903191   -0.00015352411115197992
-0.0021273794731089886   -0.0068592887366775495   -0.00016544699831130656
-0.0023152787123524978   -0.005605751586233482   -0.00012020701457142176
-0.0021240747173729623   -0.006866318360733334   -0.000178841340953831
-0.0014898895855702833   -0.006880522440903191   -0.00015352411115197992
-0.0023152787123524978   -0.005605751586233482   -0.00012020701457142176
-0.0016056590553677303   -0.005622848172382856   -0.00010874324530414818
-0.0015985975933656223   -0.0056314014476250155   -0.00011537773985259491
-0.0014898895855702833   -0.006880522440903191   -0.00015352411115197992
-0.0023152787123524978   -0.005605751586233482   -0.00012020701457142176
-0.0015985975933656223   -0.0056314014476250155   -0.00011537773985259491
-0.0021240747173729623   -0.006866318360733334   -0.000178841340953831
-0.0014898895855702833   -0.006880522440903191   -0.00015352411115197992
-0.0016056590553677303   -0.005622848172382856   -0.00010874324530414818
-0.0021273794731089886   -0.0068592887366775495   -0.00016544699831130656
-0.0014933047837364637   -0.006874401643645008   -0.00014512546985006393
-0.0016056590553677303   -0.005622848172382856   -0.00010874324530414818
-0.0023152787123524978   -0.005605751586233482   -0.00012020701457142176
-0.0021273794731089886   -0.0068592887366775495   -0.00016544699831130656
-0.0023187991627807688   -0.005601503332420446   -0.00010896490322139058
-0.0014933047837364637   -0.006874401643645008   -0.00014512546985006393
-0.002127212514433603   -0.006855299781970206   -0.00015127122338631324
-0.0023187991627807688   -0.005601503332420446   -0.00010896490322139058
-0.0021273794731089886   -0.0068592887366775495   -0.00016544699831130656
-0.0014933047837364637   -0.006874401643645008   -0.00014512546985006393
-0.0023187991627807688   -0.005601503332420446   -0.00010896490322139058
-0.001612012611733552   -0.005616347767122495   -0.00010126541299009065
-0.0016056590553677303   -0.005622848172382856   -0.00010874324530414818
-0.0014933047837364637   -0.006874401643645008   -0.00014512546985006393
-0.0023187991627807688   -0.005601503332420446   -0.00010896490322139058
-0.0016056590553677303   -0.005622848172382856   -0.00010874324530414818
-0.0021273794731089886   -0.0068592887366775495   -0.00016544699831130656
-0.0014933047837364637   -0.006874401643645008   -0.00014512546985006393
-0.001612012611733552   -0.005616347767122495   -0.00010126541299009065
-0.002127212514433603   -0.006855299781970206   -0.00015127122338631324
-0.001496841635618276   -0.006871425193610373   -0.00013584529272869748
-0.001612012611733552   -0.005616347767122495   -0.00010126541299009065
-0.0023187991627807688   -0.005601503332420446   -0.00010896490322139058
-0.002127212514433603   -0.006855299781970206   -0.00015127122338631324
-0.0023228682432684016   -0.0055995095041420475   -9.68364965052899e-05
-0.001496841635618276   -0.006871425193610373   -0.00013584529272869748
-0.0021281704386498733   -0.0068547536714203385   -0.00013614348662215807
-0.0023228682432684016   -0.0055995095041420475   -9.68364965052899e-05
-0.002127212514433603   -0.006855299781970206   -0.00015127122338631324
-0.001496841635618276   -0.006871425193610373   -0.00013584529272869748
-0.0023228682432684016   -0.0055995095041420475   -9.68364965052899e-05
-0.0016184335467449677   -0.005611904143480368   -9.297275717319935e-05
-0.001612012611733552   -0.005616347767122495   -0.00010126541299009065
-0.001496841635618276   -0.006871425193610373   -0.00013584529272869748
-0.0023228682432684016   -0.0055995095041420475   -9.68364965052899e-05
-0.001612012611733552   -0.005616347767122495   -0.00010126541299009065
-0.002127212514433603   -0.006855299781970206   -0.00015127122338631324
-0.0021240747173729623   -0.006866318360733334   -0.000178841340953831
-0.002308824798508283   -0.00561187245656846   -0.0001307114423137377
-0.0028212290913677027   -0.006834812137018285   -0.00019410571828440548
-0.0021273794731089886   -0.0068592887366775495   -0.00016544699831130656
-0.002308824798508283   -0.00561187245656846   -0.0001307114423137377
-0.0030729351147176353   -0.005587177921373391   -0.0001425507508944319
-0.0028212290913677027   -0.006834812137018285   -0.00019410571828440548
-0.0030656797587128412   -0.005582236682453098   -0.00012814619596393257
-0.0021273794731089886   -0.0068592887366775495   -0.00016544699831130656
-0.0028058064155679187   -0.006828382786102586   -0.00017425355962316164
-0.0030656797587128412   -0.005582236682453098   -0.00012814619596393257
-0.0028212290913677027   -0.006834812137018285   -0.00019410571828440548
-0.0021273794731089886   -0.0068592887366775495   -0.00016544699831130656
-0.0030656797587128412   -0.005582236682453098   -0.00012814619596393257
-0.0023152787123524978   -0.005605751586233482   -0.00012020701457142176
-0.002308824798508283   -0.00561187245656846   -0.0001307114423137377
-0.0021273794731089886   -0.0068592887366775495   -0.00016544699831130656
-0.0030656797587128412   -0.005582236682453098   -0.00012814619596393257
-0.002308824798508283   -0.00561187245656846   -0.0001307114423137377
-0.0028212290913677027   -0.006834812137018285   -0.00019410571828440548
-0.0021273794731089886   -0.0068592887366775495   -0.00016544699831130656
-0.0023152787123524978   -0.005605751586233482   -0.00012020701457142176
-0.0028058064155679187   -0.006828382786102586   -0.00017425355962316164
-0.002127212514433603   -0.006855299781970206   -0.00015127122338631324
-0.0023152787123524978   -0.005605751586233482   -0.00012020701457142176
-0.0030656797587128412   -0.005582236682453098   -0.00012814619596393257
-0.0028058064155679187   -0.006828382786102586   -0.00017425355962316164
-0.0030597393640434062   -0.00557905726966957   -0.00011238662671650664
-0.002127212514433603   -0.006855299781970206   -0.00015127122338631324
-0.0027929301701951404   -0.006825308255833458   -0.00015302265490341768
-0.0030597393640434062   -0.00557905726966957   -0.00011238662671650664
-0.0028058064155679187   -0.006828382786102586   -0.00017425355962316164
-0.002127212514433603   -0.006855299781970206   -0.00015127122338631324
-0.0030597393640434062   -0.00557905726966957   -0.00011238662671650664
-0.0023187991627807688   -0.005601503332420446   -0.00010896490322139058
-0.0023152787123524978   -0.005605751586233482   -0.00012020701457142176
-0.002127212514433603   -0.006855299781970206   -0.00015127122338631324
-0.0030597393640434062   -0.00557905726966957   -0.00011238662671650664
-0.0023152787123524978   -0.005605751586233482   -0.00012020701457142176
-0.0028058064155679187   -0.006828382786102586   -0.00017425355962316164
-0.002127212514433603   -0.006855299781970206   -0.00015127122338631324
-0.0023187991627807688   -0.005601503332420446   -0.00010896490322139058
-0.0027929301701951404   -0.006825308255833458   -0.00015302265490341768
-0.0021281704386498733   -0.0068547536714203385   -0.00013614348662215807
-0.0023187991627807688   -0.005601503332420446   -0.00010896490322139058
-0.0030597393640434062   -0.00557905726966957   -0.00011238662671650664
-0.0027929301701951404   -0.006825308255833458   -0.00015302265490341768
-0.003047431596506716   -0.005580106094655543   -9.542404512094966e-05
-0.0021281704386498733   -0.0068547536714203385   -0.00013614348662215807
-0.0027724280155350003   -0.006827971596549863   -0.00013058926815833478
-0.003047431596506716   -0.005580106094655543   -9.542404512094966e-05
-0.0027929301701951404   -0.006825308255833458   -0.00015302265490341768
-0.0021281704386498733   -0.0068547536714203385   -0.00013614348662215807
-0.003047431596506716   -0.005580106094655543   -9.542404512094966e-05
-0.0023228682432684016   -0.0055995095041420475   -9.68364965052899e-05
-0.0023187991627807688   -0.005601503332420446   -0.00010896490322139058
-0.0021281704386498733   -0.0068547536714203385   -0.00013614348662215807
-0.003047431596506716   -0.005580106094655543   -9.542404512094966e-05
-0.0023187991627807688   -0.005601503332420446   -0.00010896490322139058
-0.0027929301701951404   -0.006825308255833458   -0.00015302265490341768
0.0005471244695432458   -0.0056496501022806995   -4.2488594070683993e-05
0.0005840666846790447   -0.004297230410236079   -9.054082117539668e-06
-0.00019425987137525208   -0.005650701990045416   -7.227439346429444e-05
0.0005470760566210592   -0.00563346712903481   -4.9049049359572904e-05
0.0005840666846790447   -0.004297230410236079   -9.054082117539668e-06
-0.00020842834782109997   -0.004291367369402716   -3.5285158649948564e-05
-0.00019425987137525208   -0.005650701990045416   -7.227439346429444e-05
-0.00021671983611632262   -0.0042784351733228965   -3.312616885604551e-05
0.0005470760566210592   -0.00563346712903481   -4.9049049359572904e-05
-0.00019999709186498604   -0.005636994034356461   -7.334631582694425e-05
-0.00021671983611632262   -0.0042784351733228965   -3.312616885604551e-05
-0.00019425987137525208   -0.005650701990045416   -7.227439346429444e-05
0.0005470760566210592   -0.00563346712903481   -4.9049049359572904e-05
-0.00021671983611632262   -0.0042784351733228965   -3.312616885604551e-05
0.0005764162705475636   -0.004281980770157412   -9.825517831731212e-06
0.0005840666846790447   -0.004297230410236079   -9.054082117539668e-06
0.0005470760566210592   -0.00563346712903481   -4.9049049359572904e-05
-0.00021671983611632262   -0.0042784351733228965   -3.312616885604551e-05
0.0005840666846790447   -0.004297230410236079   -9.054082117539668e-06
-0.00019425987137525208   -0.005650701990045416   -7.227439346429444e-05
0.0005470760566210592   -0.00563346712903481   -4.9049049359572904e-05
0.0005764162705475636   -0.004281980770157412   -9.825517831731212e-06
-0.00019999709186498604   -0.005636994034356461   -7.334631582694425e-05
0.000543480518856957   -0.005621296065097632   -5.4288655883830557e-05
0.0005764162705475636   -0.004281980770157412   -9.825517831731212e-06
-0.00021671983611632262   -0.0042784351733228965   -3.312616885604551e-05
-0.00019999709186498604   -0.005636994034356461   -7.334631582694425e-05
-0.00022630199151009442   -0.004266683990114156   -3.0190905243797976e-05
0.000543480518856957   -0.005621296065097632   -5.4288655883830557e-05
-0.00020638881647651907   -0.005625828236125894   -7.359430943026956e-05
-0.00022630199151009442   -0.004266683990114156   -3.0190905243797976e-05
-0.00019999709186498604   -0.005636994034356461   -7.334631582694425e-05
0.000543480518856957   -0.005621296065097632   -5.4288655883830557e-05
-0.00022630199151009442   -0.004266683990114156   -3.0190905243797976e-05
0.0005661324047523089   -0.004269041737291262   -9.030596750761002e-06
0.0005764162705475636   -0.004281980770157412   -9.825517831731212e-06
0.000543480518856957   -0.005621296065097632   -5.4288655883830557e-05
-0.00022630199151009442   -0.004266683990114156   -3.0190905243797976e-05
0.0005764162705475636   -0.004281980770157412   -9.825517831731212e-06
-0.00019999709186498604   -0.005636994034356461   -7.334631582694425e-05
0.000543480518856957   -0.005621296065097632   -5.4288655883830557e-05
0.0005661324047523089   -0.004269041737291262   -9.030596750761002e-06
-0.00020638881647651907   -0.005625828236125894   -7.359430943026956e-05
0.0005381522457349522   -0.005610774427714943   -5.8299989845487015e-05
0.0005661324047523089   -0.004269041737291262   -9.030596750761002e-06
-0.00022630199151009442   -0.004266683990114156   -3.0190905243797976e-05
-0.00020638881647651907   -0.005625828236125894   -7.359430943026956e-05
-0.00023727814411906862   -0.0042559296985579306   -2.6288645214541534e-05
0.0005381522457349522   -0.005610774427714943   -5.8299989845487015e-05
-0.0002146391652958395   -0.00561686406093171   -7.298588774239791e-05
-0.00023727814411906862   -0.0042559296985579306   -2.6288645214541534e-05
-0.00020638881647651907   -0.005625828236125894   -7.359430943026956e-05
0.0005381522457349522   -0.005610774427714943   -5.8299989845487015e-05
-0.00023727814411906862   -0.0042559296985579306   -2.6288645214541534e-05
0.0005523408351679267   -0.004255853087099199   -6.734063043289124e-06
0.0005661324047523089   -0.004269041737291262   -9.030596750761002e-06
0.0005381522457349522   -0.005610774427714943   -5.8299989845487015e-05
-0.00023727814411906862   -0.0042559296985579306   -2.6288645214541534e-05
0.0005661324047523089   -0.004269041737291262   -9.030596750761002e-06
-0.00020638881647651907   -0.005625828236125894   -7.359430943026956e-05
-0.00019425987137525208   -0.005650701990045416   -7.227439346429444e-05
-0.00020842834782109997   -0.004291367369402716   -3.5285158649948564e-05
-0.0009023908677521246   -0.005644259118632626   -9.593338739397168e-05
-0.00019999709186498604   -0.005636994034356461   -7.334631582694425e-05
-0.00020842834782109997   -0.004291367369402716   -3.5285158649948564e-05
-0.0009590499686248518   -0.004283392746606311   -5.652873110593333e-05
-0.0009023908677521246   -0.005644259118632626   -9.593338739397168e-05
-0.0009678014260404307   -0.00427300115377563   -5.24812805843911e-05
-0.00019999709186498604   -0.005636994034356461   -7.334631582694425e-05
-0.0009091423396935213   -0.005633265614749085   -9.31343308703363e-05
-0.0009678014260404307   -0.00427300115377563   -5.24812805843911e-05
-0.0009023908677521246   -0.005644259118632626   -9.593338739397168e-05
-0.00019999709186498604   -0.005636994034356461   -7.334631582694425e-05
-0.0009678014260404307   -0.00427300115377563   -5.24812805843911e-05
-0.00021671983611632262   -0.0042784351733228965   -3.312616885604551e-05
-0.00020842834782109997   -0.004291367369402716   -3.5285158649948564e-05
-0.00019999709186498604   -0.005636994034356461   -7.334631582694425e-05
-0.0009678014260404307   -0.00427300115377563   -5.24812805843911e-05
-0.00020842834782109997   -0.004291367369402716   -3.5285158649948564e-05
-0.0009023908677521246   -0.005644259118632626   -9.593338739397168e-05
-0.00019999709186498604   -0.005636994034356461   -7.334631582694425e-05
-0.00021671983611632262   -0.0042784351733228965   -3.312616885604551e-05
-0.0009091423396935213   -0.005633265614749085   -9.31343308703363e-05
-0.00020638881647651907   -0.005625828236125894   -7.359430943026956e-05
-0.00021671983611632262   -0.0042784351733228965   -3.312616885604551e-05
-0.0009678014260404307   -0.00427300115377563   -5.24812805843911e-05
-0.0009091423396935213   -0.005633265614749085   -9.31343308703363e-05
-0.0009767837215762332   -0.004263516145114902   -4.767829078594666e-05
-0.00020638881647651907   -0.005625828236125894   -7.359430943026956e-05
-0.0009160511971171323   -0.005624339311524372   -8.946868341986659e-05
-0.0009767837215762332   -0.004263516145114902   -4.767829078594666e-05
-0.0009091423396935213   -0.005633265614749085   -9.31343308703363e-05
-0.00020638881647651907   -0.005625828236125894   -7.359430943026956e-05
-0.0009767837215762332   -0.004263516145114902   -4.767829078594666e-05
-0.00022630199151009442   -0.004266683990114156   -3.0190905243797976e-05
-0.00021671983611632262   -0.0042784351733228965   -3.312616885604551e-05
-0.00020638881647651907   -0.005625828236125894   -7.359430943026956e-05
-0.0009767837215762332   -0.004263516145114902   -4.767829078594666e-05
-0.00021671983611632262   -0.0042784351733228965   -3.312616885604551e-05
-0.0009091423396935213   -0.005633265614749085   -9.31343308703363e-05
-0.00020638881647651907   -0.005625828236125894   -7.359430943026956e-05
-0.00022630199151009442   -0.004266683990114156   -3.0190905243797976e-05
-0.0009160511971171323   -0.005624339311524372   -8.946868341986659e-05
-0.0002146391652958395   -0.00561686406093171   -7.298588774239791e-05
-0.00022630199151009442   -0.004266683990114156   -3.0190905243797976e-05
-0.0009767837215762332   -0.004263516145114902   -4.767829078594666e-05
-0.0009160511971171323   -0.005624339311524372   -8.946868341986659e-05
-0.0009863911555661018   -0.004255133050180022   -4.212381501100752e-05
-0.0002146391652958395   -0.00561686406093171   -7.298588774239791e-05
-0.0009235968240237011   -0.005617589095309293   -8.498663376176363e-05
-0.0009863911555661018   -0.004255133050180022   -4.212381501100752e-05
-0.0009160511971171323   -0.005624339311524372   -8.946868341986659e-05
-0.0002146391652958395   -0.00561686406093171   -7.298588774239791e-05
-0.0009863911555661018   -0.004255133050180022   -4.212381501100752e-05
-0.00023727814411906862   -0.0042559296985579306   -2.6288645214541534e-05
-0.00022630199151009442   -0.004266683990114156   -3.0190905243797976e-05
-0.0002146391652958395   -0.00561686406093171   -7.298588774239791e-05
-0.0009863911555661018   -0.004255133050180022   -4.212381501100752e-05
-0.00022630199151009442   -0.004266683990114156   -3.0190905243797976e-05
-0.0009160511971171323   -0.005624339311524372   -8.946868341986659e-05
-0.0009023908677521246   -0.005644259118632626   -9.593338739397168e-05
-0.0009590499686248518   -0.004283392746606311   -5.652873110593333e-05
-0.0015985975933656223   -0.0056314014476250155   -0.00011537773985259491
-0.0009091423396935213   -0.005633265614749085   -9.31343308703363e-05
-0.0009590499686248518   -0.004283392746606311   -5.652873110593333e-05
-0.0016968658419769336   -0.004273307129662529   -7.400180266061233e-05
-0.0015985975933656223   -0.0056314014476250155   -0.00011537773985259491
-0.0017056686276526703   -0.004265207259273229   -6.811237954925601e-05
-0.0009091423396935213   -0.005633265614749085   -9.31343308703363e-05
-0.0016056590553677303   -0.005622848172382856   -0.00010874324530414818
-0.0017056686276526703   -0.004265207259273229   -6.811237954925601e-05
-0.0015985975933656223   -0.0056314014476250155   -0.00011537773985259491
-0.0009091423396935213   -0.005633265614749085   -9.31343308703363e-05
-0.0017056686276526703   -0.004265207259273229   -6.811237954925601e-05
-0.0009678014260404307   -0.00427300115377563   -5.24812805843911e-05
-0.0009590499686248518   -0.004283392746606311   -5.652873110593333e-05
-0.0009091423396935213   -0.005633265614749085   -9.31343308703363e-05
-0.0017056686276526703   -0.004265207259273229   -6.811237954925601e-05
-0.0009590499686248518   -0.004283392746606311   -5.652873110593333e-05
-0.0015985975933656223   -0.0056314014476250155   -0.00011537773985259491
-0.0009091423396935213   -0.005633265614749085   -9.31343308703363e-05
-0.0009678014260404307   -0.00427300115377563   -5.24812805843911e-05
-0.0016056590553677303   -0.005622848172382856   -0.00010874324530414818
-0.0009160511971171323   -0.005624339311524372   -8.946868341986659e-05
-0.0009678014260404307   -0.00427300115377563   -5.24812805843911e-05
-0.0017056686276526703   -0.004265207259273229   -6.811237954925601e-05
-0.0016056590553677303   -0.005622848172382856   -0.00010874324530414818
-0.001713869278712025   -0.004258044900886945   -6.149250413932875e-05
-0.0009160511971171323   -0.005624339311524372   -8.946868341986659e-05
-0.001612012611733552   -0.005616347767122495   -0.00010126541299009065
-0.001713869278712025   -0.004258044900886945   -6.149250413932875e-05
-0.0016056590553677303   -0.005622848172382856   -0.00010874324530414818
-0.0009160511971171323   -0.005624339311524372   -8.946868341986659e-05
-0.001713869278712025   -0.004258044900886945   -6.149250413932875e-05
-0.0009767837215762332   -0.004263516145114902   -4.767829078594666e-05
-0.0009678014260404307   -0.00427300115377563   -5.24812805843911e-05
-0.0009160511971171323   -0.005624339311524372   -8.946868341986659e-05
-0.001713869278712025   -0.004258044900886945   -6.149250413932875e-05
-0.0009678014260404307   -0.00427300115377563   -5.24812805843911e-05
-0.0016056590553677303   -0.005622848172382856   -0.00010874324530414818
-0.0009160511971171323   -0.005624339311524372   -8.946868341986659e-05
-0.0009767837215762332   -0.004263516145114902   -4.767829078594666e-05
-0.001612012611733552   -0.005616347767122495   -0.00010126541299009065
-0.0009235968240237011   -0.005617589095309293   -8.498663376176363e-05
-0.0009767837215762332   -0.004263516145114902   -4.767829078594666e-05
-0.001713869278712025   -0.004258044900886945   -6.149250413932875e-05
-0.001612012611733552   -0.005616347767122495   -0.00010126541299009065
-0.0017221003370078614   -0.004251832425935623   -5.4174717892976456e-05
-0.0009235968240237011   -0.005617589095309293   -8.498663376176363e-05
-0.0016184335467449677   -0.005611904143480368   -9.297275717319935e-05
-0.0017221003370078614   -0.004251832425935623   -5.4174717892976456e-05
-0.001612012611733552   -0.005616347767122495   -0.00010126541299009065
-0.0009235968240237011   -0.005617589095309293   -8.498663376176363e-05
-0.0017221003370078614   -0.004251832425935623   -5.4174717892976456e-05
-0.0009863911555661018   -0.004255133050180022   -4.212381501100752e-05
-0.0009767837215762332   -0.004263516145114902   -4.767829078594666e-05
-0.0009235968240237011   -0.005617589095309293   -8.498663376176363e-05
-0.0017221003370078614   -0.004251832425935623   -5.4174717892976456e-05
-0.0009767837215762332   -0.004263516145114902   -4.767829078594666e-05
-0.001612012611733552   -0.005616347767122495   -0.00010126541299009065
-0.0015985975933656223   -0.0056314014476250155   -0.00011537773985259491
-0.0016968658419769336   -0.004273307129662529   -7.400180266061233e-05
-0.002308824798508283   -0.00561187245656846   -0.0001307114423137377
-0.0016056590553677303   -0.005622848172382856   -0.00010874324530414818
-0.0016968658419769336   -0.004273307129662529   -7.400180266061233e-05
-0.0024483650673594254   -0.004259333579590286   -8.754626666506953e-05
-0.002308824798508283   -0.00561187245656846   -0.0001307114423137377
-0.002456748924681734   -0.004253637170824259   -7.983924461845104e-05
-0.0016056590553677303   -0.005622848172382856   -0.00010874324530414818
-0.0023152787123524978   -0.005605751586233482   -0.00012020701457142176
-0.002456748924681734   -0.004253637170824259   -7.983924461845104e-05
-0.002308824798508283   -0.00561187245656846   -0.0001307114423137377
-0.0016056590553677303   -0.005622848172382856   -0.00010874324530414818
-0.002456748924681734   -0.004253637170824259   -7.983924461845104e-05
-0.0017056686276526703   -0.004265207259273229   -6.811237954925601e-05
-0.0016968658419769336   -0.004273307129662529   -7.400180266061233e-05
-0.0016056590553677303   -0.005622848172382856   -0.00010874324530414818
-0.002456748924681734   -0.004253637170824259   -7.983924461845104e-05
-0.0016968658419769336   -0.004273307129662529   -7.400180266061233e-05
-0.002308824798508283   -0.00561187245656846   -0.0001307114423137377
-0.0016056590553677303   -0.005622848172382856   -0.00010874324530414818
-0.0017056686276526703   -0.004265207259273229   -6.811237954925601e-05
-0.0023152787123524978   -0.005605751586233482   -0.00012020701457142176
-0.001612012611733552   -0.005616347767122495   -0.00010126541299009065
-0.0017056686276526703   -0.004265207259273229   -6.811237954925601e-05
-0.002456748924681734   -0.004253637170824259   -7.983924461845104e-05
-0.0023152787123524978   -0.005605751586233482   -0.00012020701457142176
-0.002462836728867139   -0.004248644491462663   -7.150519539035345e-05
-0.001612012611733552   -0.005616347767122495   -0.00010126541299009065
-0.0023187991627807688   -0.005601503332420446   -0.00010896490322139058
-0.002462836728867139   -0.004248644491462663   -7.150519539035345e-05
-0.0023152787123524978   -0.005605751586233482   -0.00012020701457142176
-0.001612012611733552   -0.005616347767122495   -0.00010126541299009065
-0.002462836728867139   -0.004248644491462663   -7.150519539035345e-05
-0.001713869278712025   -0.004258044900886945   -6.149250413932875e-05
-0.0017056686276526703   -0.004265207259273229   -6.811237954925601e-05
-0.001612012611733552   -0.005616347767122495   -0.00010126541299009065
-0.002462836728867139   -0.004248644491462663   -7.150519539035345e-05
-0.0017056686276526703   -0.004265207259273229   -6.811237954925601e-05
-0.0023152787123524978   -0.005605751586233482   -0.00012020701457142176
-0.001612012611733552   -0.005616347767122495   -0.00010126541299009065
-0.001713869278712025   -0.004258044900886945   -6.149250413932875e-05
-0.0023187991627807688   -0.005601503332420446   -0.00010896490322139058
-0.0016184335467449677   -0.005611904143480368   -9.297275717319935e-05
-0.001713869278712025   -0.004258044900886945   -6.149250413932875e-05
-0.002462836728867139   -0.004248644491462663   -7.150519539035345e-05
-0.0023187991627807688   -0.005601503332420446   -0.00010896490322139058
-0.0024689407897583904   -0.004244675911891077   -6.239555290388114e-05
-0.0016184335467449677   -0.005611904143480368   -9.297275717319935e-05
-0.0023228682432684016   -0.0055995095041420475   -9.68364965052899e-05
-0.0024689407897583904   -0.004244675911891077   -6.239555290388114e-05
-0.0023187991627807688   -0.005601503332420446   -0.00010896490322139058
-0.0016184335467449677   -0.005611904143480368   -9.297275717319935e-05
-0.0024689407897583904   -0.004244675911891077   -6.239555290388114e-05
-0.0017221003370078614   -0.004251832425935623   -5.4174717892976456e-05
-0.001713869278712025   -0.004258044900886945   -6.149250413932875e-05
-0.0016184335467449677   -0.005611904143480368   -9.297275717319935e-05
-0.0024689407897583904   -0.004244675911891077   -6.239555290388114e-05
-0.001713869278712025   -0.004258044900886945   -6.149250413932875e-05
-0.0023187991627807688   -0.005601503332420446   -0.00010896490322139058
-0.002308824798508283   -0.00561187245656846   -0.0001307114423137377
-0.0024483650673594254   -0.004259333579590286   -8.754626666506953e-05
-0.0030729351147176353   -0.005587177921373391   -0.0001425507508944319
-0.0023152787123524978   -0.005605751586233482   -0.00012020701457142176
-0.0024483650673594254   -0.004259333579590286   -8.754626666506953e-05
-0.003247467822910734   -0.0042422362353498905   -9.681323017768947e-05
-0.0030729351147176353   -0.005587177921373391   -0.0001425507508944319
-0.0032472028918181296   -0.004238130299440966   -8.780889984848426e-05
-0.0023152787123524978   -0.005605751586233482   -0.00012020701457142176
-0.0030656797587128412   -0.005582236682453098   -0.00012814619596393257
-0.0032472028918181296   -0.004238130299440966   -8.780889984848426e-05
-0.0030729351147176353   -0.005587177921373391   -0.0001425507508944319
-0.0023152787123524978   -0.005605751586233482   -0.00012020701457142176
-0.0032472028918181296   -0.004238130299440966   -8.780889984848426e-05
-0.002456748924681734   -0.004253637170824259   -7.983924461845104e-05
-0.0024483650673594254   -0.004259333579590286   -8.754626666506953e-05
-0.0023152787123524978   -0.005605751586233482   -0.00012020701457142176
-0.0032472028918181296   -0.004238130299440966   -8.780889984848426e-05
-0.0024483650673594254   -0.004259333579590286   -8.754626666506953e-05
-0.0030729351147176353   -0.005587177921373391   -0.0001425507508944319
-0.0023152787123524978   -0.005605751586233482   -0.00012020701457142176
-0.002456748924681734   -0.004253637170824259   -7.983924461845104e-05
-0.0030656797587128412   -0.005582236682453098   -0.00012814619596393257
-0.0023187991627807688   -0.005601503332420446   -0.00010896490322139058
-0.002456748924681734   -0.004253637170824259   -7.983924461845104e-05
-0.0032472028918181296   -0.004238130299440966   -8.780889984848426e-05
-0.0030656797587128412   -0.005582236682453098   -0.00012814619596393257
-0.003247188711945312   -0.004234258823916822   -7.756142424050339e-05
-0.0023187991627807688   -0.005601503332420446   -0.00010896490322139058
-0.0030597393640434062   -0.00557905726966957   -0.00011238662671650664
-0.003247188711945312   -0.004234258823916822   -7.756142424050339e-05
-0.0030656797587128412   -0.005582236682453098   -0.00012814619596393257
-0.0023187991627807688   -0.005601503332420446   -0.00010896490322139058
-0.003247188711945312   -0.004234258823916822   -7.756142424050339e-05
-0.002462836728867139   -0.004248644491462663   -7.150519539035345e-05
-0.002456748924681734   -0.004253637170824259   -7.983924461845104e-05
-0.0023187991627807688   -0.005601503332420446   -0.00010896490322139058
-0.003247188711945312   -0.004234258823916822   -7.756142424050339e-05
-0.002456748924681734   -0.004253637170824259   -7.983924461845104e-05
-0.0030656797587128412   -0.005582236682453098   -0.00012814619596393257
-0.0023187991627807688   -0.005601503332420446   -0.00010896490322139058
-0.002462836728867139   -0.004248644491462663   -7.150519539035345e-05
-0.0030597393640434062   -0.00557905726966957   -0.00011238662671650664
-0.0023228682432684016   -0.0055995095041420475   -9.68364965052899e-05
-0.002462836728867139   -0.004248644491462663   -7.150519539035345e-05
-0.003247188711945312   -0.004234258823916822   -7.756142424050339e-05
-0.0030597393640434062   -0.00557905726966957   -0.00011238662671650664
-0.0032422605006311514   -0.00423300738243515   -6.620725211117048e-05
-0.0023228682432684016   -0.0055995095041420475   -9.68364965052899e-05
-0.003047431596506716   -0.005580106094655543   -9.542404512094966e-05
-0.0032422605006311514   -0.00423300738243515   -6.620725211117048e-05
-0.0030597393640434062   -0.00557905726966957   -0.00011238662671650664
-0.0023228682432684016   -0.0055995095041420475   -9.68364965052899e-05
-0.0032422605006311514   -0.00423300738243515   -6.620725211117048e-05
-0.0024689407897583904   -0.004244675911891077   -6.239555290388114e-05
-0.002462836728867139   -0.004248644491462663   -7.150519539035345e-05
-0.0023228682432684016   -0.0055995095041420475   -9.68364965052899e-05
-0.0032422605006311514   -0.00423300738243515   -6.620725211117048e-05
-0.002462836728867139   -0.004248644491462663   -7.150519539035345e-05
-0.0030597393640434062   -0.00557905726966957   -0.00011238662671650664
0.0005840666846790447   -0.004297230410236079   -9.054082117539668e-06
0.0005359866156232533   -0.002888483910569742   1.419291448150006e-05
-0.00020842834782109997   -0.004291367369402716   -3.5285158649948564e-05
0.0005764162705475636   -0.004281980770157412   -9.825517831731212e-06
0.0005359866156232533   -0.002888483910569742   1.419291448150006e-05
-0.00027120823693394186   -0.0028762959134387457   -5.4942845502295825e-06
-0.00020842834782109997   -0.004291367369402716   -3.5285158649948564e-05
-0.0002816272548083149   -0.0028648873367077103   -2.156035886787306e-07
0.0005764162705475636   -0.004281980770157412   -9.825517831731212e-06
-0.00021671983611632262   -0.0042784351733228965   -3.312616885604551e-05
-0.0002816272548083149   -0.0028648873367077103   -2.156035886787306e-07
-0.00020842834782109997   -0.004291367369402716   -3.5285158649948564e-05
0.0005764162705475636   -0.004281980770157412   -9.825517831731212e-06
-0.0002816272548083149   -0.0028648873367077103   -2.156035886787306e-07
0.0005203918554143185   -0.002874187287007704   2.006661234188546e-05
0.0005359866156232533   -0.002888483910569742   1.419291448150006e-05
0.0005764162705475636   -0.004281980770157412   -9.825517831731212e-06
-0.0002816272548083149   -0.0028648873367077103   -2.156035886787306e-07
0.0005359866156232533   -0.002888483910569742   1.419291448150006e-05
-0.00020842834782109997   -0.004291367369402716   -3.5285158649948564e-05
0.0005764162705475636   -0.004281980770157412   -9.825517831731212e-06
0.0005203918554143185   -0.002874187287007704   2.006661234188546e-05
-0.00021671983611632262   -0.0042784351733228965   -3.312616885604551e-05
0.0005661324047523089   -0.004269041737291262   -9.030596750761002e-06
0.0005203918554143185   -0.002874187287007704   2.006661234188546e-05
-0.0002816272548083149   -0.0028648873367077103   -2.156035886787306e-07
-0.00021671983611632262   -0.0042784351733228965   -3.312616885604551e-05
-0.0002939510198529375   -0.0028530228426348445   6.109622282447496e-06
0.0005661324047523089   -0.004269041737291262   -9.030596750761002e-06
-0.00022630199151009442   -0.004266683990114156   -3.0190905243797976e-05
-0.0002939510198529375   -0.0028530228426348445   6.109622282447496e-06
-0.00021671983611632262   -0.0042784351733228965   -3.312616885604551e-05
0.0005661324047523089   -0.004269041737291262   -9.030596750761002e-06
-0.0002939510198529375   -0.0028530228426348445   6.109622282447496e-06
0.0005022629266020809   -0.002860414007182438   2.9133862229523596e-05
0.0005203918554143185   -0.002874187287007704   2.006661234188546e-05
0.0005661324047523089   -0.004269041737291262   -9.030596750761002e-06
-0.0002939510198529375   -0.0028530228426348445   6.109622282447496e-06
0.0005203918554143185   -0.002874187287007704   2.006661234188546e-05
-0.00021671983611632262   -0.0042784351733228965   -3.312616885604551e-05
0.0005661324047523089   -0.004269041737291262   -9.030596750761002e-06
0.0005022629266020809   -0.002860414007182438   2.9133862229523596e-05
-0.00022630199151009442   -0.004266683990114156   -3.0190905243797976e-05
0.0005523408351679267   -0.004255853087099199   -6.734063043289124e-06
0.0005022629266020809   -0.002860414007182438   2.9133862229523596e-05
-0.0002939510198529375   -0.0028530228426348445   6.109622282447496e-06
-0.00022630199151009442   -0.004266683990114156   -3.0190905243797976e-05
-0.0003068582084874743   -0.0028405845631642333   1.3489044384405233e-05
0.0005523408351679267   -0.004255853087099199   -6.734063043289124e-06
-0.00023727814411906862   -0.0042559296985579306   -2.6288645214541534e-05
-0.0003068582084874743   -0.0028405845631642333   1.3489044384405233e-05
-0.00022630199151009442   -0.004266683990114156   -3.0190905243797976e-05
0.0005523408351679267   -0.004255853087099199   -6.734063043289124e-06
-0.0003068582084874743   -0.0028405845631642333   1.3489044384405233e-05
0.00048004364650106886   -0.0028433294192768167   3.9220734256060684e-05
0.0005022629266020809   -0.002860414007182438   2.9133862229523596e-05
0.0005523408351679267   -0.004255853087099199   -6.734063043289124e-06
-0.0003068582084874743   -0.0028405845631642333   1.3489044384405233e-05
0.0005022629266020809   -0.002860414007182438   2.9133862229523596e-05
-0.00022630199151009442   -0.004266683990114156   -3.0190905243797976e-05
-0.00020842834782109997   -0.004291367369402716   -3.5285158649948564e-05
-0.00027120823693394186   -0.0028762959134387457   -5.4942845502295825e-06
-0.0009590499686248518   -0.004283392746606311   -5.652873110593333e-05
-0.00021671983611632262   -0.0042784351733228965   -3.312616885604551e-05
-0.00027120823693394186   -0.0028762959134387457   -5.4942845502295825e-06
-0.0010289265033300403   -0.0028730844573455036   -2.3959988672778996e-05
-0.0009590499686248518   -0.004283392746606311   -5.652873110593333e-05
-0.0010386112479600458   -0.0028635170021164623   -1.8710086577004557e-05
-0.00021671983611632262   -0.0042784351733228965   -3.312616885604551e-05
-0.0009678014260404307   -0.00427300115377563   -5.24812805843911e-05
-0.0010386112479600458   -0.0028635170021164623   -1.8710086577004557e-05
-0.0009590499686248518   -0.004283392746606311   -5.652873110593333e-05
-0.00021671983611632262   -0.0042784351733228965   -3.312616885604551e-05
-0.0010386112479600458   -0.0028635170021164623   -1.8710086577004557e-05
-0.0002816272548083149   -0.0028648873367077103   -2.156035886787306e-07
-0.00027120823693394186   -0.0028762959134387457   -5.4942845502295825e-06
-0.00021671983611632262   -0.0042784351733228965   -3.312616885604551e-05
-0.0010386112479600458   -0.0028635170021164623   -1.8710086577004557e-05
-0.00027120823693394186   -0.0028762959134387457   -5.4942845502295825e-06
-0.0009590499686248518   -0.004283392746606311   -5.652873110593333e-05
-0.00021671983611632262   -0.0042784351733228965   -3.312616885604551e-05
-0.0002816272548083149   -0.0028648873367077103   -2.156035886787306e-07
-0.0009678014260404307   -0.00427300115377563   -5.24812805843911e-05
-0.00022630199151009442   -0.004266683990114156   -3.0190905243797976e-05
-0.0002816272548083149   -0.0028648873367077103   -2.156035886787306e-07
-0.0010386112479600458   -0.0028635170021164623   -1.8710086577004557e-05
-0.0009678014260404307   -0.00427300115377563   -5.24812805843911e-05
-0.0010486961856254954   -0.002853633601268642   -1.287463205788083e-05
-0.00022630199151009442   -0.004266683990114156   -3.0190905243797976e-05
-0.0009767837215762332   -0.004263516145114902   -4.767829078594666e-05
-0.0010486961856254954   -0.002853633601268642   -1.287463205788083e-05
-0.0009678014260404307   -0.00427300115377563   -5.24812805843911e-05
-0.00022630199151009442   -0.004266683990114156   -3.0190905243797976e-05
-0.0010486961856254954   -0.002853633601268642   -1.287463205788083e-05
-0.0002939510198529375   -0.0028530228426348445   6.109622282447496e-06
-0.0002816272548083149   -0.0028648873367077103   -2.156035886787306e-07
-0.00022630199151009442   -0.004266683990114156   -3.0190905243797976e-05
-0.0010486961856254954   -0.002853633601268642   -1.287463205788083e-05
-0.0002816272548083149   -0.0028648873367077103   -2.156035886787306e-07
-0.0009678014260404307   -0.00427300115377563   -5.24812805843911e-05
-0.00022630199151009442   -0.004266683990114156   -3.0190905243797976e-05
-0.0002939510198529375   -0.0028530228426348445   6.109622282447496e-06
-0.0009767837215762332   -0.004263516145114902   -4.767829078594666e-05
-0.00023727814411906862   -0.0042559296985579306   -2.6288645214541534e-05
-0.0002939510198529375   -0.0028530228426348445   6.109622282447496e-06
-0.0010486961856254954   -0.002853633601268642   -1.287463205788083e-05
-0.0009767837215762332   -0.004263516145114902   -4.767829078594666e-05
-0.0010592622171456318   -0.002843704003821523   -6.35142090175706e-06
-0.00023727814411906862   -0.0042559296985579306   -2.6288645214541534e-05
-0.0009863911555661018   -0.004255133050180022   -4.212381501100752e-05
-0.0010592622171456318   -0.002843704003821523   -6.35142090175706e-06
-0.0009767837215762332   -0.004263516145114902   -4.767829078594666e-05
-0.00023727814411906862   -0.0042559296985579306   -2.6288645214541534e-05
-0.0010592622171456318   -0.002843704003821523   -6.35142090175706e-06
-0.0003068582084874743   -0.0028405845631642333   1.3489044384405233e-05
-0.0002939510198529375   -0.0028530228426348445   6.109622282447496e-06
-0.00023727814411906862   -0.0042559296985579306   -2.6288645214541534e-05
-0.0010592622171456318   -0.002843704003821523   -6.35142090175706e-06
-0.0002939510198529375   -0.0028530228426348445   6.109622282447496e-06
-0.0009767837215762332   -0.004263516145114902   -4.767829078594666e-05
-0.0009590499686248518   -0.004283392746606311   -5.652873110593333e-05
-0.0010289265033300403   -0.0028730844573455036   -2.3959988672778996e-05
-0.0016968658419769336   -0.004273307129662529   -7.400180266061233e-05
-0.0009678014260404307   -0.00427300115377563   -5.24812805843911e-05
-0.0010289265033300403   -0.0028730844573455036   -2.3959988672778996e-05
-0.0017771519938924035   -0.002872110137699652   -4.033275904097337e-05
-0.0016968658419769336   -0.004273307129662529   -7.400180266061233e-05
-0.001786541495297778   -0.002864002649742865   -3.503488768610087e-05
-0.0009678014260404307   -0.00427300115377563   -5.24812805843911e-05
-0.0017056686276526703   -0.004265207259273229   -6.811237954925601e-05
-0.001786541495297778   -0.002864002649742865   -3.503488768610087e-05
-0.0016968658419769336   -0.004273307129662529   -7.400180266061233e-05
-0.0009678014260404307   -0.00427300115377563   -5.24812805843911e-05
-0.001786541495297778   -0.002864002649742865   -3.503488768610087e-05
-0.0010386112479600458   -0.0028635170021164623   -1.8710086577004557e-05
-0.0010289265033300403   -0.0028730844573455036   -2.3959988672778996e-05
-0.0009678014260404307   -0.00427300115377563   -5.24812805843911e-05
-0.001786541495297778   -0.002864002649742865   -3.503488768610087e-05
-0.0010289265033300403   -0.0028730844573455036   -2.3959988672778996e-05
-0.0016968658419769336   -0.004273307129662529   -7.400180266061233e-05
-0.0009678014260404307   -0.00427300115377563   -5.24812805843911e-05
-0.0010386112479600458   -0.0028635170021164623   -1.8710086577004557e-05
-0.0017056686276526703   -0.004265207259273229   -6.811237954925601e-05
-0.0009767837215762332   -0.004263516145114902   -4.767829078594666e-05
-0.0010386112479600458   -0.0028635170021164623   -1.8710086577004557e-05
-0.001786541495297778   -0.002864002649742865   -3.503488768610087e-05
-0.0017056686276526703   -0.004265207259273229   -6.811237954925601e-05
-0.0017954936982468306   -0.002855860320910888   -2.921408606658713e-05
-0.0009767837215762332   -0.004263516145114902   -4.767829078594666e-05
-0.001713869278712025   -0.004258044900886945   -6.149250413932875e-05
-0.0017954936982468306   -0.002855860320910888   -2.921408606658713e-05
-0.0017056686276526703   -0.004265207259273229   -6.811237954925601e-05
-0.0009767837215762332   -0.004263516145114902   -4.767829078594666e-05
-0.0017954936982468306   -0.002855860320910888   -2.921408606658713e-05
-0.0010486961856254954   -0.002853633601268642   -1.287463205788083e-05
-0.0010386112479600458   -0.0028635170021164623   -1.8710086577004557e-05
-0.0009767837215762332   -0.004263516145114902   -4.767829078594666e-05
-0.0017954936982468306   -0.002855860320910888   -2.921408606658713e-05
-0.0010386112479600458   -0.0028635170021164623   -1.8710086577004557e-05
-0.0017056686276526703   -0.004265207259273229   -6.811237954925601e-05
-0.0009767837215762332   -0.004263516145114902   -4.767829078594666e-05
-0.0010486961856254954   -0.002853633601268642   -1.287463205788083e-05
-0.001713869278712025   -0.004258044900886945   -6.149250413932875e-05
-0.0009863911555661018   -0.004255133050180022   -4.212381501100752e-05
-0.0010486961856254954   -0.002853633601268642   -1.287463205788083e-05
-0.0017954936982468306   -0.002855860320910888   -2.921408606658713e-05
-0.001713869278712025   -0.004258044900886945   -6.149250413932875e-05
-0.0018043631114707471   -0.00284761928867243   -2.2889792627889925e-05
-0.0009863911555661018   -0.004255133050180022   -4.212381501100752e-05
-0.0017221003370078614   -0.004251832425935623   -5.4174717892976456e-05
-0.0018043631114707471   -0.00284761928867243   -2.2889792627889925e-05
-0.001713869278712025   -0.004258044900886945   -6.149250413932875e-05
-0.0009863911555661018   -0.004255133050180022   -4.212381501100752e-05
-0.0018043631114707471   -0.00284761928867243   -2.2889792627889925e-05
-0.0010592622171456318   -0.002843704003821523   -6.35142090175706e-06
-0.0010486961856254954   -0.002853633601268642   -1.287463205788083e-05
-0.0009863911555661018   -0.004255133050180022   -4.212381501100752e-05
-0.0018043631114707471   -0.00284761928867243   -2.2889792627889925e-05
-0.0010486961856254954   -0.002853633601268642   -1.287463205788083e-05
-0.001713869278712025   -0.004258044900886945   -6.149250413932875e-05
-0.0016968658419769336   -0.004273307129662529   -7.400180266061233e-05
-0.0017771519938924035   -0.002872110137699652   -4.033275904097337e-05
-0.0024483650673594254   -0.004259333579590286   -8.754626666506953e-05
-0.0017056686276526703   -0.004265207259273229   -6.811237954925601e-05
-0.0017771519938924035   -0.002872110137699652   -4.033275904097337e-05
-0.0025414838031484798   -0.002867358163580954   -5.345198466081575e-05
-0.0024483650673594254   -0.004259333579590286   -8.754626666506953e-05
-0.0025504303197724214   -0.0028612066685184136   -4.816955937458274e-05
-0.0017056686276526703   -0.004265207259273229   -6.811237954925601e-05
-0.002456748924681734   -0.004253637170824259   -7.983924461845104e-05
-0.0025504303197724214   -0.0028612066685184136   -4.816955937458274e-05
-0.0024483650673594254   -0.004259333579590286   -8.754626666506953e-05
-0.0017056686276526703   -0.004265207259273229   -6.811237954925601e-05
-0.0025504303197724214   -0.0028612066685184136   -4.816955937458274e-05
-0.001786541495297778   -0.002864002649742865   -3.503488768610087e-05
-0.0017771519938924035   -0.002872110137699652   -4.033275904097337e-05
-0.0017056686276526703   -0.004265207259273229   -6.811237954925601e-05
-0.0025504303197724214   -0.0028612066685184136   -4.816955937458274e-05
-0.0017771519938924035   -0.002872110137699652   -4.033275904097337e-05
-0.0024483650673594254   -0.004259333579590286   -8.754626666506953e-05
-0.0017056686276526703   -0.004265207259273229   -6.811237954925601e-05
-0.001786541495297778   -0.002864002649742865   -3.503488768610087e-05
-0.002456748924681734   -0.004253637170824259   -7.983924461845104e-05
-0.001713869278712025   -0.004258044900886945   -6.149250413932875e-05
-0.001786541495297778   -0.002864002649742865   -3.503488768610087e-05
-0.0025504303197724214   -0.0028612066685184136   -4.816955937458274e-05
-0.002456748924681734   -0.004253637170824259   -7.983924461845104e-05
-0.002557866341404357   -0.002854757427122154   -4.248391775588421e-05
-0.001713869278712025   -0.004258044900886945   -6.149250413932875e-05
-0.002462836728867139   -0.004248644491462663   -7.150519539035345e-05
-0.002557866341404357   -0.002854757427122154   -4.248391775588421e-05
-0.002456748924681734   -0.004253637170824259   -7.983924461845104e-05
-0.001713869278712025   -0.004258044900886945   -6.149250413932875e-05
-0.002557866341404357   -0.002854757427122154   -4.248391775588421e-05
-0.0017954936982468306   -0.002855860320910888   -2.921408606658713e-05
-0.001786541495297778   -0.002864002649742865   -3.503488768610087e-05
-0.001713869278712025   -0.004258044900886945   -6.149250413932875e-05
-0.002557866341404357   -0.002854757427122154   -4.248391775588421e-05
-0.001786541495297778   -0.002864002649742865   -3.503488768610087e-05
-0.002456748924681734   -0.004253637170824259   -7.983924461845104e-05
-0.001713869278712025   -0.004258044900886945   -6.149250413932875e-05
-0.0017954936982468306   -0.002855860320910888   -2.921408606658713e-05
-0.002462836728867139   -0.004248644491462663   -7.150519539035345e-05
-0.0017221003370078614   -0.004251832425935623   -5.4174717892976456e-05
-0.0017954936982468306   -0.002855860320910888   -2.921408606658713e-05
-0.002557866341404357   -0.002854757427122154   -4.248391775588421e-05
-0.002462836728867139   -0.004248644491462663   -7.150519539035345e-05
-0.0025648862088104647   -0.002848235066707482   -3.624980403686579e-05
-0.0017221003370078614   -0.004251832425935623   -5.4174717892976456e-05
-0.0024689407897583904   -0.004244675911891077   -6.239555290388114e-05
-0.0025648862088104647   -0.002848235066707482   -3.624980403686579e-05
-0.002462836728867139   -0.004248644491462663   -7.150519539035345e-05
-0.0017221003370078614   -0.004251832425935623   -5.4174717892976456e-05
-0.0025648862088104647   -0.002848235066707482   -3.624980403686579e-05
-0.0018043631114707471   -0.00284761928867243   -2.2889792627889925e-05
-0.0017954936982468306   -0.002855860320910888   -2.921408606658713e-05
-0.0017221003370078614   -0.004251832425935623   -5.4174717892976456e-05
-0.0025648862088104647   -0.002848235066707482   -3.624980403686579e-05
-0.0017954936982468306   -0.002855860320910888   -2.921408606658713e-05
-0.002462836728867139   -0.004248644491462663   -7.150519539035345e-05
-0.0024483650673594254   -0.004259333579590286   -8.754626666506953e-05
-0.0025414838031484798   -0.002867358163580954   -5.345198466081575e-05
-0.003247467822910734   -0.0042422362353498905   -9.681323017768947e-05
-0.002456748924681734   -0.004253637170824259   -7.983924461845104e-05
-0.0025414838031484798   -0.002867358163580954   -5.345198466081575e-05
-0.0033452238768002453   -0.0028591143660460583   -6.213256102489834e-05
-0.003247467822910734   -0.0042422362353498905   -9.681323017768947e-05
-0.0033500144144194173   -0.002854399257576834   -5.770818292610856e-05
-0.002456748924681734   -0.004253637170824259   -7.983924461845104e-05
-0.0032472028918181296   -0.004238130299440966   -8.780889984848426e-05
-0.0033500144144194173   -0.002854399257576834   -5.770818292610856e-05
-0.003247467822910734   -0.0042422362353498905   -9.681323017768947e-05
-0.002456748924681734   -0.004253637170824259   -7.983924461845104e-05
-0.0033500144144194173   -0.002854399257576834   -5.770818292610856e-05
-0.0025504303197724214   -0.0028612066685184136   -4.816955937458274e-05
-0.0025414838031484798   -0.002867358163580954   -5.345198466081575e-05
-0.002456748924681734   -0.004253637170824259   -7.983924461845104e-05
-0.0033500144144194173   -0.002854399257576834   -5.770818292610856e-05
-0.0025414838031484798   -0.002867358163580954   -5.345198466081575e-05
-0.003247467822910734   -0.0042422362353498905   -9.681323017768947e-05
-0.002456748924681734   -0.004253637170824259   -7.983924461845104e-05
-0.0025504303197724214   -0.0028612066685184136   -4.816955937458274e-05
-0.0032472028918181296   -0.004238130299440966   -8.780889984848426e-05
-0.002462836728867139   -0.004248644491462663   -7.150519539035345e-05
-0.0025504303197724214   -0.0028612066685184136   -4.816955937458274e-05
-0.0033500144144194173   -0.002854399257576834   -5.770818292610856e-05
-0.0032472028918181296   -0.004238130299440966   -8.780889984848426e-05
-0.0033543953231118264   -0.0028488761143816085   -5.235963841577174e-05
-0.002462836728867139   -0.004248644491462663   -7.150519539035345e-05
-0.003247188711945312   -0.004234258823916822   -7.756142424050339e-05
-0.0033543953231118264   -0.0028488761143816085   -5.235963841577174e-05
-0.0032472028918181296   -0.004238130299440966   -8.780889984848426e-05
-0.002462836728867139   -0.004248644491462663   -7.150519539035345e-05
-0.0033543953231118264   -0.0028488761143816085   -5.235963841577174e-05
-0.002557866341404357   -0.002854757427122154   -4.248391775588421e-05
-0.0025504303197724214   -0.0028612066685184136   -4.816955937458274e-05
-0.002462836728867139   -0.004248644491462663   -7.150519539035345e-05
-0.0033543953231118264   -0.0028488761143816085   -5.235963841577174e-05
-0.0025504303197724214   -0.0028612066685184136   -4.816955937458274e-05
-0.0032472028918181296   -0.004238130299440966   -8.780889984848426e-05
-0.002462836728867139   -0.004248644491462663   -7.150519539035345e-05
-0.002557866341404357   -0.002854757427122154   -4.248391775588421e-05
-0.003247188711945312   -0.004234258823916822   -7.756142424050339e-05
-0.0024689407897583904   -0.004244675911891077   -6.239555290388114e-05
-0.002557866341404357   -0.002854757427122154   -4.248391775588421e-05
-0.0033543953231118264   -0.0028488761143816085   -5.235963841577174e-05
-0.003247188711945312   -0.004234258823916822   -7.756142424050339e-05
-0.003355654690687702   -0.0028443685004912746   -4.628171746523316e-05
-0.0024689407897583904   -0.004244675911891077   -6.239555290388114e-05
-0.0032422605006311514   -0.00423300738243515   -6.620725211117048e-05
-0.003355654690687702   -0.0028443685004912746   -4.628171746523316e-05
-0.003247188711945312   -0.004234258823916822   -7.756142424050339e-05
-0.0024689407897583904   -0.004244675911891077   -6.239555290388114e-05
-0.003355654690687702   -0.0028443685004912746   -4.628171746523316e-05
-0.0025648862088104647   -0.002848235066707482   -3.624980403686579e-05
-0.002557866341404357   -0.002854757427122154   -4.248391775588421e-05
-0.0024689407897583904   -0.004244675911891077   -6.239555290388114e-05
-0.003355654690687702   -0.0028443685004912746   -4.628171746523316e-05
-0.002557866341404357   -0.002854757427122154   -4.248391775588421e-05
-0.003247188711945312   -0.004234258823916822   -7.756142424050339e-05
0.0005359866156232533   -0.002888483910569742   1.419291448150006e-05
0.00038351315611587954   -0.0014658857349448785   1.6188459979971174e-05
-0.00027120823693394186   -0.0028762959134387457   -5.4942845502295825e-06
0.0005203918554143185   -0.002874187287007704   2.006661234188546e-05
0.00038351315611587954   -0.0014658857349448785   1.6188459979971174e-05
-0.00037887334350029077   -0.001449357361667504   1.2308322887440121e-05
-0.00027120823693394186   -0.0028762959134387457   -5.4942845502295825e-06
-0.0003895695377691225   -0.001444842804611754   2.0152527131081284e-05
0.0005203918554143185   -0.002874187287007704   2.006661234188546e-05
-0.0002816272548083149   -0.0028648873367077103   -2.156035886787306e-07
-0.0003895695377691225   -0.001444842804611754   2.0152527131081284e-05
-0.00027120823693394186   -0.0028762959134387457   -5.4942845502295825e-06
0.0005203918554143185   -0.002874187287007704   2.006661234188546e-05
-0.0003895695377691225   -0.001444842804611754   2.0152527131081284e-05
0.0003498000397916449   -0.0014501288043787433   3.511332894475566e-05
0.00038351315611587954   -0.0014658857349448785   1.6188459979971174e-05
0.0005203918554143185   -0.002874187287007704   2.006661234188546e-05
-0.0003895695377691225   -0.001444842804611754   2.0152527131081284e-05
0.00038351315611587954   -0.0014658857349448785   1.6188459979971174e-05
-0.00027120823693394186   -0.0028762959134387457   -5.4942845502295825e-06
0.0005203918554143185   -0.002874187287007704   2.006661234188546e-05
0.0003498000397916449   -0.0014501288043787433   3.511332894475566e-05
-0.0002816272548083149   -0.0028648873367077103   -2.156035886787306e-07
0.0005022629266020809   -0.002860414007182438   2.9133862229523596e-05
0.0003498000397916449   -0.0014501288043787433   3.511332894475566e-05
-0.0003895695377691225   -0.001444842804611754   2.0152527131081284e-05
-0.0002816272548083149   -0.0028648873367077103   -2.156035886787306e-07
-0.0004041999495379108   -0.0014348638533772488   2.984262372130494e-05
0.0005022629266020809   -0.002860414007182438   2.9133862229523596e-05
-0.0002939510198529375   -0.0028530228426348445   6.109622282447496e-06
-0.0004041999495379108   -0.0014348638533772488   2.984262372130494e-05
-0.0002816272548083149   -0.0028648873367077103   -2.156035886787306e-07
0.0005022629266020809   -0.002860414007182438   2.9133862229523596e-05
-0.0004041999495379108   -0.0014348638533772488   2.984262372130494e-05
0.00033031432600028006   -0.001438156534297357   4.8917151156991965e-05
0.0003498000397916449   -0.0014501288043787433   3.511332894475566e-05
0.0005022629266020809   -0.002860414007182438   2.9133862229523596e-05
-0.0004041999495379108   -0.0014348638533772488   2.984262372130494e-05
0.0003498000397916449   -0.0014501288043787433   3.511332894475566e-05
-0.0002816272548083149   -0.0028648873367077103   -2.156035886787306e-07
0.0005022629266020809   -0.002860414007182438   2.9133862229523596e-05
0.00033031432600028006   -0.001438156534297357   4.8917151156991965e-05
-0.0002939510198529375   -0.0028530228426348445   6.109622282447496e-06
0.00048004364650106886   -0.0028433294192768167   3.9220734256060684e-05
0.00033031432600028006   -0.001438156534297357   4.8917151156991965e-05
-0.0004041999495379108   -0.0014348638533772488   2.984262372130494e-05
-0.0002939510198529375   -0.0028530228426348445   6.109622282447496e-06
-0.00041675209279553373   -0.0014244826353519704   3.8338089031693914e-05
0.00048004364650106886   -0.0028433294192768167   3.9220734256060684e-05
-0.0003068582084874743   -0.0028405845631642333   1.3489044384405233e-05
-0.00041675209279553373   -0.0014244826353519704   3.8338089031693914e-05
-0.0002939510198529375   -0.0028530228426348445   6.109622282447496e-06
0.00048004364650106886   -0.0028433294192768167   3.9220734256060684e-05
-0.00041675209279553373   -0.0014244826353519704   3.8338089031693914e-05
0.00030492944983315435   -0.0014190027412669106   6.487283891729538e-05
0.00033031432600028006   -0.001438156534297357   4.8917151156991965e-05
0.00048004364650106886   -0.0028433294192768167   3.9220734256060684e-05
-0.00041675209279553373   -0.0014244826353519704   3.8338089031693914e-05
0.00033031432600028006   -0.001438156534297357   4.8917151156991965e-05
-0.0002939510198529375   -0.0028530228426348445   6.109622282447496e-06
-0.00027120823693394186   -0.0028762959134387457   -5.4942845502295825e-06
-0.00037887334350029077   -0.001449357361667504   1.2308322887440121e-05
-0.0010289265033300403   -0.0028730844573455036   -2.3959988672778996e-05
-0.0002816272548083149   -0.0028648873367077103   -2.156035886787306e-07
-0.00037887334350029077   -0.001449357361667504   1.2308322887440121e-05
-0.0010972612092018104   -0.0014725551090913043   -1.0787422647485825e-06
-0.0010289265033300403   -0.0028730844573455036   -2.3959988672778996e-05
-0.0011076182749918907   -0.001464286220801177   4.684804386055981e-06
-0.0002816272548083149   -0.0028648873367077103   -2.156035886787306e-07
-0.0010386112479600458   -0.0028635170021164623   -1.8710086577004557e-05
-0.0011076182749918907   -0.001464286220801177   4.684804386055981e-06
-0.0010289265033300403   -0.0028730844573455036   -2.3959988672778996e-05
-0.0002816272548083149   -0.0028648873367077103   -2.156035886787306e-07
-0.0011076182749918907   -0.001464286220801177   4.684804386055981e-06
-0.0003895695377691225   -0.001444842804611754   2.0152527131081284e-05
-0.00037887334350029077   -0.001449357361667504   1.2308322887440121e-05
-0.0002816272548083149   -0.0028648873367077103   -2.156035886787306e-07
-0.0011076182749918907   -0.001464286220801177   4.684804386055981e-06
-0.00037887334350029077   -0.001449357361667504   1.2308322887440121e-05
-0.0010289265033300403   -0.0028730844573455036   -2.3959988672778996e-05
-0.0002816272548083149   -0.0028648873367077103   -2.156035886787306e-07
-0.0003895695377691225   -0.001444842804611754   2.0152527131081284e-05
-0.0010386112479600458   -0.0028635170021164623   -1.8710086577004557e-05
-0.0002939510198529375   -0.0028530228426348445   6.109622282447496e-06
-0.0003895695377691225   -0.001444842804611754   2.0152527131081284e-05
-0.0011076182749918907   -0.001464286220801177   4.684804386055981e-06
-0.0010386112479600458   -0.0028635170021164623   -1.8710086577004557e-05
-0.0011187349169232159   -0.001454597790096888   1.0923079465626035e-05
-0.0002939510198529375   -0.0028530228426348445   6.109622282447496e-06
-0.0010486961856254954   -0.002853633601268642   -1.287463205788083e-05
-0.0011187349169232159   -0.001454597790096888   1.0923079465626035e-05
-0.0010386112479600458   -0.0028635170021164623   -1.8710086577004557e-05
-0.0002939510198529375   -0.0028530228426348445   6.109622282447496e-06
-0.0011187349169232159   -0.001454597790096888   1.0923079465626035e-05
-0.0004041999495379108   -0.0014348638533772488   2.984262372130494e-05
-0.0003895695377691225   -0.001444842804611754   2.0152527131081284e-05
-0.0002939510198529375   -0.0028530228426348445   6.109622282447496e-06
-0.0011187349169232159   -0.001454597790096888   1.0923079465626035e-05
-0.0003895695377691225   -0.001444842804611754   2.0152527131081284e-05
-0.0010386112479600458   -0.0028635170021164623   -1.8710086577004557e-05
-0.0002939510198529375   -0.0028530228426348445   6.109622282447496e-06
-0.0004041999495379108   -0.0014348638533772488   2.984262372130494e-05
-0.0010486961856254954   -0.002853633601268642   -1.287463205788083e-05
-0.0003068582084874743   -0.0028405845631642333   1.3489044384405233e-05
-0.0004041999495379108   -0.0014348638533772488   2.984262372130494e-05
-0.0011187349169232159   -0.001454597790096888   1.0923079465626035e-05
-0.0010486961856254954   -0.002853633601268642   -1.287463205788083e-05
-0.0011295298302086982   -0.0014439751139943586   1.7885385620421045e-05
-0.0003068582084874743   -0.0028405845631642333   1.3489044384405233e-05
-0.0010592622171456318   -0.002843704003821523   -6.35142090175706e-06
-0.0011295298302086982   -0.0014439751139943586   1.7885385620421045e-05
-0.0010486961856254954   -0.002853633601268642   -1.287463205788083e-05
-0.0003068582084874743   -0.0028405845631642333   1.3489044384405233e-05
-0.0011295298302086982   -0.0014439751139943586   1.7885385620421045e-05
-0.00041675209279553373   -0.0014244826353519704   3.8338089031693914e-05
-0.0004041999495379108   -0.0014348638533772488   2.984262372130494e-05
-0.0003068582084874743   -0.0028405845631642333   1.3489044384405233e-05
-0.0011295298302086982   -0.0014439751139943586   1.7885385620421045e-05
-0.0004041999495379108   -0.0014348638533772488   2.984262372130494e-05
-0.0010486961856254954   -0.002853633601268642   -1.287463205788083e-05
-0.0010289265033300403   -0.0028730844573455036   -2.3959988672778996e-05
-0.0010972612092018104   -0.0014725551090913043   -1.0787422647485825e-06
-0.0017771519938924035   -0.002872110137699652   -4.033275904097337e-05
-0.0010386112479600458   -0.0028635170021164623   -1.8710086577004557e-05
-0.0010972612092018104   -0.0014725551090913043   -1.0787422647485825e-06
-0.0018301361211160811   -0.0014907263360539945   -1.6800491096184154e-05
-0.0017771519938924035   -0.002872110137699652   -4.033275904097337e-05
-0.0018396613125036983   -0.001482134567599281   -1.2163210241815809e-05
-0.0010386112479600458   -0.0028635170021164623   -1.8710086577004557e-05
-0.001786541495297778   -0.002864002649742865   -3.503488768610087e-05
-0.0018396613125036983   -0.001482134567599281   -1.2163210241815809e-05
-0.0017771519938924035   -0.002872110137699652   -4.033275904097337e-05
-0.0010386112479600458   -0.0028635170021164623   -1.8710086577004557e-05
-0.0018396613125036983   -0.001482134567599281   -1.2163210241815809e-05
-0.0011076182749918907   -0.001464286220801177   4.684804386055981e-06
-0.0010972612092018104   -0.0014725551090913043   -1.0787422647485825e-06
-0.0010386112479600458   -0.0028635170021164623   -1.8710086577004557e-05
-0.0018396613125036983   -0.001482134567599281   -1.2163210241815809e-05
-0.0010972612092018104   -0.0014725551090913043   -1.0787422647485825e-06
-0.0017771519938924035   -0.002872110137699652   -4.033275904097337e-05
-0.0010386112479600458   -0.0028635170021164623   -1.8710086577004557e-05
-0.0011076182749918907   -0.001464286220801177   4.684804386055981e-06
-0.001786541495297778   -0.002864002649742865   -3.503488768610087e-05
-0.0010486961856254954   -0.002853633601268642   -1.287463205788083e-05
-0.0011076182749918907   -0.001464286220801177   4.684804386055981e-06
-0.0018396613125036983   -0.001482134567599281   -1.2163210241815809e-05
-0.001786541495297778   -0.002864002649742865   -3.503488768610087e-05
-0.0018489351746827914   -0.0014729042864571839   -7.441673988256673e-06
-0.0010486961856254954   -0.002853633601268642   -1.287463205788083e-05
-0.0017954936982468306   -0.002855860320910888   -2.921408606658713e-05
-0.0018489351746827914   -0.0014729042864571839   -7.441673988256673e-06
-0.001786541495297778   -0.002864002649742865   -3.503488768610087e-05
-0.0010486961856254954   -0.002853633601268642   -1.287463205788083e-05
-0.0018489351746827914   -0.0014729042864571839   -7.441673988256673e-06
-0.0011187349169232159   -0.001454597790096888   1.0923079465626035e-05
-0.0011076182749918907   -0.001464286220801177   4.684804386055981e-06
-0.0010486961856254954   -0.002853633601268642   -1.287463205788083e-05
-0.0018489351746827914   -0.0014729042864571839   -7.441673988256673e-06
-0.0011076182749918907   -0.001464286220801177   4.684804386055981e-06
-0.001786541495297778   -0.002864002649742865   -3.503488768610087e-05
-0.0010486961856254954   -0.002853633601268642   -1.287463205788083e-05
-0.0011187349169232159   -0.001454597790096888   1.0923079465626035e-05
-0.0017954936982468306   -0.002855860320910888   -2.921408606658713e-05
-0.0010592622171456318   -0.002843704003821523   -6.35142090175706e-06
-0.0011187349169232159   -0.001454597790096888   1.0923079465626035e-05
-0.0018489351746827914   -0.0014729042864571839   -7.441673988256673e-06
-0.0017954936982468306   -0.002855860320910888   -2.921408606658713e-05
-0.001857611851443389   -0.0014627886885550869   -2.1960880078786373e-06
-0.0010592622171456318   -0.002843704003821523   -6.35142090175706e-06
-0.0018043631114707471   -0.00284761928867243   -2.2889792627889925e-05
-0.001857611851443389   -0.0014627886885550869   -2.1960880078786373e-06
-0.0017954936982468306   -0.002855860320910888   -2.921408606658713e-05
-0.0010592622171456318   -0.002843704003821523   -6.35142090175706e-06
-0.001857611851443389   -0.0014627886885550869   -2.1960880078786373e-06
-0.0011295298302086982   -0.0014439751139943586   1.7885385620421045e-05
-0.0011187349169232159   -0.001454597790096888   1.0923079465626035e-05
-0.0010592622171456318   -0.002843704003821523   -6.35142090175706e-06
-0.001857611851443389   -0.0014627886885550869   -2.1960880078786373e-06
-0.0011187349169232159   -0.001454597790096888   1.0923079465626035e-05
-0.0017954936982468306   -0.002855860320910888   -2.921408606658713e-05
-0.0017771519938924035   -0.002872110137699652   -4.033275904097337e-05
-0.0018301361211160811   -0.0014907263360539945   -1.6800491096184154e-05
-0.0025414838031484798   -0.002867358163580954   -5.345198466081575e-05
-0.001786541495297778   -0.002864002649742865   -3.503488768610087e-05
-0.0018301361211160811   -0.0014907263360539945   -1.6800491096184154e-05
-0.0025888465993640117   -0.001498346721539748   -3.1105307771845276e-05
-0.0025414838031484798   -0.002867358163580954   -5.345198466081575e-05
-0.002597476982903178   -0.0014909013334780507   -2.7582910108456498e-05
-0.001786541495297778   -0.002864002649742865   -3.503488768610087e-05
-0.0025504303197724214   -0.0028612066685184136   -4.816955937458274e-05
-0.002597476982903178   -0.0014909013334780507   -2.7582910108456498e-05
-0.0025414838031484798   -0.002867358163580954   -5.345198466081575e-05
-0.001786541495297778   -0.002864002649742865   -3.503488768610087e-05
-0.002597476982903178   -0.0014909013334780507   -2.7582910108456498e-05
-0.0018396613125036983   -0.001482134567599281   -1.2163210241815809e-05
-0.0018301361211160811   -0.0014907263360539945   -1.6800491096184154e-05
-0.001786541495297778   -0.002864002649742865   -3.503488768610087e-05
-0.002597476982903178   -0.0014909013334780507   -2.7582910108456498e-05
-0.0018301361211160811   -0.0014907263360539945   -1.6800491096184154e-05
-0.0025414838031484798   -0.002867358163580954   -5.345198466081575e-05
-0.001786541495297778   -0.002864002649742865   -3.503488768610087e-05
-0.0018396613125036983   -0.001482134567599281   -1.2163210241815809e-05
-0.0025504303197724214   -0.0028612066685184136   -4.816955937458274e-05
-0.0017954936982468306   -0.002855860320910888   -2.921408606658713e-05
-0.0018396613125036983   -0.001482134567599281   -1.2163210241815809e-05
-0.002597476982903178   -0.0014909013334780507   -2.7582910108456498e-05
-0.0025504303197724214   -0.0028612066685184136   -4.816955937458274e-05
-0.0026051774586237464   -0.0014825797694158398   -2.4069582711171354e-05
-0.0017954936982468306   -0.002855860320910888   -2.921408606658713e-05
-0.002557866341404357   -0.002854757427122154   -4.248391775588421e-05
-0.0026051774586237464   -0.0014825797694158398   -2.4069582711171354e-05
-0.0025504303197724214   -0.0028612066685184136   -4.816955937458274e-05
-0.0017954936982468306   -0.002855860320910888   -2.921408606658713e-05
-0.0026051774586237464   -0.0014825797694158398   -2.4069582711171354e-05
-0.0018489351746827914   -0.0014729042864571839   -7.441673988256673e-06
-0.0018396613125036983   -0.001482134567599281   -1.2163210241815809e-05
-0.0017954936982468306   -0.002855860320910888   -2.921408606658713e-05
-0.0026051774586237464   -0.0014825797694158398   -2.4069582711171354e-05
-0.0018396613125036983   -0.001482134567599281   -1.2163210241815809e-05
-0.0025504303197724214   -0.0028612066685184136   -4.816955937458274e-05
-0.0017954936982468306   -0.002855860320910888   -2.921408606658713e-05
-0.0018489351746827914   -0.0014729042864571839   -7.441673988256673e-06
-0.002557866341404357   -0.002854757427122154   -4.248391775588421e-05
-0.0018043631114707471   -0.00284761928867243   -2.2889792627889925e-05
-0.0018489351746827914   -0.0014729042864571839   -7.441673988256673e-06
-0.0026051774586237464   -0.0014825797694158398   -2.4069582711171354e-05
-0.002557866341404357   -0.002854757427122154   -4.248391775588421e-05
-0.0026121890816065817   -0.0014736174188963436   -2.034517891652971e-05
-0.0018043631114707471   -0.00284761928867243   -2.2889792627889925e-05
-0.0025648862088104647   -0.002848235066707482   -3.624980403686579e-05
-0.0026121890816065817   -0.0014736174188963436   -2.034517891652971e-05
-0.002557866341404357   -0.002854757427122154   -4.248391775588421e-05
-0.0018043631114707471   -0.00284761928867243   -2.2889792627889925e-05
-0.0026121890816065817   -0.0014736174188963436   -2.034517891652971e-05
-0.001857611851443389   -0.0014627886885550869   -2.1960880078786373e-06
-0.0018489351746827914   -0.0014729042864571839   -7.441673988256673e-06
-0.0018043631114707471   -0.00284761928867243   -2.2889792627889925e-05
-0.0026121890816065817   -0.0014736174188963436   -2.034517891652971e-05
-0.0018489351746827914   -0.0014729042864571839   -7.441673988256673e-06
-0.002557866341404357   -0.002854757427122154   -4.248391775588421e-05
-0.0025414838031484798   -0.002867358163580954   -5.345198466081575e-05
-0.0025888465993640117   -0.001498346721539748   -3.1105307771845276e-05
-0.0033452238768002453   -0.0028591143660460583   -6.213256102489834e-05
-0.0025504303197724214   -0.0028612066685184136   -4.816955937458274e-05
-0.0025888465993640117   -0.001498346721539748   -3.1105307771845276e-05
-0.0033775487340797767   -0.0014989335174867332   -4.227455073664872e-05
-0.0033452238768002453   -0.0028591143660460583   -6.213256102489834e-05
-0.003384725822660162   -0.0014918308210958389   -4.0487999417645444e-05
-0.0025504303197724214   -0.0028612066685184136   -4.816955937458274e-05
-0.0033500144144194173   -0.002854399257576834   -5.770818292610856e-05
-0.003384725822660162   -0.0014918308210958389   -4.0487999417645444e-05
-0.0033452238768002453   -0.0028591143660460583   -6.213256102489834e-05
-0.0025504303197724214   -0.0028612066685184136   -4.816955937458274e-05
-0.003384725822660162   -0.0014918308210958389   -4.0487999417645444e-05
-0.002597476982903178   -0.0014909013334780507   -2.7582910108456498e-05
-0.0025888465993640117   -0.001498346721539748   -3.1105307771845276e-05
-0.0025504303197724214   -0.0028612066685184136   -4.816955937458274e-05
-0.003384725822660162   -0.0014918308210958389   -4.0487999417645444e-05
-0.0025888465993640117   -0.001498346721539748   -3.1105307771845276e-05
-0.0033452238768002453   -0.0028591143660460583   -6.213256102489834e-05
-0.0025504303197724214   -0.0028612066685184136   -4.816955937458274e-05
-0.002597476982903178   -0.0014909013334780507   -2.7582910108456498e-05
-0.0033500144144194173   -0.002854399257576834   -5.770818292610856e-05
-0.002557866341404357   -0.002854757427122154   -4.248391775588421e-05
-0.002597476982903178   -0.0014909013334780507   -2.7582910108456498e-05
-0.003384725822660162   -0.0014918308210958389   -4.0487999417645444e-05
-0.0033500144144194173   -0.002854399257576834   -5.770818292610856e-05
-0.003391156164449461   -0.0014839361843309088   -3.834767813456441e-05
-0.002557866341404357   -0.002854757427122154   -4.248391775588421e-05
-0.0033543953231118264   -0.0028488761143816085   -5.235963841577174e-05
-0.003391156164449461   -0.0014839361843309088   -3.834767813456441e-05
-0.0033500144144194173   -0.002854399257576834   -5.770818292610856e-05
-0.002557866341404357   -0.002854757427122154   -4.248391775588421e-05
-0.003391156164449461   -0.0014839361843309088   -3.834767813456441e-05
-0.0026051774586237464   -0.0014825797694158398   -2.4069582711171354e-05
-0.002597476982903178   -0.0014909013334780507   -2.7582910108456498e-05
-0.002557866341404357   -0.002854757427122154   -4.248391775588421e-05
-0.003391156164449461   -0.0014839361843309088   -3.834767813456441e-05
-0.002597476982903178   -0.0014909013334780507   -2.7582910108456498e-05
-0.0033500144144194173   -0.002854399257576834   -5.770818292610856e-05
-0.002557866341404357   -0.002854757427122154   -4.248391775588421e-05
-0.0026051774586237464   -0.0014825797694158398   -2.4069582711171354e-05
-0.0033543953231118264   -0.0028488761143816085   -5.235963841577174e-05
-0.0025648862088104647   -0.002848235066707482   -3.624980403686579e-05
-0.0026051774586237464   -0.0014825797694158398   -2.4069582711171354e-05
-0.003391156164449461   -0.0014839361843309088   -3.834767813456441e-05
-0.0033543953231118264   -0.0028488761143816085   -5.235963841577174e-05
-0.0033962567786713165   -0.001475617390582855   -3.618247472481613e-05
-0.0025648862088104647   -0.002848235066707482   -3.624980403686579e-05
-0.003355654690687702   -0.0028443685004912746   -4.628171746523316e-05
-0.0033962567786713165   -0.001475617390582855   -3.618247472481613e-05
-0.0033543953231118264   -0.0028488761143816085   -5.235963841577174e-05
-0.0025648862088104647   -0.002848235066707482   -3.624980403686579e-05
-0.0033962567786713165   -0.001475617390582855   -3.618247472481613e-05
-0.0026121890816065817   -0.0014736174188963436   -2.034517891652971e-05
-0.0026051774586237464   -0.0014825797694158398   -2.4069582711171354e-05
-0.0025648862088104647   -0.002848235066707482   -3.624980403686579e-05
-0.0033962567786713165   -0.001475617390582855   -3.618247472481613e-05
-0.0026051774586237464   -0.0014825797694158398   -2.4069582711171354e-05
-0.0033543953231118264   -0.0028488761143816085   -5.235963841577174e-05
0.00038351315611587954   -0.0014658857349448785   1.6188459979971174e-05
0.0   0.0   0.0
-0.00037887334350029077   -0.001449357361667504   1.2308322887440121e-05
0.0003498000397916449   -0.0014501288043787433   3.511332894475566e-05
0.0   0.0   0.0
-0.00046547421693995185   -0.0001351691263726424   1.38958756200747e-07
-0.00037887334350029077   -0.001449357361667504   1.2308322887440121e-05
-0.0004936517583107599   -0.00010849269604171915   1.7916901948994427e-05
0.0003498000397916449   -0.0014501288043787433   3.511332894475566e-05
-0.0003895695377691225   -0.001444842804611754   2.0152527131081284e-05
-0.0004936517583107599   -0.00010849269604171915   1.7916901948994427e-05
-0.00037887334350029077   -0.001449357361667504   1.2308322887440121e-05
0.0003498000397916449   -0.0014501288043787433   3.511332894475566e-05
-0.0004936517583107599   -0.00010849269604171915   1.7916901948994427e-05
0.0   0.0   0.0
0.0   0.0   0.0
0.0003498000397916449   -0.0014501288043787433   3.511332894475566e-05
-0.0004936517583107599   -0.00010849269604171915   1.7916901948994427e-05
0.0   0.0   0.0
-0.00037887334350029077   -0.001449357361667504   1.2308322887440121e-05
0.0003498000397916449   -0.0014501288043787433   3.511332894475566e-05
0.0   0.0   0.0
-0.0003895695377691225   -0.001444842804611754   2.0152527131081284e-05
0.00033031432600028006   -0.001438156534297357   4.8917151156991965e-05
0.0   0.0   0.0
-0.0004936517583107599   -0.00010849269604171915   1.7916901948994427e-05
-0.0003895695377691225   -0.001444842804611754   2.0152527131081284e-05
-0.0005118527584940554   -9.609641358551308e-05   2.8753324761150495e-05
0.00033031432600028006   -0.001438156534297357   4.8917151156991965e-05
-0.0004041999495379108   -0.0014348638533772488   2.984262372130494e-05
-0.0005118527584940554   -9.609641358551308e-05   2.8753324761150495e-05
-0.0003895695377691225   -0.001444842804611754   2.0152527131081284e-05
0.00033031432600028006   -0.001438156534297357   4.8917151156991965e-05
-0.0005118527584940554   -9.609641358551308e-05   2.8753324761150495e-05
0.0   0.0   0.0
0.0   0.0   0.0
0.00033031432600028006   -0.001438156534297357   4.8917151156991965e-05
-0.0005118527584940554   -9.609641358551308e-05   2.8753324761150495e-05
0.0   0.0   0.0
-0.0003895695377691225   -0.001444842804611754   2.0152527131081284e-05
0.00033031432600028006   -0.001438156534297357   4.8917151156991965e-05
0.0   0.0   0.0
-0.0004041999495379108   -0.0014348638533772488   2.984262372130494e-05
0.00030492944983315435   -0.0014190027412669106   6.487283891729538e-05
0.0   0.0   0.0
-0.0005118527584940554   -9.609641358551308e-05   2.8753324761150495e-05
-0.0004041999495379108   -0.0014348638533772488   2.984262372130494e-05
-0.0005371573524487973   -7.934057155077852e-05   4.1301748029905585e-05
0.00030492944983315435   -0.0014190027412669106   6.487283891729538e-05
-0.00041675209279553373   -0.0014244826353519704   3.8338089031693914e-05
-0.0005371573524487973   -7.934057155077852e-05   4.1301748029905585e-05
-0.0004041999495379108   -0.0014348638533772488   2.984262372130494e-05
0.00030492944983315435   -0.0014190027412669106   6.487283891729538e-05
-0.0005371573524487973   -7.934057155077852e-05   4.1301748029905585e-05
0.0   0.0   0.0
0.0   0.0   0.0
0.00030492944983315435   -0.0014190027412669106   6.487283891729538e-05
-0.0005371573524487973   -7.934057155077852e-05   4.1301748029905585e-05
0.0   0.0   0.0
-0.0004041999495379108   -0.0014348638533772488   2.984262372130494e-05
-0.00037887334350029077   -0.001449357361667504   1.2308322887440121e-05
-0.00046547421693995185   -0.0001351691263726424   1.38958756200747e-07
-0.0010972612092018104   -0.0014725551090913043   -1.0787422647485825e-06
-0.0003895695377691225   -0.001444842804611754   2.0152527131081284e-05
-0.00046547421693995185   -0.0001351691263726424   1.38958756200747e-07
-0.0011263867268197013   -0.00018334922979666758   6.050101709326955e-06
-0.0010972612092018104   -0.0014725551090913043   -1.0787422647485825e-06
-0.0011415859621079695   -0.00016974770477824508   1.1392886968643533e-05
-0.0003895695377691225   -0.001444842804611754   2.0152527131081284e-05
-0.0011076182749918907   -0.001464286220801177   4.684804386055981e-06
-0.0011415859621079695   -0.00016974770477824508   1.1392886968643533e-05
-0.0010972612092018104   -0.0014725551090913043   -1.0787422647485825e-06
-0.0003895695377691225   -0.001444842804611754   2.0152527131081284e-05
-0.0011415859621079695   -0.00016974770477824508   1.1392886968643533e-05
-0.0004936517583107599   -0.00010849269604171915   1.7916901948994427e-05
-0.00046547421693995185   -0.0001351691263726424   1.38958756200747e-07
-0.0003895695377691225   -0.001444842804611754   2.0152527131081284e-05
-0.0011415859621079695   -0.00016974770477824508   1.1392886968643533e-05
-0.00046547421693995185   -0.0001351691263726424   1.38958756200747e-07
-0.0010972612092018104   -0.0014725551090913043   -1.0787422647485825e-06
-0.0003895695377691225   -0.001444842804611754   2.0152527131081284e-05
-0.0004936517583107599   -0.00010849269604171915   1.7916901948994427e-05
-0.0011076182749918907   -0.001464286220801177   4.684804386055981e-06
-0.0004041999495379108   -0.0014348638533772488   2.984262372130494e-05
-0.0004936517583107599   -0.00010849269604171915   1.7916901948994427e-05
-0.0011415859621079695   -0.00016974770477824508   1.1392886968643533e-05
-0.0011076182749918907   -0.001464286220801177   4.684804386055981e-06
-0.0011569610628719348   -0.000153572904256844   2.0367439281737755e-05
-0.0004041999495379108   -0.0014348638533772488   2.984262372130494e-05
-0.0011187349169232159   -0.001454597790096888   1.0923079465626035e-05
-0.0011569610628719348   -0.000153572904256844   2.0367439281737755e-05
-0.0011076182749918907   -0.001464286220801177   4.684804386055981e-06
-0.0004041999495379108   -0.0014348638533772488   2.984262372130494e-05
-0.0011569610628719348   -0.000153572904256844   2.0367439281737755e-05
-0.0005118527584940554   -9.609641358551308e-05   2.8753324761150495e-05
-0.0004936517583107599   -0.00010849269604171915   1.7916901948994427e-05
-0.0004041999495379108   -0.0014348638533772488   2.984262372130494e-05
-0.0011569610628719348   -0.000153572904256844   2.0367439281737755e-05
-0.0004936517583107599   -0.00010849269604171915   1.7916901948994427e-05
-0.0011076182749918907   -0.001464286220801177   4.684804386055981e-06
-0.0004041999495379108   -0.0014348638533772488   2.984262372130494e-05
-0.0005118527584940554   -9.609641358551308e-05   2.8753324761150495e-05
-0.0011187349169232159   -0.001454597790096888   1.0923079465626035e-05
-0.00041675209279553373   -0.0014244826353519704   3.8338089031693914e-05
-0.0005118527584940554   -9.609641358551308e-05   2.8753324761150495e-05
-0.0011569610628719348   -0.000153572904256844   2.0367439281737755e-05
-0.0011187349169232159   -0.001454597790096888   1.0923079465626035e-05
-0.0011749225532960365   -0.00013427947244168582   2.9332599580623028e-05
-0.00041675209279553373   -0.0014244826353519704   3.8338089031693914e-05
-0.0011295298302086982   -0.0014439751139943586   1.7885385620421045e-05
-0.0011749225532960365   -0.00013427947244168582   2.9332599580623028e-05
-0.0011187349169232159   -0.001454597790096888   1.0923079465626035e-05
-0.00041675209279553373   -0.0014244826353519704   3.8338089031693914e-05
-0.0011749225532960365   -0.00013427947244168582   2.9332599580623028e-05
-0.0005371573524487973   -7.934057155077852e-05   4.1301748029905585e-05
-0.0005118527584940554   -9.609641358551308e-05   2.8753324761150495e-05
-0.00041675209279553373   -0.0014244826353519704   3.8338089031693914e-05
-0.0011749225532960365   -0.00013427947244168582   2.9332599580623028e-05
-0.0005118527584940554   -9.609641358551308e-05   2.8753324761150495e-05
-0.0011187349169232159   -0.001454597790096888   1.0923079465626035e-05
-0.0010972612092018104   -0.0014725551090913043   -1.0787422647485825e-06
-0.0011263867268197013   -0.00018334922979666758   6.050101709326955e-06
-0.0018301361211160811   -0.0014907263360539945   -1.6800491096184154e-05
-0.0011076182749918907   -0.001464286220801177   4.684804386055981e-06
-0.0011263867268197013   -0.00018334922979666758   6.050101709326955e-06
-0.0018470301338354166   -0.0002003600655321768   -1.7113100254377778e-06
-0.0018301361211160811   -0.0014907263360539945   -1.6800491096184154e-05
-0.0018566433079652924   -0.0001908482721404835   1.295177905291218e-07
-0.0011076182749918907   -0.001464286220801177   4.684804386055981e-06
-0.0018396613125036983   -0.001482134567599281   -1.2163210241815809e-05
-0.0018566433079652924   -0.0001908482721404835   1.295177905291218e-07
-0.0018301361211160811   -0.0014907263360539945   -1.6800491096184154e-05
-0.0011076182749918907   -0.001464286220801177   4.684804386055981e-06
-0.0018566433079652924   -0.0001908482721404835   1.295177905291218e-07
-0.0011415859621079695   -0.00016974770477824508   1.1392886968643533e-05
-0.0011263867268197013   -0.00018334922979666758   6.050101709326955e-06
-0.0011076182749918907   -0.001464286220801177   4.684804386055981e-06
-0.0018566433079652924   -0.0001908482721404835   1.295177905291218e-07
-0.0011263867268197013   -0.00018334922979666758   6.050101709326955e-06
-0.0018301361211160811   -0.0014907263360539945   -1.6800491096184154e-05
-0.0011076182749918907   -0.001464286220801177   4.684804386055981e-06
-0.0011415859621079695   -0.00016974770477824508   1.1392886968643533e-05
-0.0018396613125036983   -0.001482134567599281   -1.2163210241815809e-05
-0.0011187349169232159   -0.001454597790096888   1.0923079465626035e-05
-0.0011415859621079695   -0.00016974770477824508   1.1392886968643533e-05
-0.0018566433079652924   -0.0001908482721404835   1.295177905291218e-07
-0.0018396613125036983   -0.001482134567599281   -1.2163210241815809e-05
-0.0018667093493090353   -0.0001792634035794656   3.1531363492825566e-06
-0.0011187349169232159   -0.001454597790096888   1.0923079465626035e-05
-0.0018489351746827914   -0.0014729042864571839   -7.441673988256673e-06
-0.0018667093493090353   -0.0001792634035794656   3.1531363492825566e-06
-0.0018396613125036983   -0.001482134567599281   -1.2163210241815809e-05
-0.0011187349169232159   -0.001454597790096888   1.0923079465626035e-05
-0.0018667093493090353   -0.0001792634035794656   3.1531363492825566e-06
-0.0011569610628719348   -0.000153572904256844   2.0367439281737755e-05
-0.0011415859621079695   -0.00016974770477824508   1.1392886968643533e-05
-0.0011187349169232159   -0.001454597790096888   1.0923079465626035e-05
-0.0018667093493090353   -0.0001792634035794656   3.1531363492825566e-06
-0.0011415859621079695   -0.00016974770477824508   1.1392886968643533e-05
-0.0018396613125036983   -0.001482134567599281   -1.2163210241815809e-05
-0.0011187349169232159   -0.001454597790096888   1.0923079465626035e-05
-0.0011569610628719348   -0.000153572904256844   2.0367439281737755e-05
-0.0018489351746827914   -0.0014729042864571839   -7.441673988256673e-06
-0.0011295298302086982   -0.0014439751139943586   1.7885385620421045e-05
-0.0011569610628719348   -0.000153572904256844   2.0367439281737755e-05
-0.0018667093493090353   -0.0001792634035794656   3.1531363492825566e-06
-0.0018489351746827914   -0.0014729042864571839   -7.441673988256673e-06
-0.0018770346851808039   -0.00016426303461299012   7.1562908728361066e-06
-0.0011295298302086982   -0.0014439751139943586   1.7885385620421045e-05
-0.001857611851443389   -0.0014627886885550869   -2.1960880078786373e-06
-0.0018770346851808039   -0.00016426303461299012   7.1562908728361066e-06
-0.0018489351746827914   -0.0014729042864571839   -7.441673988256673e-06
-0.0011295298302086982   -0.0014439751139943586   1.7885385620421045e-05
-0.0018770346851808039   -0.00016426303461299012   7.1562908728361066e-06
-0.0011749225532960365   -0.00013427947244168582   2.9332599580623028e-05
-0.0011569610628719348   -0.000153572904256844   2.0367439281737755e-05
-0.0011295298302086982   -0.0014439751139943586   1.7885385620421045e-05
-0.0018770346851808039   -0.00016426303461299012   7.1562908728361066e-06
-0.0011569610628719348   -0.000153572904256844   2.0367439281737755e-05
-0.0018489351746827914   -0.0014729042864571839   -7.441673988256673e-06
-0.0018301361211160811   -0.0014907263360539945   -1.6800491096184154e-05
-0.0018470301338354166   -0.0002003600655321768   -1.7113100254377778e-06
-0.0025888465993640117   -0.001498346721539748   -3.1105307771845276e-05
-0.0018396613125036983   -0.001482134567599281   -1.2163210241815809e-05
-0.0018470301338354166   -0.0002003600655321768   -1.7113100254377778e-06
-0.0026028431758494193   -0.0002014867285080236   -1.5685582604098604e-05
-0.0025888465993640117   -0.001498346721539748   -3.1105307771845276e-05
-0.002609437545306733   -0.00019375664277834144   -1.4842944333516255e-05
-0.0018396613125036983   -0.001482134567599281   -1.2163210241815809e-05
-0.002597476982903178   -0.0014909013334780507   -2.7582910108456498e-05
-0.002609437545306733   -0.00019375664277834144   -1.4842944333516255e-05
-0.0025888465993640117   -0.001498346721539748   -3.1105307771845276e-05
-0.0018396613125036983   -0.001482134567599281   -1.2163210241815809e-05
-0.002609437545306733   -0.00019375664277834144   -1.4842944333516255e-05
-0.0018566433079652924   -0.0001908482721404835   1.295177905291218e-07
-0.0018470301338354166   -0.0002003600655321768   -1.7113100254377778e-06
-0.0018396613125036983   -0.001482134567599281   -1.2163210241815809e-05
-0.002609437545306733   -0.00019375664277834144   -1.4842944333516255e-05
-0.0018470301338354166   -0.0002003600655321768   -1.7113100254377778e-06
-0.0025888465993640117   -0.001498346721539748   -3.1105307771845276e-05
-0.0018396613125036983   -0.001482134567599281   -1.2163210241815809e-05
-0.0018566433079652924   -0.0001908482721404835   1.295177905291218e-07
-0.002597476982903178   -0.0014909013334780507   -2.7582910108456498e-05
-0.0018489351746827914   -0.0014729042864571839   -7.441673988256673e-06
-0.0018566433079652924   -0.0001908482721404835   1.295177905291218e-07
-0.002609437545306733   -0.00019375664277834144   -1.4842944333516255e-05
-0.002597476982903178   -0.0014909013334780507   -2.7582910108456498e-05
-0.0026162935293079235   -0.00018462734867381804   -1.3952236533535984e-05
-0.0018489351746827914   -0.0014729042864571839   -7.441673988256673e-06
-0.0026051774586237464   -0.0014825797694158398   -2.4069582711171354e-05
-0.0026162935293079235   -0.00018462734867381804   -1.3952236533535984e-05
-0.002597476982903178   -0.0014909013334780507   -2.7582910108456498e-05
-0.0018489351746827914   -0.0014729042864571839   -7.441673988256673e-06
-0.0026162935293079235   -0.00018462734867381804   -1.3952236533535984e-05
-0.0018667093493090353   -0.0001792634035794656   3.1531363492825566e-06
-0.0018566433079652924   -0.0001908482721404835   1.295177905291218e-07
-0.0018489351746827914   -0.0014729042864571839   -7.441673988256673e-06
-0.0026162935293079235   -0.00018462734867381804   -1.3952236533535984e-05
-0.0018566433079652924   -0.0001908482721404835   1.295177905291218e-07
-0.002597476982903178   -0.0014909013334780507   -2.7582910108456498e-05
-0.0018489351746827914   -0.0014729042864571839   -7.441673988256673e-06
-0.0018667093493090353   -0.0001792634035794656   3.1531363492825566e-06
-0.0026051774586237464   -0.0014825797694158398   -2.4069582711171354e-05
-0.001857611851443389   -0.0014627886885550869   -2.1960880078786373e-06
-0.0018667093493090353   -0.0001792634035794656   3.1531363492825566e-06
-0.0026162935293079235   -0.00018462734867381804   -1.3952236533535984e-05
-0.0026051774586237464   -0.0014825797694158398   -2.4069582711171354e-05
-0.002622049145402189   -0.00017420852740255877   -1.3013837601544154e-05
-0.001857611851443389   -0.0014627886885550869   -2.1960880078786373e-06
-0.0026121890816065817   -0.0014736174188963436   -2.034517891652971e-05
-0.002622049145402189   -0.00017420852740255877   -1.3013837601544154e-05
-0.0026051774586237464   -0.0014825797694158398   -2.4069582711171354e-05
-0.001857611851443389   -0.0014627886885550869   -2.1960880078786373e-06
-0.002622049145402189   -0.00017420852740255877   -1.3013837601544154e-05
-0.0018770346851808039   -0.00016426303461299012   7.1562908728361066e-06
-0.0018667093493090353   -0.0001792634035794656   3.1531363492825566e-06
-0.001857611851443389   -0.0014627886885550869   -2.1960880078786373e-06
-0.002622049145402189   -0.00017420852740255877   -1.3013837601544154e-05
-0.0018667093493090353   -0.0001792634035794656   3.1531363492825566e-06
-0.0026051774586237464   -0.0014825797694158398   -2.4069582711171354e-05
-0.0025888465993640117   -0.001498346721539748   -3.1105307771845276e-05
-0.0026028431758494193   -0.0002014867285080236   -1.5685582604098604e-05
-0.0033775487340797767   -0.0014989335174867332   -4.227455073664872e-05
-0.002597476982903178   -0.0014909013334780507   -2.7582910108456498e-05
-0.0026028431758494193   -0.0002014867285080236   -1.5685582604098604e-05
-0.0033816860686454735   -0.00020065431802365223   -2.970385964268157e-05
-0.0033775487340797767   -0.0014989335174867332   -4.227455073664872e-05
-0.0033869203338879254   -0.00019246277822248658   -2.952111366565006e-05
-0.002597476982903178   -0.0014909013334780507   -2.7582910108456498e-05
-0.003384725822660162   -0.0014918308210958389   -4.0487999417645444e-05
-0.0033869203338879254   -0.00019246277822248658   -2.952111366565006e-05
-0.0033775487340797767   -0.0014989335174867332   -4.227455073664872e-05
-0.002597476982903178   -0.0014909013334780507   -2.7582910108456498e-05
-0.0033869203338879254   -0.00019246277822248658   -2.952111366565006e-05
-0.002609437545306733   -0.00019375664277834144   -1.4842944333516255e-05
-0.0026028431758494193   -0.0002014867285080236   -1.5685582604098604e-05
-0.002597476982903178   -0.0014909013334780507   -2.7582910108456498e-05
-0.0033869203338879254   -0.00019246277822248658   -2.952111366565006e-05
-0.0026028431758494193   -0.0002014867285080236   -1.5685582604098604e-05
-0.0033775487340797767   -0.0014989335174867332   -4.227455073664872e-05
-0.002597476982903178   -0.0014909013334780507   -2.7582910108456498e-05
-0.002609437545306733   -0.00019375664277834144   -1.4842944333516255e-05
-0.003384725822660162   -0.0014918308210958389   -4.0487999417645444e-05
-0.0026051774586237464   -0.0014825797694158398   -2.4069582711171354e-05
-0.002609437545306733   -0.00019375664277834144   -1.4842944333516255e-05
-0.0033869203338879254   -0.00019246277822248658   -2.952111366565006e-05
-0.003384725822660162   -0.0014918308210958389   -4.0487999417645444e-05
-0.003392618537226345   -0.00018392380135346008   -2.9996326087469857e-05
-0.0026051774586237464   -0.0014825797694158398   -2.4069582711171354e-05
-0.003391156164449461   -0.0014839361843309088   -3.834767813456441e-05
-0.003392618537226345   -0.00018392380135346008   -2.9996326087469857e-05
-0.003384725822660162   -0.0014918308210958389   -4.0487999417645444e-05
-0.0026051774586237464   -0.0014825797694158398   -2.4069582711171354e-05
-0.003392618537226345   -0.00018392380135346008   -2.9996326087469857e-05
-0.0026162935293079235   -0.00018462734867381804   -1.3952236533535984e-05
-0.002609437545306733   -0.00019375664277834144   -1.4842944333516255e-05
-0.0026051774586237464   -0.0014825797694158398   -2.4069582711171354e-05
-0.003392618537226345   -0.00018392380135346008   -2.9996326087469857e-05
-0.002609437545306733   -0.00019375664277834144   -1.4842944333516255e-05
-0.003384725822660162   -0.0014918308210958389   -4.0487999417645444e-05
-0.0026051774586237464   -0.0014825797694158398   -2.4069582711171354e-05
-0.0026162935293079235   -0.00018462734867381804   -1.3952236533535984e-05
-0.003391156164449461   -0.0014839361843309088   -3.834767813456441e-05
-0.0026121890816065817   -0.0014736174188963436   -2.034517891652971e-05
-0.0026162935293079235   -0.00018462734867381804   -1.3952236533535984e-05
-0.003392618537226345   -0.00018392380135346008   -2.9996326087469857e-05
-0.003391156164449461   -0.0014839361843309088   -3.834767813456441e-05
-0.0033969963485467286   -0.00017437864182917305   -3.0417887520379167e-05
-0.0026121890816065817   -0.0014736174188963436   -2.034517891652971e-05
-0.0033962567786713165   -0.001475617390582855   -3.618247472481613e-05
-0.0033969963485467286   -0.00017437864182917305   -3.0417887520379167e-05
-0.003391156164449461   -0.0014839361843309088   -3.834767813456441e-05
-0.0026121890816065817   -0.0014736174188963436   -2.034517891652971e-05
-0.0033969963485467286   -0.00017437864182917305   -3.0417887520379167e-05
-0.002622049145402189   -0.00017420852740255877   -1.3013837601544154e-05
-0.0026162935293079235   -0.00018462734867381804   -1.3952236533535984e-05
-0.0026121890816065817   -0.0014736174188963436   -2.034517891652971e-05
-0.0033969963485467286   -0.00017437864182917305   -3.0417887520379167e-05
-0.0026162935293079235   -0.00018462734867381804   -1.3952236533535984e-05
-0.003391156164449461   -0.0014839361843309088   -3.834767813456441e-05
              </DataArray>   
          </PointData>  
       </Piece>  
   </UnstructuredGrid> 
</VTKFile> 
