<?xml version="1.0"?> 
<VTKFile type="UnstructuredGrid"> 
   <UnstructuredGrid> 
      <Piece NumberOfPoints="6000"  NumberOfCells="1500">  
          <Points>  
             <DataArray type="Float64" NumberOfComponents="3" format="ascii">   
-500.0   0.0   0.0
-450.0   0.0   0.0
-500.0   30.0   0.0
-500.0   0.0   16.666666666666668
-450.0   0.0   0.0
-450.0   30.0   0.0
-500.0   30.0   0.0
-450.0   30.0   16.666666666666668
-500.0   0.0   16.666666666666668
-500.0   30.0   16.666666666666668
-450.0   30.0   16.666666666666668
-500.0   30.0   0.0
-500.0   0.0   16.666666666666668
-450.0   30.0   16.666666666666668
-450.0   0.0   16.666666666666668
-450.0   0.0   0.0
-500.0   0.0   16.666666666666668
-450.0   30.0   16.666666666666668
-450.0   0.0   0.0
-500.0   30.0   0.0
-500.0   0.0   16.666666666666668
-450.0   0.0   16.666666666666668
-500.0   30.0   16.666666666666668
-500.0   0.0   33.333333333333336
-450.0   0.0   16.666666666666668
-450.0   30.0   16.666666666666668
-500.0   30.0   16.666666666666668
-450.0   30.0   33.333333333333336
-500.0   0.0   33.333333333333336
-500.0   30.0   33.333333333333336
-450.0   30.0   33.333333333333336
-500.0   30.0   16.666666666666668
-500.0   0.0   33.333333333333336
-450.0   30.0   33.333333333333336
-450.0   0.0   33.333333333333336
-450.0   0.0   16.666666666666668
-500.0   0.0   33.333333333333336
-450.0   30.0   33.333333333333336
-450.0   0.0   16.666666666666668
-500.0   30.0   16.666666666666668
-500.0   0.0   33.333333333333336
-450.0   0.0   33.333333333333336
-500.0   30.0   33.333333333333336
-500.0   0.0   50.0
-450.0   0.0   33.333333333333336
-450.0   30.0   33.333333333333336
-500.0   30.0   33.333333333333336
-450.0   30.0   50.0
-500.0   0.0   50.0
-500.0   30.0   50.0
-450.0   30.0   50.0
-500.0   30.0   33.333333333333336
-500.0   0.0   50.0
-450.0   30.0   50.0
-450.0   0.0   50.0
-450.0   0.0   33.333333333333336
-500.0   0.0   50.0
-450.0   30.0   50.0
-450.0   0.0   33.333333333333336
-500.0   30.0   33.333333333333336
-500.0   30.0   0.0
-450.0   30.0   0.0
-500.0   60.0   0.0
-500.0   30.0   16.666666666666668
-450.0   30.0   0.0
-450.0   60.0   0.0
-500.0   60.0   0.0
-450.0   60.0   16.666666666666668
-500.0   30.0   16.666666666666668
-500.0   60.0   16.666666666666668
-450.0   60.0   16.666666666666668
-500.0   60.0   0.0
-500.0   30.0   16.666666666666668
-450.0   60.0   16.666666666666668
-450.0   30.0   16.666666666666668
-450.0   30.0   0.0
-500.0   30.0   16.666666666666668
-450.0   60.0   16.666666666666668
-450.0   30.0   0.0
-500.0   60.0   0.0
-500.0   30.0   16.666666666666668
-450.0   30.0   16.666666666666668
-500.0   60.0   16.666666666666668
-500.0   30.0   33.333333333333336
-450.0   30.0   16.666666666666668
-450.0   60.0   16.666666666666668
-500.0   60.0   16.666666666666668
-450.0   60.0   33.333333333333336
-500.0   30.0   33.333333333333336
-500.0   60.0   33.333333333333336
-450.0   60.0   33.333333333333336
-500.0   60.0   16.666666666666668
-500.0   30.0   33.333333333333336
-450.0   60.0   33.333333333333336
-450.0   30.0   33.333333333333336
-450.0   30.0   16.666666666666668
-500.0   30.0   33.333333333333336
-450.0   60.0   33.333333333333336
-450.0   30.0   16.666666666666668
-500.0   60.0   16.666666666666668
-500.0   30.0   33.333333333333336
-450.0   30.0   33.333333333333336
-500.0   60.0   33.333333333333336
-500.0   30.0   50.0
-450.0   30.0   33.333333333333336
-450.0   60.0   33.333333333333336
-500.0   60.0   33.333333333333336
-450.0   60.0   50.0
-500.0   30.0   50.0
-500.0   60.0   50.0
-450.0   60.0   50.0
-500.0   60.0   33.333333333333336
-500.0   30.0   50.0
-450.0   60.0   50.0
-450.0   30.0   50.0
-450.0   30.0   33.333333333333336
-500.0   30.0   50.0
-450.0   60.0   50.0
-450.0   30.0   33.333333333333336
-500.0   60.0   33.333333333333336
-500.0   60.0   0.0
-450.0   60.0   0.0
-500.0   90.0   0.0
-500.0   60.0   16.666666666666668
-450.0   60.0   0.0
-450.0   90.0   0.0
-500.0   90.0   0.0
-450.0   90.0   16.666666666666668
-500.0   60.0   16.666666666666668
-500.0   90.0   16.666666666666668
-450.0   90.0   16.666666666666668
-500.0   90.0   0.0
-500.0   60.0   16.666666666666668
-450.0   90.0   16.666666666666668
-450.0   60.0   16.666666666666668
-450.0   60.0   0.0
-500.0   60.0   16.666666666666668
-450.0   90.0   16.666666666666668
-450.0   60.0   0.0
-500.0   90.0   0.0
-500.0   60.0   16.666666666666668
-450.0   60.0   16.666666666666668
-500.0   90.0   16.666666666666668
-500.0   60.0   33.333333333333336
-450.0   60.0   16.666666666666668
-450.0   90.0   16.666666666666668
-500.0   90.0   16.666666666666668
-450.0   90.0   33.333333333333336
-500.0   60.0   33.333333333333336
-500.0   90.0   33.333333333333336
-450.0   90.0   33.333333333333336
-500.0   90.0   16.666666666666668
-500.0   60.0   33.333333333333336
-450.0   90.0   33.333333333333336
-450.0   60.0   33.333333333333336
-450.0   60.0   16.666666666666668
-500.0   60.0   33.333333333333336
-450.0   90.0   33.333333333333336
-450.0   60.0   16.666666666666668
-500.0   90.0   16.666666666666668
-500.0   60.0   33.333333333333336
-450.0   60.0   33.333333333333336
-500.0   90.0   33.333333333333336
-500.0   60.0   50.0
-450.0   60.0   33.333333333333336
-450.0   90.0   33.333333333333336
-500.0   90.0   33.333333333333336
-450.0   90.0   50.0
-500.0   60.0   50.0
-500.0   90.0   50.0
-450.0   90.0   50.0
-500.0   90.0   33.333333333333336
-500.0   60.0   50.0
-450.0   90.0   50.0
-450.0   60.0   50.0
-450.0   60.0   33.333333333333336
-500.0   60.0   50.0
-450.0   90.0   50.0
-450.0   60.0   33.333333333333336
-500.0   90.0   33.333333333333336
-500.0   90.0   0.0
-450.0   90.0   0.0
-500.0   120.0   0.0
-500.0   90.0   16.666666666666668
-450.0   90.0   0.0
-450.0   120.0   0.0
-500.0   120.0   0.0
-450.0   120.0   16.666666666666668
-500.0   90.0   16.666666666666668
-500.0   120.0   16.666666666666668
-450.0   120.0   16.666666666666668
-500.0   120.0   0.0
-500.0   90.0   16.666666666666668
-450.0   120.0   16.666666666666668
-450.0   90.0   16.666666666666668
-450.0   90.0   0.0
-500.0   90.0   16.666666666666668
-450.0   120.0   16.666666666666668
-450.0   90.0   0.0
-500.0   120.0   0.0
-500.0   90.0   16.666666666666668
-450.0   90.0   16.666666666666668
-500.0   120.0   16.666666666666668
-500.0   90.0   33.333333333333336
-450.0   90.0   16.666666666666668
-450.0   120.0   16.666666666666668
-500.0   120.0   16.666666666666668
-450.0   120.0   33.333333333333336
-500.0   90.0   33.333333333333336
-500.0   120.0   33.333333333333336
-450.0   120.0   33.333333333333336
-500.0   120.0   16.666666666666668
-500.0   90.0   33.333333333333336
-450.0   120.0   33.333333333333336
-450.0   90.0   33.333333333333336
-450.0   90.0   16.666666666666668
-500.0   90.0   33.333333333333336
-450.0   120.0   33.333333333333336
-450.0   90.0   16.666666666666668
-500.0   120.0   16.666666666666668
-500.0   90.0   33.333333333333336
-450.0   90.0   33.333333333333336
-500.0   120.0   33.333333333333336
-500.0   90.0   50.0
-450.0   90.0   33.333333333333336
-450.0   120.0   33.333333333333336
-500.0   120.0   33.333333333333336
-450.0   120.0   50.0
-500.0   90.0   50.0
-500.0   120.0   50.0
-450.0   120.0   50.0
-500.0   120.0   33.333333333333336
-500.0   90.0   50.0
-450.0   120.0   50.0
-450.0   90.0   50.0
-450.0   90.0   33.333333333333336
-500.0   90.0   50.0
-450.0   120.0   50.0
-450.0   90.0   33.333333333333336
-500.0   120.0   33.333333333333336
-500.0   120.0   0.0
-450.0   120.0   0.0
-500.0   150.0   0.0
-500.0   120.0   16.666666666666668
-450.0   120.0   0.0
-450.0   150.0   0.0
-500.0   150.0   0.0
-450.0   150.0   16.666666666666668
-500.0   120.0   16.666666666666668
-500.0   150.0   16.666666666666668
-450.0   150.0   16.666666666666668
-500.0   150.0   0.0
-500.0   120.0   16.666666666666668
-450.0   150.0   16.666666666666668
-450.0   120.0   16.666666666666668
-450.0   120.0   0.0
-500.0   120.0   16.666666666666668
-450.0   150.0   16.666666666666668
-450.0   120.0   0.0
-500.0   150.0   0.0
-500.0   120.0   16.666666666666668
-450.0   120.0   16.666666666666668
-500.0   150.0   16.666666666666668
-500.0   120.0   33.333333333333336
-450.0   120.0   16.666666666666668
-450.0   150.0   16.666666666666668
-500.0   150.0   16.666666666666668
-450.0   150.0   33.333333333333336
-500.0   120.0   33.333333333333336
-500.0   150.0   33.333333333333336
-450.0   150.0   33.333333333333336
-500.0   150.0   16.666666666666668
-500.0   120.0   33.333333333333336
-450.0   150.0   33.333333333333336
-450.0   120.0   33.333333333333336
-450.0   120.0   16.666666666666668
-500.0   120.0   33.333333333333336
-450.0   150.0   33.333333333333336
-450.0   120.0   16.666666666666668
-500.0   150.0   16.666666666666668
-500.0   120.0   33.333333333333336
-450.0   120.0   33.333333333333336
-500.0   150.0   33.333333333333336
-500.0   120.0   50.0
-450.0   120.0   33.333333333333336
-450.0   150.0   33.333333333333336
-500.0   150.0   33.333333333333336
-450.0   150.0   50.0
-500.0   120.0   50.0
-500.0   150.0   50.0
-450.0   150.0   50.0
-500.0   150.0   33.333333333333336
-500.0   120.0   50.0
-450.0   150.0   50.0
-450.0   120.0   50.0
-450.0   120.0   33.333333333333336
-500.0   120.0   50.0
-450.0   150.0   50.0
-450.0   120.0   33.333333333333336
-500.0   150.0   33.333333333333336
-450.0   0.0   0.0
-400.0   0.0   0.0
-450.0   30.0   0.0
-450.0   0.0   16.666666666666668
-400.0   0.0   0.0
-400.0   30.0   0.0
-450.0   30.0   0.0
-400.0   30.0   16.666666666666668
-450.0   0.0   16.666666666666668
-450.0   30.0   16.666666666666668
-400.0   30.0   16.666666666666668
-450.0   30.0   0.0
-450.0   0.0   16.666666666666668
-400.0   30.0   16.666666666666668
-400.0   0.0   16.666666666666668
-400.0   0.0   0.0
-450.0   0.0   16.666666666666668
-400.0   30.0   16.666666666666668
-400.0   0.0   0.0
-450.0   30.0   0.0
-450.0   0.0   16.666666666666668
-400.0   0.0   16.666666666666668
-450.0   30.0   16.666666666666668
-450.0   0.0   33.333333333333336
-400.0   0.0   16.666666666666668
-400.0   30.0   16.666666666666668
-450.0   30.0   16.666666666666668
-400.0   30.0   33.333333333333336
-450.0   0.0   33.333333333333336
-450.0   30.0   33.333333333333336
-400.0   30.0   33.333333333333336
-450.0   30.0   16.666666666666668
-450.0   0.0   33.333333333333336
-400.0   30.0   33.333333333333336
-400.0   0.0   33.333333333333336
-400.0   0.0   16.666666666666668
-450.0   0.0   33.333333333333336
-400.0   30.0   33.333333333333336
-400.0   0.0   16.666666666666668
-450.0   30.0   16.666666666666668
-450.0   0.0   33.333333333333336
-400.0   0.0   33.333333333333336
-450.0   30.0   33.333333333333336
-450.0   0.0   50.0
-400.0   0.0   33.333333333333336
-400.0   30.0   33.333333333333336
-450.0   30.0   33.333333333333336
-400.0   30.0   50.0
-450.0   0.0   50.0
-450.0   30.0   50.0
-400.0   30.0   50.0
-450.0   30.0   33.333333333333336
-450.0   0.0   50.0
-400.0   30.0   50.0
-400.0   0.0   50.0
-400.0   0.0   33.333333333333336
-450.0   0.0   50.0
-400.0   30.0   50.0
-400.0   0.0   33.333333333333336
-450.0   30.0   33.333333333333336
-450.0   30.0   0.0
-400.0   30.0   0.0
-450.0   60.0   0.0
-450.0   30.0   16.666666666666668
-400.0   30.0   0.0
-400.0   60.0   0.0
-450.0   60.0   0.0
-400.0   60.0   16.666666666666668
-450.0   30.0   16.666666666666668
-450.0   60.0   16.666666666666668
-400.0   60.0   16.666666666666668
-450.0   60.0   0.0
-450.0   30.0   16.666666666666668
-400.0   60.0   16.666666666666668
-400.0   30.0   16.666666666666668
-400.0   30.0   0.0
-450.0   30.0   16.666666666666668
-400.0   60.0   16.666666666666668
-400.0   30.0   0.0
-450.0   60.0   0.0
-450.0   30.0   16.666666666666668
-400.0   30.0   16.666666666666668
-450.0   60.0   16.666666666666668
-450.0   30.0   33.333333333333336
-400.0   30.0   16.666666666666668
-400.0   60.0   16.666666666666668
-450.0   60.0   16.666666666666668
-400.0   60.0   33.333333333333336
-450.0   30.0   33.333333333333336
-450.0   60.0   33.333333333333336
-400.0   60.0   33.333333333333336
-450.0   60.0   16.666666666666668
-450.0   30.0   33.333333333333336
-400.0   60.0   33.333333333333336
-400.0   30.0   33.333333333333336
-400.0   30.0   16.666666666666668
-450.0   30.0   33.333333333333336
-400.0   60.0   33.333333333333336
-400.0   30.0   16.666666666666668
-450.0   60.0   16.666666666666668
-450.0   30.0   33.333333333333336
-400.0   30.0   33.333333333333336
-450.0   60.0   33.333333333333336
-450.0   30.0   50.0
-400.0   30.0   33.333333333333336
-400.0   60.0   33.333333333333336
-450.0   60.0   33.333333333333336
-400.0   60.0   50.0
-450.0   30.0   50.0
-450.0   60.0   50.0
-400.0   60.0   50.0
-450.0   60.0   33.333333333333336
-450.0   30.0   50.0
-400.0   60.0   50.0
-400.0   30.0   50.0
-400.0   30.0   33.333333333333336
-450.0   30.0   50.0
-400.0   60.0   50.0
-400.0   30.0   33.333333333333336
-450.0   60.0   33.333333333333336
-450.0   60.0   0.0
-400.0   60.0   0.0
-450.0   90.0   0.0
-450.0   60.0   16.666666666666668
-400.0   60.0   0.0
-400.0   90.0   0.0
-450.0   90.0   0.0
-400.0   90.0   16.666666666666668
-450.0   60.0   16.666666666666668
-450.0   90.0   16.666666666666668
-400.0   90.0   16.666666666666668
-450.0   90.0   0.0
-450.0   60.0   16.666666666666668
-400.0   90.0   16.666666666666668
-400.0   60.0   16.666666666666668
-400.0   60.0   0.0
-450.0   60.0   16.666666666666668
-400.0   90.0   16.666666666666668
-400.0   60.0   0.0
-450.0   90.0   0.0
-450.0   60.0   16.666666666666668
-400.0   60.0   16.666666666666668
-450.0   90.0   16.666666666666668
-450.0   60.0   33.333333333333336
-400.0   60.0   16.666666666666668
-400.0   90.0   16.666666666666668
-450.0   90.0   16.666666666666668
-400.0   90.0   33.333333333333336
-450.0   60.0   33.333333333333336
-450.0   90.0   33.333333333333336
-400.0   90.0   33.333333333333336
-450.0   90.0   16.666666666666668
-450.0   60.0   33.333333333333336
-400.0   90.0   33.333333333333336
-400.0   60.0   33.333333333333336
-400.0   60.0   16.666666666666668
-450.0   60.0   33.333333333333336
-400.0   90.0   33.333333333333336
-400.0   60.0   16.666666666666668
-450.0   90.0   16.666666666666668
-450.0   60.0   33.333333333333336
-400.0   60.0   33.333333333333336
-450.0   90.0   33.333333333333336
-450.0   60.0   50.0
-400.0   60.0   33.333333333333336
-400.0   90.0   33.333333333333336
-450.0   90.0   33.333333333333336
-400.0   90.0   50.0
-450.0   60.0   50.0
-450.0   90.0   50.0
-400.0   90.0   50.0
-450.0   90.0   33.333333333333336
-450.0   60.0   50.0
-400.0   90.0   50.0
-400.0   60.0   50.0
-400.0   60.0   33.333333333333336
-450.0   60.0   50.0
-400.0   90.0   50.0
-400.0   60.0   33.333333333333336
-450.0   90.0   33.333333333333336
-450.0   90.0   0.0
-400.0   90.0   0.0
-450.0   120.0   0.0
-450.0   90.0   16.666666666666668
-400.0   90.0   0.0
-400.0   120.0   0.0
-450.0   120.0   0.0
-400.0   120.0   16.666666666666668
-450.0   90.0   16.666666666666668
-450.0   120.0   16.666666666666668
-400.0   120.0   16.666666666666668
-450.0   120.0   0.0
-450.0   90.0   16.666666666666668
-400.0   120.0   16.666666666666668
-400.0   90.0   16.666666666666668
-400.0   90.0   0.0
-450.0   90.0   16.666666666666668
-400.0   120.0   16.666666666666668
-400.0   90.0   0.0
-450.0   120.0   0.0
-450.0   90.0   16.666666666666668
-400.0   90.0   16.666666666666668
-450.0   120.0   16.666666666666668
-450.0   90.0   33.333333333333336
-400.0   90.0   16.666666666666668
-400.0   120.0   16.666666666666668
-450.0   120.0   16.666666666666668
-400.0   120.0   33.333333333333336
-450.0   90.0   33.333333333333336
-450.0   120.0   33.333333333333336
-400.0   120.0   33.333333333333336
-450.0   120.0   16.666666666666668
-450.0   90.0   33.333333333333336
-400.0   120.0   33.333333333333336
-400.0   90.0   33.333333333333336
-400.0   90.0   16.666666666666668
-450.0   90.0   33.333333333333336
-400.0   120.0   33.333333333333336
-400.0   90.0   16.666666666666668
-450.0   120.0   16.666666666666668
-450.0   90.0   33.333333333333336
-400.0   90.0   33.333333333333336
-450.0   120.0   33.333333333333336
-450.0   90.0   50.0
-400.0   90.0   33.333333333333336
-400.0   120.0   33.333333333333336
-450.0   120.0   33.333333333333336
-400.0   120.0   50.0
-450.0   90.0   50.0
-450.0   120.0   50.0
-400.0   120.0   50.0
-450.0   120.0   33.333333333333336
-450.0   90.0   50.0
-400.0   120.0   50.0
-400.0   90.0   50.0
-400.0   90.0   33.333333333333336
-450.0   90.0   50.0
-400.0   120.0   50.0
-400.0   90.0   33.333333333333336
-450.0   120.0   33.333333333333336
-450.0   120.0   0.0
-400.0   120.0   0.0
-450.0   150.0   0.0
-450.0   120.0   16.666666666666668
-400.0   120.0   0.0
-400.0   150.0   0.0
-450.0   150.0   0.0
-400.0   150.0   16.666666666666668
-450.0   120.0   16.666666666666668
-450.0   150.0   16.666666666666668
-400.0   150.0   16.666666666666668
-450.0   150.0   0.0
-450.0   120.0   16.666666666666668
-400.0   150.0   16.666666666666668
-400.0   120.0   16.666666666666668
-400.0   120.0   0.0
-450.0   120.0   16.666666666666668
-400.0   150.0   16.666666666666668
-400.0   120.0   0.0
-450.0   150.0   0.0
-450.0   120.0   16.666666666666668
-400.0   120.0   16.666666666666668
-450.0   150.0   16.666666666666668
-450.0   120.0   33.333333333333336
-400.0   120.0   16.666666666666668
-400.0   150.0   16.666666666666668
-450.0   150.0   16.666666666666668
-400.0   150.0   33.333333333333336
-450.0   120.0   33.333333333333336
-450.0   150.0   33.333333333333336
-400.0   150.0   33.333333333333336
-450.0   150.0   16.666666666666668
-450.0   120.0   33.333333333333336
-400.0   150.0   33.333333333333336
-400.0   120.0   33.333333333333336
-400.0   120.0   16.666666666666668
-450.0   120.0   33.333333333333336
-400.0   150.0   33.333333333333336
-400.0   120.0   16.666666666666668
-450.0   150.0   16.666666666666668
-450.0   120.0   33.333333333333336
-400.0   120.0   33.333333333333336
-450.0   150.0   33.333333333333336
-450.0   120.0   50.0
-400.0   120.0   33.333333333333336
-400.0   150.0   33.333333333333336
-450.0   150.0   33.333333333333336
-400.0   150.0   50.0
-450.0   120.0   50.0
-450.0   150.0   50.0
-400.0   150.0   50.0
-450.0   150.0   33.333333333333336
-450.0   120.0   50.0
-400.0   150.0   50.0
-400.0   120.0   50.0
-400.0   120.0   33.333333333333336
-450.0   120.0   50.0
-400.0   150.0   50.0
-400.0   120.0   33.333333333333336
-450.0   150.0   33.333333333333336
-400.0   0.0   0.0
-350.0   0.0   0.0
-400.0   30.0   0.0
-400.0   0.0   16.666666666666668
-350.0   0.0   0.0
-350.0   30.0   0.0
-400.0   30.0   0.0
-350.0   30.0   16.666666666666668
-400.0   0.0   16.666666666666668
-400.0   30.0   16.666666666666668
-350.0   30.0   16.666666666666668
-400.0   30.0   0.0
-400.0   0.0   16.666666666666668
-350.0   30.0   16.666666666666668
-350.0   0.0   16.666666666666668
-350.0   0.0   0.0
-400.0   0.0   16.666666666666668
-350.0   30.0   16.666666666666668
-350.0   0.0   0.0
-400.0   30.0   0.0
-400.0   0.0   16.666666666666668
-350.0   0.0   16.666666666666668
-400.0   30.0   16.666666666666668
-400.0   0.0   33.333333333333336
-350.0   0.0   16.666666666666668
-350.0   30.0   16.666666666666668
-400.0   30.0   16.666666666666668
-350.0   30.0   33.333333333333336
-400.0   0.0   33.333333333333336
-400.0   30.0   33.333333333333336
-350.0   30.0   33.333333333333336
-400.0   30.0   16.666666666666668
-400.0   0.0   33.333333333333336
-350.0   30.0   33.333333333333336
-350.0   0.0   33.333333333333336
-350.0   0.0   16.666666666666668
-400.0   0.0   33.333333333333336
-350.0   30.0   33.333333333333336
-350.0   0.0   16.666666666666668
-400.0   30.0   16.666666666666668
-400.0   0.0   33.333333333333336
-350.0   0.0   33.333333333333336
-400.0   30.0   33.333333333333336
-400.0   0.0   50.0
-350.0   0.0   33.333333333333336
-350.0   30.0   33.333333333333336
-400.0   30.0   33.333333333333336
-350.0   30.0   50.0
-400.0   0.0   50.0
-400.0   30.0   50.0
-350.0   30.0   50.0
-400.0   30.0   33.333333333333336
-400.0   0.0   50.0
-350.0   30.0   50.0
-350.0   0.0   50.0
-350.0   0.0   33.333333333333336
-400.0   0.0   50.0
-350.0   30.0   50.0
-350.0   0.0   33.333333333333336
-400.0   30.0   33.333333333333336
-400.0   30.0   0.0
-350.0   30.0   0.0
-400.0   60.0   0.0
-400.0   30.0   16.666666666666668
-350.0   30.0   0.0
-350.0   60.0   0.0
-400.0   60.0   0.0
-350.0   60.0   16.666666666666668
-400.0   30.0   16.666666666666668
-400.0   60.0   16.666666666666668
-350.0   60.0   16.666666666666668
-400.0   60.0   0.0
-400.0   30.0   16.666666666666668
-350.0   60.0   16.666666666666668
-350.0   30.0   16.666666666666668
-350.0   30.0   0.0
-400.0   30.0   16.666666666666668
-350.0   60.0   16.666666666666668
-350.0   30.0   0.0
-400.0   60.0   0.0
-400.0   30.0   16.666666666666668
-350.0   30.0   16.666666666666668
-400.0   60.0   16.666666666666668
-400.0   30.0   33.333333333333336
-350.0   30.0   16.666666666666668
-350.0   60.0   16.666666666666668
-400.0   60.0   16.666666666666668
-350.0   60.0   33.333333333333336
-400.0   30.0   33.333333333333336
-400.0   60.0   33.333333333333336
-350.0   60.0   33.333333333333336
-400.0   60.0   16.666666666666668
-400.0   30.0   33.333333333333336
-350.0   60.0   33.333333333333336
-350.0   30.0   33.333333333333336
-350.0   30.0   16.666666666666668
-400.0   30.0   33.333333333333336
-350.0   60.0   33.333333333333336
-350.0   30.0   16.666666666666668
-400.0   60.0   16.666666666666668
-400.0   30.0   33.333333333333336
-350.0   30.0   33.333333333333336
-400.0   60.0   33.333333333333336
-400.0   30.0   50.0
-350.0   30.0   33.333333333333336
-350.0   60.0   33.333333333333336
-400.0   60.0   33.333333333333336
-350.0   60.0   50.0
-400.0   30.0   50.0
-400.0   60.0   50.0
-350.0   60.0   50.0
-400.0   60.0   33.333333333333336
-400.0   30.0   50.0
-350.0   60.0   50.0
-350.0   30.0   50.0
-350.0   30.0   33.333333333333336
-400.0   30.0   50.0
-350.0   60.0   50.0
-350.0   30.0   33.333333333333336
-400.0   60.0   33.333333333333336
-400.0   60.0   0.0
-350.0   60.0   0.0
-400.0   90.0   0.0
-400.0   60.0   16.666666666666668
-350.0   60.0   0.0
-350.0   90.0   0.0
-400.0   90.0   0.0
-350.0   90.0   16.666666666666668
-400.0   60.0   16.666666666666668
-400.0   90.0   16.666666666666668
-350.0   90.0   16.666666666666668
-400.0   90.0   0.0
-400.0   60.0   16.666666666666668
-350.0   90.0   16.666666666666668
-350.0   60.0   16.666666666666668
-350.0   60.0   0.0
-400.0   60.0   16.666666666666668
-350.0   90.0   16.666666666666668
-350.0   60.0   0.0
-400.0   90.0   0.0
-400.0   60.0   16.666666666666668
-350.0   60.0   16.666666666666668
-400.0   90.0   16.666666666666668
-400.0   60.0   33.333333333333336
-350.0   60.0   16.666666666666668
-350.0   90.0   16.666666666666668
-400.0   90.0   16.666666666666668
-350.0   90.0   33.333333333333336
-400.0   60.0   33.333333333333336
-400.0   90.0   33.333333333333336
-350.0   90.0   33.333333333333336
-400.0   90.0   16.666666666666668
-400.0   60.0   33.333333333333336
-350.0   90.0   33.333333333333336
-350.0   60.0   33.333333333333336
-350.0   60.0   16.666666666666668
-400.0   60.0   33.333333333333336
-350.0   90.0   33.333333333333336
-350.0   60.0   16.666666666666668
-400.0   90.0   16.666666666666668
-400.0   60.0   33.333333333333336
-350.0   60.0   33.333333333333336
-400.0   90.0   33.333333333333336
-400.0   60.0   50.0
-350.0   60.0   33.333333333333336
-350.0   90.0   33.333333333333336
-400.0   90.0   33.333333333333336
-350.0   90.0   50.0
-400.0   60.0   50.0
-400.0   90.0   50.0
-350.0   90.0   50.0
-400.0   90.0   33.333333333333336
-400.0   60.0   50.0
-350.0   90.0   50.0
-350.0   60.0   50.0
-350.0   60.0   33.333333333333336
-400.0   60.0   50.0
-350.0   90.0   50.0
-350.0   60.0   33.333333333333336
-400.0   90.0   33.333333333333336
-400.0   90.0   0.0
-350.0   90.0   0.0
-400.0   120.0   0.0
-400.0   90.0   16.666666666666668
-350.0   90.0   0.0
-350.0   120.0   0.0
-400.0   120.0   0.0
-350.0   120.0   16.666666666666668
-400.0   90.0   16.666666666666668
-400.0   120.0   16.666666666666668
-350.0   120.0   16.666666666666668
-400.0   120.0   0.0
-400.0   90.0   16.666666666666668
-350.0   120.0   16.666666666666668
-350.0   90.0   16.666666666666668
-350.0   90.0   0.0
-400.0   90.0   16.666666666666668
-350.0   120.0   16.666666666666668
-350.0   90.0   0.0
-400.0   120.0   0.0
-400.0   90.0   16.666666666666668
-350.0   90.0   16.666666666666668
-400.0   120.0   16.666666666666668
-400.0   90.0   33.333333333333336
-350.0   90.0   16.666666666666668
-350.0   120.0   16.666666666666668
-400.0   120.0   16.666666666666668
-350.0   120.0   33.333333333333336
-400.0   90.0   33.333333333333336
-400.0   120.0   33.333333333333336
-350.0   120.0   33.333333333333336
-400.0   120.0   16.666666666666668
-400.0   90.0   33.333333333333336
-350.0   120.0   33.333333333333336
-350.0   90.0   33.333333333333336
-350.0   90.0   16.666666666666668
-400.0   90.0   33.333333333333336
-350.0   120.0   33.333333333333336
-350.0   90.0   16.666666666666668
-400.0   120.0   16.666666666666668
-400.0   90.0   33.333333333333336
-350.0   90.0   33.333333333333336
-400.0   120.0   33.333333333333336
-400.0   90.0   50.0
-350.0   90.0   33.333333333333336
-350.0   120.0   33.333333333333336
-400.0   120.0   33.333333333333336
-350.0   120.0   50.0
-400.0   90.0   50.0
-400.0   120.0   50.0
-350.0   120.0   50.0
-400.0   120.0   33.333333333333336
-400.0   90.0   50.0
-350.0   120.0   50.0
-350.0   90.0   50.0
-350.0   90.0   33.333333333333336
-400.0   90.0   50.0
-350.0   120.0   50.0
-350.0   90.0   33.333333333333336
-400.0   120.0   33.333333333333336
-400.0   120.0   0.0
-350.0   120.0   0.0
-400.0   150.0   0.0
-400.0   120.0   16.666666666666668
-350.0   120.0   0.0
-350.0   150.0   0.0
-400.0   150.0   0.0
-350.0   150.0   16.666666666666668
-400.0   120.0   16.666666666666668
-400.0   150.0   16.666666666666668
-350.0   150.0   16.666666666666668
-400.0   150.0   0.0
-400.0   120.0   16.666666666666668
-350.0   150.0   16.666666666666668
-350.0   120.0   16.666666666666668
-350.0   120.0   0.0
-400.0   120.0   16.666666666666668
-350.0   150.0   16.666666666666668
-350.0   120.0   0.0
-400.0   150.0   0.0
-400.0   120.0   16.666666666666668
-350.0   120.0   16.666666666666668
-400.0   150.0   16.666666666666668
-400.0   120.0   33.333333333333336
-350.0   120.0   16.666666666666668
-350.0   150.0   16.666666666666668
-400.0   150.0   16.666666666666668
-350.0   150.0   33.333333333333336
-400.0   120.0   33.333333333333336
-400.0   150.0   33.333333333333336
-350.0   150.0   33.333333333333336
-400.0   150.0   16.666666666666668
-400.0   120.0   33.333333333333336
-350.0   150.0   33.333333333333336
-350.0   120.0   33.333333333333336
-350.0   120.0   16.666666666666668
-400.0   120.0   33.333333333333336
-350.0   150.0   33.333333333333336
-350.0   120.0   16.666666666666668
-400.0   150.0   16.666666666666668
-400.0   120.0   33.333333333333336
-350.0   120.0   33.333333333333336
-400.0   150.0   33.333333333333336
-400.0   120.0   50.0
-350.0   120.0   33.333333333333336
-350.0   150.0   33.333333333333336
-400.0   150.0   33.333333333333336
-350.0   150.0   50.0
-400.0   120.0   50.0
-400.0   150.0   50.0
-350.0   150.0   50.0
-400.0   150.0   33.333333333333336
-400.0   120.0   50.0
-350.0   150.0   50.0
-350.0   120.0   50.0
-350.0   120.0   33.333333333333336
-400.0   120.0   50.0
-350.0   150.0   50.0
-350.0   120.0   33.333333333333336
-400.0   150.0   33.333333333333336
-350.0   0.0   0.0
-300.0   0.0   0.0
-350.0   30.0   0.0
-350.0   0.0   16.666666666666668
-300.0   0.0   0.0
-300.0   30.0   0.0
-350.0   30.0   0.0
-300.0   30.0   16.666666666666668
-350.0   0.0   16.666666666666668
-350.0   30.0   16.666666666666668
-300.0   30.0   16.666666666666668
-350.0   30.0   0.0
-350.0   0.0   16.666666666666668
-300.0   30.0   16.666666666666668
-300.0   0.0   16.666666666666668
-300.0   0.0   0.0
-350.0   0.0   16.666666666666668
-300.0   30.0   16.666666666666668
-300.0   0.0   0.0
-350.0   30.0   0.0
-350.0   0.0   16.666666666666668
-300.0   0.0   16.666666666666668
-350.0   30.0   16.666666666666668
-350.0   0.0   33.333333333333336
-300.0   0.0   16.666666666666668
-300.0   30.0   16.666666666666668
-350.0   30.0   16.666666666666668
-300.0   30.0   33.333333333333336
-350.0   0.0   33.333333333333336
-350.0   30.0   33.333333333333336
-300.0   30.0   33.333333333333336
-350.0   30.0   16.666666666666668
-350.0   0.0   33.333333333333336
-300.0   30.0   33.333333333333336
-300.0   0.0   33.333333333333336
-300.0   0.0   16.666666666666668
-350.0   0.0   33.333333333333336
-300.0   30.0   33.333333333333336
-300.0   0.0   16.666666666666668
-350.0   30.0   16.666666666666668
-350.0   0.0   33.333333333333336
-300.0   0.0   33.333333333333336
-350.0   30.0   33.333333333333336
-350.0   0.0   50.0
-300.0   0.0   33.333333333333336
-300.0   30.0   33.333333333333336
-350.0   30.0   33.333333333333336
-300.0   30.0   50.0
-350.0   0.0   50.0
-350.0   30.0   50.0
-300.0   30.0   50.0
-350.0   30.0   33.333333333333336
-350.0   0.0   50.0
-300.0   30.0   50.0
-300.0   0.0   50.0
-300.0   0.0   33.333333333333336
-350.0   0.0   50.0
-300.0   30.0   50.0
-300.0   0.0   33.333333333333336
-350.0   30.0   33.333333333333336
-350.0   30.0   0.0
-300.0   30.0   0.0
-350.0   60.0   0.0
-350.0   30.0   16.666666666666668
-300.0   30.0   0.0
-300.0   60.0   0.0
-350.0   60.0   0.0
-300.0   60.0   16.666666666666668
-350.0   30.0   16.666666666666668
-350.0   60.0   16.666666666666668
-300.0   60.0   16.666666666666668
-350.0   60.0   0.0
-350.0   30.0   16.666666666666668
-300.0   60.0   16.666666666666668
-300.0   30.0   16.666666666666668
-300.0   30.0   0.0
-350.0   30.0   16.666666666666668
-300.0   60.0   16.666666666666668
-300.0   30.0   0.0
-350.0   60.0   0.0
-350.0   30.0   16.666666666666668
-300.0   30.0   16.666666666666668
-350.0   60.0   16.666666666666668
-350.0   30.0   33.333333333333336
-300.0   30.0   16.666666666666668
-300.0   60.0   16.666666666666668
-350.0   60.0   16.666666666666668
-300.0   60.0   33.333333333333336
-350.0   30.0   33.333333333333336
-350.0   60.0   33.333333333333336
-300.0   60.0   33.333333333333336
-350.0   60.0   16.666666666666668
-350.0   30.0   33.333333333333336
-300.0   60.0   33.333333333333336
-300.0   30.0   33.333333333333336
-300.0   30.0   16.666666666666668
-350.0   30.0   33.333333333333336
-300.0   60.0   33.333333333333336
-300.0   30.0   16.666666666666668
-350.0   60.0   16.666666666666668
-350.0   30.0   33.333333333333336
-300.0   30.0   33.333333333333336
-350.0   60.0   33.333333333333336
-350.0   30.0   50.0
-300.0   30.0   33.333333333333336
-300.0   60.0   33.333333333333336
-350.0   60.0   33.333333333333336
-300.0   60.0   50.0
-350.0   30.0   50.0
-350.0   60.0   50.0
-300.0   60.0   50.0
-350.0   60.0   33.333333333333336
-350.0   30.0   50.0
-300.0   60.0   50.0
-300.0   30.0   50.0
-300.0   30.0   33.333333333333336
-350.0   30.0   50.0
-300.0   60.0   50.0
-300.0   30.0   33.333333333333336
-350.0   60.0   33.333333333333336
-350.0   60.0   0.0
-300.0   60.0   0.0
-350.0   90.0   0.0
-350.0   60.0   16.666666666666668
-300.0   60.0   0.0
-300.0   90.0   0.0
-350.0   90.0   0.0
-300.0   90.0   16.666666666666668
-350.0   60.0   16.666666666666668
-350.0   90.0   16.666666666666668
-300.0   90.0   16.666666666666668
-350.0   90.0   0.0
-350.0   60.0   16.666666666666668
-300.0   90.0   16.666666666666668
-300.0   60.0   16.666666666666668
-300.0   60.0   0.0
-350.0   60.0   16.666666666666668
-300.0   90.0   16.666666666666668
-300.0   60.0   0.0
-350.0   90.0   0.0
-350.0   60.0   16.666666666666668
-300.0   60.0   16.666666666666668
-350.0   90.0   16.666666666666668
-350.0   60.0   33.333333333333336
-300.0   60.0   16.666666666666668
-300.0   90.0   16.666666666666668
-350.0   90.0   16.666666666666668
-300.0   90.0   33.333333333333336
-350.0   60.0   33.333333333333336
-350.0   90.0   33.333333333333336
-300.0   90.0   33.333333333333336
-350.0   90.0   16.666666666666668
-350.0   60.0   33.333333333333336
-300.0   90.0   33.333333333333336
-300.0   60.0   33.333333333333336
-300.0   60.0   16.666666666666668
-350.0   60.0   33.333333333333336
-300.0   90.0   33.333333333333336
-300.0   60.0   16.666666666666668
-350.0   90.0   16.666666666666668
-350.0   60.0   33.333333333333336
-300.0   60.0   33.333333333333336
-350.0   90.0   33.333333333333336
-350.0   60.0   50.0
-300.0   60.0   33.333333333333336
-300.0   90.0   33.333333333333336
-350.0   90.0   33.333333333333336
-300.0   90.0   50.0
-350.0   60.0   50.0
-350.0   90.0   50.0
-300.0   90.0   50.0
-350.0   90.0   33.333333333333336
-350.0   60.0   50.0
-300.0   90.0   50.0
-300.0   60.0   50.0
-300.0   60.0   33.333333333333336
-350.0   60.0   50.0
-300.0   90.0   50.0
-300.0   60.0   33.333333333333336
-350.0   90.0   33.333333333333336
-350.0   90.0   0.0
-300.0   90.0   0.0
-350.0   120.0   0.0
-350.0   90.0   16.666666666666668
-300.0   90.0   0.0
-300.0   120.0   0.0
-350.0   120.0   0.0
-300.0   120.0   16.666666666666668
-350.0   90.0   16.666666666666668
-350.0   120.0   16.666666666666668
-300.0   120.0   16.666666666666668
-350.0   120.0   0.0
-350.0   90.0   16.666666666666668
-300.0   120.0   16.666666666666668
-300.0   90.0   16.666666666666668
-300.0   90.0   0.0
-350.0   90.0   16.666666666666668
-300.0   120.0   16.666666666666668
-300.0   90.0   0.0
-350.0   120.0   0.0
-350.0   90.0   16.666666666666668
-300.0   90.0   16.666666666666668
-350.0   120.0   16.666666666666668
-350.0   90.0   33.333333333333336
-300.0   90.0   16.666666666666668
-300.0   120.0   16.666666666666668
-350.0   120.0   16.666666666666668
-300.0   120.0   33.333333333333336
-350.0   90.0   33.333333333333336
-350.0   120.0   33.333333333333336
-300.0   120.0   33.333333333333336
-350.0   120.0   16.666666666666668
-350.0   90.0   33.333333333333336
-300.0   120.0   33.333333333333336
-300.0   90.0   33.333333333333336
-300.0   90.0   16.666666666666668
-350.0   90.0   33.333333333333336
-300.0   120.0   33.333333333333336
-300.0   90.0   16.666666666666668
-350.0   120.0   16.666666666666668
-350.0   90.0   33.333333333333336
-300.0   90.0   33.333333333333336
-350.0   120.0   33.333333333333336
-350.0   90.0   50.0
-300.0   90.0   33.333333333333336
-300.0   120.0   33.333333333333336
-350.0   120.0   33.333333333333336
-300.0   120.0   50.0
-350.0   90.0   50.0
-350.0   120.0   50.0
-300.0   120.0   50.0
-350.0   120.0   33.333333333333336
-350.0   90.0   50.0
-300.0   120.0   50.0
-300.0   90.0   50.0
-300.0   90.0   33.333333333333336
-350.0   90.0   50.0
-300.0   120.0   50.0
-300.0   90.0   33.333333333333336
-350.0   120.0   33.333333333333336
-350.0   120.0   0.0
-300.0   120.0   0.0
-350.0   150.0   0.0
-350.0   120.0   16.666666666666668
-300.0   120.0   0.0
-300.0   150.0   0.0
-350.0   150.0   0.0
-300.0   150.0   16.666666666666668
-350.0   120.0   16.666666666666668
-350.0   150.0   16.666666666666668
-300.0   150.0   16.666666666666668
-350.0   150.0   0.0
-350.0   120.0   16.666666666666668
-300.0   150.0   16.666666666666668
-300.0   120.0   16.666666666666668
-300.0   120.0   0.0
-350.0   120.0   16.666666666666668
-300.0   150.0   16.666666666666668
-300.0   120.0   0.0
-350.0   150.0   0.0
-350.0   120.0   16.666666666666668
-300.0   120.0   16.666666666666668
-350.0   150.0   16.666666666666668
-350.0   120.0   33.333333333333336
-300.0   120.0   16.666666666666668
-300.0   150.0   16.666666666666668
-350.0   150.0   16.666666666666668
-300.0   150.0   33.333333333333336
-350.0   120.0   33.333333333333336
-350.0   150.0   33.333333333333336
-300.0   150.0   33.333333333333336
-350.0   150.0   16.666666666666668
-350.0   120.0   33.333333333333336
-300.0   150.0   33.333333333333336
-300.0   120.0   33.333333333333336
-300.0   120.0   16.666666666666668
-350.0   120.0   33.333333333333336
-300.0   150.0   33.333333333333336
-300.0   120.0   16.666666666666668
-350.0   150.0   16.666666666666668
-350.0   120.0   33.333333333333336
-300.0   120.0   33.333333333333336
-350.0   150.0   33.333333333333336
-350.0   120.0   50.0
-300.0   120.0   33.333333333333336
-300.0   150.0   33.333333333333336
-350.0   150.0   33.333333333333336
-300.0   150.0   50.0
-350.0   120.0   50.0
-350.0   150.0   50.0
-300.0   150.0   50.0
-350.0   150.0   33.333333333333336
-350.0   120.0   50.0
-300.0   150.0   50.0
-300.0   120.0   50.0
-300.0   120.0   33.333333333333336
-350.0   120.0   50.0
-300.0   150.0   50.0
-300.0   120.0   33.333333333333336
-350.0   150.0   33.333333333333336
-300.0   0.0   0.0
-250.0   0.0   0.0
-300.0   30.0   0.0
-300.0   0.0   16.666666666666668
-250.0   0.0   0.0
-250.0   30.0   0.0
-300.0   30.0   0.0
-250.0   30.0   16.666666666666668
-300.0   0.0   16.666666666666668
-300.0   30.0   16.666666666666668
-250.0   30.0   16.666666666666668
-300.0   30.0   0.0
-300.0   0.0   16.666666666666668
-250.0   30.0   16.666666666666668
-250.0   0.0   16.666666666666668
-250.0   0.0   0.0
-300.0   0.0   16.666666666666668
-250.0   30.0   16.666666666666668
-250.0   0.0   0.0
-300.0   30.0   0.0
-300.0   0.0   16.666666666666668
-250.0   0.0   16.666666666666668
-300.0   30.0   16.666666666666668
-300.0   0.0   33.333333333333336
-250.0   0.0   16.666666666666668
-250.0   30.0   16.666666666666668
-300.0   30.0   16.666666666666668
-250.0   30.0   33.333333333333336
-300.0   0.0   33.333333333333336
-300.0   30.0   33.333333333333336
-250.0   30.0   33.333333333333336
-300.0   30.0   16.666666666666668
-300.0   0.0   33.333333333333336
-250.0   30.0   33.333333333333336
-250.0   0.0   33.333333333333336
-250.0   0.0   16.666666666666668
-300.0   0.0   33.333333333333336
-250.0   30.0   33.333333333333336
-250.0   0.0   16.666666666666668
-300.0   30.0   16.666666666666668
-300.0   0.0   33.333333333333336
-250.0   0.0   33.333333333333336
-300.0   30.0   33.333333333333336
-300.0   0.0   50.0
-250.0   0.0   33.333333333333336
-250.0   30.0   33.333333333333336
-300.0   30.0   33.333333333333336
-250.0   30.0   50.0
-300.0   0.0   50.0
-300.0   30.0   50.0
-250.0   30.0   50.0
-300.0   30.0   33.333333333333336
-300.0   0.0   50.0
-250.0   30.0   50.0
-250.0   0.0   50.0
-250.0   0.0   33.333333333333336
-300.0   0.0   50.0
-250.0   30.0   50.0
-250.0   0.0   33.333333333333336
-300.0   30.0   33.333333333333336
-300.0   30.0   0.0
-250.0   30.0   0.0
-300.0   60.0   0.0
-300.0   30.0   16.666666666666668
-250.0   30.0   0.0
-250.0   60.0   0.0
-300.0   60.0   0.0
-250.0   60.0   16.666666666666668
-300.0   30.0   16.666666666666668
-300.0   60.0   16.666666666666668
-250.0   60.0   16.666666666666668
-300.0   60.0   0.0
-300.0   30.0   16.666666666666668
-250.0   60.0   16.666666666666668
-250.0   30.0   16.666666666666668
-250.0   30.0   0.0
-300.0   30.0   16.666666666666668
-250.0   60.0   16.666666666666668
-250.0   30.0   0.0
-300.0   60.0   0.0
-300.0   30.0   16.666666666666668
-250.0   30.0   16.666666666666668
-300.0   60.0   16.666666666666668
-300.0   30.0   33.333333333333336
-250.0   30.0   16.666666666666668
-250.0   60.0   16.666666666666668
-300.0   60.0   16.666666666666668
-250.0   60.0   33.333333333333336
-300.0   30.0   33.333333333333336
-300.0   60.0   33.333333333333336
-250.0   60.0   33.333333333333336
-300.0   60.0   16.666666666666668
-300.0   30.0   33.333333333333336
-250.0   60.0   33.333333333333336
-250.0   30.0   33.333333333333336
-250.0   30.0   16.666666666666668
-300.0   30.0   33.333333333333336
-250.0   60.0   33.333333333333336
-250.0   30.0   16.666666666666668
-300.0   60.0   16.666666666666668
-300.0   30.0   33.333333333333336
-250.0   30.0   33.333333333333336
-300.0   60.0   33.333333333333336
-300.0   30.0   50.0
-250.0   30.0   33.333333333333336
-250.0   60.0   33.333333333333336
-300.0   60.0   33.333333333333336
-250.0   60.0   50.0
-300.0   30.0   50.0
-300.0   60.0   50.0
-250.0   60.0   50.0
-300.0   60.0   33.333333333333336
-300.0   30.0   50.0
-250.0   60.0   50.0
-250.0   30.0   50.0
-250.0   30.0   33.333333333333336
-300.0   30.0   50.0
-250.0   60.0   50.0
-250.0   30.0   33.333333333333336
-300.0   60.0   33.333333333333336
-300.0   60.0   0.0
-250.0   60.0   0.0
-300.0   90.0   0.0
-300.0   60.0   16.666666666666668
-250.0   60.0   0.0
-250.0   90.0   0.0
-300.0   90.0   0.0
-250.0   90.0   16.666666666666668
-300.0   60.0   16.666666666666668
-300.0   90.0   16.666666666666668
-250.0   90.0   16.666666666666668
-300.0   90.0   0.0
-300.0   60.0   16.666666666666668
-250.0   90.0   16.666666666666668
-250.0   60.0   16.666666666666668
-250.0   60.0   0.0
-300.0   60.0   16.666666666666668
-250.0   90.0   16.666666666666668
-250.0   60.0   0.0
-300.0   90.0   0.0
-300.0   60.0   16.666666666666668
-250.0   60.0   16.666666666666668
-300.0   90.0   16.666666666666668
-300.0   60.0   33.333333333333336
-250.0   60.0   16.666666666666668
-250.0   90.0   16.666666666666668
-300.0   90.0   16.666666666666668
-250.0   90.0   33.333333333333336
-300.0   60.0   33.333333333333336
-300.0   90.0   33.333333333333336
-250.0   90.0   33.333333333333336
-300.0   90.0   16.666666666666668
-300.0   60.0   33.333333333333336
-250.0   90.0   33.333333333333336
-250.0   60.0   33.333333333333336
-250.0   60.0   16.666666666666668
-300.0   60.0   33.333333333333336
-250.0   90.0   33.333333333333336
-250.0   60.0   16.666666666666668
-300.0   90.0   16.666666666666668
-300.0   60.0   33.333333333333336
-250.0   60.0   33.333333333333336
-300.0   90.0   33.333333333333336
-300.0   60.0   50.0
-250.0   60.0   33.333333333333336
-250.0   90.0   33.333333333333336
-300.0   90.0   33.333333333333336
-250.0   90.0   50.0
-300.0   60.0   50.0
-300.0   90.0   50.0
-250.0   90.0   50.0
-300.0   90.0   33.333333333333336
-300.0   60.0   50.0
-250.0   90.0   50.0
-250.0   60.0   50.0
-250.0   60.0   33.333333333333336
-300.0   60.0   50.0
-250.0   90.0   50.0
-250.0   60.0   33.333333333333336
-300.0   90.0   33.333333333333336
-300.0   90.0   0.0
-250.0   90.0   0.0
-300.0   120.0   0.0
-300.0   90.0   16.666666666666668
-250.0   90.0   0.0
-250.0   120.0   0.0
-300.0   120.0   0.0
-250.0   120.0   16.666666666666668
-300.0   90.0   16.666666666666668
-300.0   120.0   16.666666666666668
-250.0   120.0   16.666666666666668
-300.0   120.0   0.0
-300.0   90.0   16.666666666666668
-250.0   120.0   16.666666666666668
-250.0   90.0   16.666666666666668
-250.0   90.0   0.0
-300.0   90.0   16.666666666666668
-250.0   120.0   16.666666666666668
-250.0   90.0   0.0
-300.0   120.0   0.0
-300.0   90.0   16.666666666666668
-250.0   90.0   16.666666666666668
-300.0   120.0   16.666666666666668
-300.0   90.0   33.333333333333336
-250.0   90.0   16.666666666666668
-250.0   120.0   16.666666666666668
-300.0   120.0   16.666666666666668
-250.0   120.0   33.333333333333336
-300.0   90.0   33.333333333333336
-300.0   120.0   33.333333333333336
-250.0   120.0   33.333333333333336
-300.0   120.0   16.666666666666668
-300.0   90.0   33.333333333333336
-250.0   120.0   33.333333333333336
-250.0   90.0   33.333333333333336
-250.0   90.0   16.666666666666668
-300.0   90.0   33.333333333333336
-250.0   120.0   33.333333333333336
-250.0   90.0   16.666666666666668
-300.0   120.0   16.666666666666668
-300.0   90.0   33.333333333333336
-250.0   90.0   33.333333333333336
-300.0   120.0   33.333333333333336
-300.0   90.0   50.0
-250.0   90.0   33.333333333333336
-250.0   120.0   33.333333333333336
-300.0   120.0   33.333333333333336
-250.0   120.0   50.0
-300.0   90.0   50.0
-300.0   120.0   50.0
-250.0   120.0   50.0
-300.0   120.0   33.333333333333336
-300.0   90.0   50.0
-250.0   120.0   50.0
-250.0   90.0   50.0
-250.0   90.0   33.333333333333336
-300.0   90.0   50.0
-250.0   120.0   50.0
-250.0   90.0   33.333333333333336
-300.0   120.0   33.333333333333336
-300.0   120.0   0.0
-250.0   120.0   0.0
-300.0   150.0   0.0
-300.0   120.0   16.666666666666668
-250.0   120.0   0.0
-250.0   150.0   0.0
-300.0   150.0   0.0
-250.0   150.0   16.666666666666668
-300.0   120.0   16.666666666666668
-300.0   150.0   16.666666666666668
-250.0   150.0   16.666666666666668
-300.0   150.0   0.0
-300.0   120.0   16.666666666666668
-250.0   150.0   16.666666666666668
-250.0   120.0   16.666666666666668
-250.0   120.0   0.0
-300.0   120.0   16.666666666666668
-250.0   150.0   16.666666666666668
-250.0   120.0   0.0
-300.0   150.0   0.0
-300.0   120.0   16.666666666666668
-250.0   120.0   16.666666666666668
-300.0   150.0   16.666666666666668
-300.0   120.0   33.333333333333336
-250.0   120.0   16.666666666666668
-250.0   150.0   16.666666666666668
-300.0   150.0   16.666666666666668
-250.0   150.0   33.333333333333336
-300.0   120.0   33.333333333333336
-300.0   150.0   33.333333333333336
-250.0   150.0   33.333333333333336
-300.0   150.0   16.666666666666668
-300.0   120.0   33.333333333333336
-250.0   150.0   33.333333333333336
-250.0   120.0   33.333333333333336
-250.0   120.0   16.666666666666668
-300.0   120.0   33.333333333333336
-250.0   150.0   33.333333333333336
-250.0   120.0   16.666666666666668
-300.0   150.0   16.666666666666668
-300.0   120.0   33.333333333333336
-250.0   120.0   33.333333333333336
-300.0   150.0   33.333333333333336
-300.0   120.0   50.0
-250.0   120.0   33.333333333333336
-250.0   150.0   33.333333333333336
-300.0   150.0   33.333333333333336
-250.0   150.0   50.0
-300.0   120.0   50.0
-300.0   150.0   50.0
-250.0   150.0   50.0
-300.0   150.0   33.333333333333336
-300.0   120.0   50.0
-250.0   150.0   50.0
-250.0   120.0   50.0
-250.0   120.0   33.333333333333336
-300.0   120.0   50.0
-250.0   150.0   50.0
-250.0   120.0   33.333333333333336
-300.0   150.0   33.333333333333336
-250.0   0.0   0.0
-200.0   0.0   0.0
-250.0   30.0   0.0
-250.0   0.0   16.666666666666668
-200.0   0.0   0.0
-200.0   30.0   0.0
-250.0   30.0   0.0
-200.0   30.0   16.666666666666668
-250.0   0.0   16.666666666666668
-250.0   30.0   16.666666666666668
-200.0   30.0   16.666666666666668
-250.0   30.0   0.0
-250.0   0.0   16.666666666666668
-200.0   30.0   16.666666666666668
-200.0   0.0   16.666666666666668
-200.0   0.0   0.0
-250.0   0.0   16.666666666666668
-200.0   30.0   16.666666666666668
-200.0   0.0   0.0
-250.0   30.0   0.0
-250.0   0.0   16.666666666666668
-200.0   0.0   16.666666666666668
-250.0   30.0   16.666666666666668
-250.0   0.0   33.333333333333336
-200.0   0.0   16.666666666666668
-200.0   30.0   16.666666666666668
-250.0   30.0   16.666666666666668
-200.0   30.0   33.333333333333336
-250.0   0.0   33.333333333333336
-250.0   30.0   33.333333333333336
-200.0   30.0   33.333333333333336
-250.0   30.0   16.666666666666668
-250.0   0.0   33.333333333333336
-200.0   30.0   33.333333333333336
-200.0   0.0   33.333333333333336
-200.0   0.0   16.666666666666668
-250.0   0.0   33.333333333333336
-200.0   30.0   33.333333333333336
-200.0   0.0   16.666666666666668
-250.0   30.0   16.666666666666668
-250.0   0.0   33.333333333333336
-200.0   0.0   33.333333333333336
-250.0   30.0   33.333333333333336
-250.0   0.0   50.0
-200.0   0.0   33.333333333333336
-200.0   30.0   33.333333333333336
-250.0   30.0   33.333333333333336
-200.0   30.0   50.0
-250.0   0.0   50.0
-250.0   30.0   50.0
-200.0   30.0   50.0
-250.0   30.0   33.333333333333336
-250.0   0.0   50.0
-200.0   30.0   50.0
-200.0   0.0   50.0
-200.0   0.0   33.333333333333336
-250.0   0.0   50.0
-200.0   30.0   50.0
-200.0   0.0   33.333333333333336
-250.0   30.0   33.333333333333336
-250.0   30.0   0.0
-200.0   30.0   0.0
-250.0   60.0   0.0
-250.0   30.0   16.666666666666668
-200.0   30.0   0.0
-200.0   60.0   0.0
-250.0   60.0   0.0
-200.0   60.0   16.666666666666668
-250.0   30.0   16.666666666666668
-250.0   60.0   16.666666666666668
-200.0   60.0   16.666666666666668
-250.0   60.0   0.0
-250.0   30.0   16.666666666666668
-200.0   60.0   16.666666666666668
-200.0   30.0   16.666666666666668
-200.0   30.0   0.0
-250.0   30.0   16.666666666666668
-200.0   60.0   16.666666666666668
-200.0   30.0   0.0
-250.0   60.0   0.0
-250.0   30.0   16.666666666666668
-200.0   30.0   16.666666666666668
-250.0   60.0   16.666666666666668
-250.0   30.0   33.333333333333336
-200.0   30.0   16.666666666666668
-200.0   60.0   16.666666666666668
-250.0   60.0   16.666666666666668
-200.0   60.0   33.333333333333336
-250.0   30.0   33.333333333333336
-250.0   60.0   33.333333333333336
-200.0   60.0   33.333333333333336
-250.0   60.0   16.666666666666668
-250.0   30.0   33.333333333333336
-200.0   60.0   33.333333333333336
-200.0   30.0   33.333333333333336
-200.0   30.0   16.666666666666668
-250.0   30.0   33.333333333333336
-200.0   60.0   33.333333333333336
-200.0   30.0   16.666666666666668
-250.0   60.0   16.666666666666668
-250.0   30.0   33.333333333333336
-200.0   30.0   33.333333333333336
-250.0   60.0   33.333333333333336
-250.0   30.0   50.0
-200.0   30.0   33.333333333333336
-200.0   60.0   33.333333333333336
-250.0   60.0   33.333333333333336
-200.0   60.0   50.0
-250.0   30.0   50.0
-250.0   60.0   50.0
-200.0   60.0   50.0
-250.0   60.0   33.333333333333336
-250.0   30.0   50.0
-200.0   60.0   50.0
-200.0   30.0   50.0
-200.0   30.0   33.333333333333336
-250.0   30.0   50.0
-200.0   60.0   50.0
-200.0   30.0   33.333333333333336
-250.0   60.0   33.333333333333336
-250.0   60.0   0.0
-200.0   60.0   0.0
-250.0   90.0   0.0
-250.0   60.0   16.666666666666668
-200.0   60.0   0.0
-200.0   90.0   0.0
-250.0   90.0   0.0
-200.0   90.0   16.666666666666668
-250.0   60.0   16.666666666666668
-250.0   90.0   16.666666666666668
-200.0   90.0   16.666666666666668
-250.0   90.0   0.0
-250.0   60.0   16.666666666666668
-200.0   90.0   16.666666666666668
-200.0   60.0   16.666666666666668
-200.0   60.0   0.0
-250.0   60.0   16.666666666666668
-200.0   90.0   16.666666666666668
-200.0   60.0   0.0
-250.0   90.0   0.0
-250.0   60.0   16.666666666666668
-200.0   60.0   16.666666666666668
-250.0   90.0   16.666666666666668
-250.0   60.0   33.333333333333336
-200.0   60.0   16.666666666666668
-200.0   90.0   16.666666666666668
-250.0   90.0   16.666666666666668
-200.0   90.0   33.333333333333336
-250.0   60.0   33.333333333333336
-250.0   90.0   33.333333333333336
-200.0   90.0   33.333333333333336
-250.0   90.0   16.666666666666668
-250.0   60.0   33.333333333333336
-200.0   90.0   33.333333333333336
-200.0   60.0   33.333333333333336
-200.0   60.0   16.666666666666668
-250.0   60.0   33.333333333333336
-200.0   90.0   33.333333333333336
-200.0   60.0   16.666666666666668
-250.0   90.0   16.666666666666668
-250.0   60.0   33.333333333333336
-200.0   60.0   33.333333333333336
-250.0   90.0   33.333333333333336
-250.0   60.0   50.0
-200.0   60.0   33.333333333333336
-200.0   90.0   33.333333333333336
-250.0   90.0   33.333333333333336
-200.0   90.0   50.0
-250.0   60.0   50.0
-250.0   90.0   50.0
-200.0   90.0   50.0
-250.0   90.0   33.333333333333336
-250.0   60.0   50.0
-200.0   90.0   50.0
-200.0   60.0   50.0
-200.0   60.0   33.333333333333336
-250.0   60.0   50.0
-200.0   90.0   50.0
-200.0   60.0   33.333333333333336
-250.0   90.0   33.333333333333336
-250.0   90.0   0.0
-200.0   90.0   0.0
-250.0   120.0   0.0
-250.0   90.0   16.666666666666668
-200.0   90.0   0.0
-200.0   120.0   0.0
-250.0   120.0   0.0
-200.0   120.0   16.666666666666668
-250.0   90.0   16.666666666666668
-250.0   120.0   16.666666666666668
-200.0   120.0   16.666666666666668
-250.0   120.0   0.0
-250.0   90.0   16.666666666666668
-200.0   120.0   16.666666666666668
-200.0   90.0   16.666666666666668
-200.0   90.0   0.0
-250.0   90.0   16.666666666666668
-200.0   120.0   16.666666666666668
-200.0   90.0   0.0
-250.0   120.0   0.0
-250.0   90.0   16.666666666666668
-200.0   90.0   16.666666666666668
-250.0   120.0   16.666666666666668
-250.0   90.0   33.333333333333336
-200.0   90.0   16.666666666666668
-200.0   120.0   16.666666666666668
-250.0   120.0   16.666666666666668
-200.0   120.0   33.333333333333336
-250.0   90.0   33.333333333333336
-250.0   120.0   33.333333333333336
-200.0   120.0   33.333333333333336
-250.0   120.0   16.666666666666668
-250.0   90.0   33.333333333333336
-200.0   120.0   33.333333333333336
-200.0   90.0   33.333333333333336
-200.0   90.0   16.666666666666668
-250.0   90.0   33.333333333333336
-200.0   120.0   33.333333333333336
-200.0   90.0   16.666666666666668
-250.0   120.0   16.666666666666668
-250.0   90.0   33.333333333333336
-200.0   90.0   33.333333333333336
-250.0   120.0   33.333333333333336
-250.0   90.0   50.0
-200.0   90.0   33.333333333333336
-200.0   120.0   33.333333333333336
-250.0   120.0   33.333333333333336
-200.0   120.0   50.0
-250.0   90.0   50.0
-250.0   120.0   50.0
-200.0   120.0   50.0
-250.0   120.0   33.333333333333336
-250.0   90.0   50.0
-200.0   120.0   50.0
-200.0   90.0   50.0
-200.0   90.0   33.333333333333336
-250.0   90.0   50.0
-200.0   120.0   50.0
-200.0   90.0   33.333333333333336
-250.0   120.0   33.333333333333336
-250.0   120.0   0.0
-200.0   120.0   0.0
-250.0   150.0   0.0
-250.0   120.0   16.666666666666668
-200.0   120.0   0.0
-200.0   150.0   0.0
-250.0   150.0   0.0
-200.0   150.0   16.666666666666668
-250.0   120.0   16.666666666666668
-250.0   150.0   16.666666666666668
-200.0   150.0   16.666666666666668
-250.0   150.0   0.0
-250.0   120.0   16.666666666666668
-200.0   150.0   16.666666666666668
-200.0   120.0   16.666666666666668
-200.0   120.0   0.0
-250.0   120.0   16.666666666666668
-200.0   150.0   16.666666666666668
-200.0   120.0   0.0
-250.0   150.0   0.0
-250.0   120.0   16.666666666666668
-200.0   120.0   16.666666666666668
-250.0   150.0   16.666666666666668
-250.0   120.0   33.333333333333336
-200.0   120.0   16.666666666666668
-200.0   150.0   16.666666666666668
-250.0   150.0   16.666666666666668
-200.0   150.0   33.333333333333336
-250.0   120.0   33.333333333333336
-250.0   150.0   33.333333333333336
-200.0   150.0   33.333333333333336
-250.0   150.0   16.666666666666668
-250.0   120.0   33.333333333333336
-200.0   150.0   33.333333333333336
-200.0   120.0   33.333333333333336
-200.0   120.0   16.666666666666668
-250.0   120.0   33.333333333333336
-200.0   150.0   33.333333333333336
-200.0   120.0   16.666666666666668
-250.0   150.0   16.666666666666668
-250.0   120.0   33.333333333333336
-200.0   120.0   33.333333333333336
-250.0   150.0   33.333333333333336
-250.0   120.0   50.0
-200.0   120.0   33.333333333333336
-200.0   150.0   33.333333333333336
-250.0   150.0   33.333333333333336
-200.0   150.0   50.0
-250.0   120.0   50.0
-250.0   150.0   50.0
-200.0   150.0   50.0
-250.0   150.0   33.333333333333336
-250.0   120.0   50.0
-200.0   150.0   50.0
-200.0   120.0   50.0
-200.0   120.0   33.333333333333336
-250.0   120.0   50.0
-200.0   150.0   50.0
-200.0   120.0   33.333333333333336
-250.0   150.0   33.333333333333336
-200.0   0.0   0.0
-150.0   0.0   0.0
-200.0   30.0   0.0
-200.0   0.0   16.666666666666668
-150.0   0.0   0.0
-150.0   30.0   0.0
-200.0   30.0   0.0
-150.0   30.0   16.666666666666668
-200.0   0.0   16.666666666666668
-200.0   30.0   16.666666666666668
-150.0   30.0   16.666666666666668
-200.0   30.0   0.0
-200.0   0.0   16.666666666666668
-150.0   30.0   16.666666666666668
-150.0   0.0   16.666666666666668
-150.0   0.0   0.0
-200.0   0.0   16.666666666666668
-150.0   30.0   16.666666666666668
-150.0   0.0   0.0
-200.0   30.0   0.0
-200.0   0.0   16.666666666666668
-150.0   0.0   16.666666666666668
-200.0   30.0   16.666666666666668
-200.0   0.0   33.333333333333336
-150.0   0.0   16.666666666666668
-150.0   30.0   16.666666666666668
-200.0   30.0   16.666666666666668
-150.0   30.0   33.333333333333336
-200.0   0.0   33.333333333333336
-200.0   30.0   33.333333333333336
-150.0   30.0   33.333333333333336
-200.0   30.0   16.666666666666668
-200.0   0.0   33.333333333333336
-150.0   30.0   33.333333333333336
-150.0   0.0   33.333333333333336
-150.0   0.0   16.666666666666668
-200.0   0.0   33.333333333333336
-150.0   30.0   33.333333333333336
-150.0   0.0   16.666666666666668
-200.0   30.0   16.666666666666668
-200.0   0.0   33.333333333333336
-150.0   0.0   33.333333333333336
-200.0   30.0   33.333333333333336
-200.0   0.0   50.0
-150.0   0.0   33.333333333333336
-150.0   30.0   33.333333333333336
-200.0   30.0   33.333333333333336
-150.0   30.0   50.0
-200.0   0.0   50.0
-200.0   30.0   50.0
-150.0   30.0   50.0
-200.0   30.0   33.333333333333336
-200.0   0.0   50.0
-150.0   30.0   50.0
-150.0   0.0   50.0
-150.0   0.0   33.333333333333336
-200.0   0.0   50.0
-150.0   30.0   50.0
-150.0   0.0   33.333333333333336
-200.0   30.0   33.333333333333336
-200.0   30.0   0.0
-150.0   30.0   0.0
-200.0   60.0   0.0
-200.0   30.0   16.666666666666668
-150.0   30.0   0.0
-150.0   60.0   0.0
-200.0   60.0   0.0
-150.0   60.0   16.666666666666668
-200.0   30.0   16.666666666666668
-200.0   60.0   16.666666666666668
-150.0   60.0   16.666666666666668
-200.0   60.0   0.0
-200.0   30.0   16.666666666666668
-150.0   60.0   16.666666666666668
-150.0   30.0   16.666666666666668
-150.0   30.0   0.0
-200.0   30.0   16.666666666666668
-150.0   60.0   16.666666666666668
-150.0   30.0   0.0
-200.0   60.0   0.0
-200.0   30.0   16.666666666666668
-150.0   30.0   16.666666666666668
-200.0   60.0   16.666666666666668
-200.0   30.0   33.333333333333336
-150.0   30.0   16.666666666666668
-150.0   60.0   16.666666666666668
-200.0   60.0   16.666666666666668
-150.0   60.0   33.333333333333336
-200.0   30.0   33.333333333333336
-200.0   60.0   33.333333333333336
-150.0   60.0   33.333333333333336
-200.0   60.0   16.666666666666668
-200.0   30.0   33.333333333333336
-150.0   60.0   33.333333333333336
-150.0   30.0   33.333333333333336
-150.0   30.0   16.666666666666668
-200.0   30.0   33.333333333333336
-150.0   60.0   33.333333333333336
-150.0   30.0   16.666666666666668
-200.0   60.0   16.666666666666668
-200.0   30.0   33.333333333333336
-150.0   30.0   33.333333333333336
-200.0   60.0   33.333333333333336
-200.0   30.0   50.0
-150.0   30.0   33.333333333333336
-150.0   60.0   33.333333333333336
-200.0   60.0   33.333333333333336
-150.0   60.0   50.0
-200.0   30.0   50.0
-200.0   60.0   50.0
-150.0   60.0   50.0
-200.0   60.0   33.333333333333336
-200.0   30.0   50.0
-150.0   60.0   50.0
-150.0   30.0   50.0
-150.0   30.0   33.333333333333336
-200.0   30.0   50.0
-150.0   60.0   50.0
-150.0   30.0   33.333333333333336
-200.0   60.0   33.333333333333336
-200.0   60.0   0.0
-150.0   60.0   0.0
-200.0   90.0   0.0
-200.0   60.0   16.666666666666668
-150.0   60.0   0.0
-150.0   90.0   0.0
-200.0   90.0   0.0
-150.0   90.0   16.666666666666668
-200.0   60.0   16.666666666666668
-200.0   90.0   16.666666666666668
-150.0   90.0   16.666666666666668
-200.0   90.0   0.0
-200.0   60.0   16.666666666666668
-150.0   90.0   16.666666666666668
-150.0   60.0   16.666666666666668
-150.0   60.0   0.0
-200.0   60.0   16.666666666666668
-150.0   90.0   16.666666666666668
-150.0   60.0   0.0
-200.0   90.0   0.0
-200.0   60.0   16.666666666666668
-150.0   60.0   16.666666666666668
-200.0   90.0   16.666666666666668
-200.0   60.0   33.333333333333336
-150.0   60.0   16.666666666666668
-150.0   90.0   16.666666666666668
-200.0   90.0   16.666666666666668
-150.0   90.0   33.333333333333336
-200.0   60.0   33.333333333333336
-200.0   90.0   33.333333333333336
-150.0   90.0   33.333333333333336
-200.0   90.0   16.666666666666668
-200.0   60.0   33.333333333333336
-150.0   90.0   33.333333333333336
-150.0   60.0   33.333333333333336
-150.0   60.0   16.666666666666668
-200.0   60.0   33.333333333333336
-150.0   90.0   33.333333333333336
-150.0   60.0   16.666666666666668
-200.0   90.0   16.666666666666668
-200.0   60.0   33.333333333333336
-150.0   60.0   33.333333333333336
-200.0   90.0   33.333333333333336
-200.0   60.0   50.0
-150.0   60.0   33.333333333333336
-150.0   90.0   33.333333333333336
-200.0   90.0   33.333333333333336
-150.0   90.0   50.0
-200.0   60.0   50.0
-200.0   90.0   50.0
-150.0   90.0   50.0
-200.0   90.0   33.333333333333336
-200.0   60.0   50.0
-150.0   90.0   50.0
-150.0   60.0   50.0
-150.0   60.0   33.333333333333336
-200.0   60.0   50.0
-150.0   90.0   50.0
-150.0   60.0   33.333333333333336
-200.0   90.0   33.333333333333336
-200.0   90.0   0.0
-150.0   90.0   0.0
-200.0   120.0   0.0
-200.0   90.0   16.666666666666668
-150.0   90.0   0.0
-150.0   120.0   0.0
-200.0   120.0   0.0
-150.0   120.0   16.666666666666668
-200.0   90.0   16.666666666666668
-200.0   120.0   16.666666666666668
-150.0   120.0   16.666666666666668
-200.0   120.0   0.0
-200.0   90.0   16.666666666666668
-150.0   120.0   16.666666666666668
-150.0   90.0   16.666666666666668
-150.0   90.0   0.0
-200.0   90.0   16.666666666666668
-150.0   120.0   16.666666666666668
-150.0   90.0   0.0
-200.0   120.0   0.0
-200.0   90.0   16.666666666666668
-150.0   90.0   16.666666666666668
-200.0   120.0   16.666666666666668
-200.0   90.0   33.333333333333336
-150.0   90.0   16.666666666666668
-150.0   120.0   16.666666666666668
-200.0   120.0   16.666666666666668
-150.0   120.0   33.333333333333336
-200.0   90.0   33.333333333333336
-200.0   120.0   33.333333333333336
-150.0   120.0   33.333333333333336
-200.0   120.0   16.666666666666668
-200.0   90.0   33.333333333333336
-150.0   120.0   33.333333333333336
-150.0   90.0   33.333333333333336
-150.0   90.0   16.666666666666668
-200.0   90.0   33.333333333333336
-150.0   120.0   33.333333333333336
-150.0   90.0   16.666666666666668
-200.0   120.0   16.666666666666668
-200.0   90.0   33.333333333333336
-150.0   90.0   33.333333333333336
-200.0   120.0   33.333333333333336
-200.0   90.0   50.0
-150.0   90.0   33.333333333333336
-150.0   120.0   33.333333333333336
-200.0   120.0   33.333333333333336
-150.0   120.0   50.0
-200.0   90.0   50.0
-200.0   120.0   50.0
-150.0   120.0   50.0
-200.0   120.0   33.333333333333336
-200.0   90.0   50.0
-150.0   120.0   50.0
-150.0   90.0   50.0
-150.0   90.0   33.333333333333336
-200.0   90.0   50.0
-150.0   120.0   50.0
-150.0   90.0   33.333333333333336
-200.0   120.0   33.333333333333336
-200.0   120.0   0.0
-150.0   120.0   0.0
-200.0   150.0   0.0
-200.0   120.0   16.666666666666668
-150.0   120.0   0.0
-150.0   150.0   0.0
-200.0   150.0   0.0
-150.0   150.0   16.666666666666668
-200.0   120.0   16.666666666666668
-200.0   150.0   16.666666666666668
-150.0   150.0   16.666666666666668
-200.0   150.0   0.0
-200.0   120.0   16.666666666666668
-150.0   150.0   16.666666666666668
-150.0   120.0   16.666666666666668
-150.0   120.0   0.0
-200.0   120.0   16.666666666666668
-150.0   150.0   16.666666666666668
-150.0   120.0   0.0
-200.0   150.0   0.0
-200.0   120.0   16.666666666666668
-150.0   120.0   16.666666666666668
-200.0   150.0   16.666666666666668
-200.0   120.0   33.333333333333336
-150.0   120.0   16.666666666666668
-150.0   150.0   16.666666666666668
-200.0   150.0   16.666666666666668
-150.0   150.0   33.333333333333336
-200.0   120.0   33.333333333333336
-200.0   150.0   33.333333333333336
-150.0   150.0   33.333333333333336
-200.0   150.0   16.666666666666668
-200.0   120.0   33.333333333333336
-150.0   150.0   33.333333333333336
-150.0   120.0   33.333333333333336
-150.0   120.0   16.666666666666668
-200.0   120.0   33.333333333333336
-150.0   150.0   33.333333333333336
-150.0   120.0   16.666666666666668
-200.0   150.0   16.666666666666668
-200.0   120.0   33.333333333333336
-150.0   120.0   33.333333333333336
-200.0   150.0   33.333333333333336
-200.0   120.0   50.0
-150.0   120.0   33.333333333333336
-150.0   150.0   33.333333333333336
-200.0   150.0   33.333333333333336
-150.0   150.0   50.0
-200.0   120.0   50.0
-200.0   150.0   50.0
-150.0   150.0   50.0
-200.0   150.0   33.333333333333336
-200.0   120.0   50.0
-150.0   150.0   50.0
-150.0   120.0   50.0
-150.0   120.0   33.333333333333336
-200.0   120.0   50.0
-150.0   150.0   50.0
-150.0   120.0   33.333333333333336
-200.0   150.0   33.333333333333336
-150.0   0.0   0.0
-100.0   0.0   0.0
-150.0   30.0   0.0
-150.0   0.0   16.666666666666668
-100.0   0.0   0.0
-100.0   30.0   0.0
-150.0   30.0   0.0
-100.0   30.0   16.666666666666668
-150.0   0.0   16.666666666666668
-150.0   30.0   16.666666666666668
-100.0   30.0   16.666666666666668
-150.0   30.0   0.0
-150.0   0.0   16.666666666666668
-100.0   30.0   16.666666666666668
-100.0   0.0   16.666666666666668
-100.0   0.0   0.0
-150.0   0.0   16.666666666666668
-100.0   30.0   16.666666666666668
-100.0   0.0   0.0
-150.0   30.0   0.0
-150.0   0.0   16.666666666666668
-100.0   0.0   16.666666666666668
-150.0   30.0   16.666666666666668
-150.0   0.0   33.333333333333336
-100.0   0.0   16.666666666666668
-100.0   30.0   16.666666666666668
-150.0   30.0   16.666666666666668
-100.0   30.0   33.333333333333336
-150.0   0.0   33.333333333333336
-150.0   30.0   33.333333333333336
-100.0   30.0   33.333333333333336
-150.0   30.0   16.666666666666668
-150.0   0.0   33.333333333333336
-100.0   30.0   33.333333333333336
-100.0   0.0   33.333333333333336
-100.0   0.0   16.666666666666668
-150.0   0.0   33.333333333333336
-100.0   30.0   33.333333333333336
-100.0   0.0   16.666666666666668
-150.0   30.0   16.666666666666668
-150.0   0.0   33.333333333333336
-100.0   0.0   33.333333333333336
-150.0   30.0   33.333333333333336
-150.0   0.0   50.0
-100.0   0.0   33.333333333333336
-100.0   30.0   33.333333333333336
-150.0   30.0   33.333333333333336
-100.0   30.0   50.0
-150.0   0.0   50.0
-150.0   30.0   50.0
-100.0   30.0   50.0
-150.0   30.0   33.333333333333336
-150.0   0.0   50.0
-100.0   30.0   50.0
-100.0   0.0   50.0
-100.0   0.0   33.333333333333336
-150.0   0.0   50.0
-100.0   30.0   50.0
-100.0   0.0   33.333333333333336
-150.0   30.0   33.333333333333336
-150.0   30.0   0.0
-100.0   30.0   0.0
-150.0   60.0   0.0
-150.0   30.0   16.666666666666668
-100.0   30.0   0.0
-100.0   60.0   0.0
-150.0   60.0   0.0
-100.0   60.0   16.666666666666668
-150.0   30.0   16.666666666666668
-150.0   60.0   16.666666666666668
-100.0   60.0   16.666666666666668
-150.0   60.0   0.0
-150.0   30.0   16.666666666666668
-100.0   60.0   16.666666666666668
-100.0   30.0   16.666666666666668
-100.0   30.0   0.0
-150.0   30.0   16.666666666666668
-100.0   60.0   16.666666666666668
-100.0   30.0   0.0
-150.0   60.0   0.0
-150.0   30.0   16.666666666666668
-100.0   30.0   16.666666666666668
-150.0   60.0   16.666666666666668
-150.0   30.0   33.333333333333336
-100.0   30.0   16.666666666666668
-100.0   60.0   16.666666666666668
-150.0   60.0   16.666666666666668
-100.0   60.0   33.333333333333336
-150.0   30.0   33.333333333333336
-150.0   60.0   33.333333333333336
-100.0   60.0   33.333333333333336
-150.0   60.0   16.666666666666668
-150.0   30.0   33.333333333333336
-100.0   60.0   33.333333333333336
-100.0   30.0   33.333333333333336
-100.0   30.0   16.666666666666668
-150.0   30.0   33.333333333333336
-100.0   60.0   33.333333333333336
-100.0   30.0   16.666666666666668
-150.0   60.0   16.666666666666668
-150.0   30.0   33.333333333333336
-100.0   30.0   33.333333333333336
-150.0   60.0   33.333333333333336
-150.0   30.0   50.0
-100.0   30.0   33.333333333333336
-100.0   60.0   33.333333333333336
-150.0   60.0   33.333333333333336
-100.0   60.0   50.0
-150.0   30.0   50.0
-150.0   60.0   50.0
-100.0   60.0   50.0
-150.0   60.0   33.333333333333336
-150.0   30.0   50.0
-100.0   60.0   50.0
-100.0   30.0   50.0
-100.0   30.0   33.333333333333336
-150.0   30.0   50.0
-100.0   60.0   50.0
-100.0   30.0   33.333333333333336
-150.0   60.0   33.333333333333336
-150.0   60.0   0.0
-100.0   60.0   0.0
-150.0   90.0   0.0
-150.0   60.0   16.666666666666668
-100.0   60.0   0.0
-100.0   90.0   0.0
-150.0   90.0   0.0
-100.0   90.0   16.666666666666668
-150.0   60.0   16.666666666666668
-150.0   90.0   16.666666666666668
-100.0   90.0   16.666666666666668
-150.0   90.0   0.0
-150.0   60.0   16.666666666666668
-100.0   90.0   16.666666666666668
-100.0   60.0   16.666666666666668
-100.0   60.0   0.0
-150.0   60.0   16.666666666666668
-100.0   90.0   16.666666666666668
-100.0   60.0   0.0
-150.0   90.0   0.0
-150.0   60.0   16.666666666666668
-100.0   60.0   16.666666666666668
-150.0   90.0   16.666666666666668
-150.0   60.0   33.333333333333336
-100.0   60.0   16.666666666666668
-100.0   90.0   16.666666666666668
-150.0   90.0   16.666666666666668
-100.0   90.0   33.333333333333336
-150.0   60.0   33.333333333333336
-150.0   90.0   33.333333333333336
-100.0   90.0   33.333333333333336
-150.0   90.0   16.666666666666668
-150.0   60.0   33.333333333333336
-100.0   90.0   33.333333333333336
-100.0   60.0   33.333333333333336
-100.0   60.0   16.666666666666668
-150.0   60.0   33.333333333333336
-100.0   90.0   33.333333333333336
-100.0   60.0   16.666666666666668
-150.0   90.0   16.666666666666668
-150.0   60.0   33.333333333333336
-100.0   60.0   33.333333333333336
-150.0   90.0   33.333333333333336
-150.0   60.0   50.0
-100.0   60.0   33.333333333333336
-100.0   90.0   33.333333333333336
-150.0   90.0   33.333333333333336
-100.0   90.0   50.0
-150.0   60.0   50.0
-150.0   90.0   50.0
-100.0   90.0   50.0
-150.0   90.0   33.333333333333336
-150.0   60.0   50.0
-100.0   90.0   50.0
-100.0   60.0   50.0
-100.0   60.0   33.333333333333336
-150.0   60.0   50.0
-100.0   90.0   50.0
-100.0   60.0   33.333333333333336
-150.0   90.0   33.333333333333336
-150.0   90.0   0.0
-100.0   90.0   0.0
-150.0   120.0   0.0
-150.0   90.0   16.666666666666668
-100.0   90.0   0.0
-100.0   120.0   0.0
-150.0   120.0   0.0
-100.0   120.0   16.666666666666668
-150.0   90.0   16.666666666666668
-150.0   120.0   16.666666666666668
-100.0   120.0   16.666666666666668
-150.0   120.0   0.0
-150.0   90.0   16.666666666666668
-100.0   120.0   16.666666666666668
-100.0   90.0   16.666666666666668
-100.0   90.0   0.0
-150.0   90.0   16.666666666666668
-100.0   120.0   16.666666666666668
-100.0   90.0   0.0
-150.0   120.0   0.0
-150.0   90.0   16.666666666666668
-100.0   90.0   16.666666666666668
-150.0   120.0   16.666666666666668
-150.0   90.0   33.333333333333336
-100.0   90.0   16.666666666666668
-100.0   120.0   16.666666666666668
-150.0   120.0   16.666666666666668
-100.0   120.0   33.333333333333336
-150.0   90.0   33.333333333333336
-150.0   120.0   33.333333333333336
-100.0   120.0   33.333333333333336
-150.0   120.0   16.666666666666668
-150.0   90.0   33.333333333333336
-100.0   120.0   33.333333333333336
-100.0   90.0   33.333333333333336
-100.0   90.0   16.666666666666668
-150.0   90.0   33.333333333333336
-100.0   120.0   33.333333333333336
-100.0   90.0   16.666666666666668
-150.0   120.0   16.666666666666668
-150.0   90.0   33.333333333333336
-100.0   90.0   33.333333333333336
-150.0   120.0   33.333333333333336
-150.0   90.0   50.0
-100.0   90.0   33.333333333333336
-100.0   120.0   33.333333333333336
-150.0   120.0   33.333333333333336
-100.0   120.0   50.0
-150.0   90.0   50.0
-150.0   120.0   50.0
-100.0   120.0   50.0
-150.0   120.0   33.333333333333336
-150.0   90.0   50.0
-100.0   120.0   50.0
-100.0   90.0   50.0
-100.0   90.0   33.333333333333336
-150.0   90.0   50.0
-100.0   120.0   50.0
-100.0   90.0   33.333333333333336
-150.0   120.0   33.333333333333336
-150.0   120.0   0.0
-100.0   120.0   0.0
-150.0   150.0   0.0
-150.0   120.0   16.666666666666668
-100.0   120.0   0.0
-100.0   150.0   0.0
-150.0   150.0   0.0
-100.0   150.0   16.666666666666668
-150.0   120.0   16.666666666666668
-150.0   150.0   16.666666666666668
-100.0   150.0   16.666666666666668
-150.0   150.0   0.0
-150.0   120.0   16.666666666666668
-100.0   150.0   16.666666666666668
-100.0   120.0   16.666666666666668
-100.0   120.0   0.0
-150.0   120.0   16.666666666666668
-100.0   150.0   16.666666666666668
-100.0   120.0   0.0
-150.0   150.0   0.0
-150.0   120.0   16.666666666666668
-100.0   120.0   16.666666666666668
-150.0   150.0   16.666666666666668
-150.0   120.0   33.333333333333336
-100.0   120.0   16.666666666666668
-100.0   150.0   16.666666666666668
-150.0   150.0   16.666666666666668
-100.0   150.0   33.333333333333336
-150.0   120.0   33.333333333333336
-150.0   150.0   33.333333333333336
-100.0   150.0   33.333333333333336
-150.0   150.0   16.666666666666668
-150.0   120.0   33.333333333333336
-100.0   150.0   33.333333333333336
-100.0   120.0   33.333333333333336
-100.0   120.0   16.666666666666668
-150.0   120.0   33.333333333333336
-100.0   150.0   33.333333333333336
-100.0   120.0   16.666666666666668
-150.0   150.0   16.666666666666668
-150.0   120.0   33.333333333333336
-100.0   120.0   33.333333333333336
-150.0   150.0   33.333333333333336
-150.0   120.0   50.0
-100.0   120.0   33.333333333333336
-100.0   150.0   33.333333333333336
-150.0   150.0   33.333333333333336
-100.0   150.0   50.0
-150.0   120.0   50.0
-150.0   150.0   50.0
-100.0   150.0   50.0
-150.0   150.0   33.333333333333336
-150.0   120.0   50.0
-100.0   150.0   50.0
-100.0   120.0   50.0
-100.0   120.0   33.333333333333336
-150.0   120.0   50.0
-100.0   150.0   50.0
-100.0   120.0   33.333333333333336
-150.0   150.0   33.333333333333336
-100.0   0.0   0.0
-50.0   0.0   0.0
-100.0   30.0   0.0
-100.0   0.0   16.666666666666668
-50.0   0.0   0.0
-50.0   30.0   0.0
-100.0   30.0   0.0
-50.0   30.0   16.666666666666668
-100.0   0.0   16.666666666666668
-100.0   30.0   16.666666666666668
-50.0   30.0   16.666666666666668
-100.0   30.0   0.0
-100.0   0.0   16.666666666666668
-50.0   30.0   16.666666666666668
-50.0   0.0   16.666666666666668
-50.0   0.0   0.0
-100.0   0.0   16.666666666666668
-50.0   30.0   16.666666666666668
-50.0   0.0   0.0
-100.0   30.0   0.0
-100.0   0.0   16.666666666666668
-50.0   0.0   16.666666666666668
-100.0   30.0   16.666666666666668
-100.0   0.0   33.333333333333336
-50.0   0.0   16.666666666666668
-50.0   30.0   16.666666666666668
-100.0   30.0   16.666666666666668
-50.0   30.0   33.333333333333336
-100.0   0.0   33.333333333333336
-100.0   30.0   33.333333333333336
-50.0   30.0   33.333333333333336
-100.0   30.0   16.666666666666668
-100.0   0.0   33.333333333333336
-50.0   30.0   33.333333333333336
-50.0   0.0   33.333333333333336
-50.0   0.0   16.666666666666668
-100.0   0.0   33.333333333333336
-50.0   30.0   33.333333333333336
-50.0   0.0   16.666666666666668
-100.0   30.0   16.666666666666668
-100.0   0.0   33.333333333333336
-50.0   0.0   33.333333333333336
-100.0   30.0   33.333333333333336
-100.0   0.0   50.0
-50.0   0.0   33.333333333333336
-50.0   30.0   33.333333333333336
-100.0   30.0   33.333333333333336
-50.0   30.0   50.0
-100.0   0.0   50.0
-100.0   30.0   50.0
-50.0   30.0   50.0
-100.0   30.0   33.333333333333336
-100.0   0.0   50.0
-50.0   30.0   50.0
-50.0   0.0   50.0
-50.0   0.0   33.333333333333336
-100.0   0.0   50.0
-50.0   30.0   50.0
-50.0   0.0   33.333333333333336
-100.0   30.0   33.333333333333336
-100.0   30.0   0.0
-50.0   30.0   0.0
-100.0   60.0   0.0
-100.0   30.0   16.666666666666668
-50.0   30.0   0.0
-50.0   60.0   0.0
-100.0   60.0   0.0
-50.0   60.0   16.666666666666668
-100.0   30.0   16.666666666666668
-100.0   60.0   16.666666666666668
-50.0   60.0   16.666666666666668
-100.0   60.0   0.0
-100.0   30.0   16.666666666666668
-50.0   60.0   16.666666666666668
-50.0   30.0   16.666666666666668
-50.0   30.0   0.0
-100.0   30.0   16.666666666666668
-50.0   60.0   16.666666666666668
-50.0   30.0   0.0
-100.0   60.0   0.0
-100.0   30.0   16.666666666666668
-50.0   30.0   16.666666666666668
-100.0   60.0   16.666666666666668
-100.0   30.0   33.333333333333336
-50.0   30.0   16.666666666666668
-50.0   60.0   16.666666666666668
-100.0   60.0   16.666666666666668
-50.0   60.0   33.333333333333336
-100.0   30.0   33.333333333333336
-100.0   60.0   33.333333333333336
-50.0   60.0   33.333333333333336
-100.0   60.0   16.666666666666668
-100.0   30.0   33.333333333333336
-50.0   60.0   33.333333333333336
-50.0   30.0   33.333333333333336
-50.0   30.0   16.666666666666668
-100.0   30.0   33.333333333333336
-50.0   60.0   33.333333333333336
-50.0   30.0   16.666666666666668
-100.0   60.0   16.666666666666668
-100.0   30.0   33.333333333333336
-50.0   30.0   33.333333333333336
-100.0   60.0   33.333333333333336
-100.0   30.0   50.0
-50.0   30.0   33.333333333333336
-50.0   60.0   33.333333333333336
-100.0   60.0   33.333333333333336
-50.0   60.0   50.0
-100.0   30.0   50.0
-100.0   60.0   50.0
-50.0   60.0   50.0
-100.0   60.0   33.333333333333336
-100.0   30.0   50.0
-50.0   60.0   50.0
-50.0   30.0   50.0
-50.0   30.0   33.333333333333336
-100.0   30.0   50.0
-50.0   60.0   50.0
-50.0   30.0   33.333333333333336
-100.0   60.0   33.333333333333336
-100.0   60.0   0.0
-50.0   60.0   0.0
-100.0   90.0   0.0
-100.0   60.0   16.666666666666668
-50.0   60.0   0.0
-50.0   90.0   0.0
-100.0   90.0   0.0
-50.0   90.0   16.666666666666668
-100.0   60.0   16.666666666666668
-100.0   90.0   16.666666666666668
-50.0   90.0   16.666666666666668
-100.0   90.0   0.0
-100.0   60.0   16.666666666666668
-50.0   90.0   16.666666666666668
-50.0   60.0   16.666666666666668
-50.0   60.0   0.0
-100.0   60.0   16.666666666666668
-50.0   90.0   16.666666666666668
-50.0   60.0   0.0
-100.0   90.0   0.0
-100.0   60.0   16.666666666666668
-50.0   60.0   16.666666666666668
-100.0   90.0   16.666666666666668
-100.0   60.0   33.333333333333336
-50.0   60.0   16.666666666666668
-50.0   90.0   16.666666666666668
-100.0   90.0   16.666666666666668
-50.0   90.0   33.333333333333336
-100.0   60.0   33.333333333333336
-100.0   90.0   33.333333333333336
-50.0   90.0   33.333333333333336
-100.0   90.0   16.666666666666668
-100.0   60.0   33.333333333333336
-50.0   90.0   33.333333333333336
-50.0   60.0   33.333333333333336
-50.0   60.0   16.666666666666668
-100.0   60.0   33.333333333333336
-50.0   90.0   33.333333333333336
-50.0   60.0   16.666666666666668
-100.0   90.0   16.666666666666668
-100.0   60.0   33.333333333333336
-50.0   60.0   33.333333333333336
-100.0   90.0   33.333333333333336
-100.0   60.0   50.0
-50.0   60.0   33.333333333333336
-50.0   90.0   33.333333333333336
-100.0   90.0   33.333333333333336
-50.0   90.0   50.0
-100.0   60.0   50.0
-100.0   90.0   50.0
-50.0   90.0   50.0
-100.0   90.0   33.333333333333336
-100.0   60.0   50.0
-50.0   90.0   50.0
-50.0   60.0   50.0
-50.0   60.0   33.333333333333336
-100.0   60.0   50.0
-50.0   90.0   50.0
-50.0   60.0   33.333333333333336
-100.0   90.0   33.333333333333336
-100.0   90.0   0.0
-50.0   90.0   0.0
-100.0   120.0   0.0
-100.0   90.0   16.666666666666668
-50.0   90.0   0.0
-50.0   120.0   0.0
-100.0   120.0   0.0
-50.0   120.0   16.666666666666668
-100.0   90.0   16.666666666666668
-100.0   120.0   16.666666666666668
-50.0   120.0   16.666666666666668
-100.0   120.0   0.0
-100.0   90.0   16.666666666666668
-50.0   120.0   16.666666666666668
-50.0   90.0   16.666666666666668
-50.0   90.0   0.0
-100.0   90.0   16.666666666666668
-50.0   120.0   16.666666666666668
-50.0   90.0   0.0
-100.0   120.0   0.0
-100.0   90.0   16.666666666666668
-50.0   90.0   16.666666666666668
-100.0   120.0   16.666666666666668
-100.0   90.0   33.333333333333336
-50.0   90.0   16.666666666666668
-50.0   120.0   16.666666666666668
-100.0   120.0   16.666666666666668
-50.0   120.0   33.333333333333336
-100.0   90.0   33.333333333333336
-100.0   120.0   33.333333333333336
-50.0   120.0   33.333333333333336
-100.0   120.0   16.666666666666668
-100.0   90.0   33.333333333333336
-50.0   120.0   33.333333333333336
-50.0   90.0   33.333333333333336
-50.0   90.0   16.666666666666668
-100.0   90.0   33.333333333333336
-50.0   120.0   33.333333333333336
-50.0   90.0   16.666666666666668
-100.0   120.0   16.666666666666668
-100.0   90.0   33.333333333333336
-50.0   90.0   33.333333333333336
-100.0   120.0   33.333333333333336
-100.0   90.0   50.0
-50.0   90.0   33.333333333333336
-50.0   120.0   33.333333333333336
-100.0   120.0   33.333333333333336
-50.0   120.0   50.0
-100.0   90.0   50.0
-100.0   120.0   50.0
-50.0   120.0   50.0
-100.0   120.0   33.333333333333336
-100.0   90.0   50.0
-50.0   120.0   50.0
-50.0   90.0   50.0
-50.0   90.0   33.333333333333336
-100.0   90.0   50.0
-50.0   120.0   50.0
-50.0   90.0   33.333333333333336
-100.0   120.0   33.333333333333336
-100.0   120.0   0.0
-50.0   120.0   0.0
-100.0   150.0   0.0
-100.0   120.0   16.666666666666668
-50.0   120.0   0.0
-50.0   150.0   0.0
-100.0   150.0   0.0
-50.0   150.0   16.666666666666668
-100.0   120.0   16.666666666666668
-100.0   150.0   16.666666666666668
-50.0   150.0   16.666666666666668
-100.0   150.0   0.0
-100.0   120.0   16.666666666666668
-50.0   150.0   16.666666666666668
-50.0   120.0   16.666666666666668
-50.0   120.0   0.0
-100.0   120.0   16.666666666666668
-50.0   150.0   16.666666666666668
-50.0   120.0   0.0
-100.0   150.0   0.0
-100.0   120.0   16.666666666666668
-50.0   120.0   16.666666666666668
-100.0   150.0   16.666666666666668
-100.0   120.0   33.333333333333336
-50.0   120.0   16.666666666666668
-50.0   150.0   16.666666666666668
-100.0   150.0   16.666666666666668
-50.0   150.0   33.333333333333336
-100.0   120.0   33.333333333333336
-100.0   150.0   33.333333333333336
-50.0   150.0   33.333333333333336
-100.0   150.0   16.666666666666668
-100.0   120.0   33.333333333333336
-50.0   150.0   33.333333333333336
-50.0   120.0   33.333333333333336
-50.0   120.0   16.666666666666668
-100.0   120.0   33.333333333333336
-50.0   150.0   33.333333333333336
-50.0   120.0   16.666666666666668
-100.0   150.0   16.666666666666668
-100.0   120.0   33.333333333333336
-50.0   120.0   33.333333333333336
-100.0   150.0   33.333333333333336
-100.0   120.0   50.0
-50.0   120.0   33.333333333333336
-50.0   150.0   33.333333333333336
-100.0   150.0   33.333333333333336
-50.0   150.0   50.0
-100.0   120.0   50.0
-100.0   150.0   50.0
-50.0   150.0   50.0
-100.0   150.0   33.333333333333336
-100.0   120.0   50.0
-50.0   150.0   50.0
-50.0   120.0   50.0
-50.0   120.0   33.333333333333336
-100.0   120.0   50.0
-50.0   150.0   50.0
-50.0   120.0   33.333333333333336
-100.0   150.0   33.333333333333336
-50.0   0.0   0.0
0.0   0.0   0.0
-50.0   30.0   0.0
-50.0   0.0   16.666666666666668
0.0   0.0   0.0
0.0   30.0   0.0
-50.0   30.0   0.0
0.0   30.0   16.666666666666668
-50.0   0.0   16.666666666666668
-50.0   30.0   16.666666666666668
0.0   30.0   16.666666666666668
-50.0   30.0   0.0
-50.0   0.0   16.666666666666668
0.0   30.0   16.666666666666668
0.0   0.0   16.666666666666668
0.0   0.0   0.0
-50.0   0.0   16.666666666666668
0.0   30.0   16.666666666666668
0.0   0.0   0.0
-50.0   30.0   0.0
-50.0   0.0   16.666666666666668
0.0   0.0   16.666666666666668
-50.0   30.0   16.666666666666668
-50.0   0.0   33.333333333333336
0.0   0.0   16.666666666666668
0.0   30.0   16.666666666666668
-50.0   30.0   16.666666666666668
0.0   30.0   33.333333333333336
-50.0   0.0   33.333333333333336
-50.0   30.0   33.333333333333336
0.0   30.0   33.333333333333336
-50.0   30.0   16.666666666666668
-50.0   0.0   33.333333333333336
0.0   30.0   33.333333333333336
0.0   0.0   33.333333333333336
0.0   0.0   16.666666666666668
-50.0   0.0   33.333333333333336
0.0   30.0   33.333333333333336
0.0   0.0   16.666666666666668
-50.0   30.0   16.666666666666668
-50.0   0.0   33.333333333333336
0.0   0.0   33.333333333333336
-50.0   30.0   33.333333333333336
-50.0   0.0   50.0
0.0   0.0   33.333333333333336
0.0   30.0   33.333333333333336
-50.0   30.0   33.333333333333336
0.0   30.0   50.0
-50.0   0.0   50.0
-50.0   30.0   50.0
0.0   30.0   50.0
-50.0   30.0   33.333333333333336
-50.0   0.0   50.0
0.0   30.0   50.0
0.0   0.0   50.0
0.0   0.0   33.333333333333336
-50.0   0.0   50.0
0.0   30.0   50.0
0.0   0.0   33.333333333333336
-50.0   30.0   33.333333333333336
-50.0   30.0   0.0
0.0   30.0   0.0
-50.0   60.0   0.0
-50.0   30.0   16.666666666666668
0.0   30.0   0.0
0.0   60.0   0.0
-50.0   60.0   0.0
0.0   60.0   16.666666666666668
-50.0   30.0   16.666666666666668
-50.0   60.0   16.666666666666668
0.0   60.0   16.666666666666668
-50.0   60.0   0.0
-50.0   30.0   16.666666666666668
0.0   60.0   16.666666666666668
0.0   30.0   16.666666666666668
0.0   30.0   0.0
-50.0   30.0   16.666666666666668
0.0   60.0   16.666666666666668
0.0   30.0   0.0
-50.0   60.0   0.0
-50.0   30.0   16.666666666666668
0.0   30.0   16.666666666666668
-50.0   60.0   16.666666666666668
-50.0   30.0   33.333333333333336
0.0   30.0   16.666666666666668
0.0   60.0   16.666666666666668
-50.0   60.0   16.666666666666668
0.0   60.0   33.333333333333336
-50.0   30.0   33.333333333333336
-50.0   60.0   33.333333333333336
0.0   60.0   33.333333333333336
-50.0   60.0   16.666666666666668
-50.0   30.0   33.333333333333336
0.0   60.0   33.333333333333336
0.0   30.0   33.333333333333336
0.0   30.0   16.666666666666668
-50.0   30.0   33.333333333333336
0.0   60.0   33.333333333333336
0.0   30.0   16.666666666666668
-50.0   60.0   16.666666666666668
-50.0   30.0   33.333333333333336
0.0   30.0   33.333333333333336
-50.0   60.0   33.333333333333336
-50.0   30.0   50.0
0.0   30.0   33.333333333333336
0.0   60.0   33.333333333333336
-50.0   60.0   33.333333333333336
0.0   60.0   50.0
-50.0   30.0   50.0
-50.0   60.0   50.0
0.0   60.0   50.0
-50.0   60.0   33.333333333333336
-50.0   30.0   50.0
0.0   60.0   50.0
0.0   30.0   50.0
0.0   30.0   33.333333333333336
-50.0   30.0   50.0
0.0   60.0   50.0
0.0   30.0   33.333333333333336
-50.0   60.0   33.333333333333336
-50.0   60.0   0.0
0.0   60.0   0.0
-50.0   90.0   0.0
-50.0   60.0   16.666666666666668
0.0   60.0   0.0
0.0   90.0   0.0
-50.0   90.0   0.0
0.0   90.0   16.666666666666668
-50.0   60.0   16.666666666666668
-50.0   90.0   16.666666666666668
0.0   90.0   16.666666666666668
-50.0   90.0   0.0
-50.0   60.0   16.666666666666668
0.0   90.0   16.666666666666668
0.0   60.0   16.666666666666668
0.0   60.0   0.0
-50.0   60.0   16.666666666666668
0.0   90.0   16.666666666666668
0.0   60.0   0.0
-50.0   90.0   0.0
-50.0   60.0   16.666666666666668
0.0   60.0   16.666666666666668
-50.0   90.0   16.666666666666668
-50.0   60.0   33.333333333333336
0.0   60.0   16.666666666666668
0.0   90.0   16.666666666666668
-50.0   90.0   16.666666666666668
0.0   90.0   33.333333333333336
-50.0   60.0   33.333333333333336
-50.0   90.0   33.333333333333336
0.0   90.0   33.333333333333336
-50.0   90.0   16.666666666666668
-50.0   60.0   33.333333333333336
0.0   90.0   33.333333333333336
0.0   60.0   33.333333333333336
0.0   60.0   16.666666666666668
-50.0   60.0   33.333333333333336
0.0   90.0   33.333333333333336
0.0   60.0   16.666666666666668
-50.0   90.0   16.666666666666668
-50.0   60.0   33.333333333333336
0.0   60.0   33.333333333333336
-50.0   90.0   33.333333333333336
-50.0   60.0   50.0
0.0   60.0   33.333333333333336
0.0   90.0   33.333333333333336
-50.0   90.0   33.333333333333336
0.0   90.0   50.0
-50.0   60.0   50.0
-50.0   90.0   50.0
0.0   90.0   50.0
-50.0   90.0   33.333333333333336
-50.0   60.0   50.0
0.0   90.0   50.0
0.0   60.0   50.0
0.0   60.0   33.333333333333336
-50.0   60.0   50.0
0.0   90.0   50.0
0.0   60.0   33.333333333333336
-50.0   90.0   33.333333333333336
-50.0   90.0   0.0
0.0   90.0   0.0
-50.0   120.0   0.0
-50.0   90.0   16.666666666666668
0.0   90.0   0.0
0.0   120.0   0.0
-50.0   120.0   0.0
0.0   120.0   16.666666666666668
-50.0   90.0   16.666666666666668
-50.0   120.0   16.666666666666668
0.0   120.0   16.666666666666668
-50.0   120.0   0.0
-50.0   90.0   16.666666666666668
0.0   120.0   16.666666666666668
0.0   90.0   16.666666666666668
0.0   90.0   0.0
-50.0   90.0   16.666666666666668
0.0   120.0   16.666666666666668
0.0   90.0   0.0
-50.0   120.0   0.0
-50.0   90.0   16.666666666666668
0.0   90.0   16.666666666666668
-50.0   120.0   16.666666666666668
-50.0   90.0   33.333333333333336
0.0   90.0   16.666666666666668
0.0   120.0   16.666666666666668
-50.0   120.0   16.666666666666668
0.0   120.0   33.333333333333336
-50.0   90.0   33.333333333333336
-50.0   120.0   33.333333333333336
0.0   120.0   33.333333333333336
-50.0   120.0   16.666666666666668
-50.0   90.0   33.333333333333336
0.0   120.0   33.333333333333336
0.0   90.0   33.333333333333336
0.0   90.0   16.666666666666668
-50.0   90.0   33.333333333333336
0.0   120.0   33.333333333333336
0.0   90.0   16.666666666666668
-50.0   120.0   16.666666666666668
-50.0   90.0   33.333333333333336
0.0   90.0   33.333333333333336
-50.0   120.0   33.333333333333336
-50.0   90.0   50.0
0.0   90.0   33.333333333333336
0.0   120.0   33.333333333333336
-50.0   120.0   33.333333333333336
0.0   120.0   50.0
-50.0   90.0   50.0
-50.0   120.0   50.0
0.0   120.0   50.0
-50.0   120.0   33.333333333333336
-50.0   90.0   50.0
0.0   120.0   50.0
0.0   90.0   50.0
0.0   90.0   33.333333333333336
-50.0   90.0   50.0
0.0   120.0   50.0
0.0   90.0   33.333333333333336
-50.0   120.0   33.333333333333336
-50.0   120.0   0.0
0.0   120.0   0.0
-50.0   150.0   0.0
-50.0   120.0   16.666666666666668
0.0   120.0   0.0
0.0   150.0   0.0
-50.0   150.0   0.0
0.0   150.0   16.666666666666668
-50.0   120.0   16.666666666666668
-50.0   150.0   16.666666666666668
0.0   150.0   16.666666666666668
-50.0   150.0   0.0
-50.0   120.0   16.666666666666668
0.0   150.0   16.666666666666668
0.0   120.0   16.666666666666668
0.0   120.0   0.0
-50.0   120.0   16.666666666666668
0.0   150.0   16.666666666666668
0.0   120.0   0.0
-50.0   150.0   0.0
-50.0   120.0   16.666666666666668
0.0   120.0   16.666666666666668
-50.0   150.0   16.666666666666668
-50.0   120.0   33.333333333333336
0.0   120.0   16.666666666666668
0.0   150.0   16.666666666666668
-50.0   150.0   16.666666666666668
0.0   150.0   33.333333333333336
-50.0   120.0   33.333333333333336
-50.0   150.0   33.333333333333336
0.0   150.0   33.333333333333336
-50.0   150.0   16.666666666666668
-50.0   120.0   33.333333333333336
0.0   150.0   33.333333333333336
0.0   120.0   33.333333333333336
0.0   120.0   16.666666666666668
-50.0   120.0   33.333333333333336
0.0   150.0   33.333333333333336
0.0   120.0   16.666666666666668
-50.0   150.0   16.666666666666668
-50.0   120.0   33.333333333333336
0.0   120.0   33.333333333333336
-50.0   150.0   33.333333333333336
-50.0   120.0   50.0
0.0   120.0   33.333333333333336
0.0   150.0   33.333333333333336
-50.0   150.0   33.333333333333336
0.0   150.0   50.0
-50.0   120.0   50.0
-50.0   150.0   50.0
0.0   150.0   50.0
-50.0   150.0   33.333333333333336
-50.0   120.0   50.0
0.0   150.0   50.0
0.0   120.0   50.0
0.0   120.0   33.333333333333336
-50.0   120.0   50.0
0.0   150.0   50.0
0.0   120.0   33.333333333333336
-50.0   150.0   33.333333333333336
0.0   0.0   0.0
50.0   0.0   0.0
0.0   30.0   0.0
0.0   0.0   16.666666666666668
50.0   0.0   0.0
50.0   30.0   0.0
0.0   30.0   0.0
50.0   30.0   16.666666666666668
0.0   0.0   16.666666666666668
0.0   30.0   16.666666666666668
50.0   30.0   16.666666666666668
0.0   30.0   0.0
0.0   0.0   16.666666666666668
50.0   30.0   16.666666666666668
50.0   0.0   16.666666666666668
50.0   0.0   0.0
0.0   0.0   16.666666666666668
50.0   30.0   16.666666666666668
50.0   0.0   0.0
0.0   30.0   0.0
0.0   0.0   16.666666666666668
50.0   0.0   16.666666666666668
0.0   30.0   16.666666666666668
0.0   0.0   33.333333333333336
50.0   0.0   16.666666666666668
50.0   30.0   16.666666666666668
0.0   30.0   16.666666666666668
50.0   30.0   33.333333333333336
0.0   0.0   33.333333333333336
0.0   30.0   33.333333333333336
50.0   30.0   33.333333333333336
0.0   30.0   16.666666666666668
0.0   0.0   33.333333333333336
50.0   30.0   33.333333333333336
50.0   0.0   33.333333333333336
50.0   0.0   16.666666666666668
0.0   0.0   33.333333333333336
50.0   30.0   33.333333333333336
50.0   0.0   16.666666666666668
0.0   30.0   16.666666666666668
0.0   0.0   33.333333333333336
50.0   0.0   33.333333333333336
0.0   30.0   33.333333333333336
0.0   0.0   50.0
50.0   0.0   33.333333333333336
50.0   30.0   33.333333333333336
0.0   30.0   33.333333333333336
50.0   30.0   50.0
0.0   0.0   50.0
0.0   30.0   50.0
50.0   30.0   50.0
0.0   30.0   33.333333333333336
0.0   0.0   50.0
50.0   30.0   50.0
50.0   0.0   50.0
50.0   0.0   33.333333333333336
0.0   0.0   50.0
50.0   30.0   50.0
50.0   0.0   33.333333333333336
0.0   30.0   33.333333333333336
0.0   30.0   0.0
50.0   30.0   0.0
0.0   60.0   0.0
0.0   30.0   16.666666666666668
50.0   30.0   0.0
50.0   60.0   0.0
0.0   60.0   0.0
50.0   60.0   16.666666666666668
0.0   30.0   16.666666666666668
0.0   60.0   16.666666666666668
50.0   60.0   16.666666666666668
0.0   60.0   0.0
0.0   30.0   16.666666666666668
50.0   60.0   16.666666666666668
50.0   30.0   16.666666666666668
50.0   30.0   0.0
0.0   30.0   16.666666666666668
50.0   60.0   16.666666666666668
50.0   30.0   0.0
0.0   60.0   0.0
0.0   30.0   16.666666666666668
50.0   30.0   16.666666666666668
0.0   60.0   16.666666666666668
0.0   30.0   33.333333333333336
50.0   30.0   16.666666666666668
50.0   60.0   16.666666666666668
0.0   60.0   16.666666666666668
50.0   60.0   33.333333333333336
0.0   30.0   33.333333333333336
0.0   60.0   33.333333333333336
50.0   60.0   33.333333333333336
0.0   60.0   16.666666666666668
0.0   30.0   33.333333333333336
50.0   60.0   33.333333333333336
50.0   30.0   33.333333333333336
50.0   30.0   16.666666666666668
0.0   30.0   33.333333333333336
50.0   60.0   33.333333333333336
50.0   30.0   16.666666666666668
0.0   60.0   16.666666666666668
0.0   30.0   33.333333333333336
50.0   30.0   33.333333333333336
0.0   60.0   33.333333333333336
0.0   30.0   50.0
50.0   30.0   33.333333333333336
50.0   60.0   33.333333333333336
0.0   60.0   33.333333333333336
50.0   60.0   50.0
0.0   30.0   50.0
0.0   60.0   50.0
50.0   60.0   50.0
0.0   60.0   33.333333333333336
0.0   30.0   50.0
50.0   60.0   50.0
50.0   30.0   50.0
50.0   30.0   33.333333333333336
0.0   30.0   50.0
50.0   60.0   50.0
50.0   30.0   33.333333333333336
0.0   60.0   33.333333333333336
0.0   60.0   0.0
50.0   60.0   0.0
0.0   90.0   0.0
0.0   60.0   16.666666666666668
50.0   60.0   0.0
50.0   90.0   0.0
0.0   90.0   0.0
50.0   90.0   16.666666666666668
0.0   60.0   16.666666666666668
0.0   90.0   16.666666666666668
50.0   90.0   16.666666666666668
0.0   90.0   0.0
0.0   60.0   16.666666666666668
50.0   90.0   16.666666666666668
50.0   60.0   16.666666666666668
50.0   60.0   0.0
0.0   60.0   16.666666666666668
50.0   90.0   16.666666666666668
50.0   60.0   0.0
0.0   90.0   0.0
0.0   60.0   16.666666666666668
50.0   60.0   16.666666666666668
0.0   90.0   16.666666666666668
0.0   60.0   33.333333333333336
50.0   60.0   16.666666666666668
50.0   90.0   16.666666666666668
0.0   90.0   16.666666666666668
50.0   90.0   33.333333333333336
0.0   60.0   33.333333333333336
0.0   90.0   33.333333333333336
50.0   90.0   33.333333333333336
0.0   90.0   16.666666666666668
0.0   60.0   33.333333333333336
50.0   90.0   33.333333333333336
50.0   60.0   33.333333333333336
50.0   60.0   16.666666666666668
0.0   60.0   33.333333333333336
50.0   90.0   33.333333333333336
50.0   60.0   16.666666666666668
0.0   90.0   16.666666666666668
0.0   60.0   33.333333333333336
50.0   60.0   33.333333333333336
0.0   90.0   33.333333333333336
0.0   60.0   50.0
50.0   60.0   33.333333333333336
50.0   90.0   33.333333333333336
0.0   90.0   33.333333333333336
50.0   90.0   50.0
0.0   60.0   50.0
0.0   90.0   50.0
50.0   90.0   50.0
0.0   90.0   33.333333333333336
0.0   60.0   50.0
50.0   90.0   50.0
50.0   60.0   50.0
50.0   60.0   33.333333333333336
0.0   60.0   50.0
50.0   90.0   50.0
50.0   60.0   33.333333333333336
0.0   90.0   33.333333333333336
0.0   90.0   0.0
50.0   90.0   0.0
0.0   120.0   0.0
0.0   90.0   16.666666666666668
50.0   90.0   0.0
50.0   120.0   0.0
0.0   120.0   0.0
50.0   120.0   16.666666666666668
0.0   90.0   16.666666666666668
0.0   120.0   16.666666666666668
50.0   120.0   16.666666666666668
0.0   120.0   0.0
0.0   90.0   16.666666666666668
50.0   120.0   16.666666666666668
50.0   90.0   16.666666666666668
50.0   90.0   0.0
0.0   90.0   16.666666666666668
50.0   120.0   16.666666666666668
50.0   90.0   0.0
0.0   120.0   0.0
0.0   90.0   16.666666666666668
50.0   90.0   16.666666666666668
0.0   120.0   16.666666666666668
0.0   90.0   33.333333333333336
50.0   90.0   16.666666666666668
50.0   120.0   16.666666666666668
0.0   120.0   16.666666666666668
50.0   120.0   33.333333333333336
0.0   90.0   33.333333333333336
0.0   120.0   33.333333333333336
50.0   120.0   33.333333333333336
0.0   120.0   16.666666666666668
0.0   90.0   33.333333333333336
50.0   120.0   33.333333333333336
50.0   90.0   33.333333333333336
50.0   90.0   16.666666666666668
0.0   90.0   33.333333333333336
50.0   120.0   33.333333333333336
50.0   90.0   16.666666666666668
0.0   120.0   16.666666666666668
0.0   90.0   33.333333333333336
50.0   90.0   33.333333333333336
0.0   120.0   33.333333333333336
0.0   90.0   50.0
50.0   90.0   33.333333333333336
50.0   120.0   33.333333333333336
0.0   120.0   33.333333333333336
50.0   120.0   50.0
0.0   90.0   50.0
0.0   120.0   50.0
50.0   120.0   50.0
0.0   120.0   33.333333333333336
0.0   90.0   50.0
50.0   120.0   50.0
50.0   90.0   50.0
50.0   90.0   33.333333333333336
0.0   90.0   50.0
50.0   120.0   50.0
50.0   90.0   33.333333333333336
0.0   120.0   33.333333333333336
0.0   120.0   0.0
50.0   120.0   0.0
0.0   150.0   0.0
0.0   120.0   16.666666666666668
50.0   120.0   0.0
50.0   150.0   0.0
0.0   150.0   0.0
50.0   150.0   16.666666666666668
0.0   120.0   16.666666666666668
0.0   150.0   16.666666666666668
50.0   150.0   16.666666666666668
0.0   150.0   0.0
0.0   120.0   16.666666666666668
50.0   150.0   16.666666666666668
50.0   120.0   16.666666666666668
50.0   120.0   0.0
0.0   120.0   16.666666666666668
50.0   150.0   16.666666666666668
50.0   120.0   0.0
0.0   150.0   0.0
0.0   120.0   16.666666666666668
50.0   120.0   16.666666666666668
0.0   150.0   16.666666666666668
0.0   120.0   33.333333333333336
50.0   120.0   16.666666666666668
50.0   150.0   16.666666666666668
0.0   150.0   16.666666666666668
50.0   150.0   33.333333333333336
0.0   120.0   33.333333333333336
0.0   150.0   33.333333333333336
50.0   150.0   33.333333333333336
0.0   150.0   16.666666666666668
0.0   120.0   33.333333333333336
50.0   150.0   33.333333333333336
50.0   120.0   33.333333333333336
50.0   120.0   16.666666666666668
0.0   120.0   33.333333333333336
50.0   150.0   33.333333333333336
50.0   120.0   16.666666666666668
0.0   150.0   16.666666666666668
0.0   120.0   33.333333333333336
50.0   120.0   33.333333333333336
0.0   150.0   33.333333333333336
0.0   120.0   50.0
50.0   120.0   33.333333333333336
50.0   150.0   33.333333333333336
0.0   150.0   33.333333333333336
50.0   150.0   50.0
0.0   120.0   50.0
0.0   150.0   50.0
50.0   150.0   50.0
0.0   150.0   33.333333333333336
0.0   120.0   50.0
50.0   150.0   50.0
50.0   120.0   50.0
50.0   120.0   33.333333333333336
0.0   120.0   50.0
50.0   150.0   50.0
50.0   120.0   33.333333333333336
0.0   150.0   33.333333333333336
50.0   0.0   0.0
100.0   0.0   0.0
50.0   30.0   0.0
50.0   0.0   16.666666666666668
100.0   0.0   0.0
100.0   30.0   0.0
50.0   30.0   0.0
100.0   30.0   16.666666666666668
50.0   0.0   16.666666666666668
50.0   30.0   16.666666666666668
100.0   30.0   16.666666666666668
50.0   30.0   0.0
50.0   0.0   16.666666666666668
100.0   30.0   16.666666666666668
100.0   0.0   16.666666666666668
100.0   0.0   0.0
50.0   0.0   16.666666666666668
100.0   30.0   16.666666666666668
100.0   0.0   0.0
50.0   30.0   0.0
50.0   0.0   16.666666666666668
100.0   0.0   16.666666666666668
50.0   30.0   16.666666666666668
50.0   0.0   33.333333333333336
100.0   0.0   16.666666666666668
100.0   30.0   16.666666666666668
50.0   30.0   16.666666666666668
100.0   30.0   33.333333333333336
50.0   0.0   33.333333333333336
50.0   30.0   33.333333333333336
100.0   30.0   33.333333333333336
50.0   30.0   16.666666666666668
50.0   0.0   33.333333333333336
100.0   30.0   33.333333333333336
100.0   0.0   33.333333333333336
100.0   0.0   16.666666666666668
50.0   0.0   33.333333333333336
100.0   30.0   33.333333333333336
100.0   0.0   16.666666666666668
50.0   30.0   16.666666666666668
50.0   0.0   33.333333333333336
100.0   0.0   33.333333333333336
50.0   30.0   33.333333333333336
50.0   0.0   50.0
100.0   0.0   33.333333333333336
100.0   30.0   33.333333333333336
50.0   30.0   33.333333333333336
100.0   30.0   50.0
50.0   0.0   50.0
50.0   30.0   50.0
100.0   30.0   50.0
50.0   30.0   33.333333333333336
50.0   0.0   50.0
100.0   30.0   50.0
100.0   0.0   50.0
100.0   0.0   33.333333333333336
50.0   0.0   50.0
100.0   30.0   50.0
100.0   0.0   33.333333333333336
50.0   30.0   33.333333333333336
50.0   30.0   0.0
100.0   30.0   0.0
50.0   60.0   0.0
50.0   30.0   16.666666666666668
100.0   30.0   0.0
100.0   60.0   0.0
50.0   60.0   0.0
100.0   60.0   16.666666666666668
50.0   30.0   16.666666666666668
50.0   60.0   16.666666666666668
100.0   60.0   16.666666666666668
50.0   60.0   0.0
50.0   30.0   16.666666666666668
100.0   60.0   16.666666666666668
100.0   30.0   16.666666666666668
100.0   30.0   0.0
50.0   30.0   16.666666666666668
100.0   60.0   16.666666666666668
100.0   30.0   0.0
50.0   60.0   0.0
50.0   30.0   16.666666666666668
100.0   30.0   16.666666666666668
50.0   60.0   16.666666666666668
50.0   30.0   33.333333333333336
100.0   30.0   16.666666666666668
100.0   60.0   16.666666666666668
50.0   60.0   16.666666666666668
100.0   60.0   33.333333333333336
50.0   30.0   33.333333333333336
50.0   60.0   33.333333333333336
100.0   60.0   33.333333333333336
50.0   60.0   16.666666666666668
50.0   30.0   33.333333333333336
100.0   60.0   33.333333333333336
100.0   30.0   33.333333333333336
100.0   30.0   16.666666666666668
50.0   30.0   33.333333333333336
100.0   60.0   33.333333333333336
100.0   30.0   16.666666666666668
50.0   60.0   16.666666666666668
50.0   30.0   33.333333333333336
100.0   30.0   33.333333333333336
50.0   60.0   33.333333333333336
50.0   30.0   50.0
100.0   30.0   33.333333333333336
100.0   60.0   33.333333333333336
50.0   60.0   33.333333333333336
100.0   60.0   50.0
50.0   30.0   50.0
50.0   60.0   50.0
100.0   60.0   50.0
50.0   60.0   33.333333333333336
50.0   30.0   50.0
100.0   60.0   50.0
100.0   30.0   50.0
100.0   30.0   33.333333333333336
50.0   30.0   50.0
100.0   60.0   50.0
100.0   30.0   33.333333333333336
50.0   60.0   33.333333333333336
50.0   60.0   0.0
100.0   60.0   0.0
50.0   90.0   0.0
50.0   60.0   16.666666666666668
100.0   60.0   0.0
100.0   90.0   0.0
50.0   90.0   0.0
100.0   90.0   16.666666666666668
50.0   60.0   16.666666666666668
50.0   90.0   16.666666666666668
100.0   90.0   16.666666666666668
50.0   90.0   0.0
50.0   60.0   16.666666666666668
100.0   90.0   16.666666666666668
100.0   60.0   16.666666666666668
100.0   60.0   0.0
50.0   60.0   16.666666666666668
100.0   90.0   16.666666666666668
100.0   60.0   0.0
50.0   90.0   0.0
50.0   60.0   16.666666666666668
100.0   60.0   16.666666666666668
50.0   90.0   16.666666666666668
50.0   60.0   33.333333333333336
100.0   60.0   16.666666666666668
100.0   90.0   16.666666666666668
50.0   90.0   16.666666666666668
100.0   90.0   33.333333333333336
50.0   60.0   33.333333333333336
50.0   90.0   33.333333333333336
100.0   90.0   33.333333333333336
50.0   90.0   16.666666666666668
50.0   60.0   33.333333333333336
100.0   90.0   33.333333333333336
100.0   60.0   33.333333333333336
100.0   60.0   16.666666666666668
50.0   60.0   33.333333333333336
100.0   90.0   33.333333333333336
100.0   60.0   16.666666666666668
50.0   90.0   16.666666666666668
50.0   60.0   33.333333333333336
100.0   60.0   33.333333333333336
50.0   90.0   33.333333333333336
50.0   60.0   50.0
100.0   60.0   33.333333333333336
100.0   90.0   33.333333333333336
50.0   90.0   33.333333333333336
100.0   90.0   50.0
50.0   60.0   50.0
50.0   90.0   50.0
100.0   90.0   50.0
50.0   90.0   33.333333333333336
50.0   60.0   50.0
100.0   90.0   50.0
100.0   60.0   50.0
100.0   60.0   33.333333333333336
50.0   60.0   50.0
100.0   90.0   50.0
100.0   60.0   33.333333333333336
50.0   90.0   33.333333333333336
50.0   90.0   0.0
100.0   90.0   0.0
50.0   120.0   0.0
50.0   90.0   16.666666666666668
100.0   90.0   0.0
100.0   120.0   0.0
50.0   120.0   0.0
100.0   120.0   16.666666666666668
50.0   90.0   16.666666666666668
50.0   120.0   16.666666666666668
100.0   120.0   16.666666666666668
50.0   120.0   0.0
50.0   90.0   16.666666666666668
100.0   120.0   16.666666666666668
100.0   90.0   16.666666666666668
100.0   90.0   0.0
50.0   90.0   16.666666666666668
100.0   120.0   16.666666666666668
100.0   90.0   0.0
50.0   120.0   0.0
50.0   90.0   16.666666666666668
100.0   90.0   16.666666666666668
50.0   120.0   16.666666666666668
50.0   90.0   33.333333333333336
100.0   90.0   16.666666666666668
100.0   120.0   16.666666666666668
50.0   120.0   16.666666666666668
100.0   120.0   33.333333333333336
50.0   90.0   33.333333333333336
50.0   120.0   33.333333333333336
100.0   120.0   33.333333333333336
50.0   120.0   16.666666666666668
50.0   90.0   33.333333333333336
100.0   120.0   33.333333333333336
100.0   90.0   33.333333333333336
100.0   90.0   16.666666666666668
50.0   90.0   33.333333333333336
100.0   120.0   33.333333333333336
100.0   90.0   16.666666666666668
50.0   120.0   16.666666666666668
50.0   90.0   33.333333333333336
100.0   90.0   33.333333333333336
50.0   120.0   33.333333333333336
50.0   90.0   50.0
100.0   90.0   33.333333333333336
100.0   120.0   33.333333333333336
50.0   120.0   33.333333333333336
100.0   120.0   50.0
50.0   90.0   50.0
50.0   120.0   50.0
100.0   120.0   50.0
50.0   120.0   33.333333333333336
50.0   90.0   50.0
100.0   120.0   50.0
100.0   90.0   50.0
100.0   90.0   33.333333333333336
50.0   90.0   50.0
100.0   120.0   50.0
100.0   90.0   33.333333333333336
50.0   120.0   33.333333333333336
50.0   120.0   0.0
100.0   120.0   0.0
50.0   150.0   0.0
50.0   120.0   16.666666666666668
100.0   120.0   0.0
100.0   150.0   0.0
50.0   150.0   0.0
100.0   150.0   16.666666666666668
50.0   120.0   16.666666666666668
50.0   150.0   16.666666666666668
100.0   150.0   16.666666666666668
50.0   150.0   0.0
50.0   120.0   16.666666666666668
100.0   150.0   16.666666666666668
100.0   120.0   16.666666666666668
100.0   120.0   0.0
50.0   120.0   16.666666666666668
100.0   150.0   16.666666666666668
100.0   120.0   0.0
50.0   150.0   0.0
50.0   120.0   16.666666666666668
100.0   120.0   16.666666666666668
50.0   150.0   16.666666666666668
50.0   120.0   33.333333333333336
100.0   120.0   16.666666666666668
100.0   150.0   16.666666666666668
50.0   150.0   16.666666666666668
100.0   150.0   33.333333333333336
50.0   120.0   33.333333333333336
50.0   150.0   33.333333333333336
100.0   150.0   33.333333333333336
50.0   150.0   16.666666666666668
50.0   120.0   33.333333333333336
100.0   150.0   33.333333333333336
100.0   120.0   33.333333333333336
100.0   120.0   16.666666666666668
50.0   120.0   33.333333333333336
100.0   150.0   33.333333333333336
100.0   120.0   16.666666666666668
50.0   150.0   16.666666666666668
50.0   120.0   33.333333333333336
100.0   120.0   33.333333333333336
50.0   150.0   33.333333333333336
50.0   120.0   50.0
100.0   120.0   33.333333333333336
100.0   150.0   33.333333333333336
50.0   150.0   33.333333333333336
100.0   150.0   50.0
50.0   120.0   50.0
50.0   150.0   50.0
100.0   150.0   50.0
50.0   150.0   33.333333333333336
50.0   120.0   50.0
100.0   150.0   50.0
100.0   120.0   50.0
100.0   120.0   33.333333333333336
50.0   120.0   50.0
100.0   150.0   50.0
100.0   120.0   33.333333333333336
50.0   150.0   33.333333333333336
100.0   0.0   0.0
150.0   0.0   0.0
100.0   30.0   0.0
100.0   0.0   16.666666666666668
150.0   0.0   0.0
150.0   30.0   0.0
100.0   30.0   0.0
150.0   30.0   16.666666666666668
100.0   0.0   16.666666666666668
100.0   30.0   16.666666666666668
150.0   30.0   16.666666666666668
100.0   30.0   0.0
100.0   0.0   16.666666666666668
150.0   30.0   16.666666666666668
150.0   0.0   16.666666666666668
150.0   0.0   0.0
100.0   0.0   16.666666666666668
150.0   30.0   16.666666666666668
150.0   0.0   0.0
100.0   30.0   0.0
100.0   0.0   16.666666666666668
150.0   0.0   16.666666666666668
100.0   30.0   16.666666666666668
100.0   0.0   33.333333333333336
150.0   0.0   16.666666666666668
150.0   30.0   16.666666666666668
100.0   30.0   16.666666666666668
150.0   30.0   33.333333333333336
100.0   0.0   33.333333333333336
100.0   30.0   33.333333333333336
150.0   30.0   33.333333333333336
100.0   30.0   16.666666666666668
100.0   0.0   33.333333333333336
150.0   30.0   33.333333333333336
150.0   0.0   33.333333333333336
150.0   0.0   16.666666666666668
100.0   0.0   33.333333333333336
150.0   30.0   33.333333333333336
150.0   0.0   16.666666666666668
100.0   30.0   16.666666666666668
100.0   0.0   33.333333333333336
150.0   0.0   33.333333333333336
100.0   30.0   33.333333333333336
100.0   0.0   50.0
150.0   0.0   33.333333333333336
150.0   30.0   33.333333333333336
100.0   30.0   33.333333333333336
150.0   30.0   50.0
100.0   0.0   50.0
100.0   30.0   50.0
150.0   30.0   50.0
100.0   30.0   33.333333333333336
100.0   0.0   50.0
150.0   30.0   50.0
150.0   0.0   50.0
150.0   0.0   33.333333333333336
100.0   0.0   50.0
150.0   30.0   50.0
150.0   0.0   33.333333333333336
100.0   30.0   33.333333333333336
100.0   30.0   0.0
150.0   30.0   0.0
100.0   60.0   0.0
100.0   30.0   16.666666666666668
150.0   30.0   0.0
150.0   60.0   0.0
100.0   60.0   0.0
150.0   60.0   16.666666666666668
100.0   30.0   16.666666666666668
100.0   60.0   16.666666666666668
150.0   60.0   16.666666666666668
100.0   60.0   0.0
100.0   30.0   16.666666666666668
150.0   60.0   16.666666666666668
150.0   30.0   16.666666666666668
150.0   30.0   0.0
100.0   30.0   16.666666666666668
150.0   60.0   16.666666666666668
150.0   30.0   0.0
100.0   60.0   0.0
100.0   30.0   16.666666666666668
150.0   30.0   16.666666666666668
100.0   60.0   16.666666666666668
100.0   30.0   33.333333333333336
150.0   30.0   16.666666666666668
150.0   60.0   16.666666666666668
100.0   60.0   16.666666666666668
150.0   60.0   33.333333333333336
100.0   30.0   33.333333333333336
100.0   60.0   33.333333333333336
150.0   60.0   33.333333333333336
100.0   60.0   16.666666666666668
100.0   30.0   33.333333333333336
150.0   60.0   33.333333333333336
150.0   30.0   33.333333333333336
150.0   30.0   16.666666666666668
100.0   30.0   33.333333333333336
150.0   60.0   33.333333333333336
150.0   30.0   16.666666666666668
100.0   60.0   16.666666666666668
100.0   30.0   33.333333333333336
150.0   30.0   33.333333333333336
100.0   60.0   33.333333333333336
100.0   30.0   50.0
150.0   30.0   33.333333333333336
150.0   60.0   33.333333333333336
100.0   60.0   33.333333333333336
150.0   60.0   50.0
100.0   30.0   50.0
100.0   60.0   50.0
150.0   60.0   50.0
100.0   60.0   33.333333333333336
100.0   30.0   50.0
150.0   60.0   50.0
150.0   30.0   50.0
150.0   30.0   33.333333333333336
100.0   30.0   50.0
150.0   60.0   50.0
150.0   30.0   33.333333333333336
100.0   60.0   33.333333333333336
100.0   60.0   0.0
150.0   60.0   0.0
100.0   90.0   0.0
100.0   60.0   16.666666666666668
150.0   60.0   0.0
150.0   90.0   0.0
100.0   90.0   0.0
150.0   90.0   16.666666666666668
100.0   60.0   16.666666666666668
100.0   90.0   16.666666666666668
150.0   90.0   16.666666666666668
100.0   90.0   0.0
100.0   60.0   16.666666666666668
150.0   90.0   16.666666666666668
150.0   60.0   16.666666666666668
150.0   60.0   0.0
100.0   60.0   16.666666666666668
150.0   90.0   16.666666666666668
150.0   60.0   0.0
100.0   90.0   0.0
100.0   60.0   16.666666666666668
150.0   60.0   16.666666666666668
100.0   90.0   16.666666666666668
100.0   60.0   33.333333333333336
150.0   60.0   16.666666666666668
150.0   90.0   16.666666666666668
100.0   90.0   16.666666666666668
150.0   90.0   33.333333333333336
100.0   60.0   33.333333333333336
100.0   90.0   33.333333333333336
150.0   90.0   33.333333333333336
100.0   90.0   16.666666666666668
100.0   60.0   33.333333333333336
150.0   90.0   33.333333333333336
150.0   60.0   33.333333333333336
150.0   60.0   16.666666666666668
100.0   60.0   33.333333333333336
150.0   90.0   33.333333333333336
150.0   60.0   16.666666666666668
100.0   90.0   16.666666666666668
100.0   60.0   33.333333333333336
150.0   60.0   33.333333333333336
100.0   90.0   33.333333333333336
100.0   60.0   50.0
150.0   60.0   33.333333333333336
150.0   90.0   33.333333333333336
100.0   90.0   33.333333333333336
150.0   90.0   50.0
100.0   60.0   50.0
100.0   90.0   50.0
150.0   90.0   50.0
100.0   90.0   33.333333333333336
100.0   60.0   50.0
150.0   90.0   50.0
150.0   60.0   50.0
150.0   60.0   33.333333333333336
100.0   60.0   50.0
150.0   90.0   50.0
150.0   60.0   33.333333333333336
100.0   90.0   33.333333333333336
100.0   90.0   0.0
150.0   90.0   0.0
100.0   120.0   0.0
100.0   90.0   16.666666666666668
150.0   90.0   0.0
150.0   120.0   0.0
100.0   120.0   0.0
150.0   120.0   16.666666666666668
100.0   90.0   16.666666666666668
100.0   120.0   16.666666666666668
150.0   120.0   16.666666666666668
100.0   120.0   0.0
100.0   90.0   16.666666666666668
150.0   120.0   16.666666666666668
150.0   90.0   16.666666666666668
150.0   90.0   0.0
100.0   90.0   16.666666666666668
150.0   120.0   16.666666666666668
150.0   90.0   0.0
100.0   120.0   0.0
100.0   90.0   16.666666666666668
150.0   90.0   16.666666666666668
100.0   120.0   16.666666666666668
100.0   90.0   33.333333333333336
150.0   90.0   16.666666666666668
150.0   120.0   16.666666666666668
100.0   120.0   16.666666666666668
150.0   120.0   33.333333333333336
100.0   90.0   33.333333333333336
100.0   120.0   33.333333333333336
150.0   120.0   33.333333333333336
100.0   120.0   16.666666666666668
100.0   90.0   33.333333333333336
150.0   120.0   33.333333333333336
150.0   90.0   33.333333333333336
150.0   90.0   16.666666666666668
100.0   90.0   33.333333333333336
150.0   120.0   33.333333333333336
150.0   90.0   16.666666666666668
100.0   120.0   16.666666666666668
100.0   90.0   33.333333333333336
150.0   90.0   33.333333333333336
100.0   120.0   33.333333333333336
100.0   90.0   50.0
150.0   90.0   33.333333333333336
150.0   120.0   33.333333333333336
100.0   120.0   33.333333333333336
150.0   120.0   50.0
100.0   90.0   50.0
100.0   120.0   50.0
150.0   120.0   50.0
100.0   120.0   33.333333333333336
100.0   90.0   50.0
150.0   120.0   50.0
150.0   90.0   50.0
150.0   90.0   33.333333333333336
100.0   90.0   50.0
150.0   120.0   50.0
150.0   90.0   33.333333333333336
100.0   120.0   33.333333333333336
100.0   120.0   0.0
150.0   120.0   0.0
100.0   150.0   0.0
100.0   120.0   16.666666666666668
150.0   120.0   0.0
150.0   150.0   0.0
100.0   150.0   0.0
150.0   150.0   16.666666666666668
100.0   120.0   16.666666666666668
100.0   150.0   16.666666666666668
150.0   150.0   16.666666666666668
100.0   150.0   0.0
100.0   120.0   16.666666666666668
150.0   150.0   16.666666666666668
150.0   120.0   16.666666666666668
150.0   120.0   0.0
100.0   120.0   16.666666666666668
150.0   150.0   16.666666666666668
150.0   120.0   0.0
100.0   150.0   0.0
100.0   120.0   16.666666666666668
150.0   120.0   16.666666666666668
100.0   150.0   16.666666666666668
100.0   120.0   33.333333333333336
150.0   120.0   16.666666666666668
150.0   150.0   16.666666666666668
100.0   150.0   16.666666666666668
150.0   150.0   33.333333333333336
100.0   120.0   33.333333333333336
100.0   150.0   33.333333333333336
150.0   150.0   33.333333333333336
100.0   150.0   16.666666666666668
100.0   120.0   33.333333333333336
150.0   150.0   33.333333333333336
150.0   120.0   33.333333333333336
150.0   120.0   16.666666666666668
100.0   120.0   33.333333333333336
150.0   150.0   33.333333333333336
150.0   120.0   16.666666666666668
100.0   150.0   16.666666666666668
100.0   120.0   33.333333333333336
150.0   120.0   33.333333333333336
100.0   150.0   33.333333333333336
100.0   120.0   50.0
150.0   120.0   33.333333333333336
150.0   150.0   33.333333333333336
100.0   150.0   33.333333333333336
150.0   150.0   50.0
100.0   120.0   50.0
100.0   150.0   50.0
150.0   150.0   50.0
100.0   150.0   33.333333333333336
100.0   120.0   50.0
150.0   150.0   50.0
150.0   120.0   50.0
150.0   120.0   33.333333333333336
100.0   120.0   50.0
150.0   150.0   50.0
150.0   120.0   33.333333333333336
100.0   150.0   33.333333333333336
150.0   0.0   0.0
200.0   0.0   0.0
150.0   30.0   0.0
150.0   0.0   16.666666666666668
200.0   0.0   0.0
200.0   30.0   0.0
150.0   30.0   0.0
200.0   30.0   16.666666666666668
150.0   0.0   16.666666666666668
150.0   30.0   16.666666666666668
200.0   30.0   16.666666666666668
150.0   30.0   0.0
150.0   0.0   16.666666666666668
200.0   30.0   16.666666666666668
200.0   0.0   16.666666666666668
200.0   0.0   0.0
150.0   0.0   16.666666666666668
200.0   30.0   16.666666666666668
200.0   0.0   0.0
150.0   30.0   0.0
150.0   0.0   16.666666666666668
200.0   0.0   16.666666666666668
150.0   30.0   16.666666666666668
150.0   0.0   33.333333333333336
200.0   0.0   16.666666666666668
200.0   30.0   16.666666666666668
150.0   30.0   16.666666666666668
200.0   30.0   33.333333333333336
150.0   0.0   33.333333333333336
150.0   30.0   33.333333333333336
200.0   30.0   33.333333333333336
150.0   30.0   16.666666666666668
150.0   0.0   33.333333333333336
200.0   30.0   33.333333333333336
200.0   0.0   33.333333333333336
200.0   0.0   16.666666666666668
150.0   0.0   33.333333333333336
200.0   30.0   33.333333333333336
200.0   0.0   16.666666666666668
150.0   30.0   16.666666666666668
150.0   0.0   33.333333333333336
200.0   0.0   33.333333333333336
150.0   30.0   33.333333333333336
150.0   0.0   50.0
200.0   0.0   33.333333333333336
200.0   30.0   33.333333333333336
150.0   30.0   33.333333333333336
200.0   30.0   50.0
150.0   0.0   50.0
150.0   30.0   50.0
200.0   30.0   50.0
150.0   30.0   33.333333333333336
150.0   0.0   50.0
200.0   30.0   50.0
200.0   0.0   50.0
200.0   0.0   33.333333333333336
150.0   0.0   50.0
200.0   30.0   50.0
200.0   0.0   33.333333333333336
150.0   30.0   33.333333333333336
150.0   30.0   0.0
200.0   30.0   0.0
150.0   60.0   0.0
150.0   30.0   16.666666666666668
200.0   30.0   0.0
200.0   60.0   0.0
150.0   60.0   0.0
200.0   60.0   16.666666666666668
150.0   30.0   16.666666666666668
150.0   60.0   16.666666666666668
200.0   60.0   16.666666666666668
150.0   60.0   0.0
150.0   30.0   16.666666666666668
200.0   60.0   16.666666666666668
200.0   30.0   16.666666666666668
200.0   30.0   0.0
150.0   30.0   16.666666666666668
200.0   60.0   16.666666666666668
200.0   30.0   0.0
150.0   60.0   0.0
150.0   30.0   16.666666666666668
200.0   30.0   16.666666666666668
150.0   60.0   16.666666666666668
150.0   30.0   33.333333333333336
200.0   30.0   16.666666666666668
200.0   60.0   16.666666666666668
150.0   60.0   16.666666666666668
200.0   60.0   33.333333333333336
150.0   30.0   33.333333333333336
150.0   60.0   33.333333333333336
200.0   60.0   33.333333333333336
150.0   60.0   16.666666666666668
150.0   30.0   33.333333333333336
200.0   60.0   33.333333333333336
200.0   30.0   33.333333333333336
200.0   30.0   16.666666666666668
150.0   30.0   33.333333333333336
200.0   60.0   33.333333333333336
200.0   30.0   16.666666666666668
150.0   60.0   16.666666666666668
150.0   30.0   33.333333333333336
200.0   30.0   33.333333333333336
150.0   60.0   33.333333333333336
150.0   30.0   50.0
200.0   30.0   33.333333333333336
200.0   60.0   33.333333333333336
150.0   60.0   33.333333333333336
200.0   60.0   50.0
150.0   30.0   50.0
150.0   60.0   50.0
200.0   60.0   50.0
150.0   60.0   33.333333333333336
150.0   30.0   50.0
200.0   60.0   50.0
200.0   30.0   50.0
200.0   30.0   33.333333333333336
150.0   30.0   50.0
200.0   60.0   50.0
200.0   30.0   33.333333333333336
150.0   60.0   33.333333333333336
150.0   60.0   0.0
200.0   60.0   0.0
150.0   90.0   0.0
150.0   60.0   16.666666666666668
200.0   60.0   0.0
200.0   90.0   0.0
150.0   90.0   0.0
200.0   90.0   16.666666666666668
150.0   60.0   16.666666666666668
150.0   90.0   16.666666666666668
200.0   90.0   16.666666666666668
150.0   90.0   0.0
150.0   60.0   16.666666666666668
200.0   90.0   16.666666666666668
200.0   60.0   16.666666666666668
200.0   60.0   0.0
150.0   60.0   16.666666666666668
200.0   90.0   16.666666666666668
200.0   60.0   0.0
150.0   90.0   0.0
150.0   60.0   16.666666666666668
200.0   60.0   16.666666666666668
150.0   90.0   16.666666666666668
150.0   60.0   33.333333333333336
200.0   60.0   16.666666666666668
200.0   90.0   16.666666666666668
150.0   90.0   16.666666666666668
200.0   90.0   33.333333333333336
150.0   60.0   33.333333333333336
150.0   90.0   33.333333333333336
200.0   90.0   33.333333333333336
150.0   90.0   16.666666666666668
150.0   60.0   33.333333333333336
200.0   90.0   33.333333333333336
200.0   60.0   33.333333333333336
200.0   60.0   16.666666666666668
150.0   60.0   33.333333333333336
200.0   90.0   33.333333333333336
200.0   60.0   16.666666666666668
150.0   90.0   16.666666666666668
150.0   60.0   33.333333333333336
200.0   60.0   33.333333333333336
150.0   90.0   33.333333333333336
150.0   60.0   50.0
200.0   60.0   33.333333333333336
200.0   90.0   33.333333333333336
150.0   90.0   33.333333333333336
200.0   90.0   50.0
150.0   60.0   50.0
150.0   90.0   50.0
200.0   90.0   50.0
150.0   90.0   33.333333333333336
150.0   60.0   50.0
200.0   90.0   50.0
200.0   60.0   50.0
200.0   60.0   33.333333333333336
150.0   60.0   50.0
200.0   90.0   50.0
200.0   60.0   33.333333333333336
150.0   90.0   33.333333333333336
150.0   90.0   0.0
200.0   90.0   0.0
150.0   120.0   0.0
150.0   90.0   16.666666666666668
200.0   90.0   0.0
200.0   120.0   0.0
150.0   120.0   0.0
200.0   120.0   16.666666666666668
150.0   90.0   16.666666666666668
150.0   120.0   16.666666666666668
200.0   120.0   16.666666666666668
150.0   120.0   0.0
150.0   90.0   16.666666666666668
200.0   120.0   16.666666666666668
200.0   90.0   16.666666666666668
200.0   90.0   0.0
150.0   90.0   16.666666666666668
200.0   120.0   16.666666666666668
200.0   90.0   0.0
150.0   120.0   0.0
150.0   90.0   16.666666666666668
200.0   90.0   16.666666666666668
150.0   120.0   16.666666666666668
150.0   90.0   33.333333333333336
200.0   90.0   16.666666666666668
200.0   120.0   16.666666666666668
150.0   120.0   16.666666666666668
200.0   120.0   33.333333333333336
150.0   90.0   33.333333333333336
150.0   120.0   33.333333333333336
200.0   120.0   33.333333333333336
150.0   120.0   16.666666666666668
150.0   90.0   33.333333333333336
200.0   120.0   33.333333333333336
200.0   90.0   33.333333333333336
200.0   90.0   16.666666666666668
150.0   90.0   33.333333333333336
200.0   120.0   33.333333333333336
200.0   90.0   16.666666666666668
150.0   120.0   16.666666666666668
150.0   90.0   33.333333333333336
200.0   90.0   33.333333333333336
150.0   120.0   33.333333333333336
150.0   90.0   50.0
200.0   90.0   33.333333333333336
200.0   120.0   33.333333333333336
150.0   120.0   33.333333333333336
200.0   120.0   50.0
150.0   90.0   50.0
150.0   120.0   50.0
200.0   120.0   50.0
150.0   120.0   33.333333333333336
150.0   90.0   50.0
200.0   120.0   50.0
200.0   90.0   50.0
200.0   90.0   33.333333333333336
150.0   90.0   50.0
200.0   120.0   50.0
200.0   90.0   33.333333333333336
150.0   120.0   33.333333333333336
150.0   120.0   0.0
200.0   120.0   0.0
150.0   150.0   0.0
150.0   120.0   16.666666666666668
200.0   120.0   0.0
200.0   150.0   0.0
150.0   150.0   0.0
200.0   150.0   16.666666666666668
150.0   120.0   16.666666666666668
150.0   150.0   16.666666666666668
200.0   150.0   16.666666666666668
150.0   150.0   0.0
150.0   120.0   16.666666666666668
200.0   150.0   16.666666666666668
200.0   120.0   16.666666666666668
200.0   120.0   0.0
150.0   120.0   16.666666666666668
200.0   150.0   16.666666666666668
200.0   120.0   0.0
150.0   150.0   0.0
150.0   120.0   16.666666666666668
200.0   120.0   16.666666666666668
150.0   150.0   16.666666666666668
150.0   120.0   33.333333333333336
200.0   120.0   16.666666666666668
200.0   150.0   16.666666666666668
150.0   150.0   16.666666666666668
200.0   150.0   33.333333333333336
150.0   120.0   33.333333333333336
150.0   150.0   33.333333333333336
200.0   150.0   33.333333333333336
150.0   150.0   16.666666666666668
150.0   120.0   33.333333333333336
200.0   150.0   33.333333333333336
200.0   120.0   33.333333333333336
200.0   120.0   16.666666666666668
150.0   120.0   33.333333333333336
200.0   150.0   33.333333333333336
200.0   120.0   16.666666666666668
150.0   150.0   16.666666666666668
150.0   120.0   33.333333333333336
200.0   120.0   33.333333333333336
150.0   150.0   33.333333333333336
150.0   120.0   50.0
200.0   120.0   33.333333333333336
200.0   150.0   33.333333333333336
150.0   150.0   33.333333333333336
200.0   150.0   50.0
150.0   120.0   50.0
150.0   150.0   50.0
200.0   150.0   50.0
150.0   150.0   33.333333333333336
150.0   120.0   50.0
200.0   150.0   50.0
200.0   120.0   50.0
200.0   120.0   33.333333333333336
150.0   120.0   50.0
200.0   150.0   50.0
200.0   120.0   33.333333333333336
150.0   150.0   33.333333333333336
200.0   0.0   0.0
250.0   0.0   0.0
200.0   30.0   0.0
200.0   0.0   16.666666666666668
250.0   0.0   0.0
250.0   30.0   0.0
200.0   30.0   0.0
250.0   30.0   16.666666666666668
200.0   0.0   16.666666666666668
200.0   30.0   16.666666666666668
250.0   30.0   16.666666666666668
200.0   30.0   0.0
200.0   0.0   16.666666666666668
250.0   30.0   16.666666666666668
250.0   0.0   16.666666666666668
250.0   0.0   0.0
200.0   0.0   16.666666666666668
250.0   30.0   16.666666666666668
250.0   0.0   0.0
200.0   30.0   0.0
200.0   0.0   16.666666666666668
250.0   0.0   16.666666666666668
200.0   30.0   16.666666666666668
200.0   0.0   33.333333333333336
250.0   0.0   16.666666666666668
250.0   30.0   16.666666666666668
200.0   30.0   16.666666666666668
250.0   30.0   33.333333333333336
200.0   0.0   33.333333333333336
200.0   30.0   33.333333333333336
250.0   30.0   33.333333333333336
200.0   30.0   16.666666666666668
200.0   0.0   33.333333333333336
250.0   30.0   33.333333333333336
250.0   0.0   33.333333333333336
250.0   0.0   16.666666666666668
200.0   0.0   33.333333333333336
250.0   30.0   33.333333333333336
250.0   0.0   16.666666666666668
200.0   30.0   16.666666666666668
200.0   0.0   33.333333333333336
250.0   0.0   33.333333333333336
200.0   30.0   33.333333333333336
200.0   0.0   50.0
250.0   0.0   33.333333333333336
250.0   30.0   33.333333333333336
200.0   30.0   33.333333333333336
250.0   30.0   50.0
200.0   0.0   50.0
200.0   30.0   50.0
250.0   30.0   50.0
200.0   30.0   33.333333333333336
200.0   0.0   50.0
250.0   30.0   50.0
250.0   0.0   50.0
250.0   0.0   33.333333333333336
200.0   0.0   50.0
250.0   30.0   50.0
250.0   0.0   33.333333333333336
200.0   30.0   33.333333333333336
200.0   30.0   0.0
250.0   30.0   0.0
200.0   60.0   0.0
200.0   30.0   16.666666666666668
250.0   30.0   0.0
250.0   60.0   0.0
200.0   60.0   0.0
250.0   60.0   16.666666666666668
200.0   30.0   16.666666666666668
200.0   60.0   16.666666666666668
250.0   60.0   16.666666666666668
200.0   60.0   0.0
200.0   30.0   16.666666666666668
250.0   60.0   16.666666666666668
250.0   30.0   16.666666666666668
250.0   30.0   0.0
200.0   30.0   16.666666666666668
250.0   60.0   16.666666666666668
250.0   30.0   0.0
200.0   60.0   0.0
200.0   30.0   16.666666666666668
250.0   30.0   16.666666666666668
200.0   60.0   16.666666666666668
200.0   30.0   33.333333333333336
250.0   30.0   16.666666666666668
250.0   60.0   16.666666666666668
200.0   60.0   16.666666666666668
250.0   60.0   33.333333333333336
200.0   30.0   33.333333333333336
200.0   60.0   33.333333333333336
250.0   60.0   33.333333333333336
200.0   60.0   16.666666666666668
200.0   30.0   33.333333333333336
250.0   60.0   33.333333333333336
250.0   30.0   33.333333333333336
250.0   30.0   16.666666666666668
200.0   30.0   33.333333333333336
250.0   60.0   33.333333333333336
250.0   30.0   16.666666666666668
200.0   60.0   16.666666666666668
200.0   30.0   33.333333333333336
250.0   30.0   33.333333333333336
200.0   60.0   33.333333333333336
200.0   30.0   50.0
250.0   30.0   33.333333333333336
250.0   60.0   33.333333333333336
200.0   60.0   33.333333333333336
250.0   60.0   50.0
200.0   30.0   50.0
200.0   60.0   50.0
250.0   60.0   50.0
200.0   60.0   33.333333333333336
200.0   30.0   50.0
250.0   60.0   50.0
250.0   30.0   50.0
250.0   30.0   33.333333333333336
200.0   30.0   50.0
250.0   60.0   50.0
250.0   30.0   33.333333333333336
200.0   60.0   33.333333333333336
200.0   60.0   0.0
250.0   60.0   0.0
200.0   90.0   0.0
200.0   60.0   16.666666666666668
250.0   60.0   0.0
250.0   90.0   0.0
200.0   90.0   0.0
250.0   90.0   16.666666666666668
200.0   60.0   16.666666666666668
200.0   90.0   16.666666666666668
250.0   90.0   16.666666666666668
200.0   90.0   0.0
200.0   60.0   16.666666666666668
250.0   90.0   16.666666666666668
250.0   60.0   16.666666666666668
250.0   60.0   0.0
200.0   60.0   16.666666666666668
250.0   90.0   16.666666666666668
250.0   60.0   0.0
200.0   90.0   0.0
200.0   60.0   16.666666666666668
250.0   60.0   16.666666666666668
200.0   90.0   16.666666666666668
200.0   60.0   33.333333333333336
250.0   60.0   16.666666666666668
250.0   90.0   16.666666666666668
200.0   90.0   16.666666666666668
250.0   90.0   33.333333333333336
200.0   60.0   33.333333333333336
200.0   90.0   33.333333333333336
250.0   90.0   33.333333333333336
200.0   90.0   16.666666666666668
200.0   60.0   33.333333333333336
250.0   90.0   33.333333333333336
250.0   60.0   33.333333333333336
250.0   60.0   16.666666666666668
200.0   60.0   33.333333333333336
250.0   90.0   33.333333333333336
250.0   60.0   16.666666666666668
200.0   90.0   16.666666666666668
200.0   60.0   33.333333333333336
250.0   60.0   33.333333333333336
200.0   90.0   33.333333333333336
200.0   60.0   50.0
250.0   60.0   33.333333333333336
250.0   90.0   33.333333333333336
200.0   90.0   33.333333333333336
250.0   90.0   50.0
200.0   60.0   50.0
200.0   90.0   50.0
250.0   90.0   50.0
200.0   90.0   33.333333333333336
200.0   60.0   50.0
250.0   90.0   50.0
250.0   60.0   50.0
250.0   60.0   33.333333333333336
200.0   60.0   50.0
250.0   90.0   50.0
250.0   60.0   33.333333333333336
200.0   90.0   33.333333333333336
200.0   90.0   0.0
250.0   90.0   0.0
200.0   120.0   0.0
200.0   90.0   16.666666666666668
250.0   90.0   0.0
250.0   120.0   0.0
200.0   120.0   0.0
250.0   120.0   16.666666666666668
200.0   90.0   16.666666666666668
200.0   120.0   16.666666666666668
250.0   120.0   16.666666666666668
200.0   120.0   0.0
200.0   90.0   16.666666666666668
250.0   120.0   16.666666666666668
250.0   90.0   16.666666666666668
250.0   90.0   0.0
200.0   90.0   16.666666666666668
250.0   120.0   16.666666666666668
250.0   90.0   0.0
200.0   120.0   0.0
200.0   90.0   16.666666666666668
250.0   90.0   16.666666666666668
200.0   120.0   16.666666666666668
200.0   90.0   33.333333333333336
250.0   90.0   16.666666666666668
250.0   120.0   16.666666666666668
200.0   120.0   16.666666666666668
250.0   120.0   33.333333333333336
200.0   90.0   33.333333333333336
200.0   120.0   33.333333333333336
250.0   120.0   33.333333333333336
200.0   120.0   16.666666666666668
200.0   90.0   33.333333333333336
250.0   120.0   33.333333333333336
250.0   90.0   33.333333333333336
250.0   90.0   16.666666666666668
200.0   90.0   33.333333333333336
250.0   120.0   33.333333333333336
250.0   90.0   16.666666666666668
200.0   120.0   16.666666666666668
200.0   90.0   33.333333333333336
250.0   90.0   33.333333333333336
200.0   120.0   33.333333333333336
200.0   90.0   50.0
250.0   90.0   33.333333333333336
250.0   120.0   33.333333333333336
200.0   120.0   33.333333333333336
250.0   120.0   50.0
200.0   90.0   50.0
200.0   120.0   50.0
250.0   120.0   50.0
200.0   120.0   33.333333333333336
200.0   90.0   50.0
250.0   120.0   50.0
250.0   90.0   50.0
250.0   90.0   33.333333333333336
200.0   90.0   50.0
250.0   120.0   50.0
250.0   90.0   33.333333333333336
200.0   120.0   33.333333333333336
200.0   120.0   0.0
250.0   120.0   0.0
200.0   150.0   0.0
200.0   120.0   16.666666666666668
250.0   120.0   0.0
250.0   150.0   0.0
200.0   150.0   0.0
250.0   150.0   16.666666666666668
200.0   120.0   16.666666666666668
200.0   150.0   16.666666666666668
250.0   150.0   16.666666666666668
200.0   150.0   0.0
200.0   120.0   16.666666666666668
250.0   150.0   16.666666666666668
250.0   120.0   16.666666666666668
250.0   120.0   0.0
200.0   120.0   16.666666666666668
250.0   150.0   16.666666666666668
250.0   120.0   0.0
200.0   150.0   0.0
200.0   120.0   16.666666666666668
250.0   120.0   16.666666666666668
200.0   150.0   16.666666666666668
200.0   120.0   33.333333333333336
250.0   120.0   16.666666666666668
250.0   150.0   16.666666666666668
200.0   150.0   16.666666666666668
250.0   150.0   33.333333333333336
200.0   120.0   33.333333333333336
200.0   150.0   33.333333333333336
250.0   150.0   33.333333333333336
200.0   150.0   16.666666666666668
200.0   120.0   33.333333333333336
250.0   150.0   33.333333333333336
250.0   120.0   33.333333333333336
250.0   120.0   16.666666666666668
200.0   120.0   33.333333333333336
250.0   150.0   33.333333333333336
250.0   120.0   16.666666666666668
200.0   150.0   16.666666666666668
200.0   120.0   33.333333333333336
250.0   120.0   33.333333333333336
200.0   150.0   33.333333333333336
200.0   120.0   50.0
250.0   120.0   33.333333333333336
250.0   150.0   33.333333333333336
200.0   150.0   33.333333333333336
250.0   150.0   50.0
200.0   120.0   50.0
200.0   150.0   50.0
250.0   150.0   50.0
200.0   150.0   33.333333333333336
200.0   120.0   50.0
250.0   150.0   50.0
250.0   120.0   50.0
250.0   120.0   33.333333333333336
200.0   120.0   50.0
250.0   150.0   50.0
250.0   120.0   33.333333333333336
200.0   150.0   33.333333333333336
250.0   0.0   0.0
300.0   0.0   0.0
250.0   30.0   0.0
250.0   0.0   16.666666666666668
300.0   0.0   0.0
300.0   30.0   0.0
250.0   30.0   0.0
300.0   30.0   16.666666666666668
250.0   0.0   16.666666666666668
250.0   30.0   16.666666666666668
300.0   30.0   16.666666666666668
250.0   30.0   0.0
250.0   0.0   16.666666666666668
300.0   30.0   16.666666666666668
300.0   0.0   16.666666666666668
300.0   0.0   0.0
250.0   0.0   16.666666666666668
300.0   30.0   16.666666666666668
300.0   0.0   0.0
250.0   30.0   0.0
250.0   0.0   16.666666666666668
300.0   0.0   16.666666666666668
250.0   30.0   16.666666666666668
250.0   0.0   33.333333333333336
300.0   0.0   16.666666666666668
300.0   30.0   16.666666666666668
250.0   30.0   16.666666666666668
300.0   30.0   33.333333333333336
250.0   0.0   33.333333333333336
250.0   30.0   33.333333333333336
300.0   30.0   33.333333333333336
250.0   30.0   16.666666666666668
250.0   0.0   33.333333333333336
300.0   30.0   33.333333333333336
300.0   0.0   33.333333333333336
300.0   0.0   16.666666666666668
250.0   0.0   33.333333333333336
300.0   30.0   33.333333333333336
300.0   0.0   16.666666666666668
250.0   30.0   16.666666666666668
250.0   0.0   33.333333333333336
300.0   0.0   33.333333333333336
250.0   30.0   33.333333333333336
250.0   0.0   50.0
300.0   0.0   33.333333333333336
300.0   30.0   33.333333333333336
250.0   30.0   33.333333333333336
300.0   30.0   50.0
250.0   0.0   50.0
250.0   30.0   50.0
300.0   30.0   50.0
250.0   30.0   33.333333333333336
250.0   0.0   50.0
300.0   30.0   50.0
300.0   0.0   50.0
300.0   0.0   33.333333333333336
250.0   0.0   50.0
300.0   30.0   50.0
300.0   0.0   33.333333333333336
250.0   30.0   33.333333333333336
250.0   30.0   0.0
300.0   30.0   0.0
250.0   60.0   0.0
250.0   30.0   16.666666666666668
300.0   30.0   0.0
300.0   60.0   0.0
250.0   60.0   0.0
300.0   60.0   16.666666666666668
250.0   30.0   16.666666666666668
250.0   60.0   16.666666666666668
300.0   60.0   16.666666666666668
250.0   60.0   0.0
250.0   30.0   16.666666666666668
300.0   60.0   16.666666666666668
300.0   30.0   16.666666666666668
300.0   30.0   0.0
250.0   30.0   16.666666666666668
300.0   60.0   16.666666666666668
300.0   30.0   0.0
250.0   60.0   0.0
250.0   30.0   16.666666666666668
300.0   30.0   16.666666666666668
250.0   60.0   16.666666666666668
250.0   30.0   33.333333333333336
300.0   30.0   16.666666666666668
300.0   60.0   16.666666666666668
250.0   60.0   16.666666666666668
300.0   60.0   33.333333333333336
250.0   30.0   33.333333333333336
250.0   60.0   33.333333333333336
300.0   60.0   33.333333333333336
250.0   60.0   16.666666666666668
250.0   30.0   33.333333333333336
300.0   60.0   33.333333333333336
300.0   30.0   33.333333333333336
300.0   30.0   16.666666666666668
250.0   30.0   33.333333333333336
300.0   60.0   33.333333333333336
300.0   30.0   16.666666666666668
250.0   60.0   16.666666666666668
250.0   30.0   33.333333333333336
300.0   30.0   33.333333333333336
250.0   60.0   33.333333333333336
250.0   30.0   50.0
300.0   30.0   33.333333333333336
300.0   60.0   33.333333333333336
250.0   60.0   33.333333333333336
300.0   60.0   50.0
250.0   30.0   50.0
250.0   60.0   50.0
300.0   60.0   50.0
250.0   60.0   33.333333333333336
250.0   30.0   50.0
300.0   60.0   50.0
300.0   30.0   50.0
300.0   30.0   33.333333333333336
250.0   30.0   50.0
300.0   60.0   50.0
300.0   30.0   33.333333333333336
250.0   60.0   33.333333333333336
250.0   60.0   0.0
300.0   60.0   0.0
250.0   90.0   0.0
250.0   60.0   16.666666666666668
300.0   60.0   0.0
300.0   90.0   0.0
250.0   90.0   0.0
300.0   90.0   16.666666666666668
250.0   60.0   16.666666666666668
250.0   90.0   16.666666666666668
300.0   90.0   16.666666666666668
250.0   90.0   0.0
250.0   60.0   16.666666666666668
300.0   90.0   16.666666666666668
300.0   60.0   16.666666666666668
300.0   60.0   0.0
250.0   60.0   16.666666666666668
300.0   90.0   16.666666666666668
300.0   60.0   0.0
250.0   90.0   0.0
250.0   60.0   16.666666666666668
300.0   60.0   16.666666666666668
250.0   90.0   16.666666666666668
250.0   60.0   33.333333333333336
300.0   60.0   16.666666666666668
300.0   90.0   16.666666666666668
250.0   90.0   16.666666666666668
300.0   90.0   33.333333333333336
250.0   60.0   33.333333333333336
250.0   90.0   33.333333333333336
300.0   90.0   33.333333333333336
250.0   90.0   16.666666666666668
250.0   60.0   33.333333333333336
300.0   90.0   33.333333333333336
300.0   60.0   33.333333333333336
300.0   60.0   16.666666666666668
250.0   60.0   33.333333333333336
300.0   90.0   33.333333333333336
300.0   60.0   16.666666666666668
250.0   90.0   16.666666666666668
250.0   60.0   33.333333333333336
300.0   60.0   33.333333333333336
250.0   90.0   33.333333333333336
250.0   60.0   50.0
300.0   60.0   33.333333333333336
300.0   90.0   33.333333333333336
250.0   90.0   33.333333333333336
300.0   90.0   50.0
250.0   60.0   50.0
250.0   90.0   50.0
300.0   90.0   50.0
250.0   90.0   33.333333333333336
250.0   60.0   50.0
300.0   90.0   50.0
300.0   60.0   50.0
300.0   60.0   33.333333333333336
250.0   60.0   50.0
300.0   90.0   50.0
300.0   60.0   33.333333333333336
250.0   90.0   33.333333333333336
250.0   90.0   0.0
300.0   90.0   0.0
250.0   120.0   0.0
250.0   90.0   16.666666666666668
300.0   90.0   0.0
300.0   120.0   0.0
250.0   120.0   0.0
300.0   120.0   16.666666666666668
250.0   90.0   16.666666666666668
250.0   120.0   16.666666666666668
300.0   120.0   16.666666666666668
250.0   120.0   0.0
250.0   90.0   16.666666666666668
300.0   120.0   16.666666666666668
300.0   90.0   16.666666666666668
300.0   90.0   0.0
250.0   90.0   16.666666666666668
300.0   120.0   16.666666666666668
300.0   90.0   0.0
250.0   120.0   0.0
250.0   90.0   16.666666666666668
300.0   90.0   16.666666666666668
250.0   120.0   16.666666666666668
250.0   90.0   33.333333333333336
300.0   90.0   16.666666666666668
300.0   120.0   16.666666666666668
250.0   120.0   16.666666666666668
300.0   120.0   33.333333333333336
250.0   90.0   33.333333333333336
250.0   120.0   33.333333333333336
300.0   120.0   33.333333333333336
250.0   120.0   16.666666666666668
250.0   90.0   33.333333333333336
300.0   120.0   33.333333333333336
300.0   90.0   33.333333333333336
300.0   90.0   16.666666666666668
250.0   90.0   33.333333333333336
300.0   120.0   33.333333333333336
300.0   90.0   16.666666666666668
250.0   120.0   16.666666666666668
250.0   90.0   33.333333333333336
300.0   90.0   33.333333333333336
250.0   120.0   33.333333333333336
250.0   90.0   50.0
300.0   90.0   33.333333333333336
300.0   120.0   33.333333333333336
250.0   120.0   33.333333333333336
300.0   120.0   50.0
250.0   90.0   50.0
250.0   120.0   50.0
300.0   120.0   50.0
250.0   120.0   33.333333333333336
250.0   90.0   50.0
300.0   120.0   50.0
300.0   90.0   50.0
300.0   90.0   33.333333333333336
250.0   90.0   50.0
300.0   120.0   50.0
300.0   90.0   33.333333333333336
250.0   120.0   33.333333333333336
250.0   120.0   0.0
300.0   120.0   0.0
250.0   150.0   0.0
250.0   120.0   16.666666666666668
300.0   120.0   0.0
300.0   150.0   0.0
250.0   150.0   0.0
300.0   150.0   16.666666666666668
250.0   120.0   16.666666666666668
250.0   150.0   16.666666666666668
300.0   150.0   16.666666666666668
250.0   150.0   0.0
250.0   120.0   16.666666666666668
300.0   150.0   16.666666666666668
300.0   120.0   16.666666666666668
300.0   120.0   0.0
250.0   120.0   16.666666666666668
300.0   150.0   16.666666666666668
300.0   120.0   0.0
250.0   150.0   0.0
250.0   120.0   16.666666666666668
300.0   120.0   16.666666666666668
250.0   150.0   16.666666666666668
250.0   120.0   33.333333333333336
300.0   120.0   16.666666666666668
300.0   150.0   16.666666666666668
250.0   150.0   16.666666666666668
300.0   150.0   33.333333333333336
250.0   120.0   33.333333333333336
250.0   150.0   33.333333333333336
300.0   150.0   33.333333333333336
250.0   150.0   16.666666666666668
250.0   120.0   33.333333333333336
300.0   150.0   33.333333333333336
300.0   120.0   33.333333333333336
300.0   120.0   16.666666666666668
250.0   120.0   33.333333333333336
300.0   150.0   33.333333333333336
300.0   120.0   16.666666666666668
250.0   150.0   16.666666666666668
250.0   120.0   33.333333333333336
300.0   120.0   33.333333333333336
250.0   150.0   33.333333333333336
250.0   120.0   50.0
300.0   120.0   33.333333333333336
300.0   150.0   33.333333333333336
250.0   150.0   33.333333333333336
300.0   150.0   50.0
250.0   120.0   50.0
250.0   150.0   50.0
300.0   150.0   50.0
250.0   150.0   33.333333333333336
250.0   120.0   50.0
300.0   150.0   50.0
300.0   120.0   50.0
300.0   120.0   33.333333333333336
250.0   120.0   50.0
300.0   150.0   50.0
300.0   120.0   33.333333333333336
250.0   150.0   33.333333333333336
300.0   0.0   0.0
350.0   0.0   0.0
300.0   30.0   0.0
300.0   0.0   16.666666666666668
350.0   0.0   0.0
350.0   30.0   0.0
300.0   30.0   0.0
350.0   30.0   16.666666666666668
300.0   0.0   16.666666666666668
300.0   30.0   16.666666666666668
350.0   30.0   16.666666666666668
300.0   30.0   0.0
300.0   0.0   16.666666666666668
350.0   30.0   16.666666666666668
350.0   0.0   16.666666666666668
350.0   0.0   0.0
300.0   0.0   16.666666666666668
350.0   30.0   16.666666666666668
350.0   0.0   0.0
300.0   30.0   0.0
300.0   0.0   16.666666666666668
350.0   0.0   16.666666666666668
300.0   30.0   16.666666666666668
300.0   0.0   33.333333333333336
350.0   0.0   16.666666666666668
350.0   30.0   16.666666666666668
300.0   30.0   16.666666666666668
350.0   30.0   33.333333333333336
300.0   0.0   33.333333333333336
300.0   30.0   33.333333333333336
350.0   30.0   33.333333333333336
300.0   30.0   16.666666666666668
300.0   0.0   33.333333333333336
350.0   30.0   33.333333333333336
350.0   0.0   33.333333333333336
350.0   0.0   16.666666666666668
300.0   0.0   33.333333333333336
350.0   30.0   33.333333333333336
350.0   0.0   16.666666666666668
300.0   30.0   16.666666666666668
300.0   0.0   33.333333333333336
350.0   0.0   33.333333333333336
300.0   30.0   33.333333333333336
300.0   0.0   50.0
350.0   0.0   33.333333333333336
350.0   30.0   33.333333333333336
300.0   30.0   33.333333333333336
350.0   30.0   50.0
300.0   0.0   50.0
300.0   30.0   50.0
350.0   30.0   50.0
300.0   30.0   33.333333333333336
300.0   0.0   50.0
350.0   30.0   50.0
350.0   0.0   50.0
350.0   0.0   33.333333333333336
300.0   0.0   50.0
350.0   30.0   50.0
350.0   0.0   33.333333333333336
300.0   30.0   33.333333333333336
300.0   30.0   0.0
350.0   30.0   0.0
300.0   60.0   0.0
300.0   30.0   16.666666666666668
350.0   30.0   0.0
350.0   60.0   0.0
300.0   60.0   0.0
350.0   60.0   16.666666666666668
300.0   30.0   16.666666666666668
300.0   60.0   16.666666666666668
350.0   60.0   16.666666666666668
300.0   60.0   0.0
300.0   30.0   16.666666666666668
350.0   60.0   16.666666666666668
350.0   30.0   16.666666666666668
350.0   30.0   0.0
300.0   30.0   16.666666666666668
350.0   60.0   16.666666666666668
350.0   30.0   0.0
300.0   60.0   0.0
300.0   30.0   16.666666666666668
350.0   30.0   16.666666666666668
300.0   60.0   16.666666666666668
300.0   30.0   33.333333333333336
350.0   30.0   16.666666666666668
350.0   60.0   16.666666666666668
300.0   60.0   16.666666666666668
350.0   60.0   33.333333333333336
300.0   30.0   33.333333333333336
300.0   60.0   33.333333333333336
350.0   60.0   33.333333333333336
300.0   60.0   16.666666666666668
300.0   30.0   33.333333333333336
350.0   60.0   33.333333333333336
350.0   30.0   33.333333333333336
350.0   30.0   16.666666666666668
300.0   30.0   33.333333333333336
350.0   60.0   33.333333333333336
350.0   30.0   16.666666666666668
300.0   60.0   16.666666666666668
300.0   30.0   33.333333333333336
350.0   30.0   33.333333333333336
300.0   60.0   33.333333333333336
300.0   30.0   50.0
350.0   30.0   33.333333333333336
350.0   60.0   33.333333333333336
300.0   60.0   33.333333333333336
350.0   60.0   50.0
300.0   30.0   50.0
300.0   60.0   50.0
350.0   60.0   50.0
300.0   60.0   33.333333333333336
300.0   30.0   50.0
350.0   60.0   50.0
350.0   30.0   50.0
350.0   30.0   33.333333333333336
300.0   30.0   50.0
350.0   60.0   50.0
350.0   30.0   33.333333333333336
300.0   60.0   33.333333333333336
300.0   60.0   0.0
350.0   60.0   0.0
300.0   90.0   0.0
300.0   60.0   16.666666666666668
350.0   60.0   0.0
350.0   90.0   0.0
300.0   90.0   0.0
350.0   90.0   16.666666666666668
300.0   60.0   16.666666666666668
300.0   90.0   16.666666666666668
350.0   90.0   16.666666666666668
300.0   90.0   0.0
300.0   60.0   16.666666666666668
350.0   90.0   16.666666666666668
350.0   60.0   16.666666666666668
350.0   60.0   0.0
300.0   60.0   16.666666666666668
350.0   90.0   16.666666666666668
350.0   60.0   0.0
300.0   90.0   0.0
300.0   60.0   16.666666666666668
350.0   60.0   16.666666666666668
300.0   90.0   16.666666666666668
300.0   60.0   33.333333333333336
350.0   60.0   16.666666666666668
350.0   90.0   16.666666666666668
300.0   90.0   16.666666666666668
350.0   90.0   33.333333333333336
300.0   60.0   33.333333333333336
300.0   90.0   33.333333333333336
350.0   90.0   33.333333333333336
300.0   90.0   16.666666666666668
300.0   60.0   33.333333333333336
350.0   90.0   33.333333333333336
350.0   60.0   33.333333333333336
350.0   60.0   16.666666666666668
300.0   60.0   33.333333333333336
350.0   90.0   33.333333333333336
350.0   60.0   16.666666666666668
300.0   90.0   16.666666666666668
300.0   60.0   33.333333333333336
350.0   60.0   33.333333333333336
300.0   90.0   33.333333333333336
300.0   60.0   50.0
350.0   60.0   33.333333333333336
350.0   90.0   33.333333333333336
300.0   90.0   33.333333333333336
350.0   90.0   50.0
300.0   60.0   50.0
300.0   90.0   50.0
350.0   90.0   50.0
300.0   90.0   33.333333333333336
300.0   60.0   50.0
350.0   90.0   50.0
350.0   60.0   50.0
350.0   60.0   33.333333333333336
300.0   60.0   50.0
350.0   90.0   50.0
350.0   60.0   33.333333333333336
300.0   90.0   33.333333333333336
300.0   90.0   0.0
350.0   90.0   0.0
300.0   120.0   0.0
300.0   90.0   16.666666666666668
350.0   90.0   0.0
350.0   120.0   0.0
300.0   120.0   0.0
350.0   120.0   16.666666666666668
300.0   90.0   16.666666666666668
300.0   120.0   16.666666666666668
350.0   120.0   16.666666666666668
300.0   120.0   0.0
300.0   90.0   16.666666666666668
350.0   120.0   16.666666666666668
350.0   90.0   16.666666666666668
350.0   90.0   0.0
300.0   90.0   16.666666666666668
350.0   120.0   16.666666666666668
350.0   90.0   0.0
300.0   120.0   0.0
300.0   90.0   16.666666666666668
350.0   90.0   16.666666666666668
300.0   120.0   16.666666666666668
300.0   90.0   33.333333333333336
350.0   90.0   16.666666666666668
350.0   120.0   16.666666666666668
300.0   120.0   16.666666666666668
350.0   120.0   33.333333333333336
300.0   90.0   33.333333333333336
300.0   120.0   33.333333333333336
350.0   120.0   33.333333333333336
300.0   120.0   16.666666666666668
300.0   90.0   33.333333333333336
350.0   120.0   33.333333333333336
350.0   90.0   33.333333333333336
350.0   90.0   16.666666666666668
300.0   90.0   33.333333333333336
350.0   120.0   33.333333333333336
350.0   90.0   16.666666666666668
300.0   120.0   16.666666666666668
300.0   90.0   33.333333333333336
350.0   90.0   33.333333333333336
300.0   120.0   33.333333333333336
300.0   90.0   50.0
350.0   90.0   33.333333333333336
350.0   120.0   33.333333333333336
300.0   120.0   33.333333333333336
350.0   120.0   50.0
300.0   90.0   50.0
300.0   120.0   50.0
350.0   120.0   50.0
300.0   120.0   33.333333333333336
300.0   90.0   50.0
350.0   120.0   50.0
350.0   90.0   50.0
350.0   90.0   33.333333333333336
300.0   90.0   50.0
350.0   120.0   50.0
350.0   90.0   33.333333333333336
300.0   120.0   33.333333333333336
300.0   120.0   0.0
350.0   120.0   0.0
300.0   150.0   0.0
300.0   120.0   16.666666666666668
350.0   120.0   0.0
350.0   150.0   0.0
300.0   150.0   0.0
350.0   150.0   16.666666666666668
300.0   120.0   16.666666666666668
300.0   150.0   16.666666666666668
350.0   150.0   16.666666666666668
300.0   150.0   0.0
300.0   120.0   16.666666666666668
350.0   150.0   16.666666666666668
350.0   120.0   16.666666666666668
350.0   120.0   0.0
300.0   120.0   16.666666666666668
350.0   150.0   16.666666666666668
350.0   120.0   0.0
300.0   150.0   0.0
300.0   120.0   16.666666666666668
350.0   120.0   16.666666666666668
300.0   150.0   16.666666666666668
300.0   120.0   33.333333333333336
350.0   120.0   16.666666666666668
350.0   150.0   16.666666666666668
300.0   150.0   16.666666666666668
350.0   150.0   33.333333333333336
300.0   120.0   33.333333333333336
300.0   150.0   33.333333333333336
350.0   150.0   33.333333333333336
300.0   150.0   16.666666666666668
300.0   120.0   33.333333333333336
350.0   150.0   33.333333333333336
350.0   120.0   33.333333333333336
350.0   120.0   16.666666666666668
300.0   120.0   33.333333333333336
350.0   150.0   33.333333333333336
350.0   120.0   16.666666666666668
300.0   150.0   16.666666666666668
300.0   120.0   33.333333333333336
350.0   120.0   33.333333333333336
300.0   150.0   33.333333333333336
300.0   120.0   50.0
350.0   120.0   33.333333333333336
350.0   150.0   33.333333333333336
300.0   150.0   33.333333333333336
350.0   150.0   50.0
300.0   120.0   50.0
300.0   150.0   50.0
350.0   150.0   50.0
300.0   150.0   33.333333333333336
300.0   120.0   50.0
350.0   150.0   50.0
350.0   120.0   50.0
350.0   120.0   33.333333333333336
300.0   120.0   50.0
350.0   150.0   50.0
350.0   120.0   33.333333333333336
300.0   150.0   33.333333333333336
350.0   0.0   0.0
400.0   0.0   0.0
350.0   30.0   0.0
350.0   0.0   16.666666666666668
400.0   0.0   0.0
400.0   30.0   0.0
350.0   30.0   0.0
400.0   30.0   16.666666666666668
350.0   0.0   16.666666666666668
350.0   30.0   16.666666666666668
400.0   30.0   16.666666666666668
350.0   30.0   0.0
350.0   0.0   16.666666666666668
400.0   30.0   16.666666666666668
400.0   0.0   16.666666666666668
400.0   0.0   0.0
350.0   0.0   16.666666666666668
400.0   30.0   16.666666666666668
400.0   0.0   0.0
350.0   30.0   0.0
350.0   0.0   16.666666666666668
400.0   0.0   16.666666666666668
350.0   30.0   16.666666666666668
350.0   0.0   33.333333333333336
400.0   0.0   16.666666666666668
400.0   30.0   16.666666666666668
350.0   30.0   16.666666666666668
400.0   30.0   33.333333333333336
350.0   0.0   33.333333333333336
350.0   30.0   33.333333333333336
400.0   30.0   33.333333333333336
350.0   30.0   16.666666666666668
350.0   0.0   33.333333333333336
400.0   30.0   33.333333333333336
400.0   0.0   33.333333333333336
400.0   0.0   16.666666666666668
350.0   0.0   33.333333333333336
400.0   30.0   33.333333333333336
400.0   0.0   16.666666666666668
350.0   30.0   16.666666666666668
350.0   0.0   33.333333333333336
400.0   0.0   33.333333333333336
350.0   30.0   33.333333333333336
350.0   0.0   50.0
400.0   0.0   33.333333333333336
400.0   30.0   33.333333333333336
350.0   30.0   33.333333333333336
400.0   30.0   50.0
350.0   0.0   50.0
350.0   30.0   50.0
400.0   30.0   50.0
350.0   30.0   33.333333333333336
350.0   0.0   50.0
400.0   30.0   50.0
400.0   0.0   50.0
400.0   0.0   33.333333333333336
350.0   0.0   50.0
400.0   30.0   50.0
400.0   0.0   33.333333333333336
350.0   30.0   33.333333333333336
350.0   30.0   0.0
400.0   30.0   0.0
350.0   60.0   0.0
350.0   30.0   16.666666666666668
400.0   30.0   0.0
400.0   60.0   0.0
350.0   60.0   0.0
400.0   60.0   16.666666666666668
350.0   30.0   16.666666666666668
350.0   60.0   16.666666666666668
400.0   60.0   16.666666666666668
350.0   60.0   0.0
350.0   30.0   16.666666666666668
400.0   60.0   16.666666666666668
400.0   30.0   16.666666666666668
400.0   30.0   0.0
350.0   30.0   16.666666666666668
400.0   60.0   16.666666666666668
400.0   30.0   0.0
350.0   60.0   0.0
350.0   30.0   16.666666666666668
400.0   30.0   16.666666666666668
350.0   60.0   16.666666666666668
350.0   30.0   33.333333333333336
400.0   30.0   16.666666666666668
400.0   60.0   16.666666666666668
350.0   60.0   16.666666666666668
400.0   60.0   33.333333333333336
350.0   30.0   33.333333333333336
350.0   60.0   33.333333333333336
400.0   60.0   33.333333333333336
350.0   60.0   16.666666666666668
350.0   30.0   33.333333333333336
400.0   60.0   33.333333333333336
400.0   30.0   33.333333333333336
400.0   30.0   16.666666666666668
350.0   30.0   33.333333333333336
400.0   60.0   33.333333333333336
400.0   30.0   16.666666666666668
350.0   60.0   16.666666666666668
350.0   30.0   33.333333333333336
400.0   30.0   33.333333333333336
350.0   60.0   33.333333333333336
350.0   30.0   50.0
400.0   30.0   33.333333333333336
400.0   60.0   33.333333333333336
350.0   60.0   33.333333333333336
400.0   60.0   50.0
350.0   30.0   50.0
350.0   60.0   50.0
400.0   60.0   50.0
350.0   60.0   33.333333333333336
350.0   30.0   50.0
400.0   60.0   50.0
400.0   30.0   50.0
400.0   30.0   33.333333333333336
350.0   30.0   50.0
400.0   60.0   50.0
400.0   30.0   33.333333333333336
350.0   60.0   33.333333333333336
350.0   60.0   0.0
400.0   60.0   0.0
350.0   90.0   0.0
350.0   60.0   16.666666666666668
400.0   60.0   0.0
400.0   90.0   0.0
350.0   90.0   0.0
400.0   90.0   16.666666666666668
350.0   60.0   16.666666666666668
350.0   90.0   16.666666666666668
400.0   90.0   16.666666666666668
350.0   90.0   0.0
350.0   60.0   16.666666666666668
400.0   90.0   16.666666666666668
400.0   60.0   16.666666666666668
400.0   60.0   0.0
350.0   60.0   16.666666666666668
400.0   90.0   16.666666666666668
400.0   60.0   0.0
350.0   90.0   0.0
350.0   60.0   16.666666666666668
400.0   60.0   16.666666666666668
350.0   90.0   16.666666666666668
350.0   60.0   33.333333333333336
400.0   60.0   16.666666666666668
400.0   90.0   16.666666666666668
350.0   90.0   16.666666666666668
400.0   90.0   33.333333333333336
350.0   60.0   33.333333333333336
350.0   90.0   33.333333333333336
400.0   90.0   33.333333333333336
350.0   90.0   16.666666666666668
350.0   60.0   33.333333333333336
400.0   90.0   33.333333333333336
400.0   60.0   33.333333333333336
400.0   60.0   16.666666666666668
350.0   60.0   33.333333333333336
400.0   90.0   33.333333333333336
400.0   60.0   16.666666666666668
350.0   90.0   16.666666666666668
350.0   60.0   33.333333333333336
400.0   60.0   33.333333333333336
350.0   90.0   33.333333333333336
350.0   60.0   50.0
400.0   60.0   33.333333333333336
400.0   90.0   33.333333333333336
350.0   90.0   33.333333333333336
400.0   90.0   50.0
350.0   60.0   50.0
350.0   90.0   50.0
400.0   90.0   50.0
350.0   90.0   33.333333333333336
350.0   60.0   50.0
400.0   90.0   50.0
400.0   60.0   50.0
400.0   60.0   33.333333333333336
350.0   60.0   50.0
400.0   90.0   50.0
400.0   60.0   33.333333333333336
350.0   90.0   33.333333333333336
350.0   90.0   0.0
400.0   90.0   0.0
350.0   120.0   0.0
350.0   90.0   16.666666666666668
400.0   90.0   0.0
400.0   120.0   0.0
350.0   120.0   0.0
400.0   120.0   16.666666666666668
350.0   90.0   16.666666666666668
350.0   120.0   16.666666666666668
400.0   120.0   16.666666666666668
350.0   120.0   0.0
350.0   90.0   16.666666666666668
400.0   120.0   16.666666666666668
400.0   90.0   16.666666666666668
400.0   90.0   0.0
350.0   90.0   16.666666666666668
400.0   120.0   16.666666666666668
400.0   90.0   0.0
350.0   120.0   0.0
350.0   90.0   16.666666666666668
400.0   90.0   16.666666666666668
350.0   120.0   16.666666666666668
350.0   90.0   33.333333333333336
400.0   90.0   16.666666666666668
400.0   120.0   16.666666666666668
350.0   120.0   16.666666666666668
400.0   120.0   33.333333333333336
350.0   90.0   33.333333333333336
350.0   120.0   33.333333333333336
400.0   120.0   33.333333333333336
350.0   120.0   16.666666666666668
350.0   90.0   33.333333333333336
400.0   120.0   33.333333333333336
400.0   90.0   33.333333333333336
400.0   90.0   16.666666666666668
350.0   90.0   33.333333333333336
400.0   120.0   33.333333333333336
400.0   90.0   16.666666666666668
350.0   120.0   16.666666666666668
350.0   90.0   33.333333333333336
400.0   90.0   33.333333333333336
350.0   120.0   33.333333333333336
350.0   90.0   50.0
400.0   90.0   33.333333333333336
400.0   120.0   33.333333333333336
350.0   120.0   33.333333333333336
400.0   120.0   50.0
350.0   90.0   50.0
350.0   120.0   50.0
400.0   120.0   50.0
350.0   120.0   33.333333333333336
350.0   90.0   50.0
400.0   120.0   50.0
400.0   90.0   50.0
400.0   90.0   33.333333333333336
350.0   90.0   50.0
400.0   120.0   50.0
400.0   90.0   33.333333333333336
350.0   120.0   33.333333333333336
350.0   120.0   0.0
400.0   120.0   0.0
350.0   150.0   0.0
350.0   120.0   16.666666666666668
400.0   120.0   0.0
400.0   150.0   0.0
350.0   150.0   0.0
400.0   150.0   16.666666666666668
350.0   120.0   16.666666666666668
350.0   150.0   16.666666666666668
400.0   150.0   16.666666666666668
350.0   150.0   0.0
350.0   120.0   16.666666666666668
400.0   150.0   16.666666666666668
400.0   120.0   16.666666666666668
400.0   120.0   0.0
350.0   120.0   16.666666666666668
400.0   150.0   16.666666666666668
400.0   120.0   0.0
350.0   150.0   0.0
350.0   120.0   16.666666666666668
400.0   120.0   16.666666666666668
350.0   150.0   16.666666666666668
350.0   120.0   33.333333333333336
400.0   120.0   16.666666666666668
400.0   150.0   16.666666666666668
350.0   150.0   16.666666666666668
400.0   150.0   33.333333333333336
350.0   120.0   33.333333333333336
350.0   150.0   33.333333333333336
400.0   150.0   33.333333333333336
350.0   150.0   16.666666666666668
350.0   120.0   33.333333333333336
400.0   150.0   33.333333333333336
400.0   120.0   33.333333333333336
400.0   120.0   16.666666666666668
350.0   120.0   33.333333333333336
400.0   150.0   33.333333333333336
400.0   120.0   16.666666666666668
350.0   150.0   16.666666666666668
350.0   120.0   33.333333333333336
400.0   120.0   33.333333333333336
350.0   150.0   33.333333333333336
350.0   120.0   50.0
400.0   120.0   33.333333333333336
400.0   150.0   33.333333333333336
350.0   150.0   33.333333333333336
400.0   150.0   50.0
350.0   120.0   50.0
350.0   150.0   50.0
400.0   150.0   50.0
350.0   150.0   33.333333333333336
350.0   120.0   50.0
400.0   150.0   50.0
400.0   120.0   50.0
400.0   120.0   33.333333333333336
350.0   120.0   50.0
400.0   150.0   50.0
400.0   120.0   33.333333333333336
350.0   150.0   33.333333333333336
400.0   0.0   0.0
450.0   0.0   0.0
400.0   30.0   0.0
400.0   0.0   16.666666666666668
450.0   0.0   0.0
450.0   30.0   0.0
400.0   30.0   0.0
450.0   30.0   16.666666666666668
400.0   0.0   16.666666666666668
400.0   30.0   16.666666666666668
450.0   30.0   16.666666666666668
400.0   30.0   0.0
400.0   0.0   16.666666666666668
450.0   30.0   16.666666666666668
450.0   0.0   16.666666666666668
450.0   0.0   0.0
400.0   0.0   16.666666666666668
450.0   30.0   16.666666666666668
450.0   0.0   0.0
400.0   30.0   0.0
400.0   0.0   16.666666666666668
450.0   0.0   16.666666666666668
400.0   30.0   16.666666666666668
400.0   0.0   33.333333333333336
450.0   0.0   16.666666666666668
450.0   30.0   16.666666666666668
400.0   30.0   16.666666666666668
450.0   30.0   33.333333333333336
400.0   0.0   33.333333333333336
400.0   30.0   33.333333333333336
450.0   30.0   33.333333333333336
400.0   30.0   16.666666666666668
400.0   0.0   33.333333333333336
450.0   30.0   33.333333333333336
450.0   0.0   33.333333333333336
450.0   0.0   16.666666666666668
400.0   0.0   33.333333333333336
450.0   30.0   33.333333333333336
450.0   0.0   16.666666666666668
400.0   30.0   16.666666666666668
400.0   0.0   33.333333333333336
450.0   0.0   33.333333333333336
400.0   30.0   33.333333333333336
400.0   0.0   50.0
450.0   0.0   33.333333333333336
450.0   30.0   33.333333333333336
400.0   30.0   33.333333333333336
450.0   30.0   50.0
400.0   0.0   50.0
400.0   30.0   50.0
450.0   30.0   50.0
400.0   30.0   33.333333333333336
400.0   0.0   50.0
450.0   30.0   50.0
450.0   0.0   50.0
450.0   0.0   33.333333333333336
400.0   0.0   50.0
450.0   30.0   50.0
450.0   0.0   33.333333333333336
400.0   30.0   33.333333333333336
400.0   30.0   0.0
450.0   30.0   0.0
400.0   60.0   0.0
400.0   30.0   16.666666666666668
450.0   30.0   0.0
450.0   60.0   0.0
400.0   60.0   0.0
450.0   60.0   16.666666666666668
400.0   30.0   16.666666666666668
400.0   60.0   16.666666666666668
450.0   60.0   16.666666666666668
400.0   60.0   0.0
400.0   30.0   16.666666666666668
450.0   60.0   16.666666666666668
450.0   30.0   16.666666666666668
450.0   30.0   0.0
400.0   30.0   16.666666666666668
450.0   60.0   16.666666666666668
450.0   30.0   0.0
400.0   60.0   0.0
400.0   30.0   16.666666666666668
450.0   30.0   16.666666666666668
400.0   60.0   16.666666666666668
400.0   30.0   33.333333333333336
450.0   30.0   16.666666666666668
450.0   60.0   16.666666666666668
400.0   60.0   16.666666666666668
450.0   60.0   33.333333333333336
400.0   30.0   33.333333333333336
400.0   60.0   33.333333333333336
450.0   60.0   33.333333333333336
400.0   60.0   16.666666666666668
400.0   30.0   33.333333333333336
450.0   60.0   33.333333333333336
450.0   30.0   33.333333333333336
450.0   30.0   16.666666666666668
400.0   30.0   33.333333333333336
450.0   60.0   33.333333333333336
450.0   30.0   16.666666666666668
400.0   60.0   16.666666666666668
400.0   30.0   33.333333333333336
450.0   30.0   33.333333333333336
400.0   60.0   33.333333333333336
400.0   30.0   50.0
450.0   30.0   33.333333333333336
450.0   60.0   33.333333333333336
400.0   60.0   33.333333333333336
450.0   60.0   50.0
400.0   30.0   50.0
400.0   60.0   50.0
450.0   60.0   50.0
400.0   60.0   33.333333333333336
400.0   30.0   50.0
450.0   60.0   50.0
450.0   30.0   50.0
450.0   30.0   33.333333333333336
400.0   30.0   50.0
450.0   60.0   50.0
450.0   30.0   33.333333333333336
400.0   60.0   33.333333333333336
400.0   60.0   0.0
450.0   60.0   0.0
400.0   90.0   0.0
400.0   60.0   16.666666666666668
450.0   60.0   0.0
450.0   90.0   0.0
400.0   90.0   0.0
450.0   90.0   16.666666666666668
400.0   60.0   16.666666666666668
400.0   90.0   16.666666666666668
450.0   90.0   16.666666666666668
400.0   90.0   0.0
400.0   60.0   16.666666666666668
450.0   90.0   16.666666666666668
450.0   60.0   16.666666666666668
450.0   60.0   0.0
400.0   60.0   16.666666666666668
450.0   90.0   16.666666666666668
450.0   60.0   0.0
400.0   90.0   0.0
400.0   60.0   16.666666666666668
450.0   60.0   16.666666666666668
400.0   90.0   16.666666666666668
400.0   60.0   33.333333333333336
450.0   60.0   16.666666666666668
450.0   90.0   16.666666666666668
400.0   90.0   16.666666666666668
450.0   90.0   33.333333333333336
400.0   60.0   33.333333333333336
400.0   90.0   33.333333333333336
450.0   90.0   33.333333333333336
400.0   90.0   16.666666666666668
400.0   60.0   33.333333333333336
450.0   90.0   33.333333333333336
450.0   60.0   33.333333333333336
450.0   60.0   16.666666666666668
400.0   60.0   33.333333333333336
450.0   90.0   33.333333333333336
450.0   60.0   16.666666666666668
400.0   90.0   16.666666666666668
400.0   60.0   33.333333333333336
450.0   60.0   33.333333333333336
400.0   90.0   33.333333333333336
400.0   60.0   50.0
450.0   60.0   33.333333333333336
450.0   90.0   33.333333333333336
400.0   90.0   33.333333333333336
450.0   90.0   50.0
400.0   60.0   50.0
400.0   90.0   50.0
450.0   90.0   50.0
400.0   90.0   33.333333333333336
400.0   60.0   50.0
450.0   90.0   50.0
450.0   60.0   50.0
450.0   60.0   33.333333333333336
400.0   60.0   50.0
450.0   90.0   50.0
450.0   60.0   33.333333333333336
400.0   90.0   33.333333333333336
400.0   90.0   0.0
450.0   90.0   0.0
400.0   120.0   0.0
400.0   90.0   16.666666666666668
450.0   90.0   0.0
450.0   120.0   0.0
400.0   120.0   0.0
450.0   120.0   16.666666666666668
400.0   90.0   16.666666666666668
400.0   120.0   16.666666666666668
450.0   120.0   16.666666666666668
400.0   120.0   0.0
400.0   90.0   16.666666666666668
450.0   120.0   16.666666666666668
450.0   90.0   16.666666666666668
450.0   90.0   0.0
400.0   90.0   16.666666666666668
450.0   120.0   16.666666666666668
450.0   90.0   0.0
400.0   120.0   0.0
400.0   90.0   16.666666666666668
450.0   90.0   16.666666666666668
400.0   120.0   16.666666666666668
400.0   90.0   33.333333333333336
450.0   90.0   16.666666666666668
450.0   120.0   16.666666666666668
400.0   120.0   16.666666666666668
450.0   120.0   33.333333333333336
400.0   90.0   33.333333333333336
400.0   120.0   33.333333333333336
450.0   120.0   33.333333333333336
400.0   120.0   16.666666666666668
400.0   90.0   33.333333333333336
450.0   120.0   33.333333333333336
450.0   90.0   33.333333333333336
450.0   90.0   16.666666666666668
400.0   90.0   33.333333333333336
450.0   120.0   33.333333333333336
450.0   90.0   16.666666666666668
400.0   120.0   16.666666666666668
400.0   90.0   33.333333333333336
450.0   90.0   33.333333333333336
400.0   120.0   33.333333333333336
400.0   90.0   50.0
450.0   90.0   33.333333333333336
450.0   120.0   33.333333333333336
400.0   120.0   33.333333333333336
450.0   120.0   50.0
400.0   90.0   50.0
400.0   120.0   50.0
450.0   120.0   50.0
400.0   120.0   33.333333333333336
400.0   90.0   50.0
450.0   120.0   50.0
450.0   90.0   50.0
450.0   90.0   33.333333333333336
400.0   90.0   50.0
450.0   120.0   50.0
450.0   90.0   33.333333333333336
400.0   120.0   33.333333333333336
400.0   120.0   0.0
450.0   120.0   0.0
400.0   150.0   0.0
400.0   120.0   16.666666666666668
450.0   120.0   0.0
450.0   150.0   0.0
400.0   150.0   0.0
450.0   150.0   16.666666666666668
400.0   120.0   16.666666666666668
400.0   150.0   16.666666666666668
450.0   150.0   16.666666666666668
400.0   150.0   0.0
400.0   120.0   16.666666666666668
450.0   150.0   16.666666666666668
450.0   120.0   16.666666666666668
450.0   120.0   0.0
400.0   120.0   16.666666666666668
450.0   150.0   16.666666666666668
450.0   120.0   0.0
400.0   150.0   0.0
400.0   120.0   16.666666666666668
450.0   120.0   16.666666666666668
400.0   150.0   16.666666666666668
400.0   120.0   33.333333333333336
450.0   120.0   16.666666666666668
450.0   150.0   16.666666666666668
400.0   150.0   16.666666666666668
450.0   150.0   33.333333333333336
400.0   120.0   33.333333333333336
400.0   150.0   33.333333333333336
450.0   150.0   33.333333333333336
400.0   150.0   16.666666666666668
400.0   120.0   33.333333333333336
450.0   150.0   33.333333333333336
450.0   120.0   33.333333333333336
450.0   120.0   16.666666666666668
400.0   120.0   33.333333333333336
450.0   150.0   33.333333333333336
450.0   120.0   16.666666666666668
400.0   150.0   16.666666666666668
400.0   120.0   33.333333333333336
450.0   120.0   33.333333333333336
400.0   150.0   33.333333333333336
400.0   120.0   50.0
450.0   120.0   33.333333333333336
450.0   150.0   33.333333333333336
400.0   150.0   33.333333333333336
450.0   150.0   50.0
400.0   120.0   50.0
400.0   150.0   50.0
450.0   150.0   50.0
400.0   150.0   33.333333333333336
400.0   120.0   50.0
450.0   150.0   50.0
450.0   120.0   50.0
450.0   120.0   33.333333333333336
400.0   120.0   50.0
450.0   150.0   50.0
450.0   120.0   33.333333333333336
400.0   150.0   33.333333333333336
450.0   0.0   0.0
500.0   0.0   0.0
450.0   30.0   0.0
450.0   0.0   16.666666666666668
500.0   0.0   0.0
500.0   30.0   0.0
450.0   30.0   0.0
500.0   30.0   16.666666666666668
450.0   0.0   16.666666666666668
450.0   30.0   16.666666666666668
500.0   30.0   16.666666666666668
450.0   30.0   0.0
450.0   0.0   16.666666666666668
500.0   30.0   16.666666666666668
500.0   0.0   16.666666666666668
500.0   0.0   0.0
450.0   0.0   16.666666666666668
500.0   30.0   16.666666666666668
500.0   0.0   0.0
450.0   30.0   0.0
450.0   0.0   16.666666666666668
500.0   0.0   16.666666666666668
450.0   30.0   16.666666666666668
450.0   0.0   33.333333333333336
500.0   0.0   16.666666666666668
500.0   30.0   16.666666666666668
450.0   30.0   16.666666666666668
500.0   30.0   33.333333333333336
450.0   0.0   33.333333333333336
450.0   30.0   33.333333333333336
500.0   30.0   33.333333333333336
450.0   30.0   16.666666666666668
450.0   0.0   33.333333333333336
500.0   30.0   33.333333333333336
500.0   0.0   33.333333333333336
500.0   0.0   16.666666666666668
450.0   0.0   33.333333333333336
500.0   30.0   33.333333333333336
500.0   0.0   16.666666666666668
450.0   30.0   16.666666666666668
450.0   0.0   33.333333333333336
500.0   0.0   33.333333333333336
450.0   30.0   33.333333333333336
450.0   0.0   50.0
500.0   0.0   33.333333333333336
500.0   30.0   33.333333333333336
450.0   30.0   33.333333333333336
500.0   30.0   50.0
450.0   0.0   50.0
450.0   30.0   50.0
500.0   30.0   50.0
450.0   30.0   33.333333333333336
450.0   0.0   50.0
500.0   30.0   50.0
500.0   0.0   50.0
500.0   0.0   33.333333333333336
450.0   0.0   50.0
500.0   30.0   50.0
500.0   0.0   33.333333333333336
450.0   30.0   33.333333333333336
450.0   30.0   0.0
500.0   30.0   0.0
450.0   60.0   0.0
450.0   30.0   16.666666666666668
500.0   30.0   0.0
500.0   60.0   0.0
450.0   60.0   0.0
500.0   60.0   16.666666666666668
450.0   30.0   16.666666666666668
450.0   60.0   16.666666666666668
500.0   60.0   16.666666666666668
450.0   60.0   0.0
450.0   30.0   16.666666666666668
500.0   60.0   16.666666666666668
500.0   30.0   16.666666666666668
500.0   30.0   0.0
450.0   30.0   16.666666666666668
500.0   60.0   16.666666666666668
500.0   30.0   0.0
450.0   60.0   0.0
450.0   30.0   16.666666666666668
500.0   30.0   16.666666666666668
450.0   60.0   16.666666666666668
450.0   30.0   33.333333333333336
500.0   30.0   16.666666666666668
500.0   60.0   16.666666666666668
450.0   60.0   16.666666666666668
500.0   60.0   33.333333333333336
450.0   30.0   33.333333333333336
450.0   60.0   33.333333333333336
500.0   60.0   33.333333333333336
450.0   60.0   16.666666666666668
450.0   30.0   33.333333333333336
500.0   60.0   33.333333333333336
500.0   30.0   33.333333333333336
500.0   30.0   16.666666666666668
450.0   30.0   33.333333333333336
500.0   60.0   33.333333333333336
500.0   30.0   16.666666666666668
450.0   60.0   16.666666666666668
450.0   30.0   33.333333333333336
500.0   30.0   33.333333333333336
450.0   60.0   33.333333333333336
450.0   30.0   50.0
500.0   30.0   33.333333333333336
500.0   60.0   33.333333333333336
450.0   60.0   33.333333333333336
500.0   60.0   50.0
450.0   30.0   50.0
450.0   60.0   50.0
500.0   60.0   50.0
450.0   60.0   33.333333333333336
450.0   30.0   50.0
500.0   60.0   50.0
500.0   30.0   50.0
500.0   30.0   33.333333333333336
450.0   30.0   50.0
500.0   60.0   50.0
500.0   30.0   33.333333333333336
450.0   60.0   33.333333333333336
450.0   60.0   0.0
500.0   60.0   0.0
450.0   90.0   0.0
450.0   60.0   16.666666666666668
500.0   60.0   0.0
500.0   90.0   0.0
450.0   90.0   0.0
500.0   90.0   16.666666666666668
450.0   60.0   16.666666666666668
450.0   90.0   16.666666666666668
500.0   90.0   16.666666666666668
450.0   90.0   0.0
450.0   60.0   16.666666666666668
500.0   90.0   16.666666666666668
500.0   60.0   16.666666666666668
500.0   60.0   0.0
450.0   60.0   16.666666666666668
500.0   90.0   16.666666666666668
500.0   60.0   0.0
450.0   90.0   0.0
450.0   60.0   16.666666666666668
500.0   60.0   16.666666666666668
450.0   90.0   16.666666666666668
450.0   60.0   33.333333333333336
500.0   60.0   16.666666666666668
500.0   90.0   16.666666666666668
450.0   90.0   16.666666666666668
500.0   90.0   33.333333333333336
450.0   60.0   33.333333333333336
450.0   90.0   33.333333333333336
500.0   90.0   33.333333333333336
450.0   90.0   16.666666666666668
450.0   60.0   33.333333333333336
500.0   90.0   33.333333333333336
500.0   60.0   33.333333333333336
500.0   60.0   16.666666666666668
450.0   60.0   33.333333333333336
500.0   90.0   33.333333333333336
500.0   60.0   16.666666666666668
450.0   90.0   16.666666666666668
450.0   60.0   33.333333333333336
500.0   60.0   33.333333333333336
450.0   90.0   33.333333333333336
450.0   60.0   50.0
500.0   60.0   33.333333333333336
500.0   90.0   33.333333333333336
450.0   90.0   33.333333333333336
500.0   90.0   50.0
450.0   60.0   50.0
450.0   90.0   50.0
500.0   90.0   50.0
450.0   90.0   33.333333333333336
450.0   60.0   50.0
500.0   90.0   50.0
500.0   60.0   50.0
500.0   60.0   33.333333333333336
450.0   60.0   50.0
500.0   90.0   50.0
500.0   60.0   33.333333333333336
450.0   90.0   33.333333333333336
450.0   90.0   0.0
500.0   90.0   0.0
450.0   120.0   0.0
450.0   90.0   16.666666666666668
500.0   90.0   0.0
500.0   120.0   0.0
450.0   120.0   0.0
500.0   120.0   16.666666666666668
450.0   90.0   16.666666666666668
450.0   120.0   16.666666666666668
500.0   120.0   16.666666666666668
450.0   120.0   0.0
450.0   90.0   16.666666666666668
500.0   120.0   16.666666666666668
500.0   90.0   16.666666666666668
500.0   90.0   0.0
450.0   90.0   16.666666666666668
500.0   120.0   16.666666666666668
500.0   90.0   0.0
450.0   120.0   0.0
450.0   90.0   16.666666666666668
500.0   90.0   16.666666666666668
450.0   120.0   16.666666666666668
450.0   90.0   33.333333333333336
500.0   90.0   16.666666666666668
500.0   120.0   16.666666666666668
450.0   120.0   16.666666666666668
500.0   120.0   33.333333333333336
450.0   90.0   33.333333333333336
450.0   120.0   33.333333333333336
500.0   120.0   33.333333333333336
450.0   120.0   16.666666666666668
450.0   90.0   33.333333333333336
500.0   120.0   33.333333333333336
500.0   90.0   33.333333333333336
500.0   90.0   16.666666666666668
450.0   90.0   33.333333333333336
500.0   120.0   33.333333333333336
500.0   90.0   16.666666666666668
450.0   120.0   16.666666666666668
450.0   90.0   33.333333333333336
500.0   90.0   33.333333333333336
450.0   120.0   33.333333333333336
450.0   90.0   50.0
500.0   90.0   33.333333333333336
500.0   120.0   33.333333333333336
450.0   120.0   33.333333333333336
500.0   120.0   50.0
450.0   90.0   50.0
450.0   120.0   50.0
500.0   120.0   50.0
450.0   120.0   33.333333333333336
450.0   90.0   50.0
500.0   120.0   50.0
500.0   90.0   50.0
500.0   90.0   33.333333333333336
450.0   90.0   50.0
500.0   120.0   50.0
500.0   90.0   33.333333333333336
450.0   120.0   33.333333333333336
450.0   120.0   0.0
500.0   120.0   0.0
450.0   150.0   0.0
450.0   120.0   16.666666666666668
500.0   120.0   0.0
500.0   150.0   0.0
450.0   150.0   0.0
500.0   150.0   16.666666666666668
450.0   120.0   16.666666666666668
450.0   150.0   16.666666666666668
500.0   150.0   16.666666666666668
450.0   150.0   0.0
450.0   120.0   16.666666666666668
500.0   150.0   16.666666666666668
500.0   120.0   16.666666666666668
500.0   120.0   0.0
450.0   120.0   16.666666666666668
500.0   150.0   16.666666666666668
500.0   120.0   0.0
450.0   150.0   0.0
450.0   120.0   16.666666666666668
500.0   120.0   16.666666666666668
450.0   150.0   16.666666666666668
450.0   120.0   33.333333333333336
500.0   120.0   16.666666666666668
500.0   150.0   16.666666666666668
450.0   150.0   16.666666666666668
500.0   150.0   33.333333333333336
450.0   120.0   33.333333333333336
450.0   150.0   33.333333333333336
500.0   150.0   33.333333333333336
450.0   150.0   16.666666666666668
450.0   120.0   33.333333333333336
500.0   150.0   33.333333333333336
500.0   120.0   33.333333333333336
500.0   120.0   16.666666666666668
450.0   120.0   33.333333333333336
500.0   150.0   33.333333333333336
500.0   120.0   16.666666666666668
450.0   150.0   16.666666666666668
450.0   120.0   33.333333333333336
500.0   120.0   33.333333333333336
450.0   150.0   33.333333333333336
450.0   120.0   50.0
500.0   120.0   33.333333333333336
500.0   150.0   33.333333333333336
450.0   150.0   33.333333333333336
500.0   150.0   50.0
450.0   120.0   50.0
450.0   150.0   50.0
500.0   150.0   50.0
450.0   150.0   33.333333333333336
450.0   120.0   50.0
500.0   150.0   50.0
500.0   120.0   50.0
500.0   120.0   33.333333333333336
450.0   120.0   50.0
500.0   150.0   50.0
500.0   120.0   33.333333333333336
450.0   150.0   33.333333333333336
             </DataArray>   
          </Points>  
          <Cells>  
             <DataArray type="Int32" Name="connectivity" format="ascii">   
0   1   2   3
4   5   6   7
8   9   10   11
12   13   14   15
16   17   18   19
20   21   22   23
24   25   26   27
28   29   30   31
32   33   34   35
36   37   38   39
40   41   42   43
44   45   46   47
48   49   50   51
52   53   54   55
56   57   58   59
60   61   62   63
64   65   66   67
68   69   70   71
72   73   74   75
76   77   78   79
80   81   82   83
84   85   86   87
88   89   90   91
92   93   94   95
96   97   98   99
100   101   102   103
104   105   106   107
108   109   110   111
112   113   114   115
116   117   118   119
120   121   122   123
124   125   126   127
128   129   130   131
132   133   134   135
136   137   138   139
140   141   142   143
144   145   146   147
148   149   150   151
152   153   154   155
156   157   158   159
160   161   162   163
164   165   166   167
168   169   170   171
172   173   174   175
176   177   178   179
180   181   182   183
184   185   186   187
188   189   190   191
192   193   194   195
196   197   198   199
200   201   202   203
204   205   206   207
208   209   210   211
212   213   214   215
216   217   218   219
220   221   222   223
224   225   226   227
228   229   230   231
232   233   234   235
236   237   238   239
240   241   242   243
244   245   246   247
248   249   250   251
252   253   254   255
256   257   258   259
260   261   262   263
264   265   266   267
268   269   270   271
272   273   274   275
276   277   278   279
280   281   282   283
284   285   286   287
288   289   290   291
292   293   294   295
296   297   298   299
300   301   302   303
304   305   306   307
308   309   310   311
312   313   314   315
316   317   318   319
320   321   322   323
324   325   326   327
328   329   330   331
332   333   334   335
336   337   338   339
340   341   342   343
344   345   346   347
348   349   350   351
352   353   354   355
356   357   358   359
360   361   362   363
364   365   366   367
368   369   370   371
372   373   374   375
376   377   378   379
380   381   382   383
384   385   386   387
388   389   390   391
392   393   394   395
396   397   398   399
400   401   402   403
404   405   406   407
408   409   410   411
412   413   414   415
416   417   418   419
420   421   422   423
424   425   426   427
428   429   430   431
432   433   434   435
436   437   438   439
440   441   442   443
444   445   446   447
448   449   450   451
452   453   454   455
456   457   458   459
460   461   462   463
464   465   466   467
468   469   470   471
472   473   474   475
476   477   478   479
480   481   482   483
484   485   486   487
488   489   490   491
492   493   494   495
496   497   498   499
500   501   502   503
504   505   506   507
508   509   510   511
512   513   514   515
516   517   518   519
520   521   522   523
524   525   526   527
528   529   530   531
532   533   534   535
536   537   538   539
540   541   542   543
544   545   546   547
548   549   550   551
552   553   554   555
556   557   558   559
560   561   562   563
564   565   566   567
568   569   570   571
572   573   574   575
576   577   578   579
580   581   582   583
584   585   586   587
588   589   590   591
592   593   594   595
596   597   598   599
600   601   602   603
604   605   606   607
608   609   610   611
612   613   614   615
616   617   618   619
620   621   622   623
624   625   626   627
628   629   630   631
632   633   634   635
636   637   638   639
640   641   642   643
644   645   646   647
648   649   650   651
652   653   654   655
656   657   658   659
660   661   662   663
664   665   666   667
668   669   670   671
672   673   674   675
676   677   678   679
680   681   682   683
684   685   686   687
688   689   690   691
692   693   694   695
696   697   698   699
700   701   702   703
704   705   706   707
708   709   710   711
712   713   714   715
716   717   718   719
720   721   722   723
724   725   726   727
728   729   730   731
732   733   734   735
736   737   738   739
740   741   742   743
744   745   746   747
748   749   750   751
752   753   754   755
756   757   758   759
760   761   762   763
764   765   766   767
768   769   770   771
772   773   774   775
776   777   778   779
780   781   782   783
784   785   786   787
788   789   790   791
792   793   794   795
796   797   798   799
800   801   802   803
804   805   806   807
808   809   810   811
812   813   814   815
816   817   818   819
820   821   822   823
824   825   826   827
828   829   830   831
832   833   834   835
836   837   838   839
840   841   842   843
844   845   846   847
848   849   850   851
852   853   854   855
856   857   858   859
860   861   862   863
864   865   866   867
868   869   870   871
872   873   874   875
876   877   878   879
880   881   882   883
884   885   886   887
888   889   890   891
892   893   894   895
896   897   898   899
900   901   902   903
904   905   906   907
908   909   910   911
912   913   914   915
916   917   918   919
920   921   922   923
924   925   926   927
928   929   930   931
932   933   934   935
936   937   938   939
940   941   942   943
944   945   946   947
948   949   950   951
952   953   954   955
956   957   958   959
960   961   962   963
964   965   966   967
968   969   970   971
972   973   974   975
976   977   978   979
980   981   982   983
984   985   986   987
988   989   990   991
992   993   994   995
996   997   998   999
1000   1001   1002   1003
1004   1005   1006   1007
1008   1009   1010   1011
1012   1013   1014   1015
1016   1017   1018   1019
1020   1021   1022   1023
1024   1025   1026   1027
1028   1029   1030   1031
1032   1033   1034   1035
1036   1037   1038   1039
1040   1041   1042   1043
1044   1045   1046   1047
1048   1049   1050   1051
1052   1053   1054   1055
1056   1057   1058   1059
1060   1061   1062   1063
1064   1065   1066   1067
1068   1069   1070   1071
1072   1073   1074   1075
1076   1077   1078   1079
1080   1081   1082   1083
1084   1085   1086   1087
1088   1089   1090   1091
1092   1093   1094   1095
1096   1097   1098   1099
1100   1101   1102   1103
1104   1105   1106   1107
1108   1109   1110   1111
1112   1113   1114   1115
1116   1117   1118   1119
1120   1121   1122   1123
1124   1125   1126   1127
1128   1129   1130   1131
1132   1133   1134   1135
1136   1137   1138   1139
1140   1141   1142   1143
1144   1145   1146   1147
1148   1149   1150   1151
1152   1153   1154   1155
1156   1157   1158   1159
1160   1161   1162   1163
1164   1165   1166   1167
1168   1169   1170   1171
1172   1173   1174   1175
1176   1177   1178   1179
1180   1181   1182   1183
1184   1185   1186   1187
1188   1189   1190   1191
1192   1193   1194   1195
1196   1197   1198   1199
1200   1201   1202   1203
1204   1205   1206   1207
1208   1209   1210   1211
1212   1213   1214   1215
1216   1217   1218   1219
1220   1221   1222   1223
1224   1225   1226   1227
1228   1229   1230   1231
1232   1233   1234   1235
1236   1237   1238   1239
1240   1241   1242   1243
1244   1245   1246   1247
1248   1249   1250   1251
1252   1253   1254   1255
1256   1257   1258   1259
1260   1261   1262   1263
1264   1265   1266   1267
1268   1269   1270   1271
1272   1273   1274   1275
1276   1277   1278   1279
1280   1281   1282   1283
1284   1285   1286   1287
1288   1289   1290   1291
1292   1293   1294   1295
1296   1297   1298   1299
1300   1301   1302   1303
1304   1305   1306   1307
1308   1309   1310   1311
1312   1313   1314   1315
1316   1317   1318   1319
1320   1321   1322   1323
1324   1325   1326   1327
1328   1329   1330   1331
1332   1333   1334   1335
1336   1337   1338   1339
1340   1341   1342   1343
1344   1345   1346   1347
1348   1349   1350   1351
1352   1353   1354   1355
1356   1357   1358   1359
1360   1361   1362   1363
1364   1365   1366   1367
1368   1369   1370   1371
1372   1373   1374   1375
1376   1377   1378   1379
1380   1381   1382   1383
1384   1385   1386   1387
1388   1389   1390   1391
1392   1393   1394   1395
1396   1397   1398   1399
1400   1401   1402   1403
1404   1405   1406   1407
1408   1409   1410   1411
1412   1413   1414   1415
1416   1417   1418   1419
1420   1421   1422   1423
1424   1425   1426   1427
1428   1429   1430   1431
1432   1433   1434   1435
1436   1437   1438   1439
1440   1441   1442   1443
1444   1445   1446   1447
1448   1449   1450   1451
1452   1453   1454   1455
1456   1457   1458   1459
1460   1461   1462   1463
1464   1465   1466   1467
1468   1469   1470   1471
1472   1473   1474   1475
1476   1477   1478   1479
1480   1481   1482   1483
1484   1485   1486   1487
1488   1489   1490   1491
1492   1493   1494   1495
1496   1497   1498   1499
1500   1501   1502   1503
1504   1505   1506   1507
1508   1509   1510   1511
1512   1513   1514   1515
1516   1517   1518   1519
1520   1521   1522   1523
1524   1525   1526   1527
1528   1529   1530   1531
1532   1533   1534   1535
1536   1537   1538   1539
1540   1541   1542   1543
1544   1545   1546   1547
1548   1549   1550   1551
1552   1553   1554   1555
1556   1557   1558   1559
1560   1561   1562   1563
1564   1565   1566   1567
1568   1569   1570   1571
1572   1573   1574   1575
1576   1577   1578   1579
1580   1581   1582   1583
1584   1585   1586   1587
1588   1589   1590   1591
1592   1593   1594   1595
1596   1597   1598   1599
1600   1601   1602   1603
1604   1605   1606   1607
1608   1609   1610   1611
1612   1613   1614   1615
1616   1617   1618   1619
1620   1621   1622   1623
1624   1625   1626   1627
1628   1629   1630   1631
1632   1633   1634   1635
1636   1637   1638   1639
1640   1641   1642   1643
1644   1645   1646   1647
1648   1649   1650   1651
1652   1653   1654   1655
1656   1657   1658   1659
1660   1661   1662   1663
1664   1665   1666   1667
1668   1669   1670   1671
1672   1673   1674   1675
1676   1677   1678   1679
1680   1681   1682   1683
1684   1685   1686   1687
1688   1689   1690   1691
1692   1693   1694   1695
1696   1697   1698   1699
1700   1701   1702   1703
1704   1705   1706   1707
1708   1709   1710   1711
1712   1713   1714   1715
1716   1717   1718   1719
1720   1721   1722   1723
1724   1725   1726   1727
1728   1729   1730   1731
1732   1733   1734   1735
1736   1737   1738   1739
1740   1741   1742   1743
1744   1745   1746   1747
1748   1749   1750   1751
1752   1753   1754   1755
1756   1757   1758   1759
1760   1761   1762   1763
1764   1765   1766   1767
1768   1769   1770   1771
1772   1773   1774   1775
1776   1777   1778   1779
1780   1781   1782   1783
1784   1785   1786   1787
1788   1789   1790   1791
1792   1793   1794   1795
1796   1797   1798   1799
1800   1801   1802   1803
1804   1805   1806   1807
1808   1809   1810   1811
1812   1813   1814   1815
1816   1817   1818   1819
1820   1821   1822   1823
1824   1825   1826   1827
1828   1829   1830   1831
1832   1833   1834   1835
1836   1837   1838   1839
1840   1841   1842   1843
1844   1845   1846   1847
1848   1849   1850   1851
1852   1853   1854   1855
1856   1857   1858   1859
1860   1861   1862   1863
1864   1865   1866   1867
1868   1869   1870   1871
1872   1873   1874   1875
1876   1877   1878   1879
1880   1881   1882   1883
1884   1885   1886   1887
1888   1889   1890   1891
1892   1893   1894   1895
1896   1897   1898   1899
1900   1901   1902   1903
1904   1905   1906   1907
1908   1909   1910   1911
1912   1913   1914   1915
1916   1917   1918   1919
1920   1921   1922   1923
1924   1925   1926   1927
1928   1929   1930   1931
1932   1933   1934   1935
1936   1937   1938   1939
1940   1941   1942   1943
1944   1945   1946   1947
1948   1949   1950   1951
1952   1953   1954   1955
1956   1957   1958   1959
1960   1961   1962   1963
1964   1965   1966   1967
1968   1969   1970   1971
1972   1973   1974   1975
1976   1977   1978   1979
1980   1981   1982   1983
1984   1985   1986   1987
1988   1989   1990   1991
1992   1993   1994   1995
1996   1997   1998   1999
2000   2001   2002   2003
2004   2005   2006   2007
2008   2009   2010   2011
2012   2013   2014   2015
2016   2017   2018   2019
2020   2021   2022   2023
2024   2025   2026   2027
2028   2029   2030   2031
2032   2033   2034   2035
2036   2037   2038   2039
2040   2041   2042   2043
2044   2045   2046   2047
2048   2049   2050   2051
2052   2053   2054   2055
2056   2057   2058   2059
2060   2061   2062   2063
2064   2065   2066   2067
2068   2069   2070   2071
2072   2073   2074   2075
2076   2077   2078   2079
2080   2081   2082   2083
2084   2085   2086   2087
2088   2089   2090   2091
2092   2093   2094   2095
2096   2097   2098   2099
2100   2101   2102   2103
2104   2105   2106   2107
2108   2109   2110   2111
2112   2113   2114   2115
2116   2117   2118   2119
2120   2121   2122   2123
2124   2125   2126   2127
2128   2129   2130   2131
2132   2133   2134   2135
2136   2137   2138   2139
2140   2141   2142   2143
2144   2145   2146   2147
2148   2149   2150   2151
2152   2153   2154   2155
2156   2157   2158   2159
2160   2161   2162   2163
2164   2165   2166   2167
2168   2169   2170   2171
2172   2173   2174   2175
2176   2177   2178   2179
2180   2181   2182   2183
2184   2185   2186   2187
2188   2189   2190   2191
2192   2193   2194   2195
2196   2197   2198   2199
2200   2201   2202   2203
2204   2205   2206   2207
2208   2209   2210   2211
2212   2213   2214   2215
2216   2217   2218   2219
2220   2221   2222   2223
2224   2225   2226   2227
2228   2229   2230   2231
2232   2233   2234   2235
2236   2237   2238   2239
2240   2241   2242   2243
2244   2245   2246   2247
2248   2249   2250   2251
2252   2253   2254   2255
2256   2257   2258   2259
2260   2261   2262   2263
2264   2265   2266   2267
2268   2269   2270   2271
2272   2273   2274   2275
2276   2277   2278   2279
2280   2281   2282   2283
2284   2285   2286   2287
2288   2289   2290   2291
2292   2293   2294   2295
2296   2297   2298   2299
2300   2301   2302   2303
2304   2305   2306   2307
2308   2309   2310   2311
2312   2313   2314   2315
2316   2317   2318   2319
2320   2321   2322   2323
2324   2325   2326   2327
2328   2329   2330   2331
2332   2333   2334   2335
2336   2337   2338   2339
2340   2341   2342   2343
2344   2345   2346   2347
2348   2349   2350   2351
2352   2353   2354   2355
2356   2357   2358   2359
2360   2361   2362   2363
2364   2365   2366   2367
2368   2369   2370   2371
2372   2373   2374   2375
2376   2377   2378   2379
2380   2381   2382   2383
2384   2385   2386   2387
2388   2389   2390   2391
2392   2393   2394   2395
2396   2397   2398   2399
2400   2401   2402   2403
2404   2405   2406   2407
2408   2409   2410   2411
2412   2413   2414   2415
2416   2417   2418   2419
2420   2421   2422   2423
2424   2425   2426   2427
2428   2429   2430   2431
2432   2433   2434   2435
2436   2437   2438   2439
2440   2441   2442   2443
2444   2445   2446   2447
2448   2449   2450   2451
2452   2453   2454   2455
2456   2457   2458   2459
2460   2461   2462   2463
2464   2465   2466   2467
2468   2469   2470   2471
2472   2473   2474   2475
2476   2477   2478   2479
2480   2481   2482   2483
2484   2485   2486   2487
2488   2489   2490   2491
2492   2493   2494   2495
2496   2497   2498   2499
2500   2501   2502   2503
2504   2505   2506   2507
2508   2509   2510   2511
2512   2513   2514   2515
2516   2517   2518   2519
2520   2521   2522   2523
2524   2525   2526   2527
2528   2529   2530   2531
2532   2533   2534   2535
2536   2537   2538   2539
2540   2541   2542   2543
2544   2545   2546   2547
2548   2549   2550   2551
2552   2553   2554   2555
2556   2557   2558   2559
2560   2561   2562   2563
2564   2565   2566   2567
2568   2569   2570   2571
2572   2573   2574   2575
2576   2577   2578   2579
2580   2581   2582   2583
2584   2585   2586   2587
2588   2589   2590   2591
2592   2593   2594   2595
2596   2597   2598   2599
2600   2601   2602   2603
2604   2605   2606   2607
2608   2609   2610   2611
2612   2613   2614   2615
2616   2617   2618   2619
2620   2621   2622   2623
2624   2625   2626   2627
2628   2629   2630   2631
2632   2633   2634   2635
2636   2637   2638   2639
2640   2641   2642   2643
2644   2645   2646   2647
2648   2649   2650   2651
2652   2653   2654   2655
2656   2657   2658   2659
2660   2661   2662   2663
2664   2665   2666   2667
2668   2669   2670   2671
2672   2673   2674   2675
2676   2677   2678   2679
2680   2681   2682   2683
2684   2685   2686   2687
2688   2689   2690   2691
2692   2693   2694   2695
2696   2697   2698   2699
2700   2701   2702   2703
2704   2705   2706   2707
2708   2709   2710   2711
2712   2713   2714   2715
2716   2717   2718   2719
2720   2721   2722   2723
2724   2725   2726   2727
2728   2729   2730   2731
2732   2733   2734   2735
2736   2737   2738   2739
2740   2741   2742   2743
2744   2745   2746   2747
2748   2749   2750   2751
2752   2753   2754   2755
2756   2757   2758   2759
2760   2761   2762   2763
2764   2765   2766   2767
2768   2769   2770   2771
2772   2773   2774   2775
2776   2777   2778   2779
2780   2781   2782   2783
2784   2785   2786   2787
2788   2789   2790   2791
2792   2793   2794   2795
2796   2797   2798   2799
2800   2801   2802   2803
2804   2805   2806   2807
2808   2809   2810   2811
2812   2813   2814   2815
2816   2817   2818   2819
2820   2821   2822   2823
2824   2825   2826   2827
2828   2829   2830   2831
2832   2833   2834   2835
2836   2837   2838   2839
2840   2841   2842   2843
2844   2845   2846   2847
2848   2849   2850   2851
2852   2853   2854   2855
2856   2857   2858   2859
2860   2861   2862   2863
2864   2865   2866   2867
2868   2869   2870   2871
2872   2873   2874   2875
2876   2877   2878   2879
2880   2881   2882   2883
2884   2885   2886   2887
2888   2889   2890   2891
2892   2893   2894   2895
2896   2897   2898   2899
2900   2901   2902   2903
2904   2905   2906   2907
2908   2909   2910   2911
2912   2913   2914   2915
2916   2917   2918   2919
2920   2921   2922   2923
2924   2925   2926   2927
2928   2929   2930   2931
2932   2933   2934   2935
2936   2937   2938   2939
2940   2941   2942   2943
2944   2945   2946   2947
2948   2949   2950   2951
2952   2953   2954   2955
2956   2957   2958   2959
2960   2961   2962   2963
2964   2965   2966   2967
2968   2969   2970   2971
2972   2973   2974   2975
2976   2977   2978   2979
2980   2981   2982   2983
2984   2985   2986   2987
2988   2989   2990   2991
2992   2993   2994   2995
2996   2997   2998   2999
3000   3001   3002   3003
3004   3005   3006   3007
3008   3009   3010   3011
3012   3013   3014   3015
3016   3017   3018   3019
3020   3021   3022   3023
3024   3025   3026   3027
3028   3029   3030   3031
3032   3033   3034   3035
3036   3037   3038   3039
3040   3041   3042   3043
3044   3045   3046   3047
3048   3049   3050   3051
3052   3053   3054   3055
3056   3057   3058   3059
3060   3061   3062   3063
3064   3065   3066   3067
3068   3069   3070   3071
3072   3073   3074   3075
3076   3077   3078   3079
3080   3081   3082   3083
3084   3085   3086   3087
3088   3089   3090   3091
3092   3093   3094   3095
3096   3097   3098   3099
3100   3101   3102   3103
3104   3105   3106   3107
3108   3109   3110   3111
3112   3113   3114   3115
3116   3117   3118   3119
3120   3121   3122   3123
3124   3125   3126   3127
3128   3129   3130   3131
3132   3133   3134   3135
3136   3137   3138   3139
3140   3141   3142   3143
3144   3145   3146   3147
3148   3149   3150   3151
3152   3153   3154   3155
3156   3157   3158   3159
3160   3161   3162   3163
3164   3165   3166   3167
3168   3169   3170   3171
3172   3173   3174   3175
3176   3177   3178   3179
3180   3181   3182   3183
3184   3185   3186   3187
3188   3189   3190   3191
3192   3193   3194   3195
3196   3197   3198   3199
3200   3201   3202   3203
3204   3205   3206   3207
3208   3209   3210   3211
3212   3213   3214   3215
3216   3217   3218   3219
3220   3221   3222   3223
3224   3225   3226   3227
3228   3229   3230   3231
3232   3233   3234   3235
3236   3237   3238   3239
3240   3241   3242   3243
3244   3245   3246   3247
3248   3249   3250   3251
3252   3253   3254   3255
3256   3257   3258   3259
3260   3261   3262   3263
3264   3265   3266   3267
3268   3269   3270   3271
3272   3273   3274   3275
3276   3277   3278   3279
3280   3281   3282   3283
3284   3285   3286   3287
3288   3289   3290   3291
3292   3293   3294   3295
3296   3297   3298   3299
3300   3301   3302   3303
3304   3305   3306   3307
3308   3309   3310   3311
3312   3313   3314   3315
3316   3317   3318   3319
3320   3321   3322   3323
3324   3325   3326   3327
3328   3329   3330   3331
3332   3333   3334   3335
3336   3337   3338   3339
3340   3341   3342   3343
3344   3345   3346   3347
3348   3349   3350   3351
3352   3353   3354   3355
3356   3357   3358   3359
3360   3361   3362   3363
3364   3365   3366   3367
3368   3369   3370   3371
3372   3373   3374   3375
3376   3377   3378   3379
3380   3381   3382   3383
3384   3385   3386   3387
3388   3389   3390   3391
3392   3393   3394   3395
3396   3397   3398   3399
3400   3401   3402   3403
3404   3405   3406   3407
3408   3409   3410   3411
3412   3413   3414   3415
3416   3417   3418   3419
3420   3421   3422   3423
3424   3425   3426   3427
3428   3429   3430   3431
3432   3433   3434   3435
3436   3437   3438   3439
3440   3441   3442   3443
3444   3445   3446   3447
3448   3449   3450   3451
3452   3453   3454   3455
3456   3457   3458   3459
3460   3461   3462   3463
3464   3465   3466   3467
3468   3469   3470   3471
3472   3473   3474   3475
3476   3477   3478   3479
3480   3481   3482   3483
3484   3485   3486   3487
3488   3489   3490   3491
3492   3493   3494   3495
3496   3497   3498   3499
3500   3501   3502   3503
3504   3505   3506   3507
3508   3509   3510   3511
3512   3513   3514   3515
3516   3517   3518   3519
3520   3521   3522   3523
3524   3525   3526   3527
3528   3529   3530   3531
3532   3533   3534   3535
3536   3537   3538   3539
3540   3541   3542   3543
3544   3545   3546   3547
3548   3549   3550   3551
3552   3553   3554   3555
3556   3557   3558   3559
3560   3561   3562   3563
3564   3565   3566   3567
3568   3569   3570   3571
3572   3573   3574   3575
3576   3577   3578   3579
3580   3581   3582   3583
3584   3585   3586   3587
3588   3589   3590   3591
3592   3593   3594   3595
3596   3597   3598   3599
3600   3601   3602   3603
3604   3605   3606   3607
3608   3609   3610   3611
3612   3613   3614   3615
3616   3617   3618   3619
3620   3621   3622   3623
3624   3625   3626   3627
3628   3629   3630   3631
3632   3633   3634   3635
3636   3637   3638   3639
3640   3641   3642   3643
3644   3645   3646   3647
3648   3649   3650   3651
3652   3653   3654   3655
3656   3657   3658   3659
3660   3661   3662   3663
3664   3665   3666   3667
3668   3669   3670   3671
3672   3673   3674   3675
3676   3677   3678   3679
3680   3681   3682   3683
3684   3685   3686   3687
3688   3689   3690   3691
3692   3693   3694   3695
3696   3697   3698   3699
3700   3701   3702   3703
3704   3705   3706   3707
3708   3709   3710   3711
3712   3713   3714   3715
3716   3717   3718   3719
3720   3721   3722   3723
3724   3725   3726   3727
3728   3729   3730   3731
3732   3733   3734   3735
3736   3737   3738   3739
3740   3741   3742   3743
3744   3745   3746   3747
3748   3749   3750   3751
3752   3753   3754   3755
3756   3757   3758   3759
3760   3761   3762   3763
3764   3765   3766   3767
3768   3769   3770   3771
3772   3773   3774   3775
3776   3777   3778   3779
3780   3781   3782   3783
3784   3785   3786   3787
3788   3789   3790   3791
3792   3793   3794   3795
3796   3797   3798   3799
3800   3801   3802   3803
3804   3805   3806   3807
3808   3809   3810   3811
3812   3813   3814   3815
3816   3817   3818   3819
3820   3821   3822   3823
3824   3825   3826   3827
3828   3829   3830   3831
3832   3833   3834   3835
3836   3837   3838   3839
3840   3841   3842   3843
3844   3845   3846   3847
3848   3849   3850   3851
3852   3853   3854   3855
3856   3857   3858   3859
3860   3861   3862   3863
3864   3865   3866   3867
3868   3869   3870   3871
3872   3873   3874   3875
3876   3877   3878   3879
3880   3881   3882   3883
3884   3885   3886   3887
3888   3889   3890   3891
3892   3893   3894   3895
3896   3897   3898   3899
3900   3901   3902   3903
3904   3905   3906   3907
3908   3909   3910   3911
3912   3913   3914   3915
3916   3917   3918   3919
3920   3921   3922   3923
3924   3925   3926   3927
3928   3929   3930   3931
3932   3933   3934   3935
3936   3937   3938   3939
3940   3941   3942   3943
3944   3945   3946   3947
3948   3949   3950   3951
3952   3953   3954   3955
3956   3957   3958   3959
3960   3961   3962   3963
3964   3965   3966   3967
3968   3969   3970   3971
3972   3973   3974   3975
3976   3977   3978   3979
3980   3981   3982   3983
3984   3985   3986   3987
3988   3989   3990   3991
3992   3993   3994   3995
3996   3997   3998   3999
4000   4001   4002   4003
4004   4005   4006   4007
4008   4009   4010   4011
4012   4013   4014   4015
4016   4017   4018   4019
4020   4021   4022   4023
4024   4025   4026   4027
4028   4029   4030   4031
4032   4033   4034   4035
4036   4037   4038   4039
4040   4041   4042   4043
4044   4045   4046   4047
4048   4049   4050   4051
4052   4053   4054   4055
4056   4057   4058   4059
4060   4061   4062   4063
4064   4065   4066   4067
4068   4069   4070   4071
4072   4073   4074   4075
4076   4077   4078   4079
4080   4081   4082   4083
4084   4085   4086   4087
4088   4089   4090   4091
4092   4093   4094   4095
4096   4097   4098   4099
4100   4101   4102   4103
4104   4105   4106   4107
4108   4109   4110   4111
4112   4113   4114   4115
4116   4117   4118   4119
4120   4121   4122   4123
4124   4125   4126   4127
4128   4129   4130   4131
4132   4133   4134   4135
4136   4137   4138   4139
4140   4141   4142   4143
4144   4145   4146   4147
4148   4149   4150   4151
4152   4153   4154   4155
4156   4157   4158   4159
4160   4161   4162   4163
4164   4165   4166   4167
4168   4169   4170   4171
4172   4173   4174   4175
4176   4177   4178   4179
4180   4181   4182   4183
4184   4185   4186   4187
4188   4189   4190   4191
4192   4193   4194   4195
4196   4197   4198   4199
4200   4201   4202   4203
4204   4205   4206   4207
4208   4209   4210   4211
4212   4213   4214   4215
4216   4217   4218   4219
4220   4221   4222   4223
4224   4225   4226   4227
4228   4229   4230   4231
4232   4233   4234   4235
4236   4237   4238   4239
4240   4241   4242   4243
4244   4245   4246   4247
4248   4249   4250   4251
4252   4253   4254   4255
4256   4257   4258   4259
4260   4261   4262   4263
4264   4265   4266   4267
4268   4269   4270   4271
4272   4273   4274   4275
4276   4277   4278   4279
4280   4281   4282   4283
4284   4285   4286   4287
4288   4289   4290   4291
4292   4293   4294   4295
4296   4297   4298   4299
4300   4301   4302   4303
4304   4305   4306   4307
4308   4309   4310   4311
4312   4313   4314   4315
4316   4317   4318   4319
4320   4321   4322   4323
4324   4325   4326   4327
4328   4329   4330   4331
4332   4333   4334   4335
4336   4337   4338   4339
4340   4341   4342   4343
4344   4345   4346   4347
4348   4349   4350   4351
4352   4353   4354   4355
4356   4357   4358   4359
4360   4361   4362   4363
4364   4365   4366   4367
4368   4369   4370   4371
4372   4373   4374   4375
4376   4377   4378   4379
4380   4381   4382   4383
4384   4385   4386   4387
4388   4389   4390   4391
4392   4393   4394   4395
4396   4397   4398   4399
4400   4401   4402   4403
4404   4405   4406   4407
4408   4409   4410   4411
4412   4413   4414   4415
4416   4417   4418   4419
4420   4421   4422   4423
4424   4425   4426   4427
4428   4429   4430   4431
4432   4433   4434   4435
4436   4437   4438   4439
4440   4441   4442   4443
4444   4445   4446   4447
4448   4449   4450   4451
4452   4453   4454   4455
4456   4457   4458   4459
4460   4461   4462   4463
4464   4465   4466   4467
4468   4469   4470   4471
4472   4473   4474   4475
4476   4477   4478   4479
4480   4481   4482   4483
4484   4485   4486   4487
4488   4489   4490   4491
4492   4493   4494   4495
4496   4497   4498   4499
4500   4501   4502   4503
4504   4505   4506   4507
4508   4509   4510   4511
4512   4513   4514   4515
4516   4517   4518   4519
4520   4521   4522   4523
4524   4525   4526   4527
4528   4529   4530   4531
4532   4533   4534   4535
4536   4537   4538   4539
4540   4541   4542   4543
4544   4545   4546   4547
4548   4549   4550   4551
4552   4553   4554   4555
4556   4557   4558   4559
4560   4561   4562   4563
4564   4565   4566   4567
4568   4569   4570   4571
4572   4573   4574   4575
4576   4577   4578   4579
4580   4581   4582   4583
4584   4585   4586   4587
4588   4589   4590   4591
4592   4593   4594   4595
4596   4597   4598   4599
4600   4601   4602   4603
4604   4605   4606   4607
4608   4609   4610   4611
4612   4613   4614   4615
4616   4617   4618   4619
4620   4621   4622   4623
4624   4625   4626   4627
4628   4629   4630   4631
4632   4633   4634   4635
4636   4637   4638   4639
4640   4641   4642   4643
4644   4645   4646   4647
4648   4649   4650   4651
4652   4653   4654   4655
4656   4657   4658   4659
4660   4661   4662   4663
4664   4665   4666   4667
4668   4669   4670   4671
4672   4673   4674   4675
4676   4677   4678   4679
4680   4681   4682   4683
4684   4685   4686   4687
4688   4689   4690   4691
4692   4693   4694   4695
4696   4697   4698   4699
4700   4701   4702   4703
4704   4705   4706   4707
4708   4709   4710   4711
4712   4713   4714   4715
4716   4717   4718   4719
4720   4721   4722   4723
4724   4725   4726   4727
4728   4729   4730   4731
4732   4733   4734   4735
4736   4737   4738   4739
4740   4741   4742   4743
4744   4745   4746   4747
4748   4749   4750   4751
4752   4753   4754   4755
4756   4757   4758   4759
4760   4761   4762   4763
4764   4765   4766   4767
4768   4769   4770   4771
4772   4773   4774   4775
4776   4777   4778   4779
4780   4781   4782   4783
4784   4785   4786   4787
4788   4789   4790   4791
4792   4793   4794   4795
4796   4797   4798   4799
4800   4801   4802   4803
4804   4805   4806   4807
4808   4809   4810   4811
4812   4813   4814   4815
4816   4817   4818   4819
4820   4821   4822   4823
4824   4825   4826   4827
4828   4829   4830   4831
4832   4833   4834   4835
4836   4837   4838   4839
4840   4841   4842   4843
4844   4845   4846   4847
4848   4849   4850   4851
4852   4853   4854   4855
4856   4857   4858   4859
4860   4861   4862   4863
4864   4865   4866   4867
4868   4869   4870   4871
4872   4873   4874   4875
4876   4877   4878   4879
4880   4881   4882   4883
4884   4885   4886   4887
4888   4889   4890   4891
4892   4893   4894   4895
4896   4897   4898   4899
4900   4901   4902   4903
4904   4905   4906   4907
4908   4909   4910   4911
4912   4913   4914   4915
4916   4917   4918   4919
4920   4921   4922   4923
4924   4925   4926   4927
4928   4929   4930   4931
4932   4933   4934   4935
4936   4937   4938   4939
4940   4941   4942   4943
4944   4945   4946   4947
4948   4949   4950   4951
4952   4953   4954   4955
4956   4957   4958   4959
4960   4961   4962   4963
4964   4965   4966   4967
4968   4969   4970   4971
4972   4973   4974   4975
4976   4977   4978   4979
4980   4981   4982   4983
4984   4985   4986   4987
4988   4989   4990   4991
4992   4993   4994   4995
4996   4997   4998   4999
5000   5001   5002   5003
5004   5005   5006   5007
5008   5009   5010   5011
5012   5013   5014   5015
5016   5017   5018   5019
5020   5021   5022   5023
5024   5025   5026   5027
5028   5029   5030   5031
5032   5033   5034   5035
5036   5037   5038   5039
5040   5041   5042   5043
5044   5045   5046   5047
5048   5049   5050   5051
5052   5053   5054   5055
5056   5057   5058   5059
5060   5061   5062   5063
5064   5065   5066   5067
5068   5069   5070   5071
5072   5073   5074   5075
5076   5077   5078   5079
5080   5081   5082   5083
5084   5085   5086   5087
5088   5089   5090   5091
5092   5093   5094   5095
5096   5097   5098   5099
5100   5101   5102   5103
5104   5105   5106   5107
5108   5109   5110   5111
5112   5113   5114   5115
5116   5117   5118   5119
5120   5121   5122   5123
5124   5125   5126   5127
5128   5129   5130   5131
5132   5133   5134   5135
5136   5137   5138   5139
5140   5141   5142   5143
5144   5145   5146   5147
5148   5149   5150   5151
5152   5153   5154   5155
5156   5157   5158   5159
5160   5161   5162   5163
5164   5165   5166   5167
5168   5169   5170   5171
5172   5173   5174   5175
5176   5177   5178   5179
5180   5181   5182   5183
5184   5185   5186   5187
5188   5189   5190   5191
5192   5193   5194   5195
5196   5197   5198   5199
5200   5201   5202   5203
5204   5205   5206   5207
5208   5209   5210   5211
5212   5213   5214   5215
5216   5217   5218   5219
5220   5221   5222   5223
5224   5225   5226   5227
5228   5229   5230   5231
5232   5233   5234   5235
5236   5237   5238   5239
5240   5241   5242   5243
5244   5245   5246   5247
5248   5249   5250   5251
5252   5253   5254   5255
5256   5257   5258   5259
5260   5261   5262   5263
5264   5265   5266   5267
5268   5269   5270   5271
5272   5273   5274   5275
5276   5277   5278   5279
5280   5281   5282   5283
5284   5285   5286   5287
5288   5289   5290   5291
5292   5293   5294   5295
5296   5297   5298   5299
5300   5301   5302   5303
5304   5305   5306   5307
5308   5309   5310   5311
5312   5313   5314   5315
5316   5317   5318   5319
5320   5321   5322   5323
5324   5325   5326   5327
5328   5329   5330   5331
5332   5333   5334   5335
5336   5337   5338   5339
5340   5341   5342   5343
5344   5345   5346   5347
5348   5349   5350   5351
5352   5353   5354   5355
5356   5357   5358   5359
5360   5361   5362   5363
5364   5365   5366   5367
5368   5369   5370   5371
5372   5373   5374   5375
5376   5377   5378   5379
5380   5381   5382   5383
5384   5385   5386   5387
5388   5389   5390   5391
5392   5393   5394   5395
5396   5397   5398   5399
5400   5401   5402   5403
5404   5405   5406   5407
5408   5409   5410   5411
5412   5413   5414   5415
5416   5417   5418   5419
5420   5421   5422   5423
5424   5425   5426   5427
5428   5429   5430   5431
5432   5433   5434   5435
5436   5437   5438   5439
5440   5441   5442   5443
5444   5445   5446   5447
5448   5449   5450   5451
5452   5453   5454   5455
5456   5457   5458   5459
5460   5461   5462   5463
5464   5465   5466   5467
5468   5469   5470   5471
5472   5473   5474   5475
5476   5477   5478   5479
5480   5481   5482   5483
5484   5485   5486   5487
5488   5489   5490   5491
5492   5493   5494   5495
5496   5497   5498   5499
5500   5501   5502   5503
5504   5505   5506   5507
5508   5509   5510   5511
5512   5513   5514   5515
5516   5517   5518   5519
5520   5521   5522   5523
5524   5525   5526   5527
5528   5529   5530   5531
5532   5533   5534   5535
5536   5537   5538   5539
5540   5541   5542   5543
5544   5545   5546   5547
5548   5549   5550   5551
5552   5553   5554   5555
5556   5557   5558   5559
5560   5561   5562   5563
5564   5565   5566   5567
5568   5569   5570   5571
5572   5573   5574   5575
5576   5577   5578   5579
5580   5581   5582   5583
5584   5585   5586   5587
5588   5589   5590   5591
5592   5593   5594   5595
5596   5597   5598   5599
5600   5601   5602   5603
5604   5605   5606   5607
5608   5609   5610   5611
5612   5613   5614   5615
5616   5617   5618   5619
5620   5621   5622   5623
5624   5625   5626   5627
5628   5629   5630   5631
5632   5633   5634   5635
5636   5637   5638   5639
5640   5641   5642   5643
5644   5645   5646   5647
5648   5649   5650   5651
5652   5653   5654   5655
5656   5657   5658   5659
5660   5661   5662   5663
5664   5665   5666   5667
5668   5669   5670   5671
5672   5673   5674   5675
5676   5677   5678   5679
5680   5681   5682   5683
5684   5685   5686   5687
5688   5689   5690   5691
5692   5693   5694   5695
5696   5697   5698   5699
5700   5701   5702   5703
5704   5705   5706   5707
5708   5709   5710   5711
5712   5713   5714   5715
5716   5717   5718   5719
5720   5721   5722   5723
5724   5725   5726   5727
5728   5729   5730   5731
5732   5733   5734   5735
5736   5737   5738   5739
5740   5741   5742   5743
5744   5745   5746   5747
5748   5749   5750   5751
5752   5753   5754   5755
5756   5757   5758   5759
5760   5761   5762   5763
5764   5765   5766   5767
5768   5769   5770   5771
5772   5773   5774   5775
5776   5777   5778   5779
5780   5781   5782   5783
5784   5785   5786   5787
5788   5789   5790   5791
5792   5793   5794   5795
5796   5797   5798   5799
5800   5801   5802   5803
5804   5805   5806   5807
5808   5809   5810   5811
5812   5813   5814   5815
5816   5817   5818   5819
5820   5821   5822   5823
5824   5825   5826   5827
5828   5829   5830   5831
5832   5833   5834   5835
5836   5837   5838   5839
5840   5841   5842   5843
5844   5845   5846   5847
5848   5849   5850   5851
5852   5853   5854   5855
5856   5857   5858   5859
5860   5861   5862   5863
5864   5865   5866   5867
5868   5869   5870   5871
5872   5873   5874   5875
5876   5877   5878   5879
5880   5881   5882   5883
5884   5885   5886   5887
5888   5889   5890   5891
5892   5893   5894   5895
5896   5897   5898   5899
5900   5901   5902   5903
5904   5905   5906   5907
5908   5909   5910   5911
5912   5913   5914   5915
5916   5917   5918   5919
5920   5921   5922   5923
5924   5925   5926   5927
5928   5929   5930   5931
5932   5933   5934   5935
5936   5937   5938   5939
5940   5941   5942   5943
5944   5945   5946   5947
5948   5949   5950   5951
5952   5953   5954   5955
5956   5957   5958   5959
5960   5961   5962   5963
5964   5965   5966   5967
5968   5969   5970   5971
5972   5973   5974   5975
5976   5977   5978   5979
5980   5981   5982   5983
5984   5985   5986   5987
5988   5989   5990   5991
5992   5993   5994   5995
5996   5997   5998   5999
              </DataArray>   
              <DataArray type="Int32" Name="offsets" format="ascii">   
4
8
12
16
20
24
28
32
36
40
44
48
52
56
60
64
68
72
76
80
84
88
92
96
100
104
108
112
116
120
124
128
132
136
140
144
148
152
156
160
164
168
172
176
180
184
188
192
196
200
204
208
212
216
220
224
228
232
236
240
244
248
252
256
260
264
268
272
276
280
284
288
292
296
300
304
308
312
316
320
324
328
332
336
340
344
348
352
356
360
364
368
372
376
380
384
388
392
396
400
404
408
412
416
420
424
428
432
436
440
444
448
452
456
460
464
468
472
476
480
484
488
492
496
500
504
508
512
516
520
524
528
532
536
540
544
548
552
556
560
564
568
572
576
580
584
588
592
596
600
604
608
612
616
620
624
628
632
636
640
644
648
652
656
660
664
668
672
676
680
684
688
692
696
700
704
708
712
716
720
724
728
732
736
740
744
748
752
756
760
764
768
772
776
780
784
788
792
796
800
804
808
812
816
820
824
828
832
836
840
844
848
852
856
860
864
868
872
876
880
884
888
892
896
900
904
908
912
916
920
924
928
932
936
940
944
948
952
956
960
964
968
972
976
980
984
988
992
996
1000
1004
1008
1012
1016
1020
1024
1028
1032
1036
1040
1044
1048
1052
1056
1060
1064
1068
1072
1076
1080
1084
1088
1092
1096
1100
1104
1108
1112
1116
1120
1124
1128
1132
1136
1140
1144
1148
1152
1156
1160
1164
1168
1172
1176
1180
1184
1188
1192
1196
1200
1204
1208
1212
1216
1220
1224
1228
1232
1236
1240
1244
1248
1252
1256
1260
1264
1268
1272
1276
1280
1284
1288
1292
1296
1300
1304
1308
1312
1316
1320
1324
1328
1332
1336
1340
1344
1348
1352
1356
1360
1364
1368
1372
1376
1380
1384
1388
1392
1396
1400
1404
1408
1412
1416
1420
1424
1428
1432
1436
1440
1444
1448
1452
1456
1460
1464
1468
1472
1476
1480
1484
1488
1492
1496
1500
1504
1508
1512
1516
1520
1524
1528
1532
1536
1540
1544
1548
1552
1556
1560
1564
1568
1572
1576
1580
1584
1588
1592
1596
1600
1604
1608
1612
1616
1620
1624
1628
1632
1636
1640
1644
1648
1652
1656
1660
1664
1668
1672
1676
1680
1684
1688
1692
1696
1700
1704
1708
1712
1716
1720
1724
1728
1732
1736
1740
1744
1748
1752
1756
1760
1764
1768
1772
1776
1780
1784
1788
1792
1796
1800
1804
1808
1812
1816
1820
1824
1828
1832
1836
1840
1844
1848
1852
1856
1860
1864
1868
1872
1876
1880
1884
1888
1892
1896
1900
1904
1908
1912
1916
1920
1924
1928
1932
1936
1940
1944
1948
1952
1956
1960
1964
1968
1972
1976
1980
1984
1988
1992
1996
2000
2004
2008
2012
2016
2020
2024
2028
2032
2036
2040
2044
2048
2052
2056
2060
2064
2068
2072
2076
2080
2084
2088
2092
2096
2100
2104
2108
2112
2116
2120
2124
2128
2132
2136
2140
2144
2148
2152
2156
2160
2164
2168
2172
2176
2180
2184
2188
2192
2196
2200
2204
2208
2212
2216
2220
2224
2228
2232
2236
2240
2244
2248
2252
2256
2260
2264
2268
2272
2276
2280
2284
2288
2292
2296
2300
2304
2308
2312
2316
2320
2324
2328
2332
2336
2340
2344
2348
2352
2356
2360
2364
2368
2372
2376
2380
2384
2388
2392
2396
2400
2404
2408
2412
2416
2420
2424
2428
2432
2436
2440
2444
2448
2452
2456
2460
2464
2468
2472
2476
2480
2484
2488
2492
2496
2500
2504
2508
2512
2516
2520
2524
2528
2532
2536
2540
2544
2548
2552
2556
2560
2564
2568
2572
2576
2580
2584
2588
2592
2596
2600
2604
2608
2612
2616
2620
2624
2628
2632
2636
2640
2644
2648
2652
2656
2660
2664
2668
2672
2676
2680
2684
2688
2692
2696
2700
2704
2708
2712
2716
2720
2724
2728
2732
2736
2740
2744
2748
2752
2756
2760
2764
2768
2772
2776
2780
2784
2788
2792
2796
2800
2804
2808
2812
2816
2820
2824
2828
2832
2836
2840
2844
2848
2852
2856
2860
2864
2868
2872
2876
2880
2884
2888
2892
2896
2900
2904
2908
2912
2916
2920
2924
2928
2932
2936
2940
2944
2948
2952
2956
2960
2964
2968
2972
2976
2980
2984
2988
2992
2996
3000
3004
3008
3012
3016
3020
3024
3028
3032
3036
3040
3044
3048
3052
3056
3060
3064
3068
3072
3076
3080
3084
3088
3092
3096
3100
3104
3108
3112
3116
3120
3124
3128
3132
3136
3140
3144
3148
3152
3156
3160
3164
3168
3172
3176
3180
3184
3188
3192
3196
3200
3204
3208
3212
3216
3220
3224
3228
3232
3236
3240
3244
3248
3252
3256
3260
3264
3268
3272
3276
3280
3284
3288
3292
3296
3300
3304
3308
3312
3316
3320
3324
3328
3332
3336
3340
3344
3348
3352
3356
3360
3364
3368
3372
3376
3380
3384
3388
3392
3396
3400
3404
3408
3412
3416
3420
3424
3428
3432
3436
3440
3444
3448
3452
3456
3460
3464
3468
3472
3476
3480
3484
3488
3492
3496
3500
3504
3508
3512
3516
3520
3524
3528
3532
3536
3540
3544
3548
3552
3556
3560
3564
3568
3572
3576
3580
3584
3588
3592
3596
3600
3604
3608
3612
3616
3620
3624
3628
3632
3636
3640
3644
3648
3652
3656
3660
3664
3668
3672
3676
3680
3684
3688
3692
3696
3700
3704
3708
3712
3716
3720
3724
3728
3732
3736
3740
3744
3748
3752
3756
3760
3764
3768
3772
3776
3780
3784
3788
3792
3796
3800
3804
3808
3812
3816
3820
3824
3828
3832
3836
3840
3844
3848
3852
3856
3860
3864
3868
3872
3876
3880
3884
3888
3892
3896
3900
3904
3908
3912
3916
3920
3924
3928
3932
3936
3940
3944
3948
3952
3956
3960
3964
3968
3972
3976
3980
3984
3988
3992
3996
4000
4004
4008
4012
4016
4020
4024
4028
4032
4036
4040
4044
4048
4052
4056
4060
4064
4068
4072
4076
4080
4084
4088
4092
4096
4100
4104
4108
4112
4116
4120
4124
4128
4132
4136
4140
4144
4148
4152
4156
4160
4164
4168
4172
4176
4180
4184
4188
4192
4196
4200
4204
4208
4212
4216
4220
4224
4228
4232
4236
4240
4244
4248
4252
4256
4260
4264
4268
4272
4276
4280
4284
4288
4292
4296
4300
4304
4308
4312
4316
4320
4324
4328
4332
4336
4340
4344
4348
4352
4356
4360
4364
4368
4372
4376
4380
4384
4388
4392
4396
4400
4404
4408
4412
4416
4420
4424
4428
4432
4436
4440
4444
4448
4452
4456
4460
4464
4468
4472
4476
4480
4484
4488
4492
4496
4500
4504
4508
4512
4516
4520
4524
4528
4532
4536
4540
4544
4548
4552
4556
4560
4564
4568
4572
4576
4580
4584
4588
4592
4596
4600
4604
4608
4612
4616
4620
4624
4628
4632
4636
4640
4644
4648
4652
4656
4660
4664
4668
4672
4676
4680
4684
4688
4692
4696
4700
4704
4708
4712
4716
4720
4724
4728
4732
4736
4740
4744
4748
4752
4756
4760
4764
4768
4772
4776
4780
4784
4788
4792
4796
4800
4804
4808
4812
4816
4820
4824
4828
4832
4836
4840
4844
4848
4852
4856
4860
4864
4868
4872
4876
4880
4884
4888
4892
4896
4900
4904
4908
4912
4916
4920
4924
4928
4932
4936
4940
4944
4948
4952
4956
4960
4964
4968
4972
4976
4980
4984
4988
4992
4996
5000
5004
5008
5012
5016
5020
5024
5028
5032
5036
5040
5044
5048
5052
5056
5060
5064
5068
5072
5076
5080
5084
5088
5092
5096
5100
5104
5108
5112
5116
5120
5124
5128
5132
5136
5140
5144
5148
5152
5156
5160
5164
5168
5172
5176
5180
5184
5188
5192
5196
5200
5204
5208
5212
5216
5220
5224
5228
5232
5236
5240
5244
5248
5252
5256
5260
5264
5268
5272
5276
5280
5284
5288
5292
5296
5300
5304
5308
5312
5316
5320
5324
5328
5332
5336
5340
5344
5348
5352
5356
5360
5364
5368
5372
5376
5380
5384
5388
5392
5396
5400
5404
5408
5412
5416
5420
5424
5428
5432
5436
5440
5444
5448
5452
5456
5460
5464
5468
5472
5476
5480
5484
5488
5492
5496
5500
5504
5508
5512
5516
5520
5524
5528
5532
5536
5540
5544
5548
5552
5556
5560
5564
5568
5572
5576
5580
5584
5588
5592
5596
5600
5604
5608
5612
5616
5620
5624
5628
5632
5636
5640
5644
5648
5652
5656
5660
5664
5668
5672
5676
5680
5684
5688
5692
5696
5700
5704
5708
5712
5716
5720
5724
5728
5732
5736
5740
5744
5748
5752
5756
5760
5764
5768
5772
5776
5780
5784
5788
5792
5796
5800
5804
5808
5812
5816
5820
5824
5828
5832
5836
5840
5844
5848
5852
5856
5860
5864
5868
5872
5876
5880
5884
5888
5892
5896
5900
5904
5908
5912
5916
5920
5924
5928
5932
5936
5940
5944
5948
5952
5956
5960
5964
5968
5972
5976
5980
5984
5988
5992
5996
6000
              </DataArray>   
              <DataArray type="UInt8" Name="types" format="ascii">   
10
10
10
10
10
10
10
10
10
10
10
10
10
10
10
10
10
10
10
10
10
10
10
10
10
10
10
10
10
10
10
10
10
10
10
10
10
10
10
10
10
10
10
10
10
10
10
10
10
10
10
10
10
10
10
10
10
10
10
10
10
10
10
10
10
10
10
10
10
10
10
10
10
10
10
10
10
10
10
10
10
10
10
10
10
10
10
10
10
10
10
10
10
10
10
10
10
10
10
10
10
10
10
10
10
10
10
10
10
10
10
10
10
10
10
10
10
10
10
10
10
10
10
10
10
10
10
10
10
10
10
10
10
10
10
10
10
10
10
10
10
10
10
10
10
10
10
10
10
10
10
10
10
10
10
10
10
10
10
10
10
10
10
10
10
10
10
10
10
10
10
10
10
10
10
10
10
10
10
10
10
10
10
10
10
10
10
10
10
10
10
10
10
10
10
10
10
10
10
10
10
10
10
10
10
10
10
10
10
10
10
10
10
10
10
10
10
10
10
10
10
10
10
10
10
10
10
10
10
10
10
10
10
10
10
10
10
10
10
10
10
10
10
10
10
10
10
10
10
10
10
10
10
10
10
10
10
10
10
10
10
10
10
10
10
10
10
10
10
10
10
10
10
10
10
10
10
10
10
10
10
10
10
10
10
10
10
10
10
10
10
10
10
10
10
10
10
10
10
10
10
10
10
10
10
10
10
10
10
10
10
10
10
10
10
10
10
10
10
10
10
10
10
10
10
10
10
10
10
10
10
10
10
10
10
10
10
10
10
10
10
10
10
10
10
10
10
10
10
10
10
10
10
10
10
10
10
10
10
10
10
10
10
10
10
10
10
10
10
10
10
10
10
10
10
10
10
10
10
10
10
10
10
10
10
10
10
10
10
10
10
10
10
10
10
10
10
10
10
10
10
10
10
10
10
10
10
10
10
10
10
10
10
10
10
10
10
10
10
10
10
10
10
10
10
10
10
10
10
10
10
10
10
10
10
10
10
10
10
10
10
10
10
10
10
10
10
10
10
10
10
10
10
10
10
10
10
10
10
10
10
10
10
10
10
10
10
10
10
10
10
10
10
10
10
10
10
10
10
10
10
10
10
10
10
10
10
10
10
10
10
10
10
10
10
10
10
10
10
10
10
10
10
10
10
10
10
10
10
10
10
10
10
10
10
10
10
10
10
10
10
10
10
10
10
10
10
10
10
10
10
10
10
10
10
10
10
10
10
10
10
10
10
10
10
10
10
10
10
10
10
10
10
10
10
10
10
10
10
10
10
10
10
10
10
10
10
10
10
10
10
10
10
10
10
10
10
10
10
10
10
10
10
10
10
10
10
10
10
10
10
10
10
10
10
10
10
10
10
10
10
10
10
10
10
10
10
10
10
10
10
10
10
10
10
10
10
10
10
10
10
10
10
10
10
10
10
10
10
10
10
10
10
10
10
10
10
10
10
10
10
10
10
10
10
10
10
10
10
10
10
10
10
10
10
10
10
10
10
10
10
10
10
10
10
10
10
10
10
10
10
10
10
10
10
10
10
10
10
10
10
10
10
10
10
10
10
10
10
10
10
10
10
10
10
10
10
10
10
10
10
10
10
10
10
10
10
10
10
10
10
10
10
10
10
10
10
10
10
10
10
10
10
10
10
10
10
10
10
10
10
10
10
10
10
10
10
10
10
10
10
10
10
10
10
10
10
10
10
10
10
10
10
10
10
10
10
10
10
10
10
10
10
10
10
10
10
10
10
10
10
10
10
10
10
10
10
10
10
10
10
10
10
10
10
10
10
10
10
10
10
10
10
10
10
10
10
10
10
10
10
10
10
10
10
10
10
10
10
10
10
10
10
10
10
10
10
10
10
10
10
10
10
10
10
10
10
10
10
10
10
10
10
10
10
10
10
10
10
10
10
10
10
10
10
10
10
10
10
10
10
10
10
10
10
10
10
10
10
10
10
10
10
10
10
10
10
10
10
10
10
10
10
10
10
10
10
10
10
10
10
10
10
10
10
10
10
10
10
10
10
10
10
10
10
10
10
10
10
10
10
10
10
10
10
10
10
10
10
10
10
10
10
10
10
10
10
10
10
10
10
10
10
10
10
10
10
10
10
10
10
10
10
10
10
10
10
10
10
10
10
10
10
10
10
10
10
10
10
10
10
10
10
10
10
10
10
10
10
10
10
10
10
10
10
10
10
10
10
10
10
10
10
10
10
10
10
10
10
10
10
10
10
10
10
10
10
10
10
10
10
10
10
10
10
10
10
10
10
10
10
10
10
10
10
10
10
10
10
10
10
10
10
10
10
10
10
10
10
10
10
10
10
10
10
10
10
10
10
10
10
10
10
10
10
10
10
10
10
10
10
10
10
10
10
10
10
10
10
10
10
10
10
10
10
10
10
10
10
10
10
10
10
10
10
10
10
10
10
10
10
10
10
10
10
10
10
10
10
10
10
10
10
10
10
10
10
10
10
10
10
10
10
10
10
10
10
10
10
10
10
10
10
10
10
10
10
10
10
10
10
10
10
10
10
10
10
10
10
10
10
10
10
10
10
10
10
10
10
10
10
10
10
10
10
10
10
10
10
10
10
10
10
10
10
10
10
10
10
10
10
10
10
10
10
10
10
10
10
10
10
10
10
10
10
10
10
10
10
10
10
10
10
10
10
10
10
10
10
10
10
10
10
10
10
10
10
10
10
10
10
10
10
10
10
10
10
10
10
10
10
10
10
10
10
10
10
10
10
10
10
10
10
10
10
10
10
10
10
10
10
10
10
10
10
10
10
10
10
10
10
10
10
10
10
10
10
10
10
10
10
10
10
10
10
10
10
10
10
10
10
10
10
10
10
10
10
10
10
10
10
10
10
10
10
10
10
10
10
10
10
10
10
10
10
10
10
10
10
10
10
10
10
10
10
10
10
10
10
10
10
10
10
10
10
10
10
10
10
10
10
10
10
10
10
10
10
10
10
10
10
10
10
10
10
10
10
10
10
10
10
10
10
10
10
10
10
10
10
10
10
10
10
10
10
10
10
10
10
10
10
10
10
10
10
10
10
10
10
10
10
10
10
10
10
10
10
10
10
10
10
10
10
10
10
10
10
10
10
10
10
10
10
10
10
10
10
10
10
10
10
10
10
10
10
10
10
10
10
10
10
10
10
10
10
10
10
10
10
10
10
10
10
10
10
10
10
10
10
10
10
10
10
10
10
10
10
10
10
10
10
10
10
10
10
10
10
10
10
10
10
10
10
10
10
10
10
10
10
10
10
10
10
10
10
10
10
10
10
10
10
10
10
10
10
10
10
10
10
10
10
10
10
10
10
10
10
10
10
10
10
10
10
10
10
10
10
10
10
10
10
10
10
10
10
10
10
10
10
10
10
10
10
10
10
10
10
10
10
10
              </DataArray>   
          </Cells>  
          <PointData>  
             <DataArray type="Float64" NumberOfComponents="3" Name="Strains" format="ascii">   
-2.552875863857108e-05   0.0   -1.6945770546444794e-05
-2.552875863857108e-05   0.0   -1.6945770546444794e-05
-2.552875863857108e-05   0.0   -1.6945770546444794e-05
-2.552875863857108e-05   0.0   -1.6945770546444794e-05
-1.6225530274966157e-05   2.8027264975200454e-06   2.4124595807539564e-07
-1.6225530274966157e-05   2.8027264975200454e-06   2.4124595807539564e-07
-1.6225530274966157e-05   2.8027264975200454e-06   2.4124595807539564e-07
-1.6225530274966157e-05   2.8027264975200454e-06   2.4124595807539564e-07
-1.5891603429221644e-05   0.0   -1.6018646170483414e-05
-1.5891603429221644e-05   0.0   -1.6018646170483414e-05
-1.5891603429221644e-05   0.0   -1.6018646170483414e-05
-1.5891603429221644e-05   0.0   -1.6018646170483414e-05
-2.670093080083059e-05   3.3755191901124323e-06   -2.8412065202570948e-08
-2.670093080083059e-05   3.3755191901124323e-06   -2.8412065202570948e-08
-2.670093080083059e-05   3.3755191901124323e-06   -2.8412065202570948e-08
-2.670093080083059e-05   3.3755191901124323e-06   -2.8412065202570948e-08
-2.0710181033896326e-05   7.726036466344826e-07   -8.451245684006221e-06
-2.0710181033896326e-05   7.726036466344826e-07   -8.451245684006221e-06
-2.0710181033896326e-05   7.726036466344826e-07   -8.451245684006221e-06
-2.0710181033896326e-05   7.726036466344826e-07   -8.451245684006221e-06
-2.6700930800830633e-05   0.0   -1.8043957684550877e-05
-2.6700930800830633e-05   0.0   -1.8043957684550877e-05
-2.6700930800830633e-05   0.0   -1.8043957684550877e-05
-2.6700930800830633e-05   0.0   -1.8043957684550877e-05
-1.5891603429221644e-05   3.375519190112439e-06   1.996899448864895e-06
-1.5891603429221644e-05   3.375519190112439e-06   1.996899448864895e-06
-1.5891603429221644e-05   3.375519190112439e-06   1.996899448864895e-06
-1.5891603429221644e-05   3.375519190112439e-06   1.996899448864895e-06
-1.5922321811396447e-05   0.0   -1.6406931503018016e-05
-1.5922321811396447e-05   0.0   -1.6406931503018016e-05
-1.5922321811396447e-05   0.0   -1.6406931503018016e-05
-1.5922321811396447e-05   0.0   -1.6406931503018016e-05
-2.7517663368397568e-05   3.619657017501548e-06   7.468435481496625e-07
-2.7517663368397568e-05   3.619657017501548e-06   7.468435481496625e-07
-2.7517663368397568e-05   3.619657017501548e-06   7.468435481496625e-07
-2.7517663368397568e-05   3.619657017501548e-06   7.468435481496625e-07
-2.1311626306113505e-05   1.3641884846107173e-06   -8.243270435922603e-06
-2.1311626306113505e-05   1.3641884846107173e-06   -8.243270435922603e-06
-2.1311626306113505e-05   1.3641884846107173e-06   -8.243270435922603e-06
-2.1311626306113505e-05   1.3641884846107173e-06   -8.243270435922603e-06
-2.7517663368397615e-05   0.0   -1.857872571351895e-05
-2.7517663368397615e-05   0.0   -1.857872571351895e-05
-2.7517663368397615e-05   0.0   -1.857872571351895e-05
-2.7517663368397615e-05   0.0   -1.857872571351895e-05
-1.5922321811396447e-05   3.619657017501555e-06   2.9186377586505927e-06
-1.5922321811396447e-05   3.619657017501555e-06   2.9186377586505927e-06
-1.5922321811396447e-05   3.619657017501555e-06   2.9186377586505927e-06
-1.5922321811396447e-05   3.619657017501555e-06   2.9186377586505927e-06
-1.589805945659096e-05   0.0   -1.6508928572902064e-05
-1.589805945659096e-05   0.0   -1.6508928572902064e-05
-1.589805945659096e-05   0.0   -1.6508928572902064e-05
-1.589805945659096e-05   0.0   -1.6508928572902064e-05
-2.9291121793443072e-05   4.133826614414893e-06   3.3325460198692667e-06
-2.9291121793443072e-05   4.133826614414893e-06   3.3325460198692667e-06
-2.9291121793443072e-05   4.133826614414893e-06   3.3325460198692667e-06
-2.9291121793443072e-05   4.133826614414893e-06   3.3325460198692667e-06
-2.170786141249425e-05   1.7248309505140692e-06   -7.860823883371603e-06
-2.170786141249425e-05   1.7248309505140692e-06   -7.860823883371603e-06
-2.170786141249425e-05   1.7248309505140692e-06   -7.860823883371603e-06
-2.170786141249425e-05   1.7248309505140692e-06   -7.860823883371603e-06
-1.6225530274966188e-05   0.0   -1.5264134647932765e-05
-1.6225530274966188e-05   0.0   -1.5264134647932765e-05
-1.6225530274966188e-05   0.0   -1.5264134647932765e-05
-1.6225530274966188e-05   0.0   -1.5264134647932765e-05
-7.405498406541005e-06   1.0230348251085767e-06   4.973936117433937e-08
-7.405498406541005e-06   1.0230348251085767e-06   4.973936117433937e-08
-7.405498406541005e-06   1.0230348251085767e-06   4.973936117433937e-08
-7.405498406541005e-06   1.0230348251085767e-06   4.973936117433937e-08
-7.108762416088724e-06   0.0   -1.5139740745716815e-05
-7.108762416088724e-06   0.0   -1.5139740745716815e-05
-7.108762416088724e-06   0.0   -1.5139740745716815e-05
-7.108762416088724e-06   0.0   -1.5139740745716815e-05
-1.5891603429221644e-05   1.4648423746109984e-06   -1.380577815261882e-06
-1.5891603429221644e-05   1.4648423746109984e-06   -1.380577815261882e-06
-1.5891603429221644e-05   1.4648423746109984e-06   -1.380577815261882e-06
-1.5891603429221644e-05   1.4648423746109984e-06   -1.380577815261882e-06
-1.1667146345527434e-05   1.0366158517996088e-07   -7.60463114776022e-06
-1.1667146345527434e-05   1.0366158517996088e-07   -7.60463114776022e-06
-1.1667146345527434e-05   1.0366158517996088e-07   -7.60463114776022e-06
-1.1667146345527434e-05   1.0366158517996088e-07   -7.60463114776022e-06
-1.589160342922163e-05   0.0   -1.60186461704834e-05
-1.589160342922163e-05   0.0   -1.60186461704834e-05
-1.589160342922163e-05   0.0   -1.60186461704834e-05
-1.589160342922163e-05   0.0   -1.60186461704834e-05
-7.108762416088724e-06   1.4648423746109984e-06   -5.016723904952828e-07
-7.108762416088724e-06   1.4648423746109984e-06   -5.016723904952828e-07
-7.108762416088724e-06   1.4648423746109984e-06   -5.016723904952828e-07
-7.108762416088724e-06   1.4648423746109984e-06   -5.016723904952828e-07
-6.9363431323878e-06   0.0   -1.532686969317084e-05
-6.9363431323878e-06   0.0   -1.532686969317084e-05
-6.9363431323878e-06   0.0   -1.532686969317084e-05
-6.9363431323878e-06   0.0   -1.532686969317084e-05
-1.5922321811396447e-05   1.8001030164119594e-06   -1.4303003713369424e-06
-1.5922321811396447e-05   1.8001030164119594e-06   -1.4303003713369424e-06
-1.5922321811396447e-05   1.8001030164119594e-06   -1.4303003713369424e-06
-1.5922321811396447e-05   1.8001030164119594e-06   -1.4303003713369424e-06
-1.1413973280804699e-05   5.764803977604775e-07   -8.210041017798898e-06
-1.1413973280804699e-05   5.764803977604775e-07   -8.210041017798898e-06
-1.1413973280804699e-05   5.764803977604775e-07   -8.210041017798898e-06
-1.1413973280804699e-05   5.764803977604775e-07   -8.210041017798898e-06
-1.5922321811396447e-05   0.0   -1.6406931503018016e-05
-1.5922321811396447e-05   0.0   -1.6406931503018016e-05
-1.5922321811396447e-05   0.0   -1.6406931503018016e-05
-1.5922321811396447e-05   0.0   -1.6406931503018016e-05
-6.9363431323878e-06   1.8001030164119594e-06   -3.502385614897664e-07
-6.9363431323878e-06   1.8001030164119594e-06   -3.502385614897664e-07
-6.9363431323878e-06   1.8001030164119594e-06   -3.502385614897664e-07
-6.9363431323878e-06   1.8001030164119594e-06   -3.502385614897664e-07
-6.777012834806936e-06   0.0   -1.5250144078619547e-05
-6.777012834806936e-06   0.0   -1.5250144078619547e-05
-6.777012834806936e-06   0.0   -1.5250144078619547e-05
-6.777012834806936e-06   0.0   -1.5250144078619547e-05
-1.589805945659092e-05   2.0979741571375016e-06   -1.3071842032620215e-06
-1.589805945659092e-05   2.0979741571375016e-06   -1.3071842032620215e-06
-1.589805945659092e-05   2.0979741571375016e-06   -1.3071842032620215e-06
-1.589805945659092e-05   2.0979741571375016e-06   -1.3071842032620215e-06
-1.1349667323101687e-05   9.639895203320476e-07   -8.20744697699419e-06
-1.1349667323101687e-05   9.639895203320476e-07   -8.20744697699419e-06
-1.1349667323101687e-05   9.639895203320476e-07   -8.20744697699419e-06
-1.1349667323101687e-05   9.639895203320476e-07   -8.20744697699419e-06
-7.405498406541018e-06   0.0   -1.465031375286762e-05
-7.405498406541018e-06   0.0   -1.465031375286762e-05
-7.405498406541018e-06   0.0   -1.465031375286762e-05
-7.405498406541018e-06   0.0   -1.465031375286762e-05
9.157255546274815e-07   -1.347500497905489e-07   -8.624571807944355e-07
9.157255546274815e-07   -1.347500497905489e-07   -8.624571807944355e-07
9.157255546274815e-07   -1.347500497905489e-07   -8.624571807944355e-07
9.157255546274815e-07   -1.347500497905489e-07   -8.624571807944355e-07
1.1116672078371432e-06   0.0   -1.4982953037876596e-05
1.1116672078371432e-06   0.0   -1.4982953037876596e-05
1.1116672078371432e-06   0.0   -1.4982953037876596e-05
1.1116672078371432e-06   0.0   -1.4982953037876596e-05
-7.108762416088712e-06   2.613128464002745e-07   -1.4390247058403611e-06
-7.108762416088712e-06   2.613128464002745e-07   -1.4390247058403611e-06
-7.108762416088712e-06   2.613128464002745e-07   -1.4390247058403611e-06
-7.108762416088712e-06   2.613128464002745e-07   -1.4390247058403611e-06
-3.1469155993519247e-06   -2.7719940417419024e-07   -7.718995383390298e-06
-3.1469155993519247e-06   -2.7719940417419024e-07   -7.718995383390298e-06
-3.1469155993519247e-06   -2.7719940417419024e-07   -7.718995383390298e-06
-3.1469155993519247e-06   -2.7719940417419024e-07   -7.718995383390298e-06
-7.108762416088724e-06   0.0   -1.5139740745716815e-05
-7.108762416088724e-06   0.0   -1.5139740745716815e-05
-7.108762416088724e-06   0.0   -1.5139740745716815e-05
-7.108762416088724e-06   0.0   -1.5139740745716815e-05
1.1116672078371451e-06   2.613128464002745e-07   -1.2822369980001954e-06
1.1116672078371451e-06   2.613128464002745e-07   -1.2822369980001954e-06
1.1116672078371451e-06   2.613128464002745e-07   -1.2822369980001954e-06
1.1116672078371451e-06   2.613128464002745e-07   -1.2822369980001954e-06
1.2681802743197325e-06   0.0   -1.4960434973859343e-05
1.2681802743197325e-06   0.0   -1.4960434973859343e-05
1.2681802743197325e-06   0.0   -1.4960434973859343e-05
1.2681802743197325e-06   0.0   -1.4960434973859343e-05
-6.936343132387776e-06   6.107245321857861e-07   -1.6526640153249488e-06
-6.936343132387776e-06   6.107245321857861e-07   -1.6526640153249488e-06
-6.936343132387776e-06   6.107245321857861e-07   -1.6526640153249488e-06
-6.936343132387776e-06   6.107245321857861e-07   -1.6526640153249488e-06
-2.92029107088449e-06   1.4942147654786957e-07   -8.06930228444769e-06
-2.92029107088449e-06   1.4942147654786957e-07   -8.06930228444769e-06
-2.92029107088449e-06   1.4942147654786957e-07   -8.06930228444769e-06
-2.92029107088449e-06   1.4942147654786957e-07   -8.06930228444769e-06
-6.9363431323878e-06   0.0   -1.532686969317084e-05
-6.9363431323878e-06   0.0   -1.532686969317084e-05
-6.9363431323878e-06   0.0   -1.532686969317084e-05
-6.9363431323878e-06   0.0   -1.532686969317084e-05
1.2681802743197346e-06   6.107245321857861e-07   -1.286229296013481e-06
1.2681802743197346e-06   6.107245321857861e-07   -1.286229296013481e-06
1.2681802743197346e-06   6.107245321857861e-07   -1.286229296013481e-06
1.2681802743197346e-06   6.107245321857861e-07   -1.286229296013481e-06
1.4740891863778906e-06   0.0   -1.4641387646052686e-05
1.4740891863778906e-06   0.0   -1.4641387646052686e-05
1.4740891863778906e-06   0.0   -1.4641387646052686e-05
1.4740891863778906e-06   0.0   -1.4641387646052686e-05
-6.777012834806919e-06   1.014594054278077e-06   -1.4983073766448328e-06
-6.777012834806919e-06   1.014594054278077e-06   -1.4983073766448328e-06
-6.777012834806919e-06   1.014594054278077e-06   -1.4983073766448328e-06
-6.777012834806919e-06   1.014594054278077e-06   -1.4983073766448328e-06
-2.7311269730049487e-06   5.712350392651081e-07   -7.975435070640346e-06
-2.7311269730049487e-06   5.712350392651081e-07   -7.975435070640346e-06
-2.7311269730049487e-06   5.712350392651081e-07   -7.975435070640346e-06
-2.7311269730049487e-06   5.712350392651081e-07   -7.975435070640346e-06
9.157255546274831e-07   0.0   -1.4731163782741948e-05
9.157255546274831e-07   0.0   -1.4731163782741948e-05
9.157255546274831e-07   0.0   -1.4731163782741948e-05
9.157255546274831e-07   0.0   -1.4731163782741948e-05
9.960283126515027e-06   -1.1683137618330702e-06   -3.578894200292105e-07
9.960283126515027e-06   -1.1683137618330702e-06   -3.578894200292105e-07
9.960283126515027e-06   -1.1683137618330702e-06   -3.578894200292105e-07
9.960283126515027e-06   -1.1683137618330702e-06   -3.578894200292105e-07
9.995552690657733e-06   0.0   -1.5509021003000354e-05
9.995552690657733e-06   0.0   -1.5509021003000354e-05
9.995552690657733e-06   0.0   -1.5509021003000354e-05
9.995552690657733e-06   0.0   -1.5509021003000354e-05
1.1116672078371473e-06   -8.767799418728418e-07   -1.7647723317567402e-07
1.1116672078371473e-06   -8.767799418728418e-07   -1.7647723317567402e-07
1.1116672078371473e-06   -8.767799418728418e-07   -1.7647723317567402e-07
1.1116672078371473e-06   -8.767799418728418e-07   -1.7647723317567402e-07
5.455639122642608e-06   -6.482143502153367e-07   -7.553569779512604e-06
5.455639122642608e-06   -6.482143502153367e-07   -7.553569779512604e-06
5.455639122642608e-06   -6.482143502153367e-07   -7.553569779512604e-06
5.455639122642608e-06   -6.482143502153367e-07   -7.553569779512604e-06
1.1116672078371473e-06   0.0   -1.4982953037876649e-05
1.1116672078371473e-06   0.0   -1.4982953037876649e-05
1.1116672078371473e-06   0.0   -1.4982953037876649e-05
1.1116672078371473e-06   0.0   -1.4982953037876649e-05
9.995552690657733e-06   -8.767799418728418e-07   -7.025451982993799e-07
9.995552690657733e-06   -8.767799418728418e-07   -7.025451982993799e-07
9.995552690657733e-06   -8.767799418728418e-07   -7.025451982993799e-07
9.995552690657733e-06   -8.767799418728418e-07   -7.025451982993799e-07
9.96787477413271e-06   0.0   -1.528768383031417e-05
9.96787477413271e-06   0.0   -1.528768383031417e-05
9.96787477413271e-06   0.0   -1.528768383031417e-05
9.96787477413271e-06   0.0   -1.528768383031417e-05
1.2681802743197346e-06   -5.45414760757998e-07   -4.6094414083774706e-07
1.2681802743197346e-06   -5.45414760757998e-07   -4.6094414083774706e-07
1.2681802743197346e-06   -5.45414760757998e-07   -4.6094414083774706e-07
1.2681802743197346e-06   -5.45414760757998e-07   -4.6094414083774706e-07
5.539770990984928e-06   -2.5394232703126836e-07   -7.755145462182434e-06
5.539770990984928e-06   -2.5394232703126836e-07   -7.755145462182434e-06
5.539770990984928e-06   -2.5394232703126836e-07   -7.755145462182434e-06
5.539770990984928e-06   -2.5394232703126836e-07   -7.755145462182434e-06
1.2681802743197336e-06   0.0   -1.4960434973859356e-05
1.2681802743197336e-06   0.0   -1.4960434973859356e-05
1.2681802743197336e-06   0.0   -1.4960434973859356e-05
1.2681802743197336e-06   0.0   -1.4960434973859356e-05
9.96787477413271e-06   -5.45414760757998e-07   -7.881929972925485e-07
9.96787477413271e-06   -5.45414760757998e-07   -7.881929972925485e-07
9.96787477413271e-06   -5.45414760757998e-07   -7.881929972925485e-07
9.96787477413271e-06   -5.45414760757998e-07   -7.881929972925485e-07
1.0175461959669186e-05   0.0   -1.4702021269994405e-05
1.0175461959669186e-05   0.0   -1.4702021269994405e-05
1.0175461959669186e-05   0.0   -1.4702021269994405e-05
1.0175461959669186e-05   0.0   -1.4702021269994405e-05
1.4740891863778931e-06   -1.0105603990282199e-07   -1.390996905672241e-07
1.4740891863778931e-06   -1.0105603990282199e-07   -1.390996905672241e-07
1.4740891863778931e-06   -1.0105603990282199e-07   -1.390996905672241e-07
1.4740891863778931e-06   -1.0105603990282199e-07   -1.390996905672241e-07
5.721821116994456e-06   2.1534475322080402e-07   -7.408493384135665e-06
5.721821116994456e-06   2.1534475322080402e-07   -7.408493384135665e-06
5.721821116994456e-06   2.1534475322080402e-07   -7.408493384135665e-06
5.721821116994456e-06   2.1534475322080402e-07   -7.408493384135665e-06
9.960283126515027e-06   0.0   -1.543215203984179e-05
9.960283126515027e-06   0.0   -1.543215203984179e-05
9.960283126515027e-06   0.0   -1.543215203984179e-05
9.960283126515027e-06   0.0   -1.543215203984179e-05
2.2579600095543097e-05   -2.9734822732021816e-06   3.8159535446171436e-06
2.2579600095543097e-05   -2.9734822732021816e-06   3.8159535446171436e-06
2.2579600095543097e-05   -2.9734822732021816e-06   3.8159535446171436e-06
2.2579600095543097e-05   -2.9734822732021816e-06   3.8159535446171436e-06
2.1228695575568044e-05   0.0   -1.702143278798048e-05
2.1228695575568044e-05   0.0   -1.702143278798048e-05
2.1228695575568044e-05   0.0   -1.702143278798048e-05
2.1228695575568044e-05   0.0   -1.702143278798048e-05
9.995552690657733e-06   -2.520686308300209e-06   3.2128838051834934e-06
9.995552690657733e-06   -2.520686308300209e-06   3.2128838051834934e-06
9.995552690657733e-06   -2.520686308300209e-06   3.2128838051834934e-06
9.995552690657733e-06   -2.520686308300209e-06   3.2128838051834934e-06
1.5594489351041534e-05   -1.3244006234489078e-06   -6.836448706366949e-06
1.5594489351041534e-05   -1.3244006234489078e-06   -6.836448706366949e-06
1.5594489351041534e-05   -1.3244006234489078e-06   -6.836448706366949e-06
1.5594489351041534e-05   -1.3244006234489078e-06   -6.836448706366949e-06
9.995552690657724e-06   0.0   -1.550902100300034e-05
9.995552690657724e-06   0.0   -1.550902100300034e-05
9.995552690657724e-06   0.0   -1.550902100300034e-05
9.995552690657724e-06   0.0   -1.550902100300034e-05
2.122869557556797e-05   -2.520686308300202e-06   1.7004720202033673e-06
2.122869557556797e-05   -2.520686308300202e-06   1.7004720202033673e-06
2.122869557556797e-05   -2.520686308300202e-06   1.7004720202033673e-06
2.122869557556797e-05   -2.520686308300202e-06   1.7004720202033673e-06
2.061257427058508e-05   0.0   -1.6667713757683157e-05
2.061257427058508e-05   0.0   -1.6667713757683157e-05
2.061257427058508e-05   0.0   -1.6667713757683157e-05
2.061257427058508e-05   0.0   -1.6667713757683157e-05
9.96787477413271e-06   -2.300049878948311e-06   2.4534819971064476e-06
9.96787477413271e-06   -2.300049878948311e-06   2.4534819971064476e-06
9.96787477413271e-06   -2.300049878948311e-06   2.4534819971064476e-06
9.96787477413271e-06   -2.300049878948311e-06   2.4534819971064476e-06
1.53040634806214e-05   -9.655772955690029e-07   -7.240849397068952e-06
1.53040634806214e-05   -9.655772955690029e-07   -7.240849397068952e-06
1.53040634806214e-05   -9.655772955690029e-07   -7.240849397068952e-06
1.53040634806214e-05   -9.655772955690029e-07   -7.240849397068952e-06
9.96787477413271e-06   0.0   -1.528768383031417e-05
9.96787477413271e-06   0.0   -1.528768383031417e-05
9.96787477413271e-06   0.0   -1.528768383031417e-05
9.96787477413271e-06   0.0   -1.528768383031417e-05
2.061257427058501e-05   -2.3000498789483007e-06   1.0734520697374536e-06
2.061257427058501e-05   -2.3000498789483007e-06   1.0734520697374536e-06
2.061257427058501e-05   -2.3000498789483007e-06   1.0734520697374536e-06
2.061257427058501e-05   -2.3000498789483007e-06   1.0734520697374536e-06
1.9684766826098655e-05   0.0   -1.57680734340934e-05
1.9684766826098655e-05   0.0   -1.57680734340934e-05
1.9684766826098655e-05   0.0   -1.57680734340934e-05
1.9684766826098655e-05   0.0   -1.57680734340934e-05
1.0175461959669186e-05   -1.7767536068317077e-06   1.1468201740547593e-06
1.0175461959669186e-05   -1.7767536068317077e-06   1.1468201740547593e-06
1.0175461959669186e-05   -1.7767536068317077e-06   1.1468201740547593e-06
1.0175461959669186e-05   -1.7767536068317077e-06   1.1468201740547593e-06
1.48263208001157e-05   -4.0032466981604914e-07   -7.430468588898815e-06
1.48263208001157e-05   -4.0032466981604914e-07   -7.430468588898815e-06
1.48263208001157e-05   -4.0032466981604914e-07   -7.430468588898815e-06
1.48263208001157e-05   -4.0032466981604914e-07   -7.430468588898815e-06
-2.200827908430442e-05   2.8027264975200386e-06   -1.4567431128886499e-05
-2.200827908430442e-05   2.8027264975200386e-06   -1.4567431128886499e-05
-2.200827908430442e-05   2.8027264975200386e-06   -1.4567431128886499e-05
-2.200827908430442e-05   2.8027264975200386e-06   -1.4567431128886499e-05
-1.4108850907942209e-05   2.5118739622346982e-06   -1.576229022787334e-06
-1.4108850907942209e-05   2.5118739622346982e-06   -1.576229022787334e-06
-1.4108850907942209e-05   2.5118739622346982e-06   -1.576229022787334e-06
-1.4108850907942209e-05   2.5118739622346982e-06   -1.576229022787334e-06
-1.4456268758817825e-05   3.375519190112429e-06   -1.2246370620177896e-05
-1.4456268758817825e-05   3.375519190112429e-06   -1.2246370620177896e-05
-1.4456268758817825e-05   3.375519190112429e-06   -1.2246370620177896e-05
-1.4456268758817825e-05   3.375519190112429e-06   -1.2246370620177896e-05
-2.2230673912571745e-05   3.022617823486692e-06   9.227121227207931e-07
-2.2230673912571745e-05   3.022617823486692e-06   9.227121227207931e-07
-2.2230673912571745e-05   3.022617823486692e-06   9.227121227207931e-07
-2.2230673912571745e-05   3.022617823486692e-06   9.227121227207931e-07
-1.7479224417559107e-05   2.9315357566232726e-06   -6.941721128849004e-06
-1.7479224417559107e-05   2.9315357566232726e-06   -6.941721128849004e-06
-1.7479224417559107e-05   2.9315357566232726e-06   -6.941721128849004e-06
-1.7479224417559107e-05   2.9315357566232726e-06   -6.941721128849004e-06
-2.2230673912571745e-05   3.375519190112429e-06   -1.2034629800202452e-05
-2.2230673912571745e-05   3.375519190112429e-06   -1.2034629800202452e-05
-2.2230673912571745e-05   3.375519190112429e-06   -1.2034629800202452e-05
-2.2230673912571745e-05   3.375519190112429e-06   -1.2034629800202452e-05
-1.4456268758817876e-05   3.0226178234867056e-06   7.109713027453516e-07
-1.4456268758817876e-05   3.0226178234867056e-06   7.109713027453516e-07
-1.4456268758817876e-05   3.0226178234867056e-06   7.109713027453516e-07
-1.4456268758817876e-05   3.0226178234867056e-06   7.109713027453516e-07
-1.4521056770718418e-05   3.619657017501548e-06   -1.1018966079219926e-05
-1.4521056770718418e-05   3.619657017501548e-06   -1.1018966079219926e-05
-1.4521056770718418e-05   3.619657017501548e-06   -1.1018966079219926e-05
-1.4521056770718418e-05   3.619657017501548e-06   -1.1018966079219926e-05
-2.2373446075058094e-05   3.2534322077780757e-06   2.288084313846868e-06
-2.2373446075058094e-05   3.2534322077780757e-06   2.288084313846868e-06
-2.2373446075058094e-05   3.2534322077780757e-06   2.288084313846868e-06
-2.2373446075058094e-05   3.2534322077780757e-06   2.288084313846868e-06
-1.7982858248949026e-05   3.252288169358881e-06   -5.028875639949987e-06
-1.7982858248949026e-05   3.252288169358881e-06   -5.028875639949987e-06
-1.7982858248949026e-05   3.252288169358881e-06   -5.028875639949987e-06
-1.7982858248949026e-05   3.252288169358881e-06   -5.028875639949987e-06
-2.2373446075058053e-05   3.619657017501548e-06   -1.079923119338584e-05
-2.2373446075058053e-05   3.619657017501548e-06   -1.079923119338584e-05
-2.2373446075058053e-05   3.619657017501548e-06   -1.079923119338584e-05
-2.2373446075058053e-05   3.619657017501548e-06   -1.079923119338584e-05
-1.4521056770718438e-05   3.2534322077780757e-06   2.068349428012798e-06
-1.4521056770718438e-05   3.2534322077780757e-06   2.068349428012798e-06
-1.4521056770718438e-05   3.2534322077780757e-06   2.068349428012798e-06
-1.4521056770718438e-05   3.2534322077780757e-06   2.068349428012798e-06
-1.442970754956405e-05   4.13382661441489e-06   -8.168545271211044e-06
-1.442970754956405e-05   4.13382661441489e-06   -8.168545271211044e-06
-1.442970754956405e-05   4.13382661441489e-06   -8.168545271211044e-06
-1.442970754956405e-05   4.13382661441489e-06   -8.168545271211044e-06
-2.1733060120678496e-05   3.4411539831083243e-06   4.419312592763577e-06
-2.1733060120678496e-05   3.4411539831083243e-06   4.419312592763577e-06
-2.1733060120678496e-05   3.4411539831083243e-06   4.419312592763577e-06
-2.1733060120678496e-05   3.4411539831083243e-06   4.419312592763577e-06
-1.750271642238559e-05   3.572145667977503e-06   -2.709855248646111e-06
-1.750271642238559e-05   3.572145667977503e-06   -2.709855248646111e-06
-1.750271642238559e-05   3.572145667977503e-06   -2.709855248646111e-06
-1.750271642238559e-05   3.572145667977503e-06   -2.709855248646111e-06
-1.4108850907942209e-05   1.0230348251085767e-06   -1.55472701420239e-05
-1.4108850907942209e-05   1.0230348251085767e-06   -1.55472701420239e-05
-1.4108850907942209e-05   1.0230348251085767e-06   -1.55472701420239e-05
-1.4108850907942209e-05   1.0230348251085767e-06   -1.55472701420239e-05
-6.708287158591401e-06   1.1690825842926235e-06   -3.12536857092877e-06
-6.708287158591401e-06   1.1690825842926235e-06   -3.12536857092877e-06
-6.708287158591401e-06   1.1690825842926235e-06   -3.12536857092877e-06
-6.708287158591401e-06   1.1690825842926235e-06   -3.12536857092877e-06
-6.8605006702457496e-06   1.464842374610995e-06   -1.551961653467068e-05
-6.8605006702457496e-06   1.464842374610995e-06   -1.551961653467068e-05
-6.8605006702457496e-06   1.464842374610995e-06   -1.551961653467068e-05
-6.8605006702457496e-06   1.464842374610995e-06   -1.551961653467068e-05
-1.4456268758817825e-05   1.6385612906676448e-06   -2.9642344033511747e-06
-1.4456268758817825e-05   1.6385612906676448e-06   -2.9642344033511747e-06
-1.4456268758817825e-05   1.6385612906676448e-06   -2.9642344033511747e-06
-1.4456268758817825e-05   1.6385612906676448e-06   -2.9642344033511747e-06
-1.0503271216740121e-05   1.3186372383378045e-06   -9.360609208749533e-06
-1.0503271216740121e-05   1.3186372383378045e-06   -9.360609208749533e-06
-1.0503271216740121e-05   1.3186372383378045e-06   -9.360609208749533e-06
-1.0503271216740121e-05   1.3186372383378045e-06   -9.360609208749533e-06
-1.4456268758817812e-05   1.464842374610995e-06   -1.562384788430464e-05
-1.4456268758817812e-05   1.464842374610995e-06   -1.562384788430464e-05
-1.4456268758817812e-05   1.464842374610995e-06   -1.562384788430464e-05
-1.4456268758817812e-05   1.464842374610995e-06   -1.562384788430464e-05
-6.8605006702457606e-06   1.6385612906676583e-06   -2.860003053717192e-06
-6.8605006702457606e-06   1.6385612906676583e-06   -2.860003053717192e-06
-6.8605006702457606e-06   1.6385612906676583e-06   -2.860003053717192e-06
-6.8605006702457606e-06   1.6385612906676583e-06   -2.860003053717192e-06
-6.902286237261323e-06   1.8001030164119526e-06   -1.5231096829330832e-05
-6.902286237261323e-06   1.8001030164119526e-06   -1.5231096829330832e-05
-6.902286237261323e-06   1.8001030164119526e-06   -1.5231096829330832e-05
-6.902286237261323e-06   1.8001030164119526e-06   -1.5231096829330832e-05
-1.4521056770718418e-05   2.028115316206306e-06   -2.669953320112302e-06
-1.4521056770718418e-05   2.028115316206306e-06   -2.669953320112302e-06
-1.4521056770718418e-05   2.028115316206306e-06   -2.669953320112302e-06
-1.4521056770718418e-05   2.028115316206306e-06   -2.669953320112302e-06
-1.0577708665101724e-05   1.6776295942734149e-06   -9.031908729647024e-06
-1.0577708665101724e-05   1.6776295942734149e-06   -9.031908729647024e-06
-1.0577708665101724e-05   1.6776295942734149e-06   -9.031908729647024e-06
-1.0577708665101724e-05   1.6776295942734149e-06   -9.031908729647024e-06
-1.4521056770718418e-05   1.8001030164119526e-06   -1.5367904209207444e-05
-1.4521056770718418e-05   1.8001030164119526e-06   -1.5367904209207444e-05
-1.4521056770718418e-05   1.8001030164119526e-06   -1.5367904209207444e-05
-1.4521056770718418e-05   1.8001030164119526e-06   -1.5367904209207444e-05
-6.9022862372613485e-06   2.028115316206306e-06   -2.5331459402357053e-06
-6.9022862372613485e-06   2.028115316206306e-06   -2.5331459402357053e-06
-6.9022862372613485e-06   2.028115316206306e-06   -2.5331459402357053e-06
-6.9022862372613485e-06   2.028115316206306e-06   -2.5331459402357053e-06
-6.877289008699299e-06   2.0979741571374983e-06   -1.5078518296588672e-05
-6.877289008699299e-06   2.0979741571374983e-06   -1.5078518296588672e-05
-6.877289008699299e-06   2.0979741571374983e-06   -1.5078518296588672e-05
-6.877289008699299e-06   2.0979741571374983e-06   -1.5078518296588672e-05
-1.4429707549564037e-05   2.448062767808435e-06   -2.701207228216676e-06
-1.4429707549564037e-05   2.448062767808435e-06   -2.701207228216676e-06
-1.4429707549564037e-05   2.448062767808435e-06   -2.701207228216676e-06
-1.4429707549564037e-05   2.448062767808435e-06   -2.701207228216676e-06
-1.0631638918321182e-05   2.0025991489912293e-06   -8.764043442331146e-06
-1.0631638918321182e-05   2.0025991489912293e-06   -8.764043442331146e-06
-1.0631638918321182e-05   2.0025991489912293e-06   -8.764043442331146e-06
-1.0631638918321182e-05   2.0025991489912293e-06   -8.764043442331146e-06
-6.70828715859139e-06   -1.347500497905489e-07   -1.6290987998607916e-05
-6.70828715859139e-06   -1.347500497905489e-07   -1.6290987998607916e-05
-6.70828715859139e-06   -1.347500497905489e-07   -1.6290987998607916e-05
-6.70828715859139e-06   -1.347500497905489e-07   -1.6290987998607916e-05
5.975427821233514e-07   -3.708348124607211e-08   -4.056004822956653e-06
5.975427821233514e-07   -3.708348124607211e-08   -4.056004822956653e-06
5.975427821233514e-07   -3.708348124607211e-08   -4.056004822956653e-06
5.975427821233514e-07   -3.708348124607211e-08   -4.056004822956653e-06
5.752816430086749e-07   2.613128464002745e-07   -1.6376211064309466e-05
5.752816430086749e-07   2.613128464002745e-07   -1.6376211064309466e-05
5.752816430086749e-07   2.613128464002745e-07   -1.6376211064309466e-05
5.752816430086749e-07   2.613128464002745e-07   -1.6376211064309466e-05
-6.8605006702457496e-06   3.959091559108054e-07   -4.063998327925019e-06
-6.8605006702457496e-06   3.959091559108054e-07   -4.063998327925019e-06
-6.8605006702457496e-06   3.959091559108054e-07   -4.063998327925019e-06
-6.8605006702457496e-06   3.959091559108054e-07   -4.063998327925019e-06
-3.116899926412673e-06   1.3225431194612008e-07   -1.014513999460137e-05
-3.116899926412673e-06   1.3225431194612008e-07   -1.014513999460137e-05
-3.116899926412673e-06   1.3225431194612008e-07   -1.014513999460137e-05
-3.116899926412673e-06   1.3225431194612008e-07   -1.014513999460137e-05
-6.8605006702457496e-06   2.6131284640027786e-07   -1.645696885001575e-05
-6.8605006702457496e-06   2.6131284640027786e-07   -1.645696885001575e-05
-6.8605006702457496e-06   2.6131284640027786e-07   -1.645696885001575e-05
-6.8605006702457496e-06   2.6131284640027786e-07   -1.645696885001575e-05
5.752816430086749e-07   3.959091559108054e-07   -3.9832405422187074e-06
5.752816430086749e-07   3.959091559108054e-07   -3.9832405422187074e-06
5.752816430086749e-07   3.959091559108054e-07   -3.9832405422187074e-06
5.752816430086749e-07   3.959091559108054e-07   -3.9832405422187074e-06
5.428561913531049e-07   6.107245321857861e-07   -1.6408403034665754e-05
5.428561913531049e-07   6.107245321857861e-07   -1.6408403034665754e-05
5.428561913531049e-07   6.107245321857861e-07   -1.6408403034665754e-05
5.428561913531049e-07   6.107245321857861e-07   -1.6408403034665754e-05
-6.902286237261323e-06   8.192566130195504e-07   -4.12495156880865e-06
-6.902286237261323e-06   8.192566130195504e-07   -4.12495156880865e-06
-6.902286237261323e-06   8.192566130195504e-07   -4.12495156880865e-06
-6.902286237261323e-06   8.192566130195504e-07   -4.12495156880865e-06
-3.1667753480554907e-06   4.985821704435201e-07   -1.0158398385272713e-05
-3.1667753480554907e-06   4.985821704435201e-07   -1.0158398385272713e-05
-3.1667753480554907e-06   4.985821704435201e-07   -1.0158398385272713e-05
-3.1667753480554907e-06   4.985821704435201e-07   -1.0158398385272713e-05
-6.902286237261323e-06   6.107245321857861e-07   -1.6533522283166015e-05
-6.902286237261323e-06   6.107245321857861e-07   -1.6533522283166015e-05
-6.902286237261323e-06   6.107245321857861e-07   -1.6533522283166015e-05
-6.902286237261323e-06   6.107245321857861e-07   -1.6533522283166015e-05
5.428561913531057e-07   8.192566130195639e-07   -3.999832320308392e-06
5.428561913531057e-07   8.192566130195639e-07   -3.999832320308392e-06
5.428561913531057e-07   8.192566130195639e-07   -3.999832320308392e-06
5.428561913531057e-07   8.192566130195639e-07   -3.999832320308392e-06
4.6837887467896833e-07   1.014594054278077e-06   -1.6381176061431162e-05
4.6837887467896833e-07   1.014594054278077e-06   -1.6381176061431162e-05
4.6837887467896833e-07   1.014594054278077e-06   -1.6381176061431162e-05
4.6837887467896833e-07   1.014594054278077e-06   -1.6381176061431162e-05
-6.877289008699305e-06   1.260010558982804e-06   -4.285646158623556e-06
-6.877289008699305e-06   1.260010558982804e-06   -4.285646158623556e-06
-6.877289008699305e-06   1.260010558982804e-06   -4.285646158623556e-06
-6.877289008699305e-06   1.260010558982804e-06   -4.285646158623556e-06
-3.193664374052527e-06   8.749219579036086e-07   -1.0193967389053995e-05
-3.193664374052527e-06   8.749219579036086e-07   -1.0193967389053995e-05
-3.193664374052527e-06   8.749219579036086e-07   -1.0193967389053995e-05
-3.193664374052527e-06   8.749219579036086e-07   -1.0193967389053995e-05
5.975427821233514e-07   -1.1683137618330668e-06   -1.5026832039616165e-05
5.975427821233514e-07   -1.1683137618330668e-06   -1.5026832039616165e-05
5.975427821233514e-07   -1.1683137618330668e-06   -1.5026832039616165e-05
5.975427821233514e-07   -1.1683137618330668e-06   -1.5026832039616165e-05
8.125926848635028e-06   -1.2004528000125883e-06   -2.498808685004407e-06
8.125926848635028e-06   -1.2004528000125883e-06   -2.498808685004407e-06
8.125926848635028e-06   -1.2004528000125883e-06   -2.498808685004407e-06
8.125926848635028e-06   -1.2004528000125883e-06   -2.498808685004407e-06
8.201957655680594e-06   -8.76779941872835e-07   -1.5227658279428727e-05
8.201957655680594e-06   -8.76779941872835e-07   -1.5227658279428727e-05
8.201957655680594e-06   -8.76779941872835e-07   -1.5227658279428727e-05
8.201957655680594e-06   -8.76779941872835e-07   -1.5227658279428727e-05
5.752816430086749e-07   -8.054582417792421e-07   -2.5593246116983298e-06
5.752816430086749e-07   -8.054582417792421e-07   -2.5593246116983298e-06
5.752816430086749e-07   -8.054582417792421e-07   -2.5593246116983298e-06
5.752816430086749e-07   -8.054582417792421e-07   -2.5593246116983298e-06
4.319414174368501e-06   -9.667463724371322e-07   -8.702772618903333e-06
4.319414174368501e-06   -9.667463724371322e-07   -8.702772618903333e-06
4.319414174368501e-06   -9.667463724371322e-07   -8.702772618903333e-06
4.319414174368501e-06   -9.667463724371322e-07   -8.702772618903333e-06
5.752816430086739e-07   -8.767799418728384e-07   -1.5270451299484916e-05
5.752816430086739e-07   -8.767799418728384e-07   -1.5270451299484916e-05
5.752816430086739e-07   -8.767799418728384e-07   -1.5270451299484916e-05
5.752816430086739e-07   -8.767799418728384e-07   -1.5270451299484916e-05
8.201957655680606e-06   -8.054582417792286e-07   -2.5165315916421665e-06
8.201957655680606e-06   -8.054582417792286e-07   -2.5165315916421665e-06
8.201957655680606e-06   -8.054582417792286e-07   -2.5165315916421665e-06
8.201957655680606e-06   -8.054582417792286e-07   -2.5165315916421665e-06
8.171306146392947e-06   -5.454147607579946e-07   -1.5507585864809837e-05
8.171306146392947e-06   -5.454147607579946e-07   -1.5507585864809837e-05
8.171306146392947e-06   -5.454147607579946e-07   -1.5507585864809837e-05
8.171306146392947e-06   -5.454147607579946e-07   -1.5507585864809837e-05
5.428561913531049e-07   -4.195280696244158e-07   -2.869034621090274e-06
5.428561913531049e-07   -4.195280696244158e-07   -2.869034621090274e-06
5.428561913531049e-07   -4.195280696244158e-07   -2.869034621090274e-06
5.428561913531049e-07   -4.195280696244158e-07   -2.869034621090274e-06
4.281198403197013e-06   -6.528886793533993e-07   -8.95958860832604e-06
4.281198403197013e-06   -6.528886793533993e-07   -8.95958860832604e-06
4.281198403197013e-06   -6.528886793533993e-07   -8.95958860832604e-06
4.281198403197013e-06   -6.528886793533993e-07   -8.95958860832604e-06
5.428561913531042e-07   -5.45414760757998e-07   -1.5583117879489993e-05
5.428561913531042e-07   -5.45414760757998e-07   -1.5583117879489993e-05
5.428561913531042e-07   -5.45414760757998e-07   -1.5583117879489993e-05
5.428561913531042e-07   -5.45414760757998e-07   -1.5583117879489993e-05
8.171306146392976e-06   -4.195280696244158e-07   -2.793502606410123e-06
8.171306146392976e-06   -4.195280696244158e-07   -2.793502606410123e-06
8.171306146392976e-06   -4.195280696244158e-07   -2.793502606410123e-06
8.171306146392976e-06   -4.195280696244158e-07   -2.793502606410123e-06
7.939636491569594e-06   -1.010560399028186e-07   -1.5536138260973798e-05
7.939636491569594e-06   -1.010560399028186e-07   -1.5536138260973798e-05
7.939636491569594e-06   -1.010560399028186e-07   -1.5536138260973798e-05
7.939636491569594e-06   -1.010560399028186e-07   -1.5536138260973798e-05
4.6837887467896833e-07   5.658820500813904e-08   -3.1786287797693565e-06
4.6837887467896833e-07   5.658820500813904e-08   -3.1786287797693565e-06
4.6837887467896833e-07   5.658820500813904e-08   -3.1786287797693565e-06
4.6837887467896833e-07   5.658820500813904e-08   -3.1786287797693565e-06
4.242085478200514e-06   -2.864166536201379e-07   -9.262336870461619e-06
4.242085478200514e-06   -2.864166536201379e-07   -9.262336870461619e-06
4.242085478200514e-06   -2.864166536201379e-07   -9.262336870461619e-06
4.242085478200514e-06   -2.864166536201379e-07   -9.262336870461619e-06
8.125926848635028e-06   -2.9734822732021816e-06   -9.088183133956217e-06
8.125926848635028e-06   -2.9734822732021816e-06   -9.088183133956217e-06
8.125926848635028e-06   -2.9734822732021816e-06   -9.088183133956217e-06
8.125926848635028e-06   -2.9734822732021816e-06   -9.088183133956217e-06
1.553885032434835e-05   -2.223747307802631e-06   3.7165303048056864e-06
1.553885032434835e-05   -2.223747307802631e-06   3.7165303048056864e-06
1.553885032434835e-05   -2.223747307802631e-06   3.7165303048056864e-06
1.553885032434835e-05   -2.223747307802631e-06   3.7165303048056864e-06
1.6152339969942437e-05   -2.520686308300209e-06   -1.1005779630069803e-05
1.6152339969942437e-05   -2.520686308300209e-06   -1.1005779630069803e-05
1.6152339969942437e-05   -2.520686308300209e-06   -1.1005779630069803e-05
1.6152339969942437e-05   -2.520686308300209e-06   -1.1005779630069803e-05
8.201957655680623e-06   -2.0099368985066932e-06   1.938407914490496e-06
8.201957655680623e-06   -2.0099368985066932e-06   1.938407914490496e-06
8.201957655680623e-06   -2.0099368985066932e-06   1.938407914490496e-06
8.201957655680623e-06   -2.0099368985066932e-06   1.938407914490496e-06
1.144604636722982e-05   -2.419839587348868e-06   -3.222464991452905e-06
1.144604636722982e-05   -2.419839587348868e-06   -3.222464991452905e-06
1.144604636722982e-05   -2.419839587348868e-06   -3.222464991452905e-06
1.144604636722982e-05   -2.419839587348868e-06   -3.222464991452905e-06
8.201957655680601e-06   -2.5206863083002056e-06   -1.1312229275945868e-05
8.201957655680601e-06   -2.5206863083002056e-06   -1.1312229275945868e-05
8.201957655680601e-06   -2.5206863083002056e-06   -1.1312229275945868e-05
8.201957655680601e-06   -2.5206863083002056e-06   -1.1312229275945868e-05
1.6152339969942437e-05   -2.0099368985066932e-06   2.2448575603665913e-06
1.6152339969942437e-05   -2.0099368985066932e-06   2.2448575603665913e-06
1.6152339969942437e-05   -2.0099368985066932e-06   2.2448575603665913e-06
1.6152339969942437e-05   -2.0099368985066932e-06   2.2448575603665913e-06
1.61061959482473e-05   -2.3000498789483075e-06   -1.1958709776815441e-05
1.61061959482473e-05   -2.3000498789483075e-06   -1.1958709776815441e-05
1.61061959482473e-05   -2.3000498789483075e-06   -1.1958709776815441e-05
1.61061959482473e-05   -2.3000498789483075e-06   -1.1958709776815441e-05
8.171306146392976e-06   -1.7880480562892036e-06   9.589054660129591e-07
8.171306146392976e-06   -1.7880480562892036e-06   9.589054660129591e-07
8.171306146392976e-06   -1.7880480562892036e-06   9.589054660129591e-07
8.171306146392976e-06   -1.7880480562892036e-06   9.589054660129591e-07
1.185985510773498e-05   -2.1318193603794957e-06   -4.982413353769535e-06
1.185985510773498e-05   -2.1318193603794957e-06   -4.982413353769535e-06
1.185985510773498e-05   -2.1318193603794957e-06   -4.982413353769535e-06
1.185985510773498e-05   -2.1318193603794957e-06   -4.982413353769535e-06
8.171306146392962e-06   -2.300049878948304e-06   -1.2265910870410888e-05
8.171306146392962e-06   -2.300049878948304e-06   -1.2265910870410888e-05
8.171306146392962e-06   -2.300049878948304e-06   -1.2265910870410888e-05
8.171306146392962e-06   -2.300049878948304e-06   -1.2265910870410888e-05
1.61061959482473e-05   -1.7880480562892036e-06   1.2661065596084248e-06
1.61061959482473e-05   -1.7880480562892036e-06   1.2661065596084248e-06
1.61061959482473e-05   -1.7880480562892036e-06   1.2661065596084248e-06
1.61061959482473e-05   -1.7880480562892036e-06   1.2661065596084248e-06
1.6025417762534245e-05   -1.7767536068317043e-06   -1.391027022167298e-05
1.6025417762534245e-05   -1.7767536068317043e-06   -1.391027022167298e-05
1.6025417762534245e-05   -1.7767536068317043e-06   -1.391027022167298e-05
1.6025417762534245e-05   -1.7767536068317043e-06   -1.391027022167298e-05
7.93963649156962e-06   -1.311229355603047e-06   -7.132826541358094e-07
7.93963649156962e-06   -1.311229355603047e-06   -7.132826541358094e-07
7.93963649156962e-06   -1.311229355603047e-06   -7.132826541358094e-07
7.93963649156962e-06   -1.311229355603047e-06   -7.132826541358094e-07
1.1530664639452178e-05   -1.8317642161321928e-06   -6.386008650955904e-06
1.1530664639452178e-05   -1.8317642161321928e-06   -6.386008650955904e-06
1.1530664639452178e-05   -1.8317642161321928e-06   -6.386008650955904e-06
1.1530664639452178e-05   -1.8317642161321928e-06   -6.386008650955904e-06
-1.7415154047272634e-05   2.511873962234712e-06   -1.2107725339458992e-05
-1.7415154047272634e-05   2.511873962234712e-06   -1.2107725339458992e-05
-1.7415154047272634e-05   2.511873962234712e-06   -1.2107725339458992e-05
-1.7415154047272634e-05   2.511873962234712e-06   -1.2107725339458992e-05
-1.1445343789293396e-05   1.909223187908745e-06   -2.519632040755847e-06
-1.1445343789293396e-05   1.909223187908745e-06   -2.519632040755847e-06
-1.1445343789293396e-05   1.909223187908745e-06   -2.519632040755847e-06
-1.1445343789293396e-05   1.909223187908745e-06   -2.519632040755847e-06
-1.149617530480555e-05   3.022617823486692e-06   -1.0058296013638126e-05
-1.149617530480555e-05   3.022617823486692e-06   -1.0058296013638126e-05
-1.149617530480555e-05   3.022617823486692e-06   -1.0058296013638126e-05
-1.149617530480555e-05   3.022617823486692e-06   -1.0058296013638126e-05
-1.713809846246746e-05   2.315083990708615e-06   -2.3057045120144267e-07
-1.713809846246746e-05   2.315083990708615e-06   -2.3057045120144267e-07
-1.713809846246746e-05   2.315083990708615e-06   -2.3057045120144267e-07
-1.713809846246746e-05   2.315083990708615e-06   -2.3057045120144267e-07
-1.376512668334121e-05   2.5569425735505903e-06   -5.997305232783741e-06
-1.376512668334121e-05   2.5569425735505903e-06   -5.997305232783741e-06
-1.376512668334121e-05   2.5569425735505903e-06   -5.997305232783741e-06
-1.376512668334121e-05   2.5569425735505903e-06   -5.997305232783741e-06
-1.713809846246746e-05   3.022617823486692e-06   -9.633775713971275e-06
-1.713809846246746e-05   3.022617823486692e-06   -9.633775713971275e-06
-1.713809846246746e-05   3.022617823486692e-06   -9.633775713971275e-06
-1.713809846246746e-05   3.022617823486692e-06   -9.633775713971275e-06
-1.149617530480555e-05   2.315083990708615e-06   -6.550907508682524e-07
-1.149617530480555e-05   2.315083990708615e-06   -6.550907508682524e-07
-1.149617530480555e-05   2.315083990708615e-06   -6.550907508682524e-07
-1.149617530480555e-05   2.315083990708615e-06   -6.550907508682524e-07
-1.1479741113125241e-05   3.2534322077780757e-06   -8.608841977227695e-06
-1.1479741113125241e-05   3.2534322077780757e-06   -8.608841977227695e-06
-1.1479741113125241e-05   3.2534322077780757e-06   -8.608841977227695e-06
-1.1479741113125241e-05   3.2534322077780757e-06   -8.608841977227695e-06
-1.68705688818166e-05   2.4943560166715945e-06   8.313166852551063e-07
-1.68705688818166e-05   2.4943560166715945e-06   8.313166852551063e-07
-1.68705688818166e-05   2.4943560166715945e-06   8.313166852551063e-07
-1.68705688818166e-05   2.4943560166715945e-06   8.313166852551063e-07
-1.3876920619807402e-05   2.7921387740606257e-06   -4.336766739193479e-06
-1.3876920619807402e-05   2.7921387740606257e-06   -4.336766739193479e-06
-1.3876920619807402e-05   2.7921387740606257e-06   -4.336766739193479e-06
-1.3876920619807402e-05   2.7921387740606257e-06   -4.336766739193479e-06
-1.68705688818166e-05   3.2534322077780757e-06   -8.153396262563786e-06
-1.68705688818166e-05   3.2534322077780757e-06   -8.153396262563786e-06
-1.68705688818166e-05   3.2534322077780757e-06   -8.153396262563786e-06
-1.68705688818166e-05   3.2534322077780757e-06   -8.153396262563786e-06
-1.1479741113125255e-05   2.4943560166715945e-06   3.758709705912921e-07
-1.1479741113125255e-05   2.4943560166715945e-06   3.758709705912921e-07
-1.1479741113125255e-05   2.4943560166715945e-06   3.758709705912921e-07
-1.1479741113125255e-05   2.4943560166715945e-06   3.758709705912921e-07
-1.1487907642340674e-05   3.4411539831083243e-06   -6.586933012811373e-06
-1.1487907642340674e-05   3.4411539831083243e-06   -6.586933012811373e-06
-1.1487907642340674e-05   3.4411539831083243e-06   -6.586933012811373e-06
-1.1487907642340674e-05   3.4411539831083243e-06   -6.586933012811373e-06
-1.652480218042821e-05   2.6739491406892408e-06   2.2682141227858534e-06
-1.652480218042821e-05   2.6739491406892408e-06   2.2682141227858534e-06
-1.652480218042821e-05   2.6739491406892408e-06   2.2682141227858534e-06
-1.652480218042821e-05   2.6739491406892408e-06   2.2682141227858534e-06
-1.3554896238765759e-05   2.9183957388123e-06   -2.8282970721918454e-06
-1.3554896238765759e-05   2.9183957388123e-06   -2.8282970721918454e-06
-1.3554896238765759e-05   2.9183957388123e-06   -2.8282970721918454e-06
-1.3554896238765759e-05   2.9183957388123e-06   -2.8282970721918454e-06
-1.1445343789293396e-05   1.1690825842926235e-06   -1.4106084007706428e-05
-1.1445343789293396e-05   1.1690825842926235e-06   -1.4106084007706428e-05
-1.1445343789293396e-05   1.1690825842926235e-06   -1.4106084007706428e-05
-1.1445343789293396e-05   1.1690825842926235e-06   -1.4106084007706428e-05
-5.855831491907478e-06   9.55816899484086e-07   -4.918189589615025e-06
-5.855831491907478e-06   9.55816899484086e-07   -4.918189589615025e-06
-5.855831491907478e-06   9.55816899484086e-07   -4.918189589615025e-06
-5.855831491907478e-06   9.55816899484086e-07   -4.918189589615025e-06
-5.923255507459597e-06   1.6385612906676448e-06   -1.3903163554408886e-05
-5.923255507459597e-06   1.6385612906676448e-06   -1.3903163554408886e-05
-5.923255507459597e-06   1.6385612906676448e-06   -1.3903163554408886e-05
-5.923255507459597e-06   1.6385612906676448e-06   -1.3903163554408886e-05
-1.1496175304805536e-05   1.3557915662105579e-06   -4.4453020574913805e-06
-1.1496175304805536e-05   1.3557915662105579e-06   -4.4453020574913805e-06
-1.1496175304805536e-05   1.3557915662105579e-06   -4.4453020574913805e-06
-1.1496175304805536e-05   1.3557915662105579e-06   -4.4453020574913805e-06
-8.60529290641199e-06   1.3534591431044624e-06   -9.26203993428365e-06
-8.60529290641199e-06   1.3534591431044624e-06   -9.26203993428365e-06
-8.60529290641199e-06   1.3534591431044624e-06   -9.26203993428365e-06
-8.60529290641199e-06   1.3534591431044624e-06   -9.26203993428365e-06
-1.1496175304805543e-05   1.6385612906676448e-06   -1.3733501719734611e-05
-1.1496175304805543e-05   1.6385612906676448e-06   -1.3733501719734611e-05
-1.1496175304805543e-05   1.6385612906676448e-06   -1.3733501719734611e-05
-1.1496175304805543e-05   1.6385612906676448e-06   -1.3733501719734611e-05
-5.923255507459607e-06   1.355791566210585e-06   -4.614963892165617e-06
-5.923255507459607e-06   1.355791566210585e-06   -4.614963892165617e-06
-5.923255507459607e-06   1.355791566210585e-06   -4.614963892165617e-06
-5.923255507459607e-06   1.355791566210585e-06   -4.614963892165617e-06
-5.965702794974919e-06   2.028115316206306e-06   -1.3536607162455594e-05
-5.965702794974919e-06   2.028115316206306e-06   -1.3536607162455594e-05
-5.965702794974919e-06   2.028115316206306e-06   -1.3536607162455594e-05
-5.965702794974919e-06   2.028115316206306e-06   -1.3536607162455594e-05
-1.1479741113125241e-05   1.7123445877015937e-06   -4.157080861768976e-06
-1.1479741113125241e-05   1.7123445877015937e-06   -4.157080861768976e-06
-1.1479741113125241e-05   1.7123445877015937e-06   -4.157080861768976e-06
-1.1479741113125241e-05   1.7123445877015937e-06   -4.157080861768976e-06
-8.61786899450986e-06   1.683333614001893e-06   -8.909461141907943e-06
-8.61786899450986e-06   1.683333614001893e-06   -8.909461141907943e-06
-8.61786899450986e-06   1.683333614001893e-06   -8.909461141907943e-06
-8.61786899450986e-06   1.683333614001893e-06   -8.909461141907943e-06
-1.1479741113125241e-05   2.028115316206306e-06   -1.3347144725352775e-05
-1.1479741113125241e-05   2.028115316206306e-06   -1.3347144725352775e-05
-1.1479741113125241e-05   2.028115316206306e-06   -1.3347144725352775e-05
-1.1479741113125241e-05   2.028115316206306e-06   -1.3347144725352775e-05
-5.9657027949749376e-06   1.7123445877015937e-06   -4.346543298871739e-06
-5.9657027949749376e-06   1.7123445877015937e-06   -4.346543298871739e-06
-5.9657027949749376e-06   1.7123445877015937e-06   -4.346543298871739e-06
-5.9657027949749376e-06   1.7123445877015937e-06   -4.346543298871739e-06
-6.022001540328887e-06   2.4480627678084485e-06   -1.3504942548101632e-05
-6.022001540328887e-06   2.4480627678084485e-06   -1.3504942548101632e-05
-6.022001540328887e-06   2.4480627678084485e-06   -1.3504942548101632e-05
-6.022001540328887e-06   2.4480627678084485e-06   -1.3504942548101632e-05
-1.1487907642340667e-05   2.0929072793185476e-06   -4.182005751654722e-06
-1.1487907642340667e-05   2.0929072793185476e-06   -4.182005751654722e-06
-1.1487907642340667e-05   2.0929072793185476e-06   -4.182005751654722e-06
-1.1487907642340667e-05   2.0929072793185476e-06   -4.182005751654722e-06
-8.716513351635534e-06   2.0111520366847334e-06   -8.751943090582887e-06
-8.716513351635534e-06   2.0111520366847334e-06   -8.751943090582887e-06
-8.716513351635534e-06   2.0111520366847334e-06   -8.751943090582887e-06
-8.716513351635534e-06   2.0111520366847334e-06   -8.751943090582887e-06
-5.8558314919074695e-06   -3.708348124607211e-08   -1.522327961174613e-05
-5.8558314919074695e-06   -3.708348124607211e-08   -1.522327961174613e-05
-5.8558314919074695e-06   -3.708348124607211e-08   -1.522327961174613e-05
-5.8558314919074695e-06   -3.708348124607211e-08   -1.522327961174613e-05
-3.2488279586556455e-07   5.163696079730183e-08   -5.951799519783588e-06
-3.2488279586556455e-07   5.163696079730183e-08   -5.951799519783588e-06
-3.2488279586556455e-07   5.163696079730183e-08   -5.951799519783588e-06
-3.2488279586556455e-07   5.163696079730183e-08   -5.951799519783588e-06
-3.785140746585883e-07   3.9590915591081893e-07   -1.5076827070625585e-05
-3.785140746585883e-07   3.9590915591081893e-07   -1.5076827070625585e-05
-3.785140746585883e-07   3.9590915591081893e-07   -1.5076827070625585e-05
-3.785140746585883e-07   3.9590915591081893e-07   -1.5076827070625585e-05
-5.923255507459597e-06   4.464620858960248e-07   -5.865923107281721e-06
-5.923255507459597e-06   4.464620858960248e-07   -5.865923107281721e-06
-5.923255507459597e-06   4.464620858960248e-07   -5.865923107281721e-06
-5.923255507459597e-06   4.464620858960248e-07   -5.865923107281721e-06
-3.102593765634503e-06   2.609593503535802e-07   -1.0455724368998063e-05
-3.102593765634503e-06   2.609593503535802e-07   -1.0455724368998063e-05
-3.102593765634503e-06   2.609593503535802e-07   -1.0455724368998063e-05
-3.102593765634503e-06   2.609593503535802e-07   -1.0455724368998063e-05
-5.923255507459597e-06   3.959091559108054e-07   -1.5107158828616725e-05
-5.923255507459597e-06   3.959091559108054e-07   -1.5107158828616725e-05
-5.923255507459597e-06   3.959091559108054e-07   -1.5107158828616725e-05
-5.923255507459597e-06   3.959091559108054e-07   -1.5107158828616725e-05
-3.7851407465858895e-07   4.464620858960248e-07   -5.835591349290554e-06
-3.7851407465858895e-07   4.464620858960248e-07   -5.835591349290554e-06
-3.7851407465858895e-07   4.464620858960248e-07   -5.835591349290554e-06
-3.7851407465858895e-07   4.464620858960248e-07   -5.835591349290554e-06
-4.159799630051389e-07   8.192566130195504e-07   -1.5115832261264781e-05
-4.159799630051389e-07   8.192566130195504e-07   -1.5115832261264781e-05
-4.159799630051389e-07   8.192566130195504e-07   -1.5115832261264781e-05
-4.159799630051389e-07   8.192566130195504e-07   -1.5115832261264781e-05
-5.965702794974929e-06   8.402241626258246e-07   -5.878874737745617e-06
-5.965702794974929e-06   8.402241626258246e-07   -5.878874737745617e-06
-5.965702794974929e-06   8.402241626258246e-07   -5.878874737745617e-06
-5.965702794974929e-06   8.402241626258246e-07   -5.878874737745617e-06
-3.1728907861615342e-06   6.09446832061742e-07   -1.039509502076276e-05
-3.1728907861615342e-06   6.09446832061742e-07   -1.039509502076276e-05
-3.1728907861615342e-06   6.09446832061742e-07   -1.039509502076276e-05
-3.1728907861615342e-06   6.09446832061742e-07   -1.039509502076276e-05
-5.965702794974929e-06   8.192566130195639e-07   -1.512841279102856e-05
-5.965702794974929e-06   8.192566130195639e-07   -1.512841279102856e-05
-5.965702794974929e-06   8.192566130195639e-07   -1.512841279102856e-05
-5.965702794974929e-06   8.192566130195639e-07   -1.512841279102856e-05
-4.1597996300513976e-07   8.402241626258246e-07   -5.86629420798179e-06
-4.1597996300513976e-07   8.402241626258246e-07   -5.86629420798179e-06
-4.1597996300513976e-07   8.402241626258246e-07   -5.86629420798179e-06
-4.1597996300513976e-07   8.402241626258246e-07   -5.86629420798179e-06
-4.76954792012852e-07   1.260010558982804e-06   -1.5309630650365777e-05
-4.76954792012852e-07   1.260010558982804e-06   -1.5309630650365777e-05
-4.76954792012852e-07   1.260010558982804e-06   -1.5309630650365777e-05
-4.76954792012852e-07   1.260010558982804e-06   -1.5309630650365777e-05
-6.022001540328882e-06   1.2430172165582315e-06   -6.057690064384378e-06
-6.022001540328882e-06   1.2430172165582315e-06   -6.057690064384378e-06
-6.022001540328882e-06   1.2430172165582315e-06   -6.057690064384378e-06
-6.022001540328882e-06   1.2430172165582315e-06   -6.057690064384378e-06
-3.247776758873318e-06   9.620852737186235e-07   -1.0512838867773141e-05
-3.247776758873318e-06   9.620852737186235e-07   -1.0512838867773141e-05
-3.247776758873318e-06   9.620852737186235e-07   -1.0512838867773141e-05
-3.247776758873318e-06   9.620852737186235e-07   -1.0512838867773141e-05
-3.248827958655654e-07   -1.2004528000125883e-06   -1.3593567785660133e-05
-3.248827958655654e-07   -1.2004528000125883e-06   -1.3593567785660133e-05
-3.248827958655654e-07   -1.2004528000125883e-06   -1.3593567785660133e-05
-3.248827958655654e-07   -1.2004528000125883e-06   -1.3593567785660133e-05
5.170879140066318e-06   -7.98390208785573e-07   -4.192727004370797e-06
5.170879140066318e-06   -7.98390208785573e-07   -4.192727004370797e-06
5.170879140066318e-06   -7.98390208785573e-07   -4.192727004370797e-06
5.170879140066318e-06   -7.98390208785573e-07   -4.192727004370797e-06
5.170590564669876e-06   -8.054582417792421e-07   -1.3430580948332658e-05
5.170590564669876e-06   -8.054582417792421e-07   -1.3430580948332658e-05
5.170590564669876e-06   -8.054582417792421e-07   -1.3430580948332658e-05
5.170590564669876e-06   -8.054582417792421e-07   -1.3430580948332658e-05
-3.7851407465858895e-07   -4.349079221582482e-07   -4.404403407891125e-06
-3.7851407465858895e-07   -4.349079221582482e-07   -4.404403407891125e-06
-3.7851407465858895e-07   -4.349079221582482e-07   -4.404403407891125e-06
-3.7851407465858895e-07   -4.349079221582482e-07   -4.404403407891125e-06
2.391663812948802e-06   -7.804940690858984e-07   -8.814014865746848e-06
2.391663812948802e-06   -7.804940690858984e-07   -8.814014865746848e-06
2.391663812948802e-06   -7.804940690858984e-07   -8.814014865746848e-06
2.391663812948802e-06   -7.804940690858984e-07   -8.814014865746848e-06
-3.7851407465858895e-07   -8.054582417792286e-07   -1.3652911140105222e-05
-3.7851407465858895e-07   -8.054582417792286e-07   -1.3652911140105222e-05
-3.7851407465858895e-07   -8.054582417792286e-07   -1.3652911140105222e-05
-3.7851407465858895e-07   -8.054582417792286e-07   -1.3652911140105222e-05
5.170590564669876e-06   -4.349079221582482e-07   -4.18207321611852e-06
5.170590564669876e-06   -4.349079221582482e-07   -4.18207321611852e-06
5.170590564669876e-06   -4.349079221582482e-07   -4.18207321611852e-06
5.170590564669876e-06   -4.349079221582482e-07   -4.18207321611852e-06
5.200535846765737e-06   -4.1952806962440223e-07   -1.3780769621952106e-05
5.200535846765737e-06   -4.1952806962440223e-07   -1.3780769621952106e-05
5.200535846765737e-06   -4.1952806962440223e-07   -1.3780769621952106e-05
5.200535846765737e-06   -4.1952806962440223e-07   -1.3780769621952106e-05
-4.159799630051404e-07   -7.90865028000643e-08   -4.62417487909529e-06
-4.159799630051404e-07   -7.90865028000643e-08   -4.62417487909529e-06
-4.159799630051404e-07   -7.90865028000643e-08   -4.62417487909529e-06
-4.159799630051404e-07   -7.90865028000643e-08   -4.62417487909529e-06
2.3198023657337247e-06   -4.656848896856581e-07   -8.951853061528622e-06
2.3198023657337247e-06   -4.656848896856581e-07   -8.951853061528622e-06
2.3198023657337247e-06   -4.656848896856581e-07   -8.951853061528622e-06
2.3198023657337247e-06   -4.656848896856581e-07   -8.951853061528622e-06
-4.1597996300513913e-07   -4.195280696244158e-07   -1.3985034562046648e-05
-4.1597996300513913e-07   -4.195280696244158e-07   -1.3985034562046648e-05
-4.1597996300513913e-07   -4.195280696244158e-07   -1.3985034562046648e-05
-4.1597996300513913e-07   -4.195280696244158e-07   -1.3985034562046648e-05
5.200535846765737e-06   -7.90865028000643e-08   -4.419909939000626e-06
5.200535846765737e-06   -7.90865028000643e-08   -4.419909939000626e-06
5.200535846765737e-06   -7.90865028000643e-08   -4.419909939000626e-06
5.200535846765737e-06   -7.90865028000643e-08   -4.419909939000626e-06
5.164818844872872e-06   5.658820500813904e-08   -1.418249300486786e-05
5.164818844872872e-06   5.658820500813904e-08   -1.418249300486786e-05
5.164818844872872e-06   5.658820500813904e-08   -1.418249300486786e-05
5.164818844872872e-06   5.658820500813904e-08   -1.418249300486786e-05
-4.769547920128528e-07   3.355384874524799e-07   -4.946907112858278e-06
-4.769547920128528e-07   3.355384874524799e-07   -4.946907112858278e-06
-4.769547920128528e-07   3.355384874524799e-07   -4.946907112858278e-06
-4.769547920128528e-07   3.355384874524799e-07   -4.946907112858278e-06
2.296662408598406e-06   -1.3002687817165876e-07   -9.29026322783582e-06
2.296662408598406e-06   -1.3002687817165876e-07   -9.29026322783582e-06
2.296662408598406e-06   -1.3002687817165876e-07   -9.29026322783582e-06
2.296662408598406e-06   -1.3002687817165876e-07   -9.29026322783582e-06
5.170879140066311e-06   -2.223747307802631e-06   -7.586832220353555e-06
5.170879140066311e-06   -2.223747307802631e-06   -7.586832220353555e-06
5.170879140066311e-06   -2.223747307802631e-06   -7.586832220353555e-06
5.170879140066311e-06   -2.223747307802631e-06   -7.586832220353555e-06
1.0287566734952158e-05   -1.4379669575672054e-06   1.412448647930797e-06
1.0287566734952158e-05   -1.4379669575672054e-06   1.412448647930797e-06
1.0287566734952158e-05   -1.4379669575672054e-06   1.412448647930797e-06
1.0287566734952158e-05   -1.4379669575672054e-06   1.412448647930797e-06
1.064896262726359e-05   -2.0099368985066932e-06   -8.505294330322858e-06
1.064896262726359e-05   -2.0099368985066932e-06   -8.505294330322858e-06
1.064896262726359e-05   -2.0099368985066932e-06   -8.505294330322858e-06
1.064896262726359e-05   -2.0099368985066932e-06   -8.505294330322858e-06
5.170590564669866e-06   -1.226025045378184e-06   1.5497866212291813e-07
5.170590564669866e-06   -1.226025045378184e-06   1.5497866212291813e-07
5.170590564669866e-06   -1.226025045378184e-06   1.5497866212291813e-07
5.170590564669866e-06   -1.226025045378184e-06   1.5497866212291813e-07
7.485563260880287e-06   -1.7034560203938983e-06   -3.4168505798850315e-06
7.485563260880287e-06   -1.7034560203938983e-06   -3.4168505798850315e-06
7.485563260880287e-06   -1.7034560203938983e-06   -3.4168505798850315e-06
7.485563260880287e-06   -1.7034560203938983e-06   -3.4168505798850315e-06
5.170590564669863e-06   -2.009936898506707e-06   -8.975641442199942e-06
5.170590564669863e-06   -2.009936898506707e-06   -8.975641442199942e-06
5.170590564669863e-06   -2.009936898506707e-06   -8.975641442199942e-06
5.170590564669863e-06   -2.009936898506707e-06   -8.975641442199942e-06
1.064896262726359e-05   -1.2260250453782111e-06   6.25325774000063e-07
1.064896262726359e-05   -1.2260250453782111e-06   6.25325774000063e-07
1.064896262726359e-05   -1.2260250453782111e-06   6.25325774000063e-07
1.064896262726359e-05   -1.2260250453782111e-06   6.25325774000063e-07
1.0929545252254774e-05   -1.7880480562892036e-06   -9.583797236223692e-06
1.0929545252254774e-05   -1.7880480562892036e-06   -9.583797236223692e-06
1.0929545252254774e-05   -1.7880480562892036e-06   -9.583797236223692e-06
1.0929545252254774e-05   -1.7880480562892036e-06   -9.583797236223692e-06
5.200535846765716e-06   -1.047107534113699e-06   -4.800125403806081e-07
5.200535846765716e-06   -1.047107534113699e-06   -4.800125403806081e-07
5.200535846765716e-06   -1.047107534113699e-06   -4.800125403806081e-07
5.200535846765716e-06   -1.047107534113699e-06   -4.800125403806081e-07
7.748099958029586e-06   -1.5669891101045358e-06   -4.414023780225844e-06
7.748099958029586e-06   -1.5669891101045358e-06   -4.414023780225844e-06
7.748099958029586e-06   -1.5669891101045358e-06   -4.414023780225844e-06
7.748099958029586e-06   -1.5669891101045358e-06   -4.414023780225844e-06
5.2005358467657265e-06   -1.7880480562892036e-06   -1.0028361549528996e-05
5.2005358467657265e-06   -1.7880480562892036e-06   -1.0028361549528996e-05
5.2005358467657265e-06   -1.7880480562892036e-06   -1.0028361549528996e-05
5.2005358467657265e-06   -1.7880480562892036e-06   -1.0028361549528996e-05
1.0929545252254754e-05   -1.047107534113699e-06   -3.544822707525659e-08
1.0929545252254754e-05   -1.047107534113699e-06   -3.544822707525659e-08
1.0929545252254754e-05   -1.047107534113699e-06   -3.544822707525659e-08
1.0929545252254754e-05   -1.047107534113699e-06   -3.544822707525659e-08
1.1230937223291135e-05   -1.311229355603047e-06   -1.1425325754901494e-05
1.1230937223291135e-05   -1.311229355603047e-06   -1.1425325754901494e-05
1.1230937223291135e-05   -1.311229355603047e-06   -1.1425325754901494e-05
1.1230937223291135e-05   -1.311229355603047e-06   -1.1425325754901494e-05
5.164818844872855e-06   -6.672165701374056e-07   -1.7015361288171186e-06
5.164818844872855e-06   -6.672165701374056e-07   -1.7015361288171186e-06
5.164818844872855e-06   -6.672165701374056e-07   -1.7015361288171186e-06
5.164818844872855e-06   -6.672165701374056e-07   -1.7015361288171186e-06
7.723484954572148e-06   -1.3464100424890278e-06   -5.558463561571599e-06
7.723484954572148e-06   -1.3464100424890278e-06   -5.558463561571599e-06
7.723484954572148e-06   -1.3464100424890278e-06   -5.558463561571599e-06
7.723484954572148e-06   -1.3464100424890278e-06   -5.558463561571599e-06
-1.241530550608928e-05   1.909223187908745e-06   -9.510105207633331e-06
-1.241530550608928e-05   1.909223187908745e-06   -9.510105207633331e-06
-1.241530550608928e-05   1.909223187908745e-06   -9.510105207633331e-06
-1.241530550608928e-05   1.909223187908745e-06   -9.510105207633331e-06
-8.49229547921011e-06   1.2050138331628861e-06   -3.3942807756821822e-06
-8.49229547921011e-06   1.2050138331628861e-06   -3.3942807756821822e-06
-8.49229547921011e-06   1.2050138331628861e-06   -3.3942807756821822e-06
-8.49229547921011e-06   1.2050138331628861e-06   -3.3942807756821822e-06
-8.460620176551298e-06   2.315083990708615e-06   -8.081097147365787e-06
-8.460620176551298e-06   2.315083990708615e-06   -8.081097147365787e-06
-8.460620176551298e-06   2.315083990708615e-06   -8.081097147365787e-06
-8.460620176551298e-06   2.315083990708615e-06   -8.081097147365787e-06
-1.2034715898768503e-05   1.5388013881194502e-06   -1.6585013821169528e-06
-1.2034715898768503e-05   1.5388013881194502e-06   -1.6585013821169528e-06
-1.2034715898768503e-05   1.5388013881194502e-06   -1.6585013821169528e-06
-1.2034715898768503e-05   1.5388013881194502e-06   -1.6585013821169528e-06
-9.911368398781052e-06   1.840231299144818e-06   -5.378271828711275e-06
-9.911368398781052e-06   1.840231299144818e-06   -5.378271828711275e-06
-9.911368398781052e-06   1.840231299144818e-06   -5.378271828711275e-06
-9.911368398781052e-06   1.840231299144818e-06   -5.378271828711275e-06
-1.2034715898768503e-05   2.315083990708615e-06   -7.615327585812305e-06
-1.2034715898768503e-05   2.315083990708615e-06   -7.615327585812305e-06
-1.2034715898768503e-05   2.315083990708615e-06   -7.615327585812305e-06
-1.2034715898768503e-05   2.315083990708615e-06   -7.615327585812305e-06
-8.460620176551312e-06   1.5388013881194502e-06   -2.1242709436704608e-06
-8.460620176551312e-06   1.5388013881194502e-06   -2.1242709436704608e-06
-8.460620176551312e-06   1.5388013881194502e-06   -2.1242709436704608e-06
-8.460620176551312e-06   1.5388013881194502e-06   -2.1242709436704608e-06
-8.395941479796464e-06   2.4943560166716216e-06   -7.047376139488577e-06
-8.395941479796464e-06   2.4943560166716216e-06   -7.047376139488577e-06
-8.395941479796464e-06   2.4943560166716216e-06   -7.047376139488577e-06
-8.395941479796464e-06   2.4943560166716216e-06   -7.047376139488577e-06
-1.1751846113339836e-05   1.6956607257213039e-06   -9.749845756794437e-07
-1.1751846113339836e-05   1.6956607257213039e-06   -9.749845756794437e-07
-1.1751846113339836e-05   1.6956607257213039e-06   -9.749845756794437e-07
-1.1751846113339836e-05   1.6956607257213039e-06   -9.749845756794437e-07
-9.908877215778831e-06   2.026758782560815e-06   -4.245258239051519e-06
-9.908877215778831e-06   2.026758782560815e-06   -4.245258239051519e-06
-9.908877215778831e-06   2.026758782560815e-06   -4.245258239051519e-06
-9.908877215778831e-06   2.026758782560815e-06   -4.245258239051519e-06
-1.1751846113339836e-05   2.4943560166716216e-06   -6.5681589649183996e-06
-1.1751846113339836e-05   2.4943560166716216e-06   -6.5681589649183996e-06
-1.1751846113339836e-05   2.4943560166716216e-06   -6.5681589649183996e-06
-1.1751846113339836e-05   2.4943560166716216e-06   -6.5681589649183996e-06
-8.395941479796484e-06   1.6956607257213039e-06   -1.4542017502495878e-06
-8.395941479796484e-06   1.6956607257213039e-06   -1.4542017502495878e-06
-8.395941479796484e-06   1.6956607257213039e-06   -1.4542017502495878e-06
-8.395941479796484e-06   1.6956607257213039e-06   -1.4542017502495878e-06
-8.371115608658854e-06   2.673949140689268e-06   -5.621433520669374e-06
-8.371115608658854e-06   2.673949140689268e-06   -5.621433520669374e-06
-8.371115608658854e-06   2.673949140689268e-06   -5.621433520669374e-06
-8.371115608658854e-06   2.673949140689268e-06   -5.621433520669374e-06
-1.1383630518832088e-05   1.894966538391104e-06   -1.3318577566840176e-07
-1.1383630518832088e-05   1.894966538391104e-06   -1.3318577566840176e-07
-1.1383630518832088e-05   1.894966538391104e-06   -1.3318577566840176e-07
-1.1383630518832088e-05   1.894966538391104e-06   -1.3318577566840176e-07
-9.614105452988396e-06   2.130380982190872e-06   -3.2236428850210763e-06
-9.614105452988396e-06   2.130380982190872e-06   -3.2236428850210763e-06
-9.614105452988396e-06   2.130380982190872e-06   -3.2236428850210763e-06
-9.614105452988396e-06   2.130380982190872e-06   -3.2236428850210763e-06
-8.492295479210096e-06   9.55816899484086e-07   -1.2203228958454861e-05
-8.492295479210096e-06   9.55816899484086e-07   -1.2203228958454861e-05
-8.492295479210096e-06   9.55816899484086e-07   -1.2203228958454861e-05
-8.492295479210096e-06   9.55816899484086e-07   -1.2203228958454861e-05
-4.924394346008619e-06   6.293591301481834e-07   -6.452601731387284e-06
-4.924394346008619e-06   6.293591301481834e-07   -6.452601731387284e-06
-4.924394346008619e-06   6.293591301481834e-07   -6.452601731387284e-06
-4.924394346008619e-06   6.293591301481834e-07   -6.452601731387284e-06
-4.927160481582564e-06   1.3557915662105579e-06   -1.209518274495415e-05
-4.927160481582564e-06   1.3557915662105579e-06   -1.209518274495415e-05
-4.927160481582564e-06   1.3557915662105579e-06   -1.209518274495415e-05
-4.927160481582564e-06   1.3557915662105579e-06   -1.209518274495415e-05
-8.460620176551298e-06   9.826677479352183e-07   -5.982208962374325e-06
-8.460620176551298e-06   9.826677479352183e-07   -5.982208962374325e-06
-8.460620176551298e-06   9.826677479352183e-07   -5.982208962374325e-06
-8.460620176551298e-06   9.826677479352183e-07   -5.982208962374325e-06
-6.639017488451817e-06   1.0494247109187331e-06   -9.058267620330289e-06
-6.639017488451817e-06   1.0494247109187331e-06   -9.058267620330289e-06
-6.639017488451817e-06   1.0494247109187331e-06   -9.058267620330289e-06
-6.639017488451817e-06   1.0494247109187331e-06   -9.058267620330289e-06
-8.460620176551285e-06   1.3557915662105579e-06   -1.1871308453988854e-05
-8.460620176551285e-06   1.3557915662105579e-06   -1.1871308453988854e-05
-8.460620176551285e-06   1.3557915662105579e-06   -1.1871308453988854e-05
-8.460620176551285e-06   1.3557915662105579e-06   -1.1871308453988854e-05
-4.927160481582564e-06   9.826677479352183e-07   -6.20608325333956e-06
-4.927160481582564e-06   9.826677479352183e-07   -6.20608325333956e-06
-4.927160481582564e-06   9.826677479352183e-07   -6.20608325333956e-06
-4.927160481582564e-06   9.826677479352183e-07   -6.20608325333956e-06
-4.924067674419182e-06   1.7123445877015666e-06   -1.1824438873801491e-05
-4.924067674419182e-06   1.7123445877015666e-06   -1.1824438873801491e-05
-4.924067674419182e-06   1.7123445877015666e-06   -1.1824438873801491e-05
-4.924067674419182e-06   1.7123445877015666e-06   -1.1824438873801491e-05
-8.395941479796464e-06   1.3054930844470813e-06   -5.7938716295533006e-06
-8.395941479796464e-06   1.3054930844470813e-06   -5.7938716295533006e-06
-8.395941479796464e-06   1.3054930844470813e-06   -5.7938716295533006e-06
-8.395941479796464e-06   1.3054930844470813e-06   -5.7938716295533006e-06
-6.608714609702679e-06   1.3408224054940851e-06   -8.793780672337724e-06
-6.608714609702679e-06   1.3408224054940851e-06   -8.793780672337724e-06
-6.608714609702679e-06   1.3408224054940851e-06   -8.793780672337724e-06
-6.608714609702679e-06   1.3408224054940851e-06   -8.793780672337724e-06
-8.395941479796464e-06   1.7123445877015666e-06   -1.1580327971848756e-05
-8.395941479796464e-06   1.7123445877015666e-06   -1.1580327971848756e-05
-8.395941479796464e-06   1.7123445877015666e-06   -1.1580327971848756e-05
-8.395941479796464e-06   1.7123445877015666e-06   -1.1580327971848756e-05
-4.924067674419188e-06   1.3054930844470813e-06   -6.037982531505974e-06
-4.924067674419188e-06   1.3054930844470813e-06   -6.037982531505974e-06
-4.924067674419188e-06   1.3054930844470813e-06   -6.037982531505974e-06
-4.924067674419188e-06   1.3054930844470813e-06   -6.037982531505974e-06
-4.928821690597892e-06   2.0929072793185476e-06   -1.1872564757083043e-05
-4.928821690597892e-06   2.0929072793185476e-06   -1.1872564757083043e-05
-4.928821690597892e-06   2.0929072793185476e-06   -1.1872564757083043e-05
-4.928821690597892e-06   2.0929072793185476e-06   -1.1872564757083043e-05
-8.371115608658861e-06   1.6575168336110252e-06   -5.874173959556861e-06
-8.371115608658861e-06   1.6575168336110252e-06   -5.874173959556861e-06
-8.371115608658861e-06   1.6575168336110252e-06   -5.874173959556861e-06
-8.371115608658861e-06   1.6575168336110252e-06   -5.874173959556861e-06
-6.652089718174908e-06   1.6305067596418955e-06   -8.723011065981957e-06
-6.652089718174908e-06   1.6305067596418955e-06   -8.723011065981957e-06
-6.652089718174908e-06   1.6305067596418955e-06   -8.723011065981957e-06
-6.652089718174908e-06   1.6305067596418955e-06   -8.723011065981957e-06
-4.924394346008609e-06   5.163696079730183e-08   -1.3485945815451008e-05
-4.924394346008609e-06   5.163696079730183e-08   -1.3485945815451008e-05
-4.924394346008609e-06   5.163696079730183e-08   -1.3485945815451008e-05
-4.924394346008609e-06   5.163696079730183e-08   -1.3485945815451008e-05
-1.4002166247803432e-06   1.123190459754043e-07   -7.5759070289637315e-06
-1.4002166247803432e-06   1.123190459754043e-07   -7.5759070289637315e-06
-1.4002166247803432e-06   1.123190459754043e-07   -7.5759070289637315e-06
-1.4002166247803432e-06   1.123190459754043e-07   -7.5759070289637315e-06
-1.4035064075570513e-06   4.464620858960248e-07   -1.3332652878388478e-05
-1.4035064075570513e-06   4.464620858960248e-07   -1.3332652878388478e-05
-1.4035064075570513e-06   4.464620858960248e-07   -1.3332652878388478e-05
-1.4035064075570513e-06   4.464620858960248e-07   -1.3332652878388478e-05
-4.927160481582557e-06   4.689438886989138e-07   -7.473385170027696e-06
-4.927160481582557e-06   4.689438886989138e-07   -7.473385170027696e-06
-4.927160481582557e-06   4.689438886989138e-07   -7.473385170027696e-06
-4.927160481582557e-06   4.689438886989138e-07   -7.473385170027696e-06
-3.1424749907547518e-06   3.1713978748747033e-07   -1.0356778527347163e-05
-3.1424749907547518e-06   3.1713978748747033e-07   -1.0356778527347163e-05
-3.1424749907547518e-06   3.1713978748747033e-07   -1.0356778527347163e-05
-3.1424749907547518e-06   3.1713978748747033e-07   -1.0356778527347163e-05
-4.927160481582557e-06   4.464620858960248e-07   -1.3346141960070195e-05
-4.927160481582557e-06   4.464620858960248e-07   -1.3346141960070195e-05
-4.927160481582557e-06   4.464620858960248e-07   -1.3346141960070195e-05
-4.927160481582557e-06   4.464620858960248e-07   -1.3346141960070195e-05
-1.4035064075570513e-06   4.689438886989138e-07   -7.459896088345965e-06
-1.4035064075570513e-06   4.689438886989138e-07   -7.459896088345965e-06
-1.4035064075570513e-06   4.689438886989138e-07   -7.459896088345965e-06
-1.4035064075570513e-06   4.689438886989138e-07   -7.459896088345965e-06
-1.399268951510978e-06   8.402241626258246e-07   -1.3364866305989458e-05
-1.399268951510978e-06   8.402241626258246e-07   -1.3364866305989458e-05
-1.399268951510978e-06   8.402241626258246e-07   -1.3364866305989458e-05
-1.399268951510978e-06   8.402241626258246e-07   -1.3364866305989458e-05
-4.924067674419182e-06   8.267308404355013e-07   -7.4821057744949644e-06
-4.924067674419182e-06   8.267308404355013e-07   -7.4821057744949644e-06
-4.924067674419182e-06   8.267308404355013e-07   -7.4821057744949644e-06
-4.924067674419182e-06   8.267308404355013e-07   -7.4821057744949644e-06
-3.163997067891544e-06   6.299127008414286e-07   -1.0297465901617917e-05
-3.163997067891544e-06   6.299127008414286e-07   -1.0297465901617917e-05
-3.163997067891544e-06   6.299127008414286e-07   -1.0297465901617917e-05
-3.163997067891544e-06   6.299127008414286e-07   -1.0297465901617917e-05
-4.924067674419182e-06   8.402241626258246e-07   -1.3356770312675286e-05
-4.924067674419182e-06   8.402241626258246e-07   -1.3356770312675286e-05
-4.924067674419182e-06   8.402241626258246e-07   -1.3356770312675286e-05
-4.924067674419182e-06   8.402241626258246e-07   -1.3356770312675286e-05
-1.3992689515109803e-06   8.267308404355013e-07   -7.49020176780911e-06
-1.3992689515109803e-06   8.267308404355013e-07   -7.49020176780911e-06
-1.3992689515109803e-06   8.267308404355013e-07   -7.49020176780911e-06
-1.3992689515109803e-06   8.267308404355013e-07   -7.49020176780911e-06
-1.4016822293122698e-06   1.2430172165582315e-06   -1.356650257940611e-05
-1.4016822293122698e-06   1.2430172165582315e-06   -1.356650257940611e-05
-1.4016822293122698e-06   1.2430172165582315e-06   -1.356650257940611e-05
-1.4016822293122698e-06   1.2430172165582315e-06   -1.356650257940611e-05
-4.928821690597888e-06   1.1907725454126587e-06   -7.656590007909333e-06
-4.928821690597888e-06   1.1907725454126587e-06   -7.656590007909333e-06
-4.928821690597888e-06   1.1907725454126587e-06   -7.656590007909333e-06
-4.928821690597888e-06   1.1907725454126587e-06   -7.656590007909333e-06
-3.1916609590720315e-06   9.468049317783362e-07   -1.0405477325605182e-05
-3.1916609590720315e-06   9.468049317783362e-07   -1.0405477325605182e-05
-3.1916609590720315e-06   9.468049317783362e-07   -1.0405477325605182e-05
-3.1916609590720315e-06   9.468049317783362e-07   -1.0405477325605182e-05
-1.4002166247803407e-06   -7.98390208785573e-07   -1.193170160366757e-05
-1.4002166247803407e-06   -7.98390208785573e-07   -1.193170160366757e-05
-1.4002166247803407e-06   -7.98390208785573e-07   -1.193170160366757e-05
-1.4002166247803407e-06   -7.98390208785573e-07   -1.193170160366757e-05
2.0636145607455723e-06   -3.5942478804218566e-07   -5.8952703753450345e-06
2.0636145607455723e-06   -3.5942478804218566e-07   -5.8952703753450345e-06
2.0636145607455723e-06   -3.5942478804218566e-07   -5.8952703753450345e-06
2.0636145607455723e-06   -3.5942478804218566e-07   -5.8952703753450345e-06
2.0915713284292998e-06   -4.349079221582482e-07   -1.1653783793126653e-05
2.0915713284292998e-06   -4.349079221582482e-07   -1.1653783793126653e-05
2.0915713284292998e-06   -4.349079221582482e-07   -1.1653783793126653e-05
2.0915713284292998e-06   -4.349079221582482e-07   -1.1653783793126653e-05
-1.4035064075570513e-06   -2.2106015720989866e-08   -6.0763353770117505e-06
-1.4035064075570513e-06   -2.2106015720989866e-08   -6.0763353770117505e-06
-1.4035064075570513e-06   -2.2106015720989866e-08   -6.0763353770117505e-06
-1.4035064075570513e-06   -2.2106015720989866e-08   -6.0763353770117505e-06
3.4115863206942227e-07   -3.724988907015121e-07   -8.773874718067556e-06
3.4115863206942227e-07   -3.724988907015121e-07   -8.773874718067556e-06
3.4115863206942227e-07   -3.724988907015121e-07   -8.773874718067556e-06
3.4115863206942227e-07   -3.724988907015121e-07   -8.773874718067556e-06
-1.4035064075570513e-06   -4.349079221582482e-07   -1.1901464936988994e-05
-1.4035064075570513e-06   -4.349079221582482e-07   -1.1901464936988994e-05
-1.4035064075570513e-06   -4.349079221582482e-07   -1.1901464936988994e-05
-1.4035064075570513e-06   -4.349079221582482e-07   -1.1901464936988994e-05
2.0915713284293066e-06   -2.2106015720989866e-08   -5.828654233149412e-06
2.0915713284293066e-06   -2.2106015720989866e-08   -5.828654233149412e-06
2.0915713284293066e-06   -2.2106015720989866e-08   -5.828654233149412e-06
2.0915713284293066e-06   -2.2106015720989866e-08   -5.828654233149412e-06
2.1597401878874407e-06   -7.90865028000372e-08   -1.1894636182299134e-05
2.1597401878874407e-06   -7.90865028000372e-08   -1.1894636182299134e-05
2.1597401878874407e-06   -7.90865028000372e-08   -1.1894636182299134e-05
2.1597401878874407e-06   -7.90865028000372e-08   -1.1894636182299134e-05
-1.3992689515109803e-06   3.010981552062353e-07   -6.191065078105528e-06
-1.3992689515109803e-06   3.010981552062353e-07   -6.191065078105528e-06
-1.3992689515109803e-06   3.010981552062353e-07   -6.191065078105528e-06
-1.3992689515109803e-06   3.010981552062353e-07   -6.191065078105528e-06
3.20613955066558e-07   -9.157620829691997e-08   -8.821931970966196e-06
3.20613955066558e-07   -9.157620829691997e-08   -8.821931970966196e-06
3.20613955066558e-07   -9.157620829691997e-08   -8.821931970966196e-06
3.20613955066558e-07   -9.157620829691997e-08   -8.821931970966196e-06
-1.3992689515109792e-06   -7.90865028000372e-08   -1.2122746977102857e-05
-1.3992689515109792e-06   -7.90865028000372e-08   -1.2122746977102857e-05
-1.3992689515109792e-06   -7.90865028000372e-08   -1.2122746977102857e-05
-1.3992689515109792e-06   -7.90865028000372e-08   -1.2122746977102857e-05
2.1597401878874475e-06   3.010981552062082e-07   -5.962954283301748e-06
2.1597401878874475e-06   3.010981552062082e-07   -5.962954283301748e-06
2.1597401878874475e-06   3.010981552062082e-07   -5.962954283301748e-06
2.1597401878874475e-06   3.010981552062082e-07   -5.962954283301748e-06
2.1936831286054825e-06   3.355384874524528e-07   -1.2244803811040854e-05
2.1936831286054825e-06   3.355384874524528e-07   -1.2244803811040854e-05
2.1936831286054825e-06   3.355384874524528e-07   -1.2244803811040854e-05
2.1936831286054825e-06   3.355384874524528e-07   -1.2244803811040854e-05
-1.4016822293122672e-06   6.700715064264094e-07   -6.453248025895598e-06
-1.4016822293122672e-06   6.700715064264094e-07   -6.453248025895598e-06
-1.4016822293122672e-06   6.700715064264094e-07   -6.453248025895598e-06
-1.4016822293122672e-06   6.700715064264094e-07   -6.453248025895598e-06
3.320789697692173e-07   2.0742340509462883e-07   -9.06526116356567e-06
3.320789697692173e-07   2.0742340509462883e-07   -9.06526116356567e-06
3.320789697692173e-07   2.0742340509462883e-07   -9.06526116356567e-06
3.320789697692173e-07   2.0742340509462883e-07   -9.06526116356567e-06
2.0636145607455723e-06   -1.4379669575672054e-06   -6.534614909061212e-06
2.0636145607455723e-06   -1.4379669575672054e-06   -6.534614909061212e-06
2.0636145607455723e-06   -1.4379669575672054e-06   -6.534614909061212e-06
2.0636145607455723e-06   -1.4379669575672054e-06   -6.534614909061212e-06
5.106011997126425e-06   -6.523783747506326e-07   -9.925993654031544e-07
5.106011997126425e-06   -6.523783747506326e-07   -9.925993654031544e-07
5.106011997126425e-06   -6.523783747506326e-07   -9.925993654031544e-07
5.106011997126425e-06   -6.523783747506326e-07   -9.925993654031544e-07
5.479480572563026e-06   -1.226025045378184e-06   -6.834362757568554e-06
5.479480572563026e-06   -1.226025045378184e-06   -6.834362757568554e-06
5.479480572563026e-06   -1.226025045378184e-06   -6.834362757568554e-06
5.479480572563026e-06   -1.226025045378184e-06   -6.834362757568554e-06
2.091571328429303e-06   -4.220764498504145e-07   -1.6702165079956842e-06
2.091571328429303e-06   -4.220764498504145e-07   -1.6702165079956842e-06
2.091571328429303e-06   -4.220764498504145e-07   -1.6702165079956842e-06
2.091571328429303e-06   -4.220764498504145e-07   -1.6702165079956842e-06
3.5280321777235653e-06   -9.053542393101051e-07   -3.774351249810299e-06
3.5280321777235653e-06   -9.053542393101051e-07   -3.774351249810299e-06
3.5280321777235653e-06   -9.053542393101051e-07   -3.774351249810299e-06
3.5280321777235653e-06   -9.053542393101051e-07   -3.774351249810299e-06
2.091571328429303e-06   -1.226025045378184e-06   -7.316731914885167e-06
2.091571328429303e-06   -1.226025045378184e-06   -7.316731914885167e-06
2.091571328429303e-06   -1.226025045378184e-06   -7.316731914885167e-06
2.091571328429303e-06   -1.226025045378184e-06   -7.316731914885167e-06
5.479480572562999e-06   -4.220764498504416e-07   -1.1878473506790306e-06
5.479480572562999e-06   -4.220764498504416e-07   -1.1878473506790306e-06
5.479480572562999e-06   -4.220764498504416e-07   -1.1878473506790306e-06
5.479480572562999e-06   -4.220764498504416e-07   -1.1878473506790306e-06
5.768420609145694e-06   -1.047107534113699e-06   -7.485302091785798e-06
5.768420609145694e-06   -1.047107534113699e-06   -7.485302091785798e-06
5.768420609145694e-06   -1.047107534113699e-06   -7.485302091785798e-06
5.768420609145694e-06   -1.047107534113699e-06   -7.485302091785798e-06
2.1597401878874475e-06   -2.6471304762486106e-07   -1.940271414915362e-06
2.1597401878874475e-06   -2.6471304762486106e-07   -1.940271414915362e-06
2.1597401878874475e-06   -2.6471304762486106e-07   -1.940271414915362e-06
2.1597401878874475e-06   -2.6471304762486106e-07   -1.940271414915362e-06
3.75334668980241e-06   -7.863489955379154e-07   -4.283300682692428e-06
3.75334668980241e-06   -7.863489955379154e-07   -4.283300682692428e-06
3.75334668980241e-06   -7.863489955379154e-07   -4.283300682692428e-06
3.75334668980241e-06   -7.863489955379154e-07   -4.283300682692428e-06
2.159740187887444e-06   -1.047107534113699e-06   -7.954738783679088e-06
2.159740187887444e-06   -1.047107534113699e-06   -7.954738783679088e-06
2.159740187887444e-06   -1.047107534113699e-06   -7.954738783679088e-06
2.159740187887444e-06   -1.047107534113699e-06   -7.954738783679088e-06
5.768420609145674e-06   -2.6471304762483395e-07   -1.4708347230220104e-06
5.768420609145674e-06   -2.6471304762483395e-07   -1.4708347230220104e-06
5.768420609145674e-06   -2.6471304762483395e-07   -1.4708347230220104e-06
5.768420609145674e-06   -2.6471304762483395e-07   -1.4708347230220104e-06
6.154496806854616e-06   -6.672165701374327e-07   -8.741541982789435e-06
6.154496806854616e-06   -6.672165701374327e-07   -8.741541982789435e-06
6.154496806854616e-06   -6.672165701374327e-07   -8.741541982789435e-06
6.154496806854616e-06   -6.672165701374327e-07   -8.741541982789435e-06
2.193683128605486e-06   4.155178599070039e-08   -2.5654468660510663e-06
2.193683128605486e-06   4.155178599070039e-08   -2.5654468660510663e-06
2.193683128605486e-06   4.155178599070039e-08   -2.5654468660510663e-06
2.193683128605486e-06   4.155178599070039e-08   -2.5654468660510663e-06
3.833421403379357e-06   -6.136727902962416e-07   -4.9052092449020665e-06
3.833421403379357e-06   -6.136727902962416e-07   -4.9052092449020665e-06
3.833421403379357e-06   -6.136727902962416e-07   -4.9052092449020665e-06
3.833421403379357e-06   -6.136727902962416e-07   -4.9052092449020665e-06
-7.427146676044e-06   1.2050138331629132e-06   -7.019298936624134e-06
-7.427146676044e-06   1.2050138331629132e-06   -7.019298936624134e-06
-7.427146676044e-06   1.2050138331629132e-06   -7.019298936624134e-06
-7.427146676044e-06   1.2050138331629132e-06   -7.019298936624134e-06
-5.536007438152459e-06   4.822809664571854e-07   -4.3010399268283484e-06
-5.536007438152459e-06   4.822809664571854e-07   -4.3010399268283484e-06
-5.536007438152459e-06   4.822809664571854e-07   -4.3010399268283484e-06
-5.536007438152459e-06   4.822809664571854e-07   -4.3010399268283484e-06
-5.45746712429954e-06   1.5388013881194502e-06   -6.192625580305519e-06
-5.45746712429954e-06   1.5388013881194502e-06   -6.192625580305519e-06
-5.45746712429954e-06   1.5388013881194502e-06   -6.192625580305519e-06
-5.45746712429954e-06   1.5388013881194502e-06   -6.192625580305519e-06
-7.017166827985146e-06   7.581680204098227e-07   -3.124746053537002e-06
-7.017166827985146e-06   7.581680204098227e-07   -3.124746053537002e-06
-7.017166827985146e-06   7.581680204098227e-07   -3.124746053537002e-06
-7.017166827985146e-06   7.581680204098227e-07   -3.124746053537002e-06
-6.090169609963533e-06   1.0826429347724387e-06   -4.864426365524253e-06
-6.090169609963533e-06   1.0826429347724387e-06   -4.864426365524253e-06
-6.090169609963533e-06   1.0826429347724387e-06   -4.864426365524253e-06
-6.090169609963533e-06   1.0826429347724387e-06   -4.864426365524253e-06
-7.017166827985146e-06   1.5388013881194502e-06   -5.724245559679742e-06
-7.017166827985146e-06   1.5388013881194502e-06   -5.724245559679742e-06
-7.017166827985146e-06   1.5388013881194502e-06   -5.724245559679742e-06
-7.017166827985146e-06   1.5388013881194502e-06   -5.724245559679742e-06
-5.457467124299547e-06   7.581680204098227e-07   -3.593126074162846e-06
-5.457467124299547e-06   7.581680204098227e-07   -3.593126074162846e-06
-5.457467124299547e-06   7.581680204098227e-07   -3.593126074162846e-06
-5.457467124299547e-06   7.581680204098227e-07   -3.593126074162846e-06
-5.344485921930557e-06   1.6956607257212768e-06   -5.528462829568106e-06
-5.344485921930557e-06   1.6956607257212768e-06   -5.528462829568106e-06
-5.344485921930557e-06   1.6956607257212768e-06   -5.528462829568106e-06
-5.344485921930557e-06   1.6956607257212768e-06   -5.528462829568106e-06
-6.692725575247301e-06   8.991837696945633e-07   -2.8035105670907827e-06
-6.692725575247301e-06   8.991837696945633e-07   -2.8035105670907827e-06
-6.692725575247301e-06   8.991837696945633e-07   -2.8035105670907827e-06
-6.692725575247301e-06   8.991837696945633e-07   -2.8035105670907827e-06
-5.983470445791098e-06   1.2321724176613024e-06   -4.185395638297868e-06
-5.983470445791098e-06   1.2321724176613024e-06   -4.185395638297868e-06
-5.983470445791098e-06   1.2321724176613024e-06   -4.185395638297868e-06
-5.983470445791098e-06   1.2321724176613024e-06   -4.185395638297868e-06
-6.6927255752472875e-06   1.6956607257212768e-06   -5.050576655952062e-06
-6.6927255752472875e-06   1.6956607257212768e-06   -5.050576655952062e-06
-6.6927255752472875e-06   1.6956607257212768e-06   -5.050576655952062e-06
-6.6927255752472875e-06   1.6956607257212768e-06   -5.050576655952062e-06
-5.344485921930563e-06   8.991837696945633e-07   -3.2813967407068474e-06
-5.344485921930563e-06   8.991837696945633e-07   -3.2813967407068474e-06
-5.344485921930563e-06   8.991837696945633e-07   -3.2813967407068474e-06
-5.344485921930563e-06   8.991837696945633e-07   -3.2813967407068474e-06
-5.269835886173754e-06   1.894966538391104e-06   -4.679938827944206e-06
-5.269835886173754e-06   1.894966538391104e-06   -4.679938827944206e-06
-5.269835886173754e-06   1.894966538391104e-06   -4.679938827944206e-06
-5.269835886173754e-06   1.894966538391104e-06   -4.679938827944206e-06
-6.280227011307038e-06   1.1233577073241656e-06   -2.532988320748424e-06
-6.280227011307038e-06   1.1233577073241656e-06   -2.532988320748424e-06
-6.280227011307038e-06   1.1233577073241656e-06   -2.532988320748424e-06
-6.280227011307038e-06   1.1233577073241656e-06   -2.532988320748424e-06
-5.705600184384651e-06   1.3383991933797203e-06   -3.619724590585917e-06
-5.705600184384651e-06   1.3383991933797203e-06   -3.619724590585917e-06
-5.705600184384651e-06   1.3383991933797203e-06   -3.619724590585917e-06
-5.705600184384651e-06   1.3383991933797203e-06   -3.619724590585917e-06
-5.536007438152459e-06   6.293591301481834e-07   -1.0315384950751097e-05
-5.536007438152459e-06   6.293591301481834e-07   -1.0315384950751097e-05
-5.536007438152459e-06   6.293591301481834e-07   -1.0315384950751097e-05
-5.536007438152459e-06   6.293591301481834e-07   -1.0315384950751097e-05
-3.993058550957106e-06   2.856466006880736e-07   -7.950030989768264e-06
-3.993058550957106e-06   2.856466006880736e-07   -7.950030989768264e-06
-3.993058550957106e-06   2.856466006880736e-07   -7.950030989768264e-06
-3.993058550957106e-06   2.856466006880736e-07   -7.950030989768264e-06
-3.943620045177639e-06   9.826677479352183e-07   -1.0278435538596222e-05
-3.943620045177639e-06   9.826677479352183e-07   -1.0278435538596222e-05
-3.943620045177639e-06   9.826677479352183e-07   -1.0278435538596222e-05
-3.943620045177639e-06   9.826677479352183e-07   -1.0278435538596222e-05
-5.457467124299547e-06   6.028811819572006e-07   -7.527485133806185e-06
-5.457467124299547e-06   6.028811819572006e-07   -7.527485133806185e-06
-5.457467124299547e-06   6.028811819572006e-07   -7.527485133806185e-06
-5.457467124299547e-06   6.028811819572006e-07   -7.527485133806185e-06
-4.686323968836906e-06   6.882219135367993e-07   -8.863928165191948e-06
-4.686323968836906e-06   6.882219135367993e-07   -8.863928165191948e-06
-4.686323968836906e-06   6.882219135367993e-07   -8.863928165191948e-06
-4.686323968836906e-06   6.882219135367993e-07   -8.863928165191948e-06
-5.457467124299533e-06   9.826677479352183e-07   -1.0050563599009368e-05
-5.457467124299533e-06   9.826677479352183e-07   -1.0050563599009368e-05
-5.457467124299533e-06   9.826677479352183e-07   -1.0050563599009368e-05
-5.457467124299533e-06   9.826677479352183e-07   -1.0050563599009368e-05
-3.943620045177639e-06   6.028811819572006e-07   -7.755357073392999e-06
-3.943620045177639e-06   6.028811819572006e-07   -7.755357073392999e-06
-3.943620045177639e-06   6.028811819572006e-07   -7.755357073392999e-06
-3.943620045177639e-06   6.028811819572006e-07   -7.755357073392999e-06
-3.8887481006613414e-06   1.3054930844470813e-06   -1.0111894633256486e-05
-3.8887481006613414e-06   1.3054930844470813e-06   -1.0111894633256486e-05
-3.8887481006613414e-06   1.3054930844470813e-06   -1.0111894633256486e-05
-3.8887481006613414e-06   1.3054930844470813e-06   -1.0111894633256486e-05
-5.34448592193057e-06   8.992232104726265e-07   -7.4419030067563775e-06
-5.34448592193057e-06   8.992232104726265e-07   -7.4419030067563775e-06
-5.34448592193057e-06   8.992232104726265e-07   -7.4419030067563775e-06
-5.34448592193057e-06   8.992232104726265e-07   -7.4419030067563775e-06
-4.620271241493616e-06   9.462035237996886e-07   -8.67711566214746e-06
-4.620271241493616e-06   9.462035237996886e-07   -8.67711566214746e-06
-4.620271241493616e-06   9.462035237996886e-07   -8.67711566214746e-06
-4.620271241493616e-06   9.462035237996886e-07   -8.67711566214746e-06
-5.344485921930557e-06   1.3054930844470813e-06   -9.868132708871786e-06
-5.344485921930557e-06   1.3054930844470813e-06   -9.868132708871786e-06
-5.344485921930557e-06   1.3054930844470813e-06   -9.868132708871786e-06
-5.344485921930557e-06   1.3054930844470813e-06   -9.868132708871786e-06
-3.888748100661331e-06   8.992232104726265e-07   -7.685664931141037e-06
-3.888748100661331e-06   8.992232104726265e-07   -7.685664931141037e-06
-3.888748100661331e-06   8.992232104726265e-07   -7.685664931141037e-06
-3.888748100661331e-06   8.992232104726265e-07   -7.685664931141037e-06
-3.840723672050487e-06   1.6575168336110252e-06   -1.0210140563525092e-05
-3.840723672050487e-06   1.6575168336110252e-06   -1.0210140563525092e-05
-3.840723672050487e-06   1.6575168336110252e-06   -1.0210140563525092e-05
-3.840723672050487e-06   1.6575168336110252e-06   -1.0210140563525092e-05
-5.269835886173761e-06   1.229844978492176e-06   -7.571683760248236e-06
-5.269835886173761e-06   1.229844978492176e-06   -7.571683760248236e-06
-5.269835886173761e-06   1.229844978492176e-06   -7.571683760248236e-06
-5.269835886173761e-06   1.229844978492176e-06   -7.571683760248236e-06
-4.597102873626417e-06   1.2089930708064612e-06   -8.680394303215843e-06
-4.597102873626417e-06   1.2089930708064612e-06   -8.680394303215843e-06
-4.597102873626417e-06   1.2089930708064612e-06   -8.680394303215843e-06
-4.597102873626417e-06   1.2089930708064612e-06   -8.680394303215843e-06
-3.993058550957089e-06   1.123190459754043e-07   -1.1681327017110479e-05
-3.993058550957089e-06   1.123190459754043e-07   -1.1681327017110479e-05
-3.993058550957089e-06   1.123190459754043e-07   -1.1681327017110479e-05
-3.993058550957089e-06   1.123190459754043e-07   -1.1681327017110479e-05
-2.4841069164196686e-06   1.6951859841633082e-07   -9.132087894750255e-06
-2.4841069164196686e-06   1.6951859841633082e-07   -9.132087894750255e-06
-2.4841069164196686e-06   1.6951859841633082e-07   -9.132087894750255e-06
-2.4841069164196686e-06   1.6951859841633082e-07   -9.132087894750255e-06
-2.436400947168289e-06   4.689438886989138e-07   -1.1530608699365156e-05
-2.436400947168289e-06   4.689438886989138e-07   -1.1530608699365156e-05
-2.436400947168289e-06   4.689438886989138e-07   -1.1530608699365156e-05
-2.436400947168289e-06   4.689438886989138e-07   -1.1530608699365156e-05
-3.943620045177639e-06   4.941584818976617e-07   -9.033705625268712e-06
-3.943620045177639e-06   4.941584818976617e-07   -9.033705625268712e-06
-3.943620045177639e-06   4.941584818976617e-07   -9.033705625268712e-06
-3.943620045177639e-06   4.941584818976617e-07   -9.033705625268712e-06
-3.1935161866360024e-06   3.5730350316171347e-07   -1.0201765735596776e-05
-3.1935161866360024e-06   3.5730350316171347e-07   -1.0201765735596776e-05
-3.1935161866360024e-06   3.5730350316171347e-07   -1.0201765735596776e-05
-3.1935161866360024e-06   3.5730350316171347e-07   -1.0201765735596776e-05
-3.943620045177636e-06   4.689438886988867e-07   -1.1545737455284351e-05
-3.943620045177636e-06   4.689438886988867e-07   -1.1545737455284351e-05
-3.943620045177636e-06   4.689438886988867e-07   -1.1545737455284351e-05
-3.943620045177636e-06   4.689438886988867e-07   -1.1545737455284351e-05
-2.436400947168289e-06   4.941584818976075e-07   -9.018576869349531e-06
-2.436400947168289e-06   4.941584818976075e-07   -9.018576869349531e-06
-2.436400947168289e-06   4.941584818976075e-07   -9.018576869349531e-06
-2.436400947168289e-06   4.941584818976075e-07   -9.018576869349531e-06
-2.3818645348209552e-06   8.267308404355284e-07   -1.1559112998853454e-05
-2.3818645348209552e-06   8.267308404355284e-07   -1.1559112998853454e-05
-2.3818645348209552e-06   8.267308404355284e-07   -1.1559112998853454e-05
-2.3818645348209552e-06   8.267308404355284e-07   -1.1559112998853454e-05
-3.888748100661331e-06   8.215723027554496e-07   -9.044545266511423e-06
-3.888748100661331e-06   8.215723027554496e-07   -9.044545266511423e-06
-3.888748100661331e-06   8.215723027554496e-07   -9.044545266511423e-06
-3.888748100661331e-06   8.215723027554496e-07   -9.044545266511423e-06
-3.1629523169027244e-06   6.372744863246751e-07   -1.0143626216250676e-05
-3.1629523169027244e-06   6.372744863246751e-07   -1.0143626216250676e-05
-3.1629523169027244e-06   6.372744863246751e-07   -1.0143626216250676e-05
-3.1629523169027244e-06   6.372744863246751e-07   -1.0143626216250676e-05
-3.888748100661328e-06   8.267308404355284e-07   -1.1556017876245374e-05
-3.888748100661328e-06   8.267308404355284e-07   -1.1556017876245374e-05
-3.888748100661328e-06   8.267308404355284e-07   -1.1556017876245374e-05
-3.888748100661328e-06   8.267308404355284e-07   -1.1556017876245374e-05
-2.3818645348209595e-06   8.215723027555038e-07   -9.047640389119483e-06
-2.3818645348209595e-06   8.215723027555038e-07   -9.047640389119483e-06
-2.3818645348209595e-06   8.215723027555038e-07   -9.047640389119483e-06
-2.3818645348209595e-06   8.215723027555038e-07   -9.047640389119483e-06
-2.33311665010314e-06   1.1907725454126587e-06   -1.1753380727589518e-05
-2.33311665010314e-06   1.1907725454126587e-06   -1.1753380727589518e-05
-2.33311665010314e-06   1.1907725454126587e-06   -1.1753380727589518e-05
-2.33311665010314e-06   1.1907725454126587e-06   -1.1753380727589518e-05
-3.840723672050491e-06   1.1540085735185323e-06   -9.218643974540711e-06
-3.840723672050491e-06   1.1540085735185323e-06   -9.218643974540711e-06
-3.840723672050491e-06   1.1540085735185323e-06   -9.218643974540711e-06
-3.840723672050491e-06   1.1540085735185323e-06   -9.218643974540711e-06
-3.138548013399831e-06   9.209927557416657e-07   -1.0249127248292486e-05
-3.138548013399831e-06   9.209927557416657e-07   -1.0249127248292486e-05
-3.138548013399831e-06   9.209927557416657e-07   -1.0249127248292486e-05
-3.138548013399831e-06   9.209927557416657e-07   -1.0249127248292486e-05
-2.48410691641966e-06   -3.5942478804221276e-07   -1.0229749884473256e-05
-2.48410691641966e-06   -3.5942478804221276e-07   -1.0229749884473256e-05
-2.48410691641966e-06   -3.5942478804221276e-07   -1.0229749884473256e-05
-2.48410691641966e-06   -3.5942478804221276e-07   -1.0229749884473256e-05
-1.0312955533687228e-06   8.290475783759603e-08   -7.542999885193851e-06
-1.0312955533687228e-06   8.290475783759603e-08   -7.542999885193851e-06
-1.0312955533687228e-06   8.290475783759603e-08   -7.542999885193851e-06
-1.0312955533687228e-06   8.290475783759603e-08   -7.542999885193851e-06
-9.579449875252777e-07   -2.2106015720989866e-08   -9.894651314819715e-06
-9.579449875252777e-07   -2.2106015720989866e-08   -9.894651314819715e-06
-9.579449875252777e-07   -2.2106015720989866e-08   -9.894651314819715e-06
-9.579449875252777e-07   -2.2106015720989866e-08   -9.894651314819715e-06
-2.4364009471682845e-06   3.9855510629771204e-07   -7.682954721959176e-06
-2.4364009471682845e-06   3.9855510629771204e-07   -7.682954721959176e-06
-2.4364009471682845e-06   3.9855510629771204e-07   -7.682954721959176e-06
-2.4364009471682845e-06   3.9855510629771204e-07   -7.682954721959176e-06
-1.7099213964973092e-06   5.7637418731759475e-08   -8.689203360538123e-06
-1.7099213964973092e-06   5.7637418731759475e-08   -8.689203360538123e-06
-1.7099213964973092e-06   5.7637418731759475e-08   -8.689203360538123e-06
-1.7099213964973092e-06   5.7637418731759475e-08   -8.689203360538123e-06
-2.4364009471682807e-06   -2.210601572096276e-08   -1.0147047988030876e-05
-2.4364009471682807e-06   -2.210601572096276e-08   -1.0147047988030876e-05
-2.4364009471682807e-06   -2.210601572096276e-08   -1.0147047988030876e-05
-2.4364009471682807e-06   -2.210601572096276e-08   -1.0147047988030876e-05
-9.579449875252777e-07   3.9855510629771204e-07   -7.430558048748028e-06
-9.579449875252777e-07   3.9855510629771204e-07   -7.430558048748028e-06
-9.579449875252777e-07   3.9855510629771204e-07   -7.430558048748028e-06
-9.579449875252777e-07   3.9855510629771204e-07   -7.430558048748028e-06
-8.456770754003266e-07   3.010981552062082e-07   -1.0023733864263177e-05
-8.456770754003266e-07   3.010981552062082e-07   -1.0023733864263177e-05
-8.456770754003266e-07   3.010981552062082e-07   -1.0023733864263177e-05
-8.456770754003266e-07   3.010981552062082e-07   -1.0023733864263177e-05
-2.3818645348209552e-06   6.94835563350637e-07   -7.699663876782105e-06
-2.3818645348209552e-06   6.94835563350637e-07   -7.699663876782105e-06
-2.3818645348209552e-06   6.94835563350637e-07   -7.699663876782105e-06
-2.3818645348209552e-06   6.94835563350637e-07   -7.699663876782105e-06
-1.666576244676911e-06   3.131945989729443e-07   -8.662826448395592e-06
-1.666576244676911e-06   3.131945989729443e-07   -8.662826448395592e-06
-1.666576244676911e-06   3.131945989729443e-07   -8.662826448395592e-06
-1.666576244676911e-06   3.131945989729443e-07   -8.662826448395592e-06
-2.3818645348209493e-06   3.010981552062082e-07   -1.0259976309149774e-05
-2.3818645348209493e-06   3.010981552062082e-07   -1.0259976309149774e-05
-2.3818645348209493e-06   3.010981552062082e-07   -1.0259976309149774e-05
-2.3818645348209493e-06   3.010981552062082e-07   -1.0259976309149774e-05
-8.4567707540033e-07   6.948355633505827e-07   -7.463421431895491e-06
-8.4567707540033e-07   6.948355633505827e-07   -7.463421431895491e-06
-8.4567707540033e-07   6.948355633505827e-07   -7.463421431895491e-06
-8.4567707540033e-07   6.948355633505827e-07   -7.463421431895491e-06
-7.678626617675286e-07   6.700715064263823e-07   -1.0303721297357237e-05
-7.678626617675286e-07   6.700715064263823e-07   -1.0303721297357237e-05
-7.678626617675286e-07   6.700715064263823e-07   -1.0303721297357237e-05
-7.678626617675286e-07   6.700715064263823e-07   -1.0303721297357237e-05
-2.33311665010314e-06   1.0283559156450237e-06   -7.909935295662369e-06
-2.33311665010314e-06   1.0283559156450237e-06   -7.909935295662369e-06
-2.33311665010314e-06   1.0283559156450237e-06   -7.909935295662369e-06
-2.33311665010314e-06   1.0283559156450237e-06   -7.909935295662369e-06
-1.6218136078126146e-06   5.795473670832546e-07   -8.82615523700954e-06
-1.6218136078126146e-06   5.795473670832546e-07   -8.82615523700954e-06
-1.6218136078126146e-06   5.795473670832546e-07   -8.82615523700954e-06
-1.6218136078126146e-06   5.795473670832546e-07   -8.82615523700954e-06
-1.0312955533687228e-06   -6.523783747506054e-07   -5.533034296693472e-06
-1.0312955533687228e-06   -6.523783747506054e-07   -5.533034296693472e-06
-1.0312955533687228e-06   -6.523783747506054e-07   -5.533034296693472e-06
-1.0312955533687228e-06   -6.523783747506054e-07   -5.533034296693472e-06
2.568580042400497e-10   1.2663316052859662e-07   -3.34637335657102e-06
2.568580042400497e-10   1.2663316052859662e-07   -3.34637335657102e-06
2.568580042400497e-10   1.2663316052859662e-07   -3.34637335657102e-06
2.568580042400497e-10   1.2663316052859662e-07   -3.34637335657102e-06
4.091039789559206e-07   -4.220764498504145e-07   -5.2564108436728896e-06
4.091039789559206e-07   -4.220764498504145e-07   -5.2564108436728896e-06
4.091039789559206e-07   -4.220764498504145e-07   -5.2564108436728896e-06
4.091039789559206e-07   -4.220764498504145e-07   -5.2564108436728896e-06
-9.579449875252777e-07   3.7759479347144716e-07   -3.4577986455306062e-06
-9.579449875252777e-07   3.7759479347144716e-07   -3.4577986455306062e-06
-9.579449875252777e-07   3.7759479347144716e-07   -3.4577986455306062e-06
-9.579449875252777e-07   3.7759479347144716e-07   -3.4577986455306062e-06
-3.8185527226070494e-07   -1.1015374296605498e-07   -4.1252990491091575e-06
-3.8185527226070494e-07   -1.1015374296605498e-07   -4.1252990491091575e-06
-3.8185527226070494e-07   -1.1015374296605498e-07   -4.1252990491091575e-06
-3.8185527226070494e-07   -1.1015374296605498e-07   -4.1252990491091575e-06
-9.579449875252744e-07   -4.220764498504416e-07   -5.736213589665974e-06
-9.579449875252744e-07   -4.220764498504416e-07   -5.736213589665974e-06
-9.579449875252744e-07   -4.220764498504416e-07   -5.736213589665974e-06
-9.579449875252744e-07   -4.220764498504416e-07   -5.736213589665974e-06
4.0910397895592735e-07   3.7759479347150137e-07   -2.9779958995374608e-06
4.0910397895592735e-07   3.7759479347150137e-07   -2.9779958995374608e-06
4.0910397895592735e-07   3.7759479347150137e-07   -2.9779958995374608e-06
4.0910397895592735e-07   3.7759479347150137e-07   -2.9779958995374608e-06
7.324329386927821e-07   -2.6471304762483395e-07   -5.531439959188586e-06
7.324329386927821e-07   -2.6471304762483395e-07   -5.531439959188586e-06
7.324329386927821e-07   -2.6471304762483395e-07   -5.531439959188586e-06
7.324329386927821e-07   -2.6471304762483395e-07   -5.531439959188586e-06
-8.4567707540033e-07   5.179720135221975e-07   -3.3708676390548914e-06
-8.4567707540033e-07   5.179720135221975e-07   -3.3708676390548914e-06
-8.4567707540033e-07   5.179720135221975e-07   -3.3708676390548914e-06
-8.4567707540033e-07   5.179720135221975e-07   -3.3708676390548914e-06
-1.7901971483906284e-07   1.1315750056862129e-08   -4.17796948191113e-06
-1.7901971483906284e-07   1.1315750056862129e-08   -4.17796948191113e-06
-1.7901971483906284e-07   1.1315750056862129e-08   -4.17796948191113e-06
-1.7901971483906284e-07   1.1315750056862129e-08   -4.17796948191113e-06
-8.456770754003266e-07   -2.6471304762483395e-07   -6.001050995876791e-06
-8.456770754003266e-07   -2.6471304762483395e-07   -6.001050995876791e-06
-8.456770754003266e-07   -2.6471304762483395e-07   -6.001050995876791e-06
-8.456770754003266e-07   -2.6471304762483395e-07   -6.001050995876791e-06
7.324329386927889e-07   5.179720135221975e-07   -2.9012566023666657e-06
7.324329386927889e-07   5.179720135221975e-07   -2.9012566023666657e-06
7.324329386927889e-07   5.179720135221975e-07   -2.9012566023666657e-06
7.324329386927889e-07   5.179720135221975e-07   -2.9012566023666657e-06
1.143491019701521e-06   4.155178599070039e-08   -6.1835607553244225e-06
1.143491019701521e-06   4.155178599070039e-08   -6.1835607553244225e-06
1.143491019701521e-06   4.155178599070039e-08   -6.1835607553244225e-06
1.143491019701521e-06   4.155178599070039e-08   -6.1835607553244225e-06
-7.678626617675286e-07   7.633504419451357e-07   -3.4310504797819432e-06
-7.678626617675286e-07   7.633504419451357e-07   -3.4310504797819432e-06
-7.678626617675286e-07   7.633504419451357e-07   -3.4310504797819432e-06
-7.678626617675286e-07   7.633504419451357e-07   -3.4310504797819432e-06
1.2765066543604805e-09   1.4641252935499068e-07   -4.342786346264355e-06
1.2765066543604805e-09   1.4641252935499068e-07   -4.342786346264355e-06
1.2765066543604805e-09   1.4641252935499068e-07   -4.342786346264355e-06
1.2765066543604805e-09   1.4641252935499068e-07   -4.342786346264355e-06
-2.4933067521250757e-06   4.822809664571854e-07   -4.606714307384526e-06
-2.4933067521250757e-06   4.822809664571854e-07   -4.606714307384526e-06
-2.4933067521250757e-06   4.822809664571854e-07   -4.606714307384526e-06
-2.4933067521250757e-06   4.822809664571854e-07   -4.606714307384526e-06
-2.617523263660658e-06   -2.3811007760610832e-07   -5.245976453048472e-06
-2.617523263660658e-06   -2.3811007760610832e-07   -5.245976453048472e-06
-2.617523263660658e-06   -2.3811007760610832e-07   -5.245976453048472e-06
-2.617523263660658e-06   -2.3811007760610832e-07   -5.245976453048472e-06
-2.491695687545881e-06   7.581680204098227e-07   -4.330573309022795e-06
-2.491695687545881e-06   7.581680204098227e-07   -4.330573309022795e-06
-2.491695687545881e-06   7.581680204098227e-07   -4.330573309022795e-06
-2.491695687545881e-06   7.581680204098227e-07   -4.330573309022795e-06
-2.0417677734666867e-06   -1.671166635982971e-08   -4.61552535375965e-06
-2.0417677734666867e-06   -1.671166635982971e-08   -4.61552535375965e-06
-2.0417677734666867e-06   -1.671166635982971e-08   -4.61552535375965e-06
-2.0417677734666867e-06   -1.671166635982971e-08   -4.61552535375965e-06
-2.3060836967302084e-06   3.325155389979082e-07   -4.384535138201944e-06
-2.3060836967302084e-06   3.325155389979082e-07   -4.384535138201944e-06
-2.3060836967302084e-06   3.325155389979082e-07   -4.384535138201944e-06
-2.3060836967302084e-06   3.325155389979082e-07   -4.384535138201944e-06
-2.041767773466673e-06   7.581680204098227e-07   -3.865645496961009e-06
-2.041767773466673e-06   7.581680204098227e-07   -3.865645496961009e-06
-2.041767773466673e-06   7.581680204098227e-07   -3.865645496961009e-06
-2.041767773466673e-06   7.581680204098227e-07   -3.865645496961009e-06
-2.4916956875458877e-06   -1.671166635982971e-08   -5.080453165821476e-06
-2.4916956875458877e-06   -1.671166635982971e-08   -5.080453165821476e-06
-2.4916956875458877e-06   -1.671166635982971e-08   -5.080453165821476e-06
-2.4916956875458877e-06   -1.671166635982971e-08   -5.080453165821476e-06
-2.3318757142698997e-06   8.991837696945091e-07   -4.017972991316029e-06
-2.3318757142698997e-06   8.991837696945091e-07   -4.017972991316029e-06
-2.3318757142698997e-06   8.991837696945091e-07   -4.017972991316029e-06
-2.3318757142698997e-06   8.991837696945091e-07   -4.017972991316029e-06
-1.6714389019341022e-06   1.1040217577249975e-07   -4.64543205552247e-06
-1.6714389019341022e-06   1.1040217577249975e-07   -4.64543205552247e-06
-1.6714389019341022e-06   1.1040217577249975e-07   -4.64543205552247e-06
-1.6714389019341022e-06   1.1040217577249975e-07   -4.64543205552247e-06
-2.0951958398859707e-06   4.472199164719053e-07   -4.14126113668919e-06
-2.0951958398859707e-06   4.472199164719053e-07   -4.14126113668919e-06
-2.0951958398859707e-06   4.472199164719053e-07   -4.14126113668919e-06
-2.0951958398859707e-06   4.472199164719053e-07   -4.14126113668919e-06
-1.6714389019340886e-06   8.991837696945091e-07   -3.5447040349628344e-06
-1.6714389019340886e-06   8.991837696945091e-07   -3.5447040349628344e-06
-1.6714389019340886e-06   8.991837696945091e-07   -3.5447040349628344e-06
-1.6714389019340886e-06   8.991837696945091e-07   -3.5447040349628344e-06
-2.3318757142699065e-06   1.1040217577255396e-07   -5.118701011875678e-06
-2.3318757142699065e-06   1.1040217577255396e-07   -5.118701011875678e-06
-2.3318757142699065e-06   1.1040217577255396e-07   -5.118701011875678e-06
-2.3318757142699065e-06   1.1040217577255396e-07   -5.118701011875678e-06
-2.209765806860822e-06   1.1233577073241656e-06   -3.730966574850994e-06
-2.209765806860822e-06   1.1233577073241656e-06   -3.730966574850994e-06
-2.209765806860822e-06   1.1233577073241656e-06   -3.730966574850994e-06
-2.209765806860822e-06   1.1233577073241656e-06   -3.730966574850994e-06
-1.2141975536350774e-06   3.632733050191561e-07   -4.934196355510902e-06
-1.2141975536350774e-06   3.632733050191561e-07   -4.934196355510902e-06
-1.2141975536350774e-06   3.632733050191561e-07   -4.934196355510902e-06
-1.2141975536350774e-06   3.632733050191561e-07   -4.934196355510902e-06
-1.833846072163316e-06   5.595067268410626e-07   -4.019188877723605e-06
-1.833846072163316e-06   5.595067268410626e-07   -4.019188877723605e-06
-1.833846072163316e-06   5.595067268410626e-07   -4.019188877723605e-06
-1.833846072163316e-06   5.595067268410626e-07   -4.019188877723605e-06
-2.617523263660651e-06   2.856466006880736e-07   -8.481712479086297e-06
-2.617523263660651e-06   2.856466006880736e-07   -8.481712479086297e-06
-2.617523263660651e-06   2.856466006880736e-07   -8.481712479086297e-06
-2.617523263660651e-06   2.856466006880736e-07   -8.481712479086297e-06
-3.0861738421015694e-06   -4.5468179962250294e-08   -9.461465644878067e-06
-3.0861738421015694e-06   -4.5468179962250294e-08   -9.461465644878067e-06
-3.0861738421015694e-06   -4.5468179962250294e-08   -9.461465644878067e-06
-3.0861738421015694e-06   -4.5468179962250294e-08   -9.461465644878067e-06
-2.9865336081592812e-06   6.028811819572548e-07   -8.485601713712084e-06
-2.9865336081592812e-06   6.028811819572548e-07   -8.485601713712084e-06
-2.9865336081592812e-06   6.028811819572548e-07   -8.485601713712084e-06
-2.9865336081592812e-06   6.028811819572548e-07   -8.485601713712084e-06
-2.4916956875458944e-06   2.3509894021410838e-07   -9.089662236355157e-06
-2.4916956875458944e-06   2.3509894021410838e-07   -9.089662236355157e-06
-2.4916956875458944e-06   2.3509894021410838e-07   -9.089662236355157e-06
-2.4916956875458944e-06   2.3509894021410838e-07   -9.089662236355157e-06
-2.7630895671185556e-06   3.3285933804714195e-07   -8.695995342434e-06
-2.7630895671185556e-06   3.3285933804714195e-07   -8.695995342434e-06
-2.7630895671185556e-06   3.3285933804714195e-07   -8.695995342434e-06
-2.7630895671185556e-06   3.3285933804714195e-07   -8.695995342434e-06
-2.491695687545881e-06   6.028811819572006e-07   -8.26493236866612e-06
-2.491695687545881e-06   6.028811819572006e-07   -8.26493236866612e-06
-2.491695687545881e-06   6.028811819572006e-07   -8.26493236866612e-06
-2.491695687545881e-06   6.028811819572006e-07   -8.26493236866612e-06
-2.986533608159278e-06   2.3509894021410838e-07   -9.310331581401012e-06
-2.986533608159278e-06   2.3509894021410838e-07   -9.310331581401012e-06
-2.986533608159278e-06   2.3509894021410838e-07   -9.310331581401012e-06
-2.986533608159278e-06   2.3509894021410838e-07   -9.310331581401012e-06
-2.882724484455586e-06   8.992232104726265e-07   -8.414139083983416e-06
-2.882724484455586e-06   8.992232104726265e-07   -8.414139083983416e-06
-2.882724484455586e-06   8.992232104726265e-07   -8.414139083983416e-06
-2.882724484455586e-06   8.992232104726265e-07   -8.414139083983416e-06
-2.3318757142699133e-06   5.064568327763043e-07   -9.096560541008327e-06
-2.3318757142699133e-06   5.064568327763043e-07   -9.096560541008327e-06
-2.3318757142699133e-06   5.064568327763043e-07   -9.096560541008327e-06
-2.3318757142699133e-06   5.064568327763043e-07   -9.096560541008327e-06
-2.6634283439402445e-06   5.606528721712909e-07   -8.576490448528165e-06
-2.6634283439402445e-06   5.606528721712909e-07   -8.576490448528165e-06
-2.6634283439402445e-06   5.606528721712909e-07   -8.576490448528165e-06
-2.6634283439402445e-06   5.606528721712909e-07   -8.576490448528165e-06
-2.3318757142698997e-06   8.992232104726807e-07   -8.178479257365552e-06
-2.3318757142698997e-06   8.992232104726807e-07   -8.178479257365552e-06
-2.3318757142698997e-06   8.992232104726807e-07   -8.178479257365552e-06
-2.3318757142698997e-06   8.992232104726807e-07   -8.178479257365552e-06
-2.8827244844555756e-06   5.0645683277625e-07   -9.332220367626082e-06
-2.8827244844555756e-06   5.0645683277625e-07   -9.332220367626082e-06
-2.8827244844555756e-06   5.0645683277625e-07   -9.332220367626082e-06
-2.8827244844555756e-06   5.0645683277625e-07   -9.332220367626082e-06
-2.785662991348766e-06   1.2298449784922303e-06   -8.554051551981948e-06
-2.785662991348766e-06   1.2298449784922303e-06   -8.554051551981948e-06
-2.785662991348766e-06   1.2298449784922303e-06   -8.554051551981948e-06
-2.785662991348766e-06   1.2298449784922303e-06   -8.554051551981948e-06
-2.209765806860829e-06   8.175869180398468e-07   -9.266525356523735e-06
-2.209765806860829e-06   8.175869180398468e-07   -9.266525356523735e-06
-2.209765806860829e-06   8.175869180398468e-07   -9.266525356523735e-06
-2.209765806860829e-06   8.175869180398468e-07   -9.266525356523735e-06
-2.57658023301821e-06   8.010318495489666e-07   -8.64523493850025e-06
-2.57658023301821e-06   8.010318495489666e-07   -8.64523493850025e-06
-2.57658023301821e-06   8.010318495489666e-07   -8.64523493850025e-06
-2.57658023301821e-06   8.010318495489666e-07   -8.64523493850025e-06
-3.0861738421015626e-06   1.6951859841633082e-07   -9.896757983923011e-06
-3.0861738421015626e-06   1.6951859841633082e-07   -9.896757983923011e-06
-3.0861738421015626e-06   1.6951859841633082e-07   -9.896757983923011e-06
-3.0861738421015626e-06   1.6951859841633082e-07   -9.896757983923011e-06
-3.570092137064431e-06   2.4115942182632594e-07   -1.0660303981481842e-05
-3.570092137064431e-06   2.4115942182632594e-07   -1.0660303981481842e-05
-3.570092137064431e-06   2.4115942182632594e-07   -1.0660303981481842e-05
-3.570092137064431e-06   2.4115942182632594e-07   -1.0660303981481842e-05
-3.4726480881617333e-06   4.941584818976617e-07   -9.740800346765992e-06
-3.4726480881617333e-06   4.941584818976617e-07   -9.740800346765992e-06
-3.4726480881617333e-06   4.941584818976617e-07   -9.740800346765992e-06
-3.4726480881617333e-06   4.941584818976617e-07   -9.740800346765992e-06
-2.986533608159278e-06   5.327416799339141e-07   -1.0574141065591809e-05
-2.986533608159278e-06   5.327416799339141e-07   -1.0574141065591809e-05
-2.986533608159278e-06   5.327416799339141e-07   -1.0574141065591809e-05
-2.986533608159278e-06   5.327416799339141e-07   -1.0574141065591809e-05
-3.2590636709689925e-06   4.0528297622478924e-07   -1.004344907201693e-05
-3.2590636709689925e-06   4.0528297622478924e-07   -1.004344907201693e-05
-3.2590636709689925e-06   4.0528297622478924e-07   -1.004344907201693e-05
-3.2590636709689925e-06   4.0528297622478924e-07   -1.004344907201693e-05
-2.986533608159271e-06   4.941584818976617e-07   -9.763950265587743e-06
-2.986533608159271e-06   4.941584818976617e-07   -9.763950265587743e-06
-2.986533608159271e-06   4.941584818976617e-07   -9.763950265587743e-06
-2.986533608159271e-06   4.941584818976617e-07   -9.763950265587743e-06
-3.4726480881617388e-06   5.327416799339683e-07   -1.0550991146770111e-05
-3.4726480881617388e-06   5.327416799339683e-07   -1.0550991146770111e-05
-3.4726480881617388e-06   5.327416799339683e-07   -1.0550991146770111e-05
-3.4726480881617388e-06   5.327416799339683e-07   -1.0550991146770111e-05
-3.3694362033211365e-06   8.215723027555038e-07   -9.767674039216955e-06
-3.3694362033211365e-06   8.215723027555038e-07   -9.767674039216955e-06
-3.3694362033211365e-06   8.215723027555038e-07   -9.767674039216955e-06
-3.3694362033211365e-06   8.215723027555038e-07   -9.767674039216955e-06
-2.882724484455586e-06   8.304812696501669e-07   -1.0584205617462956e-05
-2.882724484455586e-06   8.304812696501669e-07   -1.0584205617462956e-05
-2.882724484455586e-06   8.304812696501669e-07   -1.0584205617462956e-05
-2.882724484455586e-06   8.304812696501669e-07   -1.0584205617462956e-05
-3.178362698728125e-06   6.558116726018649e-07   -9.986673502113247e-06
-3.178362698728125e-06   6.558116726018649e-07   -9.986673502113247e-06
-3.178362698728125e-06   6.558116726018649e-07   -9.986673502113247e-06
-3.178362698728125e-06   6.558116726018649e-07   -9.986673502113247e-06
-2.8827244844555756e-06   8.215723027554496e-07   -9.773019419353715e-06
-2.8827244844555756e-06   8.215723027554496e-07   -9.773019419353715e-06
-2.8827244844555756e-06   8.215723027554496e-07   -9.773019419353715e-06
-2.8827244844555756e-06   8.215723027554496e-07   -9.773019419353715e-06
-3.3694362033211365e-06   8.304812696501669e-07   -1.0578860237326162e-05
-3.3694362033211365e-06   8.304812696501669e-07   -1.0578860237326162e-05
-3.3694362033211365e-06   8.304812696501669e-07   -1.0578860237326162e-05
-3.3694362033211365e-06   8.304812696501669e-07   -1.0578860237326162e-05
-3.272282036647722e-06   1.1540085735185323e-06   -9.95733542929526e-06
-3.272282036647722e-06   1.1540085735185323e-06   -9.95733542929526e-06
-3.272282036647722e-06   1.1540085735185323e-06   -9.95733542929526e-06
-3.272282036647722e-06   1.1540085735185323e-06   -9.95733542929526e-06
-2.7856629913487696e-06   1.1324639466984304e-06   -1.0755440395368022e-05
-2.7856629913487696e-06   1.1324639466984304e-06   -1.0755440395368022e-05
-2.7856629913487696e-06   1.1324639466984304e-06   -1.0755440395368022e-05
-2.7856629913487696e-06   1.1324639466984304e-06   -1.0755440395368022e-05
-3.1047571705157666e-06   9.098990686415851e-07   -1.0090077836589015e-05
-3.1047571705157666e-06   9.098990686415851e-07   -1.0090077836589015e-05
-3.1047571705157666e-06   9.098990686415851e-07   -1.0090077836589015e-05
-3.1047571705157666e-06   9.098990686415851e-07   -1.0090077836589015e-05
-3.5700921370644182e-06   8.290475783759603e-08   -8.530083207848545e-06
-3.5700921370644182e-06   8.290475783759603e-08   -8.530083207848545e-06
-3.5700921370644182e-06   8.290475783759603e-08   -8.530083207848545e-06
-3.5700921370644182e-06   8.290475783759603e-08   -8.530083207848545e-06
-4.087838281387275e-06   5.326008584526478e-07   -9.123175788017674e-06
-4.087838281387275e-06   5.326008584526478e-07   -9.123175788017674e-06
-4.087838281387275e-06   5.326008584526478e-07   -9.123175788017674e-06
-4.087838281387275e-06   5.326008584526478e-07   -9.123175788017674e-06
-3.968517133100295e-06   3.9855510629771204e-07   -8.148705284198913e-06
-3.968517133100295e-06   3.9855510629771204e-07   -8.148705284198913e-06
-3.968517133100295e-06   3.9855510629771204e-07   -8.148705284198913e-06
-3.968517133100295e-06   3.9855510629771204e-07   -8.148705284198913e-06
-3.4726480881617333e-06   8.260099649257439e-07   -9.231626607606568e-06
-3.4726480881617333e-06   8.260099649257439e-07   -9.231626607606568e-06
-3.4726480881617333e-06   8.260099649257439e-07   -9.231626607606568e-06
-3.4726480881617333e-06   8.260099649257439e-07   -9.231626607606568e-06
-3.745377781311167e-06   4.920813857444382e-07   -8.576719971515573e-06
-3.745377781311167e-06   4.920813857444382e-07   -8.576719971515573e-06
-3.745377781311167e-06   4.920813857444382e-07   -8.576719971515573e-06
-3.745377781311167e-06   4.920813857444382e-07   -8.576719971515573e-06
-3.4726480881617273e-06   3.9855510629765783e-07   -8.405178199375678e-06
-3.4726480881617273e-06   3.9855510629765783e-07   -8.405178199375678e-06
-3.4726480881617273e-06   3.9855510629765783e-07   -8.405178199375678e-06
-3.4726480881617273e-06   3.9855510629765783e-07   -8.405178199375678e-06
-3.968517133100295e-06   8.260099649256896e-07   -8.97515369242981e-06
-3.968517133100295e-06   8.260099649256896e-07   -8.97515369242981e-06
-3.968517133100295e-06   8.260099649256896e-07   -8.97515369242981e-06
-3.968517133100295e-06   8.260099649256896e-07   -8.97515369242981e-06
-3.8110657076270848e-06   6.94835563350637e-07   -8.17920057269691e-06
-3.8110657076270848e-06   6.94835563350637e-07   -8.17920057269691e-06
-3.8110657076270848e-06   6.94835563350637e-07   -8.17920057269691e-06
-3.8110657076270848e-06   6.94835563350637e-07   -8.17920057269691e-06
-3.3694362033211305e-06   1.0956638203217387e-06   -9.155746700722787e-06
-3.3694362033211305e-06   1.0956638203217387e-06   -9.155746700722787e-06
-3.3694362033211305e-06   1.0956638203217387e-06   -9.155746700722787e-06
-3.3694362033211305e-06   1.0956638203217387e-06   -9.155746700722787e-06
-3.6385283813982032e-06   7.257641445668813e-07   -8.485319931808216e-06
-3.6385283813982032e-06   7.257641445668813e-07   -8.485319931808216e-06
-3.6385283813982032e-06   7.257641445668813e-07   -8.485319931808216e-06
-3.6385283813982032e-06   7.257641445668813e-07   -8.485319931808216e-06
-3.369436203321122e-06   6.948355633505827e-07   -8.419697526879506e-06
-3.369436203321122e-06   6.948355633505827e-07   -8.419697526879506e-06
-3.369436203321122e-06   6.948355633505827e-07   -8.419697526879506e-06
-3.369436203321122e-06   6.948355633505827e-07   -8.419697526879506e-06
-3.811065707627095e-06   1.0956638203217387e-06   -8.915249746540145e-06
-3.811065707627095e-06   1.0956638203217387e-06   -8.915249746540145e-06
-3.811065707627095e-06   1.0956638203217387e-06   -8.915249746540145e-06
-3.811065707627095e-06   1.0956638203217387e-06   -8.915249746540145e-06
-3.6881970623227613e-06   1.0283559156450237e-06   -8.405827189415988e-06
-3.6881970623227613e-06   1.0283559156450237e-06   -8.405827189415988e-06
-3.6881970623227613e-06   1.0283559156450237e-06   -8.405827189415988e-06
-3.6881970623227613e-06   1.0283559156450237e-06   -8.405827189415988e-06
-3.272282036647722e-06   1.3962578787523401e-06   -9.319760076738767e-06
-3.272282036647722e-06   1.3962578787523401e-06   -9.319760076738767e-06
-3.272282036647722e-06   1.3962578787523401e-06   -9.319760076738767e-06
-3.272282036647722e-06   1.3962578787523401e-06   -9.319760076738767e-06
-3.5612333778828228e-06   9.632008681087511e-07   -8.578340301627357e-06
-3.5612333778828228e-06   9.632008681087511e-07   -8.578340301627357e-06
-3.5612333778828228e-06   9.632008681087511e-07   -8.578340301627357e-06
-3.5612333778828228e-06   9.632008681087511e-07   -8.578340301627357e-06
-4.087838281387258e-06   1.2663316052859662e-07   -4.531045940024274e-06
-4.087838281387258e-06   1.2663316052859662e-07   -4.531045940024274e-06
-4.087838281387258e-06   1.2663316052859662e-07   -4.531045940024274e-06
-4.087838281387258e-06   1.2663316052859662e-07   -4.531045940024274e-06
-5.011442148460243e-06   9.012941650787267e-07   -5.605589115749128e-06
-5.011442148460243e-06   9.012941650787267e-07   -5.605589115749128e-06
-5.011442148460243e-06   9.012941650787267e-07   -5.605589115749128e-06
-5.011442148460243e-06   9.012941650787267e-07   -5.605589115749128e-06
-4.566750867050255e-06   3.7759479347150137e-07   -3.7012766696011533e-06
-4.566750867050255e-06   3.7759479347150137e-07   -3.7012766696011533e-06
-4.566750867050255e-06   3.7759479347150137e-07   -3.7012766696011533e-06
-4.566750867050255e-06   3.7759479347150137e-07   -3.7012766696011533e-06
-3.968517133100285e-06   1.1687101457721156e-06   -5.173002104231441e-06
-3.968517133100285e-06   1.1687101457721156e-06   -5.173002104231441e-06
-3.968517133100285e-06   1.1687101457721156e-06   -5.173002104231441e-06
-3.968517133100285e-06   1.1687101457721156e-06   -5.173002104231441e-06
-4.230305781718946e-06   6.741750565196687e-07   -4.4399666363156175e-06
-4.230305781718946e-06   6.741750565196687e-07   -4.4399666363156175e-06
-4.230305781718946e-06   6.741750565196687e-07   -4.4399666363156175e-06
-4.230305781718946e-06   6.741750565196687e-07   -4.4399666363156175e-06
-3.968517133100278e-06   3.7759479347150137e-07   -4.175945880981484e-06
-3.968517133100278e-06   3.7759479347150137e-07   -4.175945880981484e-06
-3.968517133100278e-06   3.7759479347150137e-07   -4.175945880981484e-06
-3.968517133100278e-06   3.7759479347150137e-07   -4.175945880981484e-06
-4.566750867050255e-06   1.1687101457721156e-06   -4.698332892851117e-06
-4.566750867050255e-06   1.1687101457721156e-06   -4.698332892851117e-06
-4.566750867050255e-06   1.1687101457721156e-06   -4.698332892851117e-06
-4.566750867050255e-06   1.1687101457721156e-06   -4.698332892851117e-06
-4.205058995324079e-06   5.179720135222517e-07   -3.622815990539786e-06
-4.205058995324079e-06   5.179720135222517e-07   -3.622815990539786e-06
-4.205058995324079e-06   5.179720135222517e-07   -3.622815990539786e-06
-4.205058995324079e-06   5.179720135222517e-07   -3.622815990539786e-06
-3.8110657076270848e-06   1.2910233290498447e-06   -4.743302259351302e-06
-3.8110657076270848e-06   1.2910233290498447e-06   -4.743302259351302e-06
-3.8110657076270848e-06   1.2910233290498447e-06   -4.743302259351302e-06
-3.8110657076270848e-06   1.2910233290498447e-06   -4.743302259351302e-06
-4.047521230829044e-06   7.996504416893369e-07   -4.054385988265126e-06
-4.047521230829044e-06   7.996504416893369e-07   -4.054385988265126e-06
-4.047521230829044e-06   7.996504416893369e-07   -4.054385988265126e-06
-4.047521230829044e-06   7.996504416893369e-07   -4.054385988265126e-06
-3.8110657076270814e-06   5.179720135222517e-07   -4.086646779856358e-06
-3.8110657076270814e-06   5.179720135222517e-07   -4.086646779856358e-06
-3.8110657076270814e-06   5.179720135222517e-07   -4.086646779856358e-06
-3.8110657076270814e-06   5.179720135222517e-07   -4.086646779856358e-06
-4.205058995324079e-06   1.2910233290497905e-06   -4.279471470034716e-06
-4.205058995324079e-06   1.2910233290497905e-06   -4.279471470034716e-06
-4.205058995324079e-06   1.2910233290497905e-06   -4.279471470034716e-06
-4.205058995324079e-06   1.2910233290497905e-06   -4.279471470034716e-06
-3.7591662627079223e-06   7.6335044194519e-07   -3.7139456085347764e-06
-3.7591662627079223e-06   7.6335044194519e-07   -3.7139456085347764e-06
-3.7591662627079223e-06   7.6335044194519e-07   -3.7139456085347764e-06
-3.7591662627079223e-06   7.6335044194519e-07   -3.7139456085347764e-06
-3.688197062322758e-06   1.4766294594985058e-06   -4.260195019708624e-06
-3.688197062322758e-06   1.4766294594985058e-06   -4.260195019708624e-06
-3.688197062322758e-06   1.4766294594985058e-06   -4.260195019708624e-06
-3.688197062322758e-06   1.4766294594985058e-06   -4.260195019708624e-06
-3.7661246169757665e-06   8.984917366357758e-07   -3.7834331282359825e-06
-3.7661246169757665e-06   8.984917366357758e-07   -3.7834331282359825e-06
-3.7661246169757665e-06   8.984917366357758e-07   -3.7834331282359825e-06
-3.7661246169757665e-06   8.984917366357758e-07   -3.7834331282359825e-06
2.426020463155564e-06   -2.3811007760610832e-07   -2.248032822312789e-06
2.426020463155564e-06   -2.3811007760610832e-07   -2.248032822312789e-06
2.426020463155564e-06   -2.3811007760610832e-07   -2.248032822312789e-06
2.426020463155564e-06   -2.3811007760610832e-07   -2.248032822312789e-06
2.65641437792406e-07   -9.6296420898671e-07   -6.283577010079766e-06
2.65641437792406e-07   -9.6296420898671e-07   -6.283577010079766e-06
2.65641437792406e-07   -9.6296420898671e-07   -6.283577010079766e-06
2.65641437792406e-07   -9.6296420898671e-07   -6.283577010079766e-06
4.3689013376718537e-07   -1.671166635982971e-08   -2.5034845979092176e-06
4.3689013376718537e-07   -1.671166635982971e-08   -2.5034845979092176e-06
4.3689013376718537e-07   -1.671166635982971e-08   -2.5034845979092176e-06
4.3689013376718537e-07   -1.671166635982971e-08   -2.5034845979092176e-06
2.921687105578971e-06   -7.935846585277722e-07   -6.178689088961477e-06
2.921687105578971e-06   -7.935846585277722e-07   -6.178689088961477e-06
2.921687105578971e-06   -7.935846585277722e-07   -6.178689088961477e-06
2.921687105578971e-06   -7.935846585277722e-07   -6.178689088961477e-06
1.4550171202948385e-06   -4.0573685673961314e-07   -3.966947794560767e-06
1.4550171202948385e-06   -4.0573685673961314e-07   -3.966947794560767e-06
1.4550171202948385e-06   -4.0573685673961314e-07   -3.966947794560767e-06
1.4550171202948385e-06   -4.0573685673961314e-07   -3.966947794560767e-06
2.9216871055789848e-06   -1.671166635982971e-08   -2.037360802608474e-06
2.9216871055789848e-06   -1.671166635982971e-08   -2.037360802608474e-06
2.9216871055789848e-06   -1.671166635982971e-08   -2.037360802608474e-06
2.9216871055789848e-06   -1.671166635982971e-08   -2.037360802608474e-06
4.3689013376718537e-07   -7.935846585277722e-07   -6.644812884262248e-06
4.3689013376718537e-07   -7.935846585277722e-07   -6.644812884262248e-06
4.3689013376718537e-07   -7.935846585277722e-07   -6.644812884262248e-06
4.3689013376718537e-07   -7.935846585277722e-07   -6.644812884262248e-06
6.397342401227339e-07   1.1040217577249975e-07   -2.5292943141252923e-06
6.397342401227339e-07   1.1040217577249975e-07   -2.5292943141252923e-06
6.397342401227339e-07   1.1040217577249975e-07   -2.5292943141252923e-06
6.397342401227339e-07   1.1040217577249975e-07   -2.5292943141252923e-06
3.3374187647514846e-06   -6.784901349069948e-07   -6.552099802098769e-06
3.3374187647514846e-06   -6.784901349069948e-07   -6.552099802098769e-06
3.3374187647514846e-06   -6.784901349069948e-07   -6.552099802098769e-06
3.3374187647514846e-06   -6.784901349069948e-07   -6.552099802098769e-06
1.7670821277048767e-06   -3.2524226837454557e-07   -4.146820793607449e-06
1.7670821277048767e-06   -3.2524226837454557e-07   -4.146820793607449e-06
1.7670821277048767e-06   -3.2524226837454557e-07   -4.146820793607449e-06
1.7670821277048767e-06   -3.2524226837454557e-07   -4.146820793607449e-06
3.3374187647514846e-06   1.1040217577249975e-07   -2.055958927717525e-06
3.3374187647514846e-06   1.1040217577249975e-07   -2.055958927717525e-06
3.3374187647514846e-06   1.1040217577249975e-07   -2.055958927717525e-06
3.3374187647514846e-06   1.1040217577249975e-07   -2.055958927717525e-06
6.397342401227271e-07   -6.784901349069948e-07   -7.0254351885065366e-06
6.397342401227271e-07   -6.784901349069948e-07   -7.0254351885065366e-06
6.397342401227271e-07   -6.784901349069948e-07   -7.0254351885065366e-06
6.397342401227271e-07   -6.784901349069948e-07   -7.0254351885065366e-06
8.042214087102215e-07   3.632733050191561e-07   -2.7890242134103057e-06
8.042214087102215e-07   3.632733050191561e-07   -2.7890242134103057e-06
8.042214087102215e-07   3.632733050191561e-07   -2.7890242134103057e-06
8.042214087102215e-07   3.632733050191561e-07   -2.7890242134103057e-06
3.837096695064686e-06   -3.906008733901758e-07   -7.391491850288726e-06
3.837096695064686e-06   -3.906008733901758e-07   -7.391491850288726e-06
3.837096695064686e-06   -3.906008733901758e-07   -7.391491850288726e-06
3.837096695064686e-06   -3.906008733901758e-07   -7.391491850288726e-06
2.010010648520019e-06   -2.0513489154045826e-07   -4.4576280284910436e-06
2.010010648520019e-06   -2.0513489154045826e-07   -4.4576280284910436e-06
2.010010648520019e-06   -2.0513489154045826e-07   -4.4576280284910436e-06
2.010010648520019e-06   -2.0513489154045826e-07   -4.4576280284910436e-06
2.65641437792406e-07   -4.5468179962196084e-08   -6.6997656245805645e-06
2.65641437792406e-07   -4.5468179962196084e-08   -6.6997656245805645e-06
2.65641437792406e-07   -4.5468179962196084e-08   -6.6997656245805645e-06
2.65641437792406e-07   -4.5468179962196084e-08   -6.6997656245805645e-06
-2.2152838466533604e-06   -3.7196787599521166e-07   -1.1030540916276622e-05
-2.2152838466533604e-06   -3.7196787599521166e-07   -1.1030540916276622e-05
-2.2152838466533604e-06   -3.7196787599521166e-07   -1.1030540916276622e-05
-2.2152838466533604e-06   -3.7196787599521166e-07   -1.1030540916276622e-05
-2.0669424839680025e-06   2.3509894021410838e-07   -6.736177560166031e-06
-2.0669424839680025e-06   2.3509894021410838e-07   -6.736177560166031e-06
-2.0669424839680025e-06   2.3509894021410838e-07   -6.736177560166031e-06
-2.0669424839680025e-06   2.3509894021410838e-07   -6.736177560166031e-06
4.3689013376718537e-07   -1.3737421265770308e-07   -1.0685748031334896e-05
4.3689013376718537e-07   -1.3737421265770308e-07   -1.0685748031334896e-05
4.3689013376718537e-07   -1.3737421265770308e-07   -1.0685748031334896e-05
4.3689013376718537e-07   -1.3737421265770308e-07   -1.0685748031334896e-05
-8.74805325382622e-07   -7.320115376265729e-09   -8.57762139112071e-06
-8.74805325382622e-07   -7.320115376265729e-09   -8.57762139112071e-06
-8.74805325382622e-07   -7.320115376265729e-09   -8.57762139112071e-06
-8.74805325382622e-07   -7.320115376265729e-09   -8.57762139112071e-06
4.3689013376718537e-07   2.3509894021410838e-07   -6.5126936684428845e-06
4.3689013376718537e-07   2.3509894021410838e-07   -6.5126936684428845e-06
4.3689013376718537e-07   2.3509894021410838e-07   -6.5126936684428845e-06
4.3689013376718537e-07   2.3509894021410838e-07   -6.5126936684428845e-06
-2.0669424839680025e-06   -1.3737421265770308e-07   -1.0909231923058042e-05
-2.0669424839680025e-06   -1.3737421265770308e-07   -1.0909231923058042e-05
-2.0669424839680025e-06   -1.3737421265770308e-07   -1.0909231923058042e-05
-2.0669424839680025e-06   -1.3737421265770308e-07   -1.0909231923058042e-05
-1.917676287721491e-06   5.0645683277625e-07   -6.7474494203708e-06
-1.917676287721491e-06   5.0645683277625e-07   -6.7474494203708e-06
-1.917676287721491e-06   5.0645683277625e-07   -6.7474494203708e-06
-1.917676287721491e-06   5.0645683277625e-07   -6.7474494203708e-06
6.397342401227339e-07   1.0596420425476854e-07   -1.076950472299825e-05
6.397342401227339e-07   1.0596420425476854e-07   -1.076950472299825e-05
6.397342401227339e-07   1.0596420425476854e-07   -1.076950472299825e-05
6.397342401227339e-07   1.0596420425476854e-07   -1.076950472299825e-05
-7.446167597028001e-07   1.8688054523752912e-07   -8.510802861212027e-06
-7.446167597028001e-07   1.8688054523752912e-07   -8.510802861212027e-06
-7.446167597028001e-07   1.8688054523752912e-07   -8.510802861212027e-06
-7.446167597028001e-07   1.8688054523752912e-07   -8.510802861212027e-06
6.397342401227339e-07   5.064568327763043e-07   -6.507153843257873e-06
6.397342401227339e-07   5.064568327763043e-07   -6.507153843257873e-06
6.397342401227339e-07   5.064568327763043e-07   -6.507153843257873e-06
6.397342401227339e-07   5.064568327763043e-07   -6.507153843257873e-06
-1.917676287721491e-06   1.0596420425476854e-07   -1.1009800300111204e-05
-1.917676287721491e-06   1.0596420425476854e-07   -1.1009800300111204e-05
-1.917676287721491e-06   1.0596420425476854e-07   -1.1009800300111204e-05
-1.917676287721491e-06   1.0596420425476854e-07   -1.1009800300111204e-05
-1.7757150066551971e-06   8.17586918039901e-07   -6.9186673050892415e-06
-1.7757150066551971e-06   8.17586918039901e-07   -6.9186673050892415e-06
-1.7757150066551971e-06   8.17586918039901e-07   -6.9186673050892415e-06
-1.7757150066551971e-06   8.17586918039901e-07   -6.9186673050892415e-06
8.042214087102147e-07   3.9531236462465695e-07   -1.0965196598649145e-05
8.042214087102147e-07   3.9531236462465695e-07   -1.0965196598649145e-05
8.042214087102147e-07   3.9531236462465695e-07   -1.0965196598649145e-05
8.042214087102147e-07   3.9531236462465695e-07   -1.0965196598649145e-05
-5.983254706262328e-07   4.033581221039688e-07   -8.632445920909472e-06
-5.983254706262328e-07   4.033581221039688e-07   -8.632445920909472e-06
-5.983254706262328e-07   4.033581221039688e-07   -8.632445920909472e-06
-5.983254706262328e-07   4.033581221039688e-07   -8.632445920909472e-06
-2.215283846653367e-06   2.4115942182632594e-07   -8.137488272850124e-06
-2.215283846653367e-06   2.4115942182632594e-07   -8.137488272850124e-06
-2.215283846653367e-06   2.4115942182632594e-07   -8.137488272850124e-06
-2.215283846653367e-06   2.4115942182632594e-07   -8.137488272850124e-06
-4.671212195506611e-06   3.034516564049848e-07   -1.2193326846858359e-05
-4.671212195506611e-06   3.034516564049848e-07   -1.2193326846858359e-05
-4.671212195506611e-06   3.034516564049848e-07   -1.2193326846858359e-05
-4.671212195506611e-06   3.034516564049848e-07   -1.2193326846858359e-05
-4.522237597147064e-06   5.327416799339141e-07   -7.987722105883867e-06
-4.522237597147064e-06   5.327416799339141e-07   -7.987722105883867e-06
-4.522237597147064e-06   5.327416799339141e-07   -7.987722105883867e-06
-4.522237597147064e-06   5.327416799339141e-07   -7.987722105883867e-06
-2.0669424839680093e-06   5.531832440554881e-07   -1.2092145566321995e-05
-2.0669424839680093e-06   5.531832440554881e-07   -1.2092145566321995e-05
-2.0669424839680093e-06   5.531832440554881e-07   -1.2092145566321995e-05
-2.0669424839680093e-06   5.531832440554881e-07   -1.2092145566321995e-05
-3.349511520257361e-06   4.582856854551116e-07   -9.89759197067951e-06
-3.349511520257361e-06   4.582856854551116e-07   -9.89759197067951e-06
-3.349511520257361e-06   4.582856854551116e-07   -9.89759197067951e-06
-3.349511520257361e-06   4.582856854551116e-07   -9.89759197067951e-06
-2.0669424839680093e-06   5.327416799339141e-07   -7.999987044356882e-06
-2.0669424839680093e-06   5.327416799339141e-07   -7.999987044356882e-06
-2.0669424839680093e-06   5.327416799339141e-07   -7.999987044356882e-06
-2.0669424839680093e-06   5.327416799339141e-07   -7.999987044356882e-06
-4.522237597147064e-06   5.531832440555423e-07   -1.2079880627849035e-05
-4.522237597147064e-06   5.531832440555423e-07   -1.2079880627849035e-05
-4.522237597147064e-06   5.531832440555423e-07   -1.2079880627849035e-05
-4.522237597147064e-06   5.531832440555423e-07   -1.2079880627849035e-05
-4.370271138579046e-06   8.304812696501669e-07   -8.007592820644333e-06
-4.370271138579046e-06   8.304812696501669e-07   -8.007592820644333e-06
-4.370271138579046e-06   8.304812696501669e-07   -8.007592820644333e-06
-4.370271138579046e-06   8.304812696501669e-07   -8.007592820644333e-06
-1.917676287721498e-06   8.168843522556512e-07   -1.2087092754970217e-05
-1.917676287721498e-06   8.168843522556512e-07   -1.2087092754970217e-05
-1.917676287721498e-06   8.168843522556512e-07   -1.2087092754970217e-05
-1.917676287721498e-06   8.168843522556512e-07   -1.2087092754970217e-05
-3.2192832236929903e-06   6.771522512729299e-07   -9.833908601094955e-06
-3.2192832236929903e-06   6.771522512729299e-07   -9.833908601094955e-06
-3.2192832236929903e-06   6.771522512729299e-07   -9.833908601094955e-06
-3.2192832236929903e-06   6.771522512729299e-07   -9.833908601094955e-06
-1.917676287721498e-06   8.304812696501669e-07   -7.999434670207613e-06
-1.917676287721498e-06   8.304812696501669e-07   -7.999434670207613e-06
-1.917676287721498e-06   8.304812696501669e-07   -7.999434670207613e-06
-1.917676287721498e-06   8.304812696501669e-07   -7.999434670207613e-06
-4.370271138579037e-06   8.168843522557054e-07   -1.2095250905406937e-05
-4.370271138579037e-06   8.168843522557054e-07   -1.2095250905406937e-05
-4.370271138579037e-06   8.168843522557054e-07   -1.2095250905406937e-05
-4.370271138579037e-06   8.168843522557054e-07   -1.2095250905406937e-05
-4.225476065889435e-06   1.1324639466984304e-06   -8.188573019403097e-06
-4.225476065889435e-06   1.1324639466984304e-06   -8.188573019403097e-06
-4.225476065889435e-06   1.1324639466984304e-06   -8.188573019403097e-06
-4.225476065889435e-06   1.1324639466984304e-06   -8.188573019403097e-06
-1.7757150066551971e-06   1.0852214271302196e-06   -1.2243162606385887e-05
-1.7757150066551971e-06   1.0852214271302196e-06   -1.2243162606385887e-05
-1.7757150066551971e-06   1.0852214271302196e-06   -1.2243162606385887e-05
-1.7757150066551971e-06   1.0852214271302196e-06   -1.2243162606385887e-05
-3.09878374998628e-06   8.994339093468273e-07   -9.926575523497524e-06
-3.09878374998628e-06   8.994339093468273e-07   -9.926575523497524e-06
-3.09878374998628e-06   8.994339093468273e-07   -9.926575523497524e-06
-3.09878374998628e-06   8.994339093468273e-07   -9.926575523497524e-06
-4.67121219550662e-06   5.326008584525936e-07   -6.8328023990077435e-06
-4.67121219550662e-06   5.326008584525936e-07   -6.8328023990077435e-06
-4.67121219550662e-06   5.326008584525936e-07   -6.8328023990077435e-06
-4.67121219550662e-06   5.326008584525936e-07   -6.8328023990077435e-06
-7.111289511372439e-06   9.628829093650529e-07   -1.0641428694903288e-05
-7.111289511372439e-06   9.628829093650529e-07   -1.0641428694903288e-05
-7.111289511372439e-06   9.628829093650529e-07   -1.0641428694903288e-05
-7.111289511372439e-06   9.628829093650529e-07   -1.0641428694903288e-05
-6.940019817212974e-06   8.260099649257439e-07   -6.426222121829145e-06
-6.940019817212974e-06   8.260099649257439e-07   -6.426222121829145e-06
-6.940019817212974e-06   8.260099649257439e-07   -6.426222121829145e-06
-6.940019817212974e-06   8.260099649257439e-07   -6.426222121829145e-06
-4.522237597147064e-06   1.2295690397446301e-06   -1.0697994600163608e-05
-4.522237597147064e-06   1.2295690397446301e-06   -1.0697994600163608e-05
-4.522237597147064e-06   1.2295690397446301e-06   -1.0697994600163608e-05
-4.522237597147064e-06   1.2295690397446301e-06   -1.0697994600163608e-05
-5.770750602896452e-06   9.21273966384274e-07   -8.432162546565133e-06
-5.770750602896452e-06   9.21273966384274e-07   -8.432162546565133e-06
-5.770750602896452e-06   9.21273966384274e-07   -8.432162546565133e-06
-5.770750602896452e-06   9.21273966384274e-07   -8.432162546565133e-06
-4.5222375971470724e-06   8.260099649256896e-07   -6.668357566720466e-06
-4.5222375971470724e-06   8.260099649256896e-07   -6.668357566720466e-06
-4.5222375971470724e-06   8.260099649256896e-07   -6.668357566720466e-06
-4.5222375971470724e-06   8.260099649256896e-07   -6.668357566720466e-06
-6.9400198172129846e-06   1.229569039744576e-06   -1.0455859155272351e-05
-6.9400198172129846e-06   1.229569039744576e-06   -1.0455859155272351e-05
-6.9400198172129846e-06   1.229569039744576e-06   -1.0455859155272351e-05
-6.9400198172129846e-06   1.229569039744576e-06   -1.0455859155272351e-05
-6.732011966774625e-06   1.0956638203217387e-06   -6.360497544948885e-06
-6.732011966774625e-06   1.0956638203217387e-06   -6.360497544948885e-06
-6.732011966774625e-06   1.0956638203217387e-06   -6.360497544948885e-06
-6.732011966774625e-06   1.0956638203217387e-06   -6.360497544948885e-06
-4.370271138579046e-06   1.4689667188085942e-06   -1.052071399770029e-05
-4.370271138579046e-06   1.4689667188085942e-06   -1.052071399770029e-05
-4.370271138579046e-06   1.4689667188085942e-06   -1.052071399770029e-05
-4.370271138579046e-06   1.4689667188085942e-06   -1.052071399770029e-05
-5.596676495148344e-06   1.1328083362873256e-06   -8.275010040572158e-06
-5.596676495148344e-06   1.1328083362873256e-06   -8.275010040572158e-06
-5.596676495148344e-06   1.1328083362873256e-06   -8.275010040572158e-06
-5.596676495148344e-06   1.1328083362873256e-06   -8.275010040572158e-06
-4.370271138579041e-06   1.0956638203217387e-06   -6.584479284040939e-06
-4.370271138579041e-06   1.0956638203217387e-06   -6.584479284040939e-06
-4.370271138579041e-06   1.0956638203217387e-06   -6.584479284040939e-06
-4.370271138579041e-06   1.0956638203217387e-06   -6.584479284040939e-06
-6.732011966774625e-06   1.46896671880854e-06   -1.0296732258608212e-05
-6.732011966774625e-06   1.46896671880854e-06   -1.0296732258608212e-05
-6.732011966774625e-06   1.46896671880854e-06   -1.0296732258608212e-05
-6.732011966774625e-06   1.46896671880854e-06   -1.0296732258608212e-05
-6.559473179583524e-06   1.3962578787523401e-06   -6.536704737483668e-06
-6.559473179583524e-06   1.3962578787523401e-06   -6.536704737483668e-06
-6.559473179583524e-06   1.3962578787523401e-06   -6.536704737483668e-06
-6.559473179583524e-06   1.3962578787523401e-06   -6.536704737483668e-06
-4.225476065889435e-06   1.73502652408246e-06   -1.0629961114171854e-05
-4.225476065889435e-06   1.73502652408246e-06   -1.0629961114171854e-05
-4.225476065889435e-06   1.73502652408246e-06   -1.0629961114171854e-05
-4.225476065889435e-06   1.73502652408246e-06   -1.0629961114171854e-05
-5.484431664826703e-06   1.3401049320718858e-06   -8.294748827403404e-06
-5.484431664826703e-06   1.3401049320718858e-06   -8.294748827403404e-06
-5.484431664826703e-06   1.3401049320718858e-06   -8.294748827403404e-06
-5.484431664826703e-06   1.3401049320718858e-06   -8.294748827403404e-06
-7.111289511372439e-06   9.012941650787267e-07   -3.521843098921903e-06
-7.111289511372439e-06   9.012941650787267e-07   -3.521843098921903e-06
-7.111289511372439e-06   9.012941650787267e-07   -3.521843098921903e-06
-7.111289511372439e-06   9.012941650787267e-07   -3.521843098921903e-06
-9.906826159892149e-06   1.657982048696013e-06   -7.72705811628437e-06
-9.906826159892149e-06   1.657982048696013e-06   -7.72705811628437e-06
-9.906826159892149e-06   1.657982048696013e-06   -7.72705811628437e-06
-9.906826159892149e-06   1.657982048696013e-06   -7.72705811628437e-06
-9.417757842434303e-06   1.1687101457721156e-06   -2.163505844741297e-06
-9.417757842434303e-06   1.1687101457721156e-06   -2.163505844741297e-06
-9.417757842434303e-06   1.1687101457721156e-06   -2.163505844741297e-06
-9.417757842434303e-06   1.1687101457721156e-06   -2.163505844741297e-06
-6.940019817212974e-06   1.9363179605878886e-06   -6.753633908999627e-06
-6.940019817212974e-06   1.9363179605878886e-06   -6.753633908999627e-06
-6.940019817212974e-06   1.9363179605878886e-06   -6.753633908999627e-06
-6.940019817212974e-06   1.9363179605878886e-06   -6.753633908999627e-06
-8.00484981784205e-06   1.4456335920722376e-06   -4.684506620175117e-06
-8.00484981784205e-06   1.4456335920722376e-06   -4.684506620175117e-06
-8.00484981784205e-06   1.4456335920722376e-06   -4.684506620175117e-06
-8.00484981784205e-06   1.4456335920722376e-06   -4.684506620175117e-06
-6.9400198172129795e-06   1.1687101457721156e-06   -2.6240705336307555e-06
-6.9400198172129795e-06   1.1687101457721156e-06   -2.6240705336307555e-06
-6.9400198172129795e-06   1.1687101457721156e-06   -2.6240705336307555e-06
-6.9400198172129795e-06   1.1687101457721156e-06   -2.6240705336307555e-06
-9.417757842434276e-06   1.9363179605878886e-06   -6.2930692201101555e-06
-9.417757842434276e-06   1.9363179605878886e-06   -6.2930692201101555e-06
-9.417757842434276e-06   1.9363179605878886e-06   -6.2930692201101555e-06
-9.417757842434276e-06   1.9363179605878886e-06   -6.2930692201101555e-06
-9.013660395064747e-06   1.2910233290498447e-06   -1.741246946162611e-06
-9.013660395064747e-06   1.2910233290498447e-06   -1.741246946162611e-06
-9.013660395064747e-06   1.2910233290498447e-06   -1.741246946162611e-06
-9.013660395064747e-06   1.2910233290498447e-06   -1.741246946162611e-06
-6.732011966774615e-06   2.0365285150456035e-06   -5.991297438243629e-06
-6.732011966774615e-06   2.0365285150456035e-06   -5.991297438243629e-06
-6.732011966774615e-06   2.0365285150456035e-06   -5.991297438243629e-06
-6.732011966774615e-06   2.0365285150456035e-06   -5.991297438243629e-06
-7.83545304962923e-06   1.5728112366629465e-06   -3.873998599789714e-06
-7.83545304962923e-06   1.5728112366629465e-06   -3.873998599789714e-06
-7.83545304962923e-06   1.5728112366629465e-06   -3.873998599789714e-06
-7.83545304962923e-06   1.5728112366629465e-06   -3.873998599789714e-06
-6.732011966774625e-06   1.2910233290497905e-06   -2.1885500577600555e-06
-6.732011966774625e-06   1.2910233290497905e-06   -2.1885500577600555e-06
-6.732011966774625e-06   1.2910233290497905e-06   -2.1885500577600555e-06
-6.732011966774625e-06   1.2910233290497905e-06   -2.1885500577600555e-06
-9.013660395064734e-06   2.0365285150455493e-06   -5.543994326646191e-06
-9.013660395064734e-06   2.0365285150455493e-06   -5.543994326646191e-06
-9.013660395064734e-06   2.0365285150455493e-06   -5.543994326646191e-06
-9.013660395064734e-06   2.0365285150455493e-06   -5.543994326646191e-06
-8.53195141878084e-06   1.4766294594985058e-06   -1.2882354686290839e-06
-8.53195141878084e-06   1.4766294594985058e-06   -1.2882354686290839e-06
-8.53195141878084e-06   1.4766294594985058e-06   -1.2882354686290839e-06
-8.53195141878084e-06   1.4766294594985058e-06   -1.2882354686290839e-06
-6.559473179583524e-06   2.159371775646568e-06   -4.9853445903134646e-06
-6.559473179583524e-06   2.159371775646568e-06   -4.9853445903134646e-06
-6.559473179583524e-06   2.159371775646568e-06   -4.9853445903134646e-06
-6.559473179583524e-06   2.159371775646568e-06   -4.9853445903134646e-06
-7.451478280930068e-06   1.632690185639652e-06   -3.182660467398462e-06
-7.451478280930068e-06   1.632690185639652e-06   -3.182660467398462e-06
-7.451478280930068e-06   1.632690185639652e-06   -3.182660467398462e-06
-7.451478280930068e-06   1.632690185639652e-06   -3.182660467398462e-06
7.3868495787150095e-06   -9.6296420898671e-07   8.923611321284917e-08
7.3868495787150095e-06   -9.6296420898671e-07   8.923611321284917e-08
7.3868495787150095e-06   -9.6296420898671e-07   8.923611321284917e-08
7.3868495787150095e-06   -9.6296420898671e-07   8.923611321284917e-08
3.1228571174209038e-06   -1.7178114611637093e-06   -7.470326340250133e-06
3.1228571174209038e-06   -1.7178114611637093e-06   -7.470326340250133e-06
3.1228571174209038e-06   -1.7178114611637093e-06   -7.470326340250133e-06
3.1228571174209038e-06   -1.7178114611637093e-06   -7.470326340250133e-06
3.3307996870412875e-06   -7.935846585277722e-07   -6.849015010288654e-07
3.3307996870412875e-06   -7.935846585277722e-07   -6.849015010288654e-07
3.3307996870412875e-06   -7.935846585277722e-07   -6.849015010288654e-07
3.3307996870412875e-06   -7.935846585277722e-07   -6.849015010288654e-07
7.922779604735568e-06   -1.5997832722440715e-06   -7.854482195622932e-06
7.922779604735568e-06   -1.5997832722440715e-06   -7.854482195622932e-06
7.922779604735568e-06   -1.5997832722440715e-06   -7.854482195622932e-06
7.922779604735568e-06   -1.5997832722440715e-06   -7.854482195622932e-06
5.220177481487288e-06   -1.138258136206341e-06   -3.627060405165066e-06
5.220177481487288e-06   -1.138258136206341e-06   -3.627060405165066e-06
5.220177481487288e-06   -1.138258136206341e-06   -3.627060405165066e-06
5.220177481487288e-06   -1.138258136206341e-06   -3.627060405165066e-06
7.922779604735568e-06   -7.935846585277722e-07   -2.0118233279910755e-07
7.922779604735568e-06   -7.935846585277722e-07   -2.0118233279910755e-07
7.922779604735568e-06   -7.935846585277722e-07   -2.0118233279910755e-07
7.922779604735568e-06   -7.935846585277722e-07   -2.0118233279910755e-07
3.3307996870412808e-06   -1.5997832722440715e-06   -8.338201363852635e-06
3.3307996870412808e-06   -1.5997832722440715e-06   -8.338201363852635e-06
3.3307996870412808e-06   -1.5997832722440715e-06   -8.338201363852635e-06
3.3307996870412808e-06   -1.5997832722440715e-06   -8.338201363852635e-06
3.5618754118186866e-06   -6.784901349069948e-07   -1.0282158183229882e-06
3.5618754118186866e-06   -6.784901349069948e-07   -1.0282158183229882e-06
3.5618754118186866e-06   -6.784901349069948e-07   -1.0282158183229882e-06
3.5618754118186866e-06   -6.784901349069948e-07   -1.0282158183229882e-06
8.370079822774668e-06   -1.4955880546676896e-06   -8.551631084726611e-06
8.370079822774668e-06   -1.4955880546676896e-06   -8.551631084726611e-06
8.370079822774668e-06   -1.4955880546676896e-06   -8.551631084726611e-06
8.370079822774668e-06   -1.4955880546676896e-06   -8.551631084726611e-06
5.622255186722666e-06   -1.0916977414472413e-06   -4.214257545905579e-06
5.622255186722666e-06   -1.0916977414472413e-06   -4.214257545905579e-06
5.622255186722666e-06   -1.0916977414472413e-06   -4.214257545905579e-06
5.622255186722666e-06   -1.0916977414472413e-06   -4.214257545905579e-06
8.370079822774681e-06   -6.784901349069948e-07   -5.379570664666581e-07
8.370079822774681e-06   -6.784901349069948e-07   -5.379570664666581e-07
8.370079822774681e-06   -6.784901349069948e-07   -5.379570664666581e-07
8.370079822774681e-06   -6.784901349069948e-07   -5.379570664666581e-07
3.56187541181868e-06   -1.4955880546676896e-06   -9.04188983658305e-06
3.56187541181868e-06   -1.4955880546676896e-06   -9.04188983658305e-06
3.56187541181868e-06   -1.4955880546676896e-06   -9.04188983658305e-06
3.56187541181868e-06   -1.4955880546676896e-06   -9.04188983658305e-06
3.750595380910334e-06   -3.906008733901758e-07   -1.811525121444375e-06
3.750595380910334e-06   -3.906008733901758e-07   -1.811525121444375e-06
3.750595380910334e-06   -3.906008733901758e-07   -1.811525121444375e-06
3.750595380910334e-06   -3.906008733901758e-07   -1.811525121444375e-06
8.889859236212836e-06   -1.1691823060503304e-06   -9.909816020685895e-06
8.889859236212836e-06   -1.1691823060503304e-06   -9.909816020685895e-06
8.889859236212836e-06   -1.1691823060503304e-06   -9.909816020685895e-06
8.889859236212836e-06   -1.1691823060503304e-06   -9.909816020685895e-06
5.8319327827688236e-06   -9.613943858700512e-07   -4.9379446837208405e-06
5.8319327827688236e-06   -9.613943858700512e-07   -4.9379446837208405e-06
5.8319327827688236e-06   -9.613943858700512e-07   -4.9379446837208405e-06
5.8319327827688236e-06   -9.613943858700512e-07   -4.9379446837208405e-06
3.1228571174209105e-06   -3.7196787599521166e-07   -4.914736326670386e-06
3.1228571174209105e-06   -3.7196787599521166e-07   -4.914736326670386e-06
3.1228571174209105e-06   -3.7196787599521166e-07   -4.914736326670386e-06
3.1228571174209105e-06   -3.7196787599521166e-07   -4.914736326670386e-06
-1.363752921632871e-06   -7.901182429733257e-07   -1.2643309945280224e-05
-1.363752921632871e-06   -7.901182429733257e-07   -1.2643309945280224e-05
-1.363752921632871e-06   -7.901182429733257e-07   -1.2643309945280224e-05
-1.363752921632871e-06   -7.901182429733257e-07   -1.2643309945280224e-05
-1.1719100452613432e-06   -1.3737421265770308e-07   -5.016460844993887e-06
-1.1719100452613432e-06   -1.3737421265770308e-07   -5.016460844993887e-06
-1.1719100452613432e-06   -1.3737421265770308e-07   -5.016460844993887e-06
-1.1719100452613432e-06   -1.3737421265770308e-07   -5.016460844993887e-06
3.3307996870412808e-06   -6.217478741449029e-07   -1.2230352868605886e-05
3.3307996870412808e-06   -6.217478741449029e-07   -1.2230352868605886e-05
3.3307996870412808e-06   -6.217478741449029e-07   -1.2230352868605886e-05
3.3307996870412808e-06   -6.217478741449029e-07   -1.2230352868605886e-05
9.898650671402458e-07   -3.7941795143073883e-07   -8.47419312239942e-06
9.898650671402458e-07   -3.7941795143073883e-07   -8.47419312239942e-06
9.898650671402458e-07   -3.7941795143073883e-07   -8.47419312239942e-06
9.898650671402458e-07   -3.7941795143073883e-07   -8.47419312239942e-06
3.3307996870412875e-06   -1.3737421265770308e-07   -4.725836648101513e-06
3.3307996870412875e-06   -1.3737421265770308e-07   -4.725836648101513e-06
3.3307996870412875e-06   -1.3737421265770308e-07   -4.725836648101513e-06
3.3307996870412875e-06   -1.3737421265770308e-07   -4.725836648101513e-06
-1.1719100452613432e-06   -6.217478741449029e-07   -1.2520977065498274e-05
-1.1719100452613432e-06   -6.217478741449029e-07   -1.2520977065498274e-05
-1.1719100452613432e-06   -6.217478741449029e-07   -1.2520977065498274e-05
-1.1719100452613432e-06   -6.217478741449029e-07   -1.2520977065498274e-05
-9.88798832243326e-07   1.0596420425476854e-07   -5.085674728805864e-06
-9.88798832243326e-07   1.0596420425476854e-07   -5.085674728805864e-06
-9.88798832243326e-07   1.0596420425476854e-07   -5.085674728805864e-06
-9.88798832243326e-07   1.0596420425476854e-07   -5.085674728805864e-06
3.56187541181868e-06   -4.163514223969782e-07   -1.235674242625146e-05
3.56187541181868e-06   -4.163514223969782e-07   -1.235674242625146e-05
3.56187541181868e-06   -4.163514223969782e-07   -1.235674242625146e-05
3.56187541181868e-06   -4.163514223969782e-07   -1.235674242625146e-05
1.139987789618815e-06   -2.2942385539894035e-07   -8.43241959611697e-06
1.139987789618815e-06   -2.2942385539894035e-07   -8.43241959611697e-06
1.139987789618815e-06   -2.2942385539894035e-07   -8.43241959611697e-06
1.139987789618815e-06   -2.2942385539894035e-07   -8.43241959611697e-06
3.5618754118186866e-06   1.0596420425476854e-07   -4.772285352814783e-06
3.5618754118186866e-06   1.0596420425476854e-07   -4.772285352814783e-06
3.5618754118186866e-06   1.0596420425476854e-07   -4.772285352814783e-06
3.5618754118186866e-06   1.0596420425476854e-07   -4.772285352814783e-06
-9.88798832243326e-07   -4.163514223970866e-07   -1.2670131802242567e-05
-9.88798832243326e-07   -4.163514223970866e-07   -1.2670131802242567e-05
-9.88798832243326e-07   -4.163514223970866e-07   -1.2670131802242567e-05
-9.88798832243326e-07   -4.163514223970866e-07   -1.2670131802242567e-05
-8.173935986012171e-07   3.9531236462465695e-07   -5.2642704848760834e-06
-8.173935986012171e-07   3.9531236462465695e-07   -5.2642704848760834e-06
-8.173935986012171e-07   3.9531236462465695e-07   -5.2642704848760834e-06
-8.173935986012171e-07   3.9531236462465695e-07   -5.2642704848760834e-06
3.750595380910334e-06   -1.569628389035127e-07   -1.2546220328611866e-05
3.750595380910334e-06   -1.569628389035127e-07   -1.2546220328611866e-05
3.750595380910334e-06   -1.569628389035127e-07   -1.2546220328611866e-05
3.750595380910334e-06   -1.569628389035127e-07   -1.2546220328611866e-05
1.3306428754881368e-06   -4.3799239165544755e-08   -8.580864312751106e-06
1.3306428754881368e-06   -4.3799239165544755e-08   -8.580864312751106e-06
1.3306428754881368e-06   -4.3799239165544755e-08   -8.580864312751106e-06
1.3306428754881368e-06   -4.3799239165544755e-08   -8.580864312751106e-06
-1.363752921632871e-06   3.034516564049848e-07   -6.365787818186214e-06
-1.363752921632871e-06   3.034516564049848e-07   -6.365787818186214e-06
-1.363752921632871e-06   3.034516564049848e-07   -6.365787818186214e-06
-1.363752921632871e-06   3.034516564049848e-07   -6.365787818186214e-06
-5.771226187495076e-06   1.7214804360927028e-07   -1.379035876230059e-05
-5.771226187495076e-06   1.7214804360927028e-07   -1.379035876230059e-05
-5.771226187495076e-06   1.7214804360927028e-07   -1.379035876230059e-05
-5.771226187495076e-06   1.7214804360927028e-07   -1.379035876230059e-05
-5.5649487912441635e-06   5.531832440554881e-07   -6.31388705355304e-06
-5.5649487912441635e-06   5.531832440554881e-07   -6.31388705355304e-06
-5.5649487912441635e-06   5.531832440554881e-07   -6.31388705355304e-06
-5.5649487912441635e-06   5.531832440554881e-07   -6.31388705355304e-06
-1.1719100452613432e-06   3.6232896856349794e-07   -1.3521105731562579e-05
-1.1719100452613432e-06   3.6232896856349794e-07   -1.3521105731562579e-05
-1.1719100452613432e-06   3.6232896856349794e-07   -1.3521105731562579e-05
-1.1719100452613432e-06   3.6232896856349794e-07   -1.3521105731562579e-05
-3.4447850369585643e-06   4.1721858886917956e-07   -9.765914517583825e-06
-3.4447850369585643e-06   4.1721858886917956e-07   -9.765914517583825e-06
-3.4447850369585643e-06   4.1721858886917956e-07   -9.765914517583825e-06
-3.4447850369585643e-06   4.1721858886917956e-07   -9.765914517583825e-06
-1.1719100452613432e-06   5.531832440554881e-07   -6.199374488257813e-06
-1.1719100452613432e-06   5.531832440554881e-07   -6.199374488257813e-06
-1.1719100452613432e-06   5.531832440554881e-07   -6.199374488257813e-06
-1.1719100452613432e-06   5.531832440554881e-07   -6.199374488257813e-06
-5.5649487912441635e-06   3.6232896856349794e-07   -1.3635618296857738e-05
-5.5649487912441635e-06   3.6232896856349794e-07   -1.3635618296857738e-05
-5.5649487912441635e-06   3.6232896856349794e-07   -1.3635618296857738e-05
-5.5649487912441635e-06   3.6232896856349794e-07   -1.3635618296857738e-05
-5.365614708511361e-06   8.168843522556512e-07   -6.304503475672123e-06
-5.365614708511361e-06   8.168843522556512e-07   -6.304503475672123e-06
-5.365614708511361e-06   8.168843522556512e-07   -6.304503475672123e-06
-5.365614708511361e-06   8.168843522556512e-07   -6.304503475672123e-06
-9.88798832243326e-07   5.809905322437092e-07   -1.3457660310778315e-05
-9.88798832243326e-07   5.809905322437092e-07   -1.3457660310778315e-05
-9.88798832243326e-07   5.809905322437092e-07   -1.3457660310778315e-05
-9.88798832243326e-07   5.809905322437092e-07   -1.3457660310778315e-05
-3.268088658145057e-06   5.955548676955628e-07   -9.667582535546643e-06
-3.268088658145057e-06   5.955548676955628e-07   -9.667582535546643e-06
-3.268088658145057e-06   5.955548676955628e-07   -9.667582535546643e-06
-3.268088658145057e-06   5.955548676955628e-07   -9.667582535546643e-06
-9.88798832243326e-07   8.168843522556512e-07   -6.162967183664903e-06
-9.88798832243326e-07   8.168843522556512e-07   -6.162967183664903e-06
-9.88798832243326e-07   8.168843522556512e-07   -6.162967183664903e-06
-9.88798832243326e-07   8.168843522556512e-07   -6.162967183664903e-06
-5.365614708511361e-06   5.809905322437092e-07   -1.3599196602785582e-05
-5.365614708511361e-06   5.809905322437092e-07   -1.3599196602785582e-05
-5.365614708511361e-06   5.809905322437092e-07   -1.3599196602785582e-05
-5.365614708511361e-06   5.809905322437092e-07   -1.3599196602785582e-05
-5.181483732606236e-06   1.0852214271302738e-06   -6.456001181961979e-06
-5.181483732606236e-06   1.0852214271302738e-06   -6.456001181961979e-06
-5.181483732606236e-06   1.0852214271302738e-06   -6.456001181961979e-06
-5.181483732606236e-06   1.0852214271302738e-06   -6.456001181961979e-06
-8.173935986012238e-07   8.06672391466404e-07   -1.3562355317238722e-05
-8.173935986012238e-07   8.06672391466404e-07   -1.3562355317238722e-05
-8.173935986012238e-07   8.06672391466404e-07   -1.3562355317238722e-05
-8.173935986012238e-07   8.06672391466404e-07   -1.3562355317238722e-05
-3.1109319597939373e-06   7.784986615817519e-07   -9.722887143986866e-06
-3.1109319597939373e-06   7.784986615817519e-07   -9.722887143986866e-06
-3.1109319597939373e-06   7.784986615817519e-07   -9.722887143986866e-06
-3.1109319597939373e-06   7.784986615817519e-07   -9.722887143986866e-06
-5.771226187495082e-06   9.628829093650529e-07   -5.150841064455972e-06
-5.771226187495082e-06   9.628829093650529e-07   -5.150841064455972e-06
-5.771226187495082e-06   9.628829093650529e-07   -5.150841064455972e-06
-5.771226187495082e-06   9.628829093650529e-07   -5.150841064455972e-06
-1.0113400211478933e-05   1.1694133835413482e-06   -1.2263879486589988e-05
-1.0113400211478933e-05   1.1694133835413482e-06   -1.2263879486589988e-05
-1.0113400211478933e-05   1.1694133835413482e-06   -1.2263879486589988e-05
-1.0113400211478933e-05   1.1694133835413482e-06   -1.2263879486589988e-05
-9.863738642914398e-06   1.2295690397446301e-06   -4.824370949769172e-06
-9.863738642914398e-06   1.2295690397446301e-06   -4.824370949769172e-06
-9.863738642914398e-06   1.2295690397446301e-06   -4.824370949769172e-06
-9.863738642914398e-06   1.2295690397446301e-06   -4.824370949769172e-06
-5.564948791244172e-06   1.408952499908642e-06   -1.2096650778651356e-05
-5.564948791244172e-06   1.408952499908642e-06   -1.2096650778651356e-05
-5.564948791244172e-06   1.408952499908642e-06   -1.2096650778651356e-05
-5.564948791244172e-06   1.408952499908642e-06   -1.2096650778651356e-05
-7.771469463841456e-06   1.2404706496735394e-06   -8.318027214181508e-06
-7.771469463841456e-06   1.2404706496735394e-06   -8.318027214181508e-06
-7.771469463841456e-06   1.2404706496735394e-06   -8.318027214181508e-06
-7.771469463841456e-06   1.2404706496735394e-06   -8.318027214181508e-06
-5.564948791244172e-06   1.2295690397446301e-06   -4.932001025867623e-06
-5.564948791244172e-06   1.2295690397446301e-06   -4.932001025867623e-06
-5.564948791244172e-06   1.2295690397446301e-06   -4.932001025867623e-06
-5.564948791244172e-06   1.2295690397446301e-06   -4.932001025867623e-06
-9.863738642914415e-06   1.408952499908642e-06   -1.1989020702552963e-05
-9.863738642914415e-06   1.408952499908642e-06   -1.1989020702552963e-05
-9.863738642914415e-06   1.408952499908642e-06   -1.1989020702552963e-05
-9.863738642914415e-06   1.408952499908642e-06   -1.1989020702552963e-05
-9.585198468976378e-06   1.4689667188085942e-06   -4.642379953282664e-06
-9.585198468976378e-06   1.4689667188085942e-06   -4.642379953282664e-06
-9.585198468976378e-06   1.4689667188085942e-06   -4.642379953282664e-06
-9.585198468976378e-06   1.4689667188085942e-06   -4.642379953282664e-06
-5.365614708511369e-06   1.6149444099466644e-06   -1.1762606168740484e-05
-5.365614708511369e-06   1.6149444099466644e-06   -1.1762606168740484e-05
-5.365614708511369e-06   1.6149444099466644e-06   -1.1762606168740484e-05
-5.365614708511369e-06   1.6149444099466644e-06   -1.1762606168740484e-05
-7.516604647362604e-06   1.428204932131744e-06   -8.06557925063281e-06
-7.516604647362604e-06   1.428204932131744e-06   -8.06557925063281e-06
-7.516604647362604e-06   1.428204932131744e-06   -8.06557925063281e-06
-7.516604647362604e-06   1.428204932131744e-06   -8.06557925063281e-06
-5.365614708511366e-06   1.4689667188085942e-06   -4.7299665679654515e-06
-5.365614708511366e-06   1.4689667188085942e-06   -4.7299665679654515e-06
-5.365614708511366e-06   1.4689667188085942e-06   -4.7299665679654515e-06
-5.365614708511366e-06   1.4689667188085942e-06   -4.7299665679654515e-06
-9.585198468976378e-06   1.6149444099466644e-06   -1.16750195540577e-05
-9.585198468976378e-06   1.6149444099466644e-06   -1.16750195540577e-05
-9.585198468976378e-06   1.6149444099466644e-06   -1.16750195540577e-05
-9.585198468976378e-06   1.6149444099466644e-06   -1.16750195540577e-05
-9.350431433406524e-06   1.73502652408246e-06   -4.750706509035825e-06
-9.350431433406524e-06   1.73502652408246e-06   -4.750706509035825e-06
-9.350431433406524e-06   1.73502652408246e-06   -4.750706509035825e-06
-9.350431433406524e-06   1.73502652408246e-06   -4.750706509035825e-06
-5.1814837326062445e-06   1.8412726390346513e-06   -1.1762700346007536e-05
-5.1814837326062445e-06   1.8412726390346513e-06   -1.1762700346007536e-05
-5.1814837326062445e-06   1.8412726390346513e-06   -1.1762700346007536e-05
-5.1814837326062445e-06   1.8412726390346513e-06   -1.1762700346007536e-05
-7.363710719453616e-06   1.6005123608162477e-06   -7.981199200997633e-06
-7.363710719453616e-06   1.6005123608162477e-06   -7.981199200997633e-06
-7.363710719453616e-06   1.6005123608162477e-06   -7.981199200997633e-06
-7.363710719453616e-06   1.6005123608162477e-06   -7.981199200997633e-06
-1.0113400211478933e-05   1.657982048696013e-06   -2.5665649315017138e-06
-1.0113400211478933e-05   1.657982048696013e-06   -2.5665649315017138e-06
-1.0113400211478933e-05   1.657982048696013e-06   -2.5665649315017138e-06
-1.0113400211478933e-05   1.657982048696013e-06   -2.5665649315017138e-06
-1.4709460291314992e-05   2.275457687258035e-06   -9.856179681424614e-06
-1.4709460291314992e-05   2.275457687258035e-06   -9.856179681424614e-06
-1.4709460291314992e-05   2.275457687258035e-06   -9.856179681424614e-06
-1.4709460291314992e-05   2.275457687258035e-06   -9.856179681424614e-06
-1.4120101027937291e-05   1.9363179605878886e-06   -7.275235495105567e-07
-1.4120101027937291e-05   1.9363179605878886e-06   -7.275235495105567e-07
-1.4120101027937291e-05   1.9363179605878886e-06   -7.275235495105567e-07
-1.4120101027937291e-05   1.9363179605878886e-06   -7.275235495105567e-07
-9.863738642914398e-06   2.5940215505645785e-06   -8.216083011868059e-06
-9.863738642914398e-06   2.5940215505645785e-06   -8.216083011868059e-06
-9.863738642914398e-06   2.5940215505645785e-06   -8.216083011868059e-06
-9.863738642914398e-06   2.5940215505645785e-06   -8.216083011868059e-06
-1.1698177448997572e-05   2.166981237660846e-06   -4.902460813987217e-06
-1.1698177448997572e-05   2.166981237660846e-06   -4.902460813987217e-06
-1.1698177448997572e-05   2.166981237660846e-06   -4.902460813987217e-06
-1.1698177448997572e-05   2.166981237660846e-06   -4.902460813987217e-06
-9.863738642914406e-06   1.9363179605878886e-06   -1.1221457034965164e-06
-9.863738642914406e-06   1.9363179605878886e-06   -1.1221457034965164e-06
-9.863738642914406e-06   1.9363179605878886e-06   -1.1221457034965164e-06
-9.863738642914406e-06   1.9363179605878886e-06   -1.1221457034965164e-06
-1.4120101027937268e-05   2.5940215505645785e-06   -7.821460857882054e-06
-1.4120101027937268e-05   2.5940215505645785e-06   -7.821460857882054e-06
-1.4120101027937268e-05   2.5940215505645785e-06   -7.821460857882054e-06
-1.4120101027937268e-05   2.5940215505645785e-06   -7.821460857882054e-06
-1.3635442003822422e-05   2.0365285150455493e-06   4.836229241351412e-08
-1.3635442003822422e-05   2.0365285150455493e-06   4.836229241351412e-08
-1.3635442003822422e-05   2.0365285150455493e-06   4.836229241351412e-08
-1.3635442003822422e-05   2.0365285150455493e-06   4.836229241351412e-08
-9.585198468976378e-06   2.678707557264722e-06   -7.087351024328091e-06
-9.585198468976378e-06   2.678707557264722e-06   -7.087351024328091e-06
-9.585198468976378e-06   2.678707557264722e-06   -7.087351024328091e-06
-9.585198468976378e-06   2.678707557264722e-06   -7.087351024328091e-06
-1.151015846839319e-05   2.29675808169935e-06   -3.6499146732941014e-06
-1.151015846839319e-05   2.29675808169935e-06   -3.6499146732941014e-06
-1.151015846839319e-05   2.29675808169935e-06   -3.6499146732941014e-06
-1.151015846839319e-05   2.29675808169935e-06   -3.6499146732941014e-06
-9.585198468976378e-06   2.0365285150455493e-06   -3.3694513291803287e-07
-9.585198468976378e-06   2.0365285150455493e-06   -3.3694513291803287e-07
-9.585198468976378e-06   2.0365285150455493e-06   -3.3694513291803287e-07
-9.585198468976378e-06   2.0365285150455493e-06   -3.3694513291803287e-07
-1.3635442003822375e-05   2.6787075572648304e-06   -6.7020435989966235e-06
-1.3635442003822375e-05   2.6787075572648304e-06   -6.7020435989966235e-06
-1.3635442003822375e-05   2.6787075572648304e-06   -6.7020435989966235e-06
-1.3635442003822375e-05   2.6787075572648304e-06   -6.7020435989966235e-06
-1.3108550505885235e-05   2.159371775646568e-06   1.0431451079265393e-06
-1.3108550505885235e-05   2.159371775646568e-06   1.0431451079265393e-06
-1.3108550505885235e-05   2.159371775646568e-06   1.0431451079265393e-06
-1.3108550505885235e-05   2.159371775646568e-06   1.0431451079265393e-06
-9.350431433406524e-06   2.7468655761497948e-06   -5.57288295983997e-06
-9.350431433406524e-06   2.7468655761497948e-06   -5.57288295983997e-06
-9.350431433406524e-06   2.7468655761497948e-06   -5.57288295983997e-06
-9.350431433406524e-06   2.7468655761497948e-06   -5.57288295983997e-06
-1.1011785981036742e-05   2.3172239393994118e-06   -2.54617373173947e-06
-1.1011785981036742e-05   2.3172239393994118e-06   -2.54617373173947e-06
-1.1011785981036742e-05   2.3172239393994118e-06   -2.54617373173947e-06
-1.1011785981036742e-05   2.3172239393994118e-06   -2.54617373173947e-06
1.2379138971397701e-05   -1.7178114611637093e-06   2.597614467207438e-06
1.2379138971397701e-05   -1.7178114611637093e-06   2.597614467207438e-06
1.2379138971397701e-05   -1.7178114611637093e-06   2.597614467207438e-06
1.2379138971397701e-05   -1.7178114611637093e-06   2.597614467207438e-06
5.933596811393198e-06   -2.5218861327636413e-06   -8.627400602426757e-06
5.933596811393198e-06   -2.5218861327636413e-06   -8.627400602426757e-06
5.933596811393198e-06   -2.5218861327636413e-06   -8.627400602426757e-06
5.933596811393198e-06   -2.5218861327636413e-06   -8.627400602426757e-06
6.1631622140801895e-06   -1.599783272243963e-06   1.3281425239610421e-06
6.1631622140801895e-06   -1.599783272243963e-06   1.3281425239610421e-06
6.1631622140801895e-06   -1.599783272243963e-06   1.3281425239610421e-06
6.1631622140801895e-06   -1.599783272243963e-06   1.3281425239610421e-06
1.2924799240967395e-05   -2.4655468636388973e-06   -9.421794366014079e-06
1.2924799240967395e-05   -2.4655468636388973e-06   -9.421794366014079e-06
1.2924799240967395e-05   -2.4655468636388973e-06   -9.421794366014079e-06
1.2924799240967395e-05   -2.4655468636388973e-06   -9.421794366014079e-06
8.968509713147977e-06   -1.8760215427676176e-06   -3.181693678837782e-06
8.968509713147977e-06   -1.8760215427676176e-06   -3.181693678837782e-06
8.968509713147977e-06   -1.8760215427676176e-06   -3.181693678837782e-06
8.968509713147977e-06   -1.8760215427676176e-06   -3.181693678837782e-06
1.2924799240967408e-05   -1.599783272243963e-06   1.847600678797905e-06
1.2924799240967408e-05   -1.599783272243963e-06   1.847600678797905e-06
1.2924799240967408e-05   -1.599783272243963e-06   1.847600678797905e-06
1.2924799240967408e-05   -1.599783272243963e-06   1.847600678797905e-06
6.163162214080176e-06   -2.4655468636388973e-06   -9.941252520851037e-06
6.163162214080176e-06   -2.4655468636388973e-06   -9.941252520851037e-06
6.163162214080176e-06   -2.4655468636388973e-06   -9.941252520851037e-06
6.163162214080176e-06   -2.4655468636388973e-06   -9.941252520851037e-06
6.391875538869615e-06   -1.4955880546676896e-06   7.010835403442714e-07
6.391875538869615e-06   -1.4955880546676896e-06   7.010835403442714e-07
6.391875538869615e-06   -1.4955880546676896e-06   7.010835403442714e-07
6.391875538869615e-06   -1.4955880546676896e-06   7.010835403442714e-07
1.3341687983111825e-05   -2.3790896026629075e-06   -1.0351836271262291e-05
1.3341687983111825e-05   -2.3790896026629075e-06   -1.0351836271262291e-05
1.3341687983111825e-05   -2.3790896026629075e-06   -1.0351836271262291e-05
1.3341687983111825e-05   -2.3790896026629075e-06   -1.0351836271262291e-05
9.430152821733203e-06   -1.8692705894302487e-06   -4.138502410237511e-06
9.430152821733203e-06   -1.8692705894302487e-06   -4.138502410237511e-06
9.430152821733203e-06   -1.8692705894302487e-06   -4.138502410237511e-06
9.430152821733203e-06   -1.8692705894302487e-06   -4.138502410237511e-06
1.3341687983111825e-05   -1.4955880546676896e-06   1.2311844691413804e-06
1.3341687983111825e-05   -1.4955880546676896e-06   1.2311844691413804e-06
1.3341687983111825e-05   -1.4955880546676896e-06   1.2311844691413804e-06
1.3341687983111825e-05   -1.4955880546676896e-06   1.2311844691413804e-06
6.391875538869615e-06   -2.3790896026629075e-06   -1.088193720005944e-05
6.391875538869615e-06   -2.3790896026629075e-06   -1.088193720005944e-05
6.391875538869615e-06   -2.3790896026629075e-06   -1.088193720005944e-05
6.391875538869615e-06   -2.3790896026629075e-06   -1.088193720005944e-05
6.545032387646587e-06   -1.1691823060503304e-06   -5.518222280604334e-07
6.545032387646587e-06   -1.1691823060503304e-06   -5.518222280604334e-07
6.545032387646587e-06   -1.1691823060503304e-06   -5.518222280604334e-07
6.545032387646587e-06   -1.1691823060503304e-06   -5.518222280604334e-07
1.3783240381336377e-05   -2.0449874383058004e-06   -1.2090019138190098e-05
1.3783240381336377e-05   -2.0449874383058004e-06   -1.2090019138190098e-05
1.3783240381336377e-05   -2.0449874383058004e-06   -1.2090019138190098e-05
1.3783240381336377e-05   -2.0449874383058004e-06   -1.2090019138190098e-05
9.549425644132275e-06   -1.7239614801192868e-06   -5.226276817762039e-06
9.549425644132275e-06   -1.7239614801192868e-06   -5.226276817762039e-06
9.549425644132275e-06   -1.7239614801192868e-06   -5.226276817762039e-06
9.549425644132275e-06   -1.7239614801192868e-06   -5.226276817762039e-06
5.933596811393212e-06   -7.901182429733257e-07   -2.806923720595836e-06
5.933596811393212e-06   -7.901182429733257e-07   -2.806923720595836e-06
5.933596811393212e-06   -7.901182429733257e-07   -2.806923720595836e-06
5.933596811393212e-06   -7.901182429733257e-07   -2.806923720595836e-06
-4.167341084054097e-07   -1.5996361053863782e-06   -1.3876519304374636e-05
-4.167341084054097e-07   -1.5996361053863782e-06   -1.3876519304374636e-05
-4.167341084054097e-07   -1.5996361053863782e-06   -1.3876519304374636e-05
-4.167341084054097e-07   -1.5996361053863782e-06   -1.3876519304374636e-05
-1.8234367447682255e-07   -6.217478741450113e-07   -3.101897748212449e-06
-1.8234367447682255e-07   -6.217478741450113e-07   -3.101897748212449e-06
-1.8234367447682255e-07   -6.217478741450113e-07   -3.101897748212449e-06
-1.8234367447682255e-07   -6.217478741450113e-07   -3.101897748212449e-06
6.1631622140801895e-06   -1.5182291531787946e-06   -1.3139852128387245e-05
6.1631622140801895e-06   -1.5182291531787946e-06   -1.3139852128387245e-05
6.1631622140801895e-06   -1.5182291531787946e-06   -1.3139852128387245e-05
6.1631622140801895e-06   -1.5182291531787946e-06   -1.3139852128387245e-05
2.8819682528942357e-06   -9.693605383398213e-07   -8.000516695314008e-06
2.8819682528942357e-06   -9.693605383398213e-07   -8.000516695314008e-06
2.8819682528942357e-06   -9.693605383398213e-07   -8.000516695314008e-06
2.8819682528942357e-06   -9.693605383398213e-07   -8.000516695314008e-06
6.163162214080183e-06   -6.217478741450113e-07   -2.5640089807921684e-06
6.163162214080183e-06   -6.217478741450113e-07   -2.5640089807921684e-06
6.163162214080183e-06   -6.217478741450113e-07   -2.5640089807921684e-06
6.163162214080183e-06   -6.217478741450113e-07   -2.5640089807921684e-06
-1.8234367447682255e-07   -1.5182291531787946e-06   -1.3677740895807512e-05
-1.8234367447682255e-07   -1.5182291531787946e-06   -1.3677740895807512e-05
-1.8234367447682255e-07   -1.5182291531787946e-06   -1.3677740895807512e-05
-1.8234367447682255e-07   -1.5182291531787946e-06   -1.3677740895807512e-05
2.385172103900289e-08   -4.163514223970866e-07   -3.1860835506488413e-06
2.385172103900289e-08   -4.163514223970866e-07   -3.1860835506488413e-06
2.385172103900289e-08   -4.163514223970866e-07   -3.1860835506488413e-06
2.385172103900289e-08   -4.163514223970866e-07   -3.1860835506488413e-06
6.391875538869615e-06   -1.3702089246048254e-06   -1.3227142079041932e-05
6.391875538869615e-06   -1.3702089246048254e-06   -1.3227142079041932e-05
6.391875538869615e-06   -1.3702089246048254e-06   -1.3227142079041932e-05
6.391875538869615e-06   -1.3702089246048254e-06   -1.3227142079041932e-05
3.0385120738997327e-06   -8.846815296518736e-07   -7.929519407730312e-06
3.0385120738997327e-06   -8.846815296518736e-07   -7.929519407730312e-06
3.0385120738997327e-06   -8.846815296518736e-07   -7.929519407730312e-06
3.0385120738997327e-06   -8.846815296518736e-07   -7.929519407730312e-06
6.391875538869615e-06   -4.163514223969782e-07   -2.6137690493242198e-06
6.391875538869615e-06   -4.163514223969782e-07   -2.6137690493242198e-06
6.391875538869615e-06   -4.163514223969782e-07   -2.6137690493242198e-06
6.391875538869615e-06   -4.163514223969782e-07   -2.6137690493242198e-06
2.385172103900289e-08   -1.3702089246048254e-06   -1.3799456580366554e-05
2.385172103900289e-08   -1.3702089246048254e-06   -1.3799456580366554e-05
2.385172103900289e-08   -1.3702089246048254e-06   -1.3799456580366554e-05
2.385172103900289e-08   -1.3702089246048254e-06   -1.3799456580366554e-05
1.695627814902106e-07   -1.569628389035127e-07   -3.3225006249918126e-06
1.695627814902106e-07   -1.569628389035127e-07   -3.3225006249918126e-06
1.695627814902106e-07   -1.569628389035127e-07   -3.3225006249918126e-06
1.695627814902106e-07   -1.569628389035127e-07   -3.3225006249918126e-06
6.5450323876466e-06   -1.1593344199059726e-06   -1.3346860353317646e-05
6.5450323876466e-06   -1.1593344199059726e-06   -1.3346860353317646e-05
6.5450323876466e-06   -1.1593344199059726e-06   -1.3346860353317646e-05
6.5450323876466e-06   -1.1593344199059726e-06   -1.3346860353317646e-05
3.230463761334539e-06   -7.376684469141432e-07   -8.075578893259493e-06
3.230463761334539e-06   -7.376684469141432e-07   -8.075578893259493e-06
3.230463761334539e-06   -7.376684469141432e-07   -8.075578893259493e-06
3.230463761334539e-06   -7.376684469141432e-07   -8.075578893259493e-06
-4.167341084054097e-07   1.7214804360927028e-07   -4.3609010873865836e-06
-4.167341084054097e-07   1.7214804360927028e-07   -4.3609010873865836e-06
-4.167341084054097e-07   1.7214804360927028e-07   -4.3609010873865836e-06
-4.167341084054097e-07   1.7214804360927028e-07   -4.3609010873865836e-06
-6.673423855667207e-06   -7.861951115941063e-07   -1.536372322594496e-05
-6.673423855667207e-06   -7.861951115941063e-07   -1.536372322594496e-05
-6.673423855667207e-06   -7.861951115941063e-07   -1.536372322594496e-05
-6.673423855667207e-06   -7.861951115941063e-07   -1.536372322594496e-05
-6.39173192440071e-06   3.6232896856349794e-07   -4.732683162717987e-06
-6.39173192440071e-06   3.6232896856349794e-07   -4.732683162717987e-06
-6.39173192440071e-06   3.6232896856349794e-07   -4.732683162717987e-06
-6.39173192440071e-06   3.6232896856349794e-07   -4.732683162717987e-06
-1.8234367447682255e-07   -6.887656121717413e-07   -1.44510068308166e-05
-1.8234367447682255e-07   -6.887656121717413e-07   -1.44510068308166e-05
-1.8234367447682255e-07   -6.887656121717413e-07   -1.44510068308166e-05
-1.8234367447682255e-07   -6.887656121717413e-07   -1.44510068308166e-05
-3.3774499369834077e-06   -1.1697733285536208e-07   -9.468902694228745e-06
-3.3774499369834077e-06   -1.1697733285536208e-07   -9.468902694228745e-06
-3.3774499369834077e-06   -1.1697733285536208e-07   -9.468902694228745e-06
-3.3774499369834077e-06   -1.1697733285536208e-07   -9.468902694228745e-06
-1.8234367447682255e-07   3.6232896856360636e-07   -4.1020264142768216e-06
-1.8234367447682255e-07   3.6232896856360636e-07   -4.1020264142768216e-06
-1.8234367447682255e-07   3.6232896856360636e-07   -4.1020264142768216e-06
-1.8234367447682255e-07   3.6232896856360636e-07   -4.1020264142768216e-06
-6.39173192440071e-06   -6.887656121717413e-07   -1.50816635792578e-05
-6.39173192440071e-06   -6.887656121717413e-07   -1.50816635792578e-05
-6.39173192440071e-06   -6.887656121717413e-07   -1.50816635792578e-05
-6.39173192440071e-06   -6.887656121717413e-07   -1.50816635792578e-05
-6.133350609667615e-06   5.809905322436007e-07   -4.647520653103948e-06
-6.133350609667615e-06   5.809905322436007e-07   -4.647520653103948e-06
-6.133350609667615e-06   5.809905322436007e-07   -4.647520653103948e-06
-6.133350609667615e-06   5.809905322436007e-07   -4.647520653103948e-06
2.385172103900289e-08   -5.421904576218646e-07   -1.4235615943695653e-05
2.385172103900289e-08   -5.421904576218646e-07   -1.4235615943695653e-05
2.385172103900289e-08   -5.421904576218646e-07   -1.4235615943695653e-05
2.385172103900289e-08   -5.421904576218646e-07   -1.4235615943695653e-05
-3.149061988473531e-06   -7.321986393170506e-09   -9.268347510578656e-06
-3.149061988473531e-06   -7.321986393170506e-09   -9.268347510578656e-06
-3.149061988473531e-06   -7.321986393170506e-09   -9.268347510578656e-06
-3.149061988473531e-06   -7.321986393170506e-09   -9.268347510578656e-06
2.385172103900289e-08   5.809905322436007e-07   -3.973612059184636e-06
2.385172103900289e-08   5.809905322436007e-07   -3.973612059184636e-06
2.385172103900289e-08   5.809905322436007e-07   -3.973612059184636e-06
2.385172103900289e-08   5.809905322436007e-07   -3.973612059184636e-06
-6.133350609667625e-06   -5.42190457621973e-07   -1.490952453761502e-05
-6.133350609667625e-06   -5.42190457621973e-07   -1.490952453761502e-05
-6.133350609667625e-06   -5.42190457621973e-07   -1.490952453761502e-05
-6.133350609667625e-06   -5.42190457621973e-07   -1.490952453761502e-05
-5.959567426004288e-06   8.06672391466404e-07   -4.73275865751796e-06
-5.959567426004288e-06   8.06672391466404e-07   -4.73275865751796e-06
-5.959567426004288e-06   8.06672391466404e-07   -4.73275865751796e-06
-5.959567426004288e-06   8.06672391466404e-07   -4.73275865751796e-06
1.6956278149021737e-07   -4.0247455189380745e-07   -1.4222487503992741e-05
1.6956278149021737e-07   -4.0247455189380745e-07   -1.4222487503992741e-05
1.6956278149021737e-07   -4.0247455189380745e-07   -1.4222487503992741e-05
1.6956278149021737e-07   -4.0247455189380745e-07   -1.4222487503992741e-05
-2.987285658720291e-06   1.1517542501486826e-07   -9.27166342312057e-06
-2.987285658720291e-06   1.1517542501486826e-07   -9.27166342312057e-06
-2.987285658720291e-06   1.1517542501486826e-07   -9.27166342312057e-06
-2.987285658720291e-06   1.1517542501486826e-07   -9.27166342312057e-06
-6.673423855667194e-06   1.1694133835413482e-06   -3.5333459893038387e-06
-6.673423855667194e-06   1.1694133835413482e-06   -3.5333459893038387e-06
-6.673423855667194e-06   1.1694133835413482e-06   -3.5333459893038387e-06
-6.673423855667194e-06   1.1694133835413482e-06   -3.5333459893038387e-06
-1.3024465369154043e-05   3.1488383408280907e-07   -1.4631132908123664e-05
-1.3024465369154043e-05   3.1488383408280907e-07   -1.4631132908123664e-05
-1.3024465369154043e-05   3.1488383408280907e-07   -1.4631132908123664e-05
-1.3024465369154043e-05   3.1488383408280907e-07   -1.4631132908123664e-05
-1.2622874137706776e-05   1.408952499908642e-06   -3.7463557345715753e-06
-1.2622874137706776e-05   1.408952499908642e-06   -3.7463557345715753e-06
-1.2622874137706776e-05   1.408952499908642e-06   -3.7463557345715753e-06
-1.2622874137706776e-05   1.408952499908642e-06   -3.7463557345715753e-06
-6.391731924400696e-06   4.878856831420312e-07   -1.3578952666688393e-05
-6.391731924400696e-06   4.878856831420312e-07   -1.3578952666688393e-05
-6.391731924400696e-06   4.878856831420312e-07   -1.3578952666688393e-05
-6.391731924400696e-06   4.878856831420312e-07   -1.3578952666688393e-05
-9.580443959166887e-06   9.236052720015776e-07   -8.525864362060446e-06
-9.580443959166887e-06   9.236052720015776e-07   -8.525864362060446e-06
-9.580443959166887e-06   9.236052720015776e-07   -8.525864362060446e-06
-9.580443959166887e-06   9.236052720015776e-07   -8.525864362060446e-06
-6.391731924400696e-06   1.408952499908642e-06   -3.1937156445115546e-06
-6.391731924400696e-06   1.408952499908642e-06   -3.1937156445115546e-06
-6.391731924400696e-06   1.408952499908642e-06   -3.1937156445115546e-06
-6.391731924400696e-06   1.408952499908642e-06   -3.1937156445115546e-06
-1.2622874137706798e-05   4.878856831420312e-07   -1.4131592756748434e-05
-1.2622874137706798e-05   4.878856831420312e-07   -1.4131592756748434e-05
-1.2622874137706798e-05   4.878856831420312e-07   -1.4131592756748434e-05
-1.2622874137706798e-05   4.878856831420312e-07   -1.4131592756748434e-05
-1.22322520400777e-05   1.6149444099466644e-06   -3.3920581456328507e-06
-1.22322520400777e-05   1.6149444099466644e-06   -3.3920581456328507e-06
-1.22322520400777e-05   1.6149444099466644e-06   -3.3920581456328507e-06
-1.22322520400777e-05   1.6149444099466644e-06   -3.3920581456328507e-06
-6.133350609667625e-06   6.4639786565685e-07   -1.2975765936409102e-05
-6.133350609667625e-06   6.4639786565685e-07   -1.2975765936409102e-05
-6.133350609667625e-06   6.4639786565685e-07   -1.2975765936409102e-05
-6.133350609667625e-06   6.4639786565685e-07   -1.2975765936409102e-05
-9.21391995388891e-06   1.0742407363537e-06   -8.098189418458298e-06
-9.21391995388891e-06   1.0742407363537e-06   -8.098189418458298e-06
-9.21391995388891e-06   1.0742407363537e-06   -8.098189418458298e-06
-9.21391995388891e-06   1.0742407363537e-06   -8.098189418458298e-06
-6.133350609667611e-06   1.6149444099466644e-06   -2.810930219058908e-06
-6.133350609667611e-06   1.6149444099466644e-06   -2.810930219058908e-06
-6.133350609667611e-06   1.6149444099466644e-06   -2.810930219058908e-06
-6.133350609667611e-06   1.6149444099466644e-06   -2.810930219058908e-06
-1.2232252040077721e-05   6.4639786565685e-07   -1.3556893862982998e-05
-1.2232252040077721e-05   6.4639786565685e-07   -1.3556893862982998e-05
-1.2232252040077721e-05   6.4639786565685e-07   -1.3556893862982998e-05
-1.2232252040077721e-05   6.4639786565685e-07   -1.3556893862982998e-05
-1.1939435794420345e-05   1.8412726390346513e-06   -3.4034086106436603e-06
-1.1939435794420345e-05   1.8412726390346513e-06   -3.4034086106436603e-06
-1.1939435794420345e-05   1.8412726390346513e-06   -3.4034086106436603e-06
-1.1939435794420345e-05   1.8412726390346513e-06   -3.4034086106436603e-06
-5.9595674260043e-06   7.788820627760082e-07   -1.2732421545581922e-05
-5.9595674260043e-06   7.788820627760082e-07   -1.2732421545581922e-05
-5.9595674260043e-06   7.788820627760082e-07   -1.2732421545581922e-05
-5.9595674260043e-06   7.788820627760082e-07   -1.2732421545581922e-05
-9.01676282070628e-06   1.1798476944539348e-06   -7.87767526675204e-06
-9.01676282070628e-06   1.1798476944539348e-06   -7.87767526675204e-06
-9.01676282070628e-06   1.1798476944539348e-06   -7.87767526675204e-06
-9.01676282070628e-06   1.1798476944539348e-06   -7.87767526675204e-06
-1.3024465369154043e-05   2.275457687258035e-06   -2.0088492969508125e-06
-1.3024465369154043e-05   2.275457687258035e-06   -2.0088492969508125e-06
-1.3024465369154043e-05   2.275457687258035e-06   -2.0088492969508125e-06
-1.3024465369154043e-05   2.275457687258035e-06   -2.0088492969508125e-06
-1.9680690795288042e-05   2.1705905324907607e-06   -1.3165478633367952e-05
-1.9680690795288042e-05   2.1705905324907607e-06   -1.3165478633367952e-05
-1.9680690795288042e-05   2.1705905324907607e-06   -1.3165478633367952e-05
-1.9680690795288042e-05   2.1705905324907607e-06   -1.3165478633367952e-05
-1.8869229462067445e-05   2.59402155056447e-06   1.0049175052029768e-07
-1.8869229462067445e-05   2.59402155056447e-06   1.0049175052029768e-07
-1.8869229462067445e-05   2.59402155056447e-06   1.0049175052029768e-07
-1.8869229462067445e-05   2.59402155056447e-06   1.0049175052029768e-07
-1.2622874137706754e-05   2.717204541242838e-06   -1.0384010251154515e-05
-1.2622874137706754e-05   2.717204541242838e-06   -1.0384010251154515e-05
-1.2622874137706754e-05   2.717204541242838e-06   -1.0384010251154515e-05
-1.2622874137706754e-05   2.717204541242838e-06   -1.0384010251154515e-05
-1.5358425397493613e-05   2.5580182192563427e-06   -5.729246358317859e-06
-1.5358425397493613e-05   2.5580182192563427e-06   -5.729246358317859e-06
-1.5358425397493613e-05   2.5580182192563427e-06   -5.729246358317859e-06
-1.5358425397493613e-05   2.5580182192563427e-06   -5.729246358317859e-06
-1.2622874137706788e-05   2.5940215505645785e-06   2.6581956113374584e-08
-1.2622874137706788e-05   2.5940215505645785e-06   2.6581956113374584e-08
-1.2622874137706788e-05   2.5940215505645785e-06   2.6581956113374584e-08
-1.2622874137706788e-05   2.5940215505645785e-06   2.6581956113374584e-08
-1.8869229462067445e-05   2.717204541242838e-06   -1.0310100456747495e-05
-1.8869229462067445e-05   2.717204541242838e-06   -1.0310100456747495e-05
-1.8869229462067445e-05   2.717204541242838e-06   -1.0310100456747495e-05
-1.8869229462067445e-05   2.717204541242838e-06   -1.0310100456747495e-05
-1.8199113625245118e-05   2.6787075572648304e-06   1.2932484877617011e-06
-1.8199113625245118e-05   2.6787075572648304e-06   1.2932484877617011e-06
-1.8199113625245118e-05   2.6787075572648304e-06   1.2932484877617011e-06
-1.8199113625245118e-05   2.6787075572648304e-06   1.2932484877617011e-06
-1.22322520400777e-05   2.8414377300397782e-06   -8.749158924515643e-06
-1.22322520400777e-05   2.8414377300397782e-06   -8.749158924515643e-06
-1.22322520400777e-05   2.8414377300397782e-06   -8.749158924515643e-06
-1.22322520400777e-05   2.8414377300397782e-06   -8.749158924515643e-06
-1.5068502601412277e-05   2.7405553301115305e-06   -3.9615452156675334e-06
-1.5068502601412277e-05   2.7405553301115305e-06   -3.9615452156675334e-06
-1.5068502601412277e-05   2.7405553301115305e-06   -3.9615452156675334e-06
-1.5068502601412277e-05   2.7405553301115305e-06   -3.9615452156675334e-06
-1.2232252040077721e-05   2.6787075572648304e-06   1.195610384096624e-06
-1.2232252040077721e-05   2.6787075572648304e-06   1.195610384096624e-06
-1.2232252040077721e-05   2.6787075572648304e-06   1.195610384096624e-06
-1.2232252040077721e-05   2.6787075572648304e-06   1.195610384096624e-06
-1.8199113625245084e-05   2.8414377300397782e-06   -8.651520820850676e-06
-1.8199113625245084e-05   2.8414377300397782e-06   -8.651520820850676e-06
-1.8199113625245084e-05   2.8414377300397782e-06   -8.651520820850676e-06
-1.8199113625245084e-05   2.8414377300397782e-06   -8.651520820850676e-06
-1.7495185371853604e-05   2.7468655761497948e-06   2.9019202244491365e-06
-1.7495185371853604e-05   2.7468655761497948e-06   2.9019202244491365e-06
-1.7495185371853604e-05   2.7468655761497948e-06   2.9019202244491365e-06
-1.7495185371853604e-05   2.7468655761497948e-06   2.9019202244491365e-06
-1.1939435794420345e-05   3.0456307726441003e-06   -6.53692152250283e-06
-1.1939435794420345e-05   3.0456307726441003e-06   -6.53692152250283e-06
-1.1939435794420345e-05   3.0456307726441003e-06   -6.53692152250283e-06
-1.1939435794420345e-05   3.0456307726441003e-06   -6.53692152250283e-06
-1.4382567968387937e-05   2.798181607062758e-06   -2.3165650665415006e-06
-1.4382567968387937e-05   2.798181607062758e-06   -2.3165650665415006e-06
-1.4382567968387937e-05   2.798181607062758e-06   -2.3165650665415006e-06
-1.4382567968387937e-05   2.798181607062758e-06   -2.3165650665415006e-06
1.6896223985679975e-05   -2.5218861327636413e-06   5.877386005915489e-06
1.6896223985679975e-05   -2.5218861327636413e-06   5.877386005915489e-06
1.6896223985679975e-05   -2.5218861327636413e-06   5.877386005915489e-06
1.6896223985679975e-05   -2.5218861327636413e-06   5.877386005915489e-06
8.45865138627379e-06   -3.1723867426006885e-06   -8.57553535899702e-06
8.45865138627379e-06   -3.1723867426006885e-06   -8.57553535899702e-06
8.45865138627379e-06   -3.1723867426006885e-06   -8.57553535899702e-06
8.45865138627379e-06   -3.1723867426006885e-06   -8.57553535899702e-06
8.653882224418594e-06   -2.465546863638789e-06   4.243668145319528e-06
8.653882224418594e-06   -2.465546863638789e-06   4.243668145319528e-06
8.653882224418594e-06   -2.465546863638789e-06   4.243668145319528e-06
8.653882224418594e-06   -2.465546863638789e-06   4.243668145319528e-06
1.7302425613387678e-05   -3.2518643016612872e-06   -9.698780373482103e-06
1.7302425613387678e-05   -3.2518643016612872e-06   -9.698780373482103e-06
1.7302425613387678e-05   -3.2518643016612872e-06   -9.698780373482103e-06
1.7302425613387678e-05   -3.2518643016612872e-06   -9.698780373482103e-06
1.2314364792016972e-05   -2.5754582902747566e-06   -1.7911892780295125e-06
1.2314364792016972e-05   -2.5754582902747566e-06   -1.7911892780295125e-06
1.2314364792016972e-05   -2.5754582902747566e-06   -1.7911892780295125e-06
1.2314364792016972e-05   -2.5754582902747566e-06   -1.7911892780295125e-06
1.7302425613387678e-05   -2.465546863638789e-06   4.715458608132994e-06
1.7302425613387678e-05   -2.465546863638789e-06   4.715458608132994e-06
1.7302425613387678e-05   -2.465546863638789e-06   4.715458608132994e-06
1.7302425613387678e-05   -2.465546863638789e-06   4.715458608132994e-06
8.653882224418594e-06   -3.2518643016612872e-06   -1.0170570836295597e-05
8.653882224418594e-06   -3.2518643016612872e-06   -1.0170570836295597e-05
8.653882224418594e-06   -3.2518643016612872e-06   -1.0170570836295597e-05
8.653882224418594e-06   -3.2518643016612872e-06   -1.0170570836295597e-05
8.818631866588528e-06   -2.3790896026629075e-06   3.3631245699449505e-06
8.818631866588528e-06   -2.3790896026629075e-06   3.3631245699449505e-06
8.818631866588528e-06   -2.3790896026629075e-06   3.3631245699449505e-06
8.818631866588528e-06   -2.3790896026629075e-06   3.3631245699449505e-06
1.755441019698881e-05   -3.220172147473427e-06   -1.0691856453835867e-05
1.755441019698881e-05   -3.220172147473427e-06   -1.0691856453835867e-05
1.755441019698881e-05   -3.220172147473427e-06   -1.0691856453835867e-05
1.755441019698881e-05   -3.220172147473427e-06   -1.0691856453835867e-05
1.2738256463125299e-05   -2.6540624959109447e-06   -3.0045993550008787e-06
1.2738256463125299e-05   -2.6540624959109447e-06   -3.0045993550008787e-06
1.2738256463125299e-05   -2.6540624959109447e-06   -3.0045993550008787e-06
1.2738256463125299e-05   -2.6540624959109447e-06   -3.0045993550008787e-06
1.755441019698881e-05   -2.3790896026629075e-06   3.867774096831295e-06
1.755441019698881e-05   -2.3790896026629075e-06   3.867774096831295e-06
1.755441019698881e-05   -2.3790896026629075e-06   3.867774096831295e-06
1.755441019698881e-05   -2.3790896026629075e-06   3.867774096831295e-06
8.818631866588528e-06   -3.220172147473427e-06   -1.1196505980722211e-05
8.818631866588528e-06   -3.220172147473427e-06   -1.1196505980722211e-05
8.818631866588528e-06   -3.220172147473427e-06   -1.1196505980722211e-05
8.818631866588528e-06   -3.220172147473427e-06   -1.1196505980722211e-05
8.989075899666738e-06   -2.0449874383059088e-06   1.6676470011066174e-06
8.989075899666738e-06   -2.0449874383059088e-06   1.6676470011066174e-06
8.989075899666738e-06   -2.0449874383059088e-06   1.6676470011066174e-06
8.989075899666738e-06   -2.0449874383059088e-06   1.6676470011066174e-06
1.7802665423631693e-05   -3.034544109980445e-06   -1.2427934869163522e-05
1.7802665423631693e-05   -3.034544109980445e-06   -1.2427934869163522e-05
1.7802665423631693e-05   -3.034544109980445e-06   -1.2427934869163522e-05
1.7802665423631693e-05   -3.034544109980445e-06   -1.2427934869163522e-05
1.2733610732357036e-05   -2.5506657781139896e-06   -4.269837382825674e-06
1.2733610732357036e-05   -2.5506657781139896e-06   -4.269837382825674e-06
1.2733610732357036e-05   -2.5506657781139896e-06   -4.269837382825674e-06
1.2733610732357036e-05   -2.5506657781139896e-06   -4.269837382825674e-06
8.45865138627379e-06   -1.5996361053863782e-06   7.236776555131922e-07
8.45865138627379e-06   -1.5996361053863782e-06   7.236776555131922e-07
8.45865138627379e-06   -1.5996361053863782e-06   7.236776555131922e-07
8.45865138627379e-06   -1.5996361053863782e-06   7.236776555131922e-07
9.114906961032828e-07   -3.099502901479146e-06   -1.2754843572426668e-05
9.114906961032828e-07   -3.099502901479146e-06   -1.2754843572426668e-05
9.114906961032828e-07   -3.099502901479146e-06   -1.2754843572426668e-05
9.114906961032828e-07   -3.099502901479146e-06   -1.2754843572426668e-05
1.1379392688160039e-06   -1.5182291531786862e-06   1.0851141870845456e-07
1.1379392688160039e-06   -1.5182291531786862e-06   1.0851141870845456e-07
1.1379392688160039e-06   -1.5182291531786862e-06   1.0851141870845456e-07
1.1379392688160039e-06   -1.5182291531786862e-06   1.0851141870845456e-07
8.653882224418614e-06   -3.0791576849701317e-06   -1.1481503054887643e-05
8.653882224418614e-06   -3.0791576849701317e-06   -1.1481503054887643e-05
8.653882224418614e-06   -3.0791576849701317e-06   -1.1481503054887643e-05
8.653882224418614e-06   -3.0791576849701317e-06   -1.1481503054887643e-05
4.807049527601743e-06   -2.095888382333327e-06   -5.660076808441711e-06
4.807049527601743e-06   -2.095888382333327e-06   -5.660076808441711e-06
4.807049527601743e-06   -2.095888382333327e-06   -5.660076808441711e-06
4.807049527601743e-06   -2.095888382333327e-06   -5.660076808441711e-06
8.653882224418587e-06   -1.5182291531787946e-06   1.0450685377833327e-06
8.653882224418587e-06   -1.5182291531787946e-06   1.0450685377833327e-06
8.653882224418587e-06   -1.5182291531787946e-06   1.0450685377833327e-06
8.653882224418587e-06   -1.5182291531787946e-06   1.0450685377833327e-06
1.1379392688160039e-06   -3.0791576849701317e-06   -1.2418060173962481e-05
1.1379392688160039e-06   -3.0791576849701317e-06   -1.2418060173962481e-05
1.1379392688160039e-06   -3.0791576849701317e-06   -1.2418060173962481e-05
1.1379392688160039e-06   -3.0791576849701317e-06   -1.2418060173962481e-05
1.3422090909572508e-06   -1.370208924604717e-06   2.09425691157384e-08
1.3422090909572508e-06   -1.370208924604717e-06   2.09425691157384e-08
1.3422090909572508e-06   -1.370208924604717e-06   2.09425691157384e-08
1.3422090909572508e-06   -1.370208924604717e-06   2.09425691157384e-08
8.818631866588528e-06   -3.0318374610160265e-06   -1.1442784935089626e-05
8.818631866588528e-06   -3.0318374610160265e-06   -1.1442784935089626e-05
8.818631866588528e-06   -3.0318374610160265e-06   -1.1442784935089626e-05
8.818631866588528e-06   -3.0318374610160265e-06   -1.1442784935089626e-05
4.931791799391272e-06   -2.1136188508462037e-06   -5.5156493225292475e-06
4.931791799391272e-06   -2.1136188508462037e-06   -5.5156493225292475e-06
4.931791799391272e-06   -2.1136188508462037e-06   -5.5156493225292475e-06
4.931791799391272e-06   -2.1136188508462037e-06   -5.5156493225292475e-06
8.818631866588528e-06   -1.3702089246048254e-06   1.0179196909625133e-06
8.818631866588528e-06   -1.3702089246048254e-06   1.0179196909625133e-06
8.818631866588528e-06   -1.3702089246048254e-06   1.0179196909625133e-06
8.818631866588528e-06   -1.3702089246048254e-06   1.0179196909625133e-06
1.342209090957244e-06   -3.0318374610160265e-06   -1.2439762056936374e-05
1.342209090957244e-06   -3.0318374610160265e-06   -1.2439762056936374e-05
1.342209090957244e-06   -3.0318374610160265e-06   -1.2439762056936374e-05
1.342209090957244e-06   -3.0318374610160265e-06   -1.2439762056936374e-05
1.6479992655635983e-06   -1.1593344199059726e-06   -1.328189100143623e-07
1.6479992655635983e-06   -1.1593344199059726e-06   -1.328189100143623e-07
1.6479992655635983e-06   -1.1593344199059726e-06   -1.328189100143623e-07
1.6479992655635983e-06   -1.1593344199059726e-06   -1.328189100143623e-07
8.989075899666731e-06   -2.9411807121506586e-06   -1.1298838858172784e-05
8.989075899666731e-06   -2.9411807121506586e-06   -1.1298838858172784e-05
8.989075899666731e-06   -2.9411807121506586e-06   -1.1298838858172784e-05
8.989075899666731e-06   -2.9411807121506586e-06   -1.1298838858172784e-05
5.179337273067811e-06   -2.0737808036020095e-06   -5.469714425637083e-06
5.179337273067811e-06   -2.0737808036020095e-06   -5.469714425637083e-06
5.179337273067811e-06   -2.0737808036020095e-06   -5.469714425637083e-06
5.179337273067811e-06   -2.0737808036020095e-06   -5.469714425637083e-06
9.114906961032828e-07   -7.861951115941063e-07   -1.0884404505907678e-06
9.114906961032828e-07   -7.861951115941063e-07   -1.0884404505907678e-06
9.114906961032828e-07   -7.861951115941063e-07   -1.0884404505907678e-06
9.114906961032828e-07   -7.861951115941063e-07   -1.0884404505907678e-06
-6.553791656347749e-06   -3.6510283132467356e-06   -1.5249477625667318e-05
-6.553791656347749e-06   -3.6510283132467356e-06   -1.5249477625667318e-05
-6.553791656347749e-06   -3.6510283132467356e-06   -1.5249477625667318e-05
-6.553791656347749e-06   -3.6510283132467356e-06   -1.5249477625667318e-05
-6.2000521473252745e-06   -6.887656121717413e-07   -2.4864770509456786e-06
-6.2000521473252745e-06   -6.887656121717413e-07   -2.4864770509456786e-06
-6.2000521473252745e-06   -6.887656121717413e-07   -2.4864770509456786e-06
-6.2000521473252745e-06   -6.887656121717413e-07   -2.4864770509456786e-06
1.1379392688160039e-06   -3.724969836580382e-06   -1.28947402098694e-05
1.1379392688160039e-06   -3.724969836580382e-06   -1.28947402098694e-05
1.1379392688160039e-06   -3.724969836580382e-06   -1.28947402098694e-05
1.1379392688160039e-06   -3.724969836580382e-06   -1.28947402098694e-05
-2.5938468975223955e-06   -2.042604829091601e-06   -7.68451560379866e-06
-2.5938468975223955e-06   -2.042604829091601e-06   -7.68451560379866e-06
-2.5938468975223955e-06   -2.042604829091601e-06   -7.68451560379866e-06
-2.5938468975223955e-06   -2.042604829091601e-06   -7.68451560379866e-06
1.1379392688160039e-06   -6.887656121717413e-07   -6.647545163006134e-07
1.1379392688160039e-06   -6.887656121717413e-07   -6.647545163006134e-07
1.1379392688160039e-06   -6.887656121717413e-07   -6.647545163006134e-07
1.1379392688160039e-06   -6.887656121717413e-07   -6.647545163006134e-07
-6.200052147325285e-06   -3.724969836580382e-06   -1.471646274451454e-05
-6.200052147325285e-06   -3.724969836580382e-06   -1.471646274451454e-05
-6.200052147325285e-06   -3.724969836580382e-06   -1.471646274451454e-05
-6.200052147325285e-06   -3.724969836580382e-06   -1.471646274451454e-05
-5.894076962642119e-06   -5.42190457621973e-07   -2.309505087414365e-06
-5.894076962642119e-06   -5.42190457621973e-07   -2.309505087414365e-06
-5.894076962642119e-06   -5.42190457621973e-07   -2.309505087414365e-06
-5.894076962642119e-06   -5.42190457621973e-07   -2.309505087414365e-06
1.342209090957244e-06   -3.699337612956817e-06   -1.2475693550212335e-05
1.342209090957244e-06   -3.699337612956817e-06   -1.2475693550212335e-05
1.342209090957244e-06   -3.699337612956817e-06   -1.2475693550212335e-05
1.342209090957244e-06   -3.699337612956817e-06   -1.2475693550212335e-05
-2.343190733705742e-06   -2.082987158623004e-06   -7.303170781707577e-06
-2.343190733705742e-06   -2.082987158623004e-06   -7.303170781707577e-06
-2.343190733705742e-06   -2.082987158623004e-06   -7.303170781707577e-06
-2.343190733705742e-06   -2.082987158623004e-06   -7.303170781707577e-06
1.342209090957244e-06   -5.421904576218646e-07   -4.1521679421336125e-07
1.342209090957244e-06   -5.421904576218646e-07   -4.1521679421336125e-07
1.342209090957244e-06   -5.421904576218646e-07   -4.1521679421336125e-07
1.342209090957244e-06   -5.421904576218646e-07   -4.1521679421336125e-07
-5.894076962642139e-06   -3.699337612956817e-06   -1.4369981843413292e-05
-5.894076962642139e-06   -3.699337612956817e-06   -1.4369981843413292e-05
-5.894076962642139e-06   -3.699337612956817e-06   -1.4369981843413292e-05
-5.894076962642139e-06   -3.699337612956817e-06   -1.4369981843413292e-05
-5.365437446274866e-06   -4.0247455189380745e-07   -2.301542795596302e-06
-5.365437446274866e-06   -4.0247455189380745e-07   -2.301542795596302e-06
-5.365437446274866e-06   -4.0247455189380745e-07   -2.301542795596302e-06
-5.365437446274866e-06   -4.0247455189380745e-07   -2.301542795596302e-06
1.6479992655635983e-06   -3.560007357741044e-06   -1.2096084298485368e-05
1.6479992655635983e-06   -3.560007357741044e-06   -1.2096084298485368e-05
1.6479992655635983e-06   -3.560007357741044e-06   -1.2096084298485368e-05
1.6479992655635983e-06   -3.560007357741044e-06   -1.2096084298485368e-05
-2.017005922290405e-06   -2.0292937708225184e-06   -6.906170470879808e-06
-2.017005922290405e-06   -2.0292937708225184e-06   -6.906170470879808e-06
-2.017005922290405e-06   -2.0292937708225184e-06   -6.906170470879808e-06
-2.017005922290405e-06   -2.0292937708225184e-06   -6.906170470879808e-06
-6.553791656347735e-06   3.1488383408280907e-07   -1.5620323240858277e-06
-6.553791656347735e-06   3.1488383408280907e-07   -1.5620323240858277e-06
-6.553791656347735e-06   3.1488383408280907e-07   -1.5620323240858277e-06
-6.553791656347735e-06   3.1488383408280907e-07   -1.5620323240858277e-06
-1.4847178688184799e-05   -4.466294107811409e-06   -1.8253050808950827e-05
-1.4847178688184799e-05   -4.466294107811409e-06   -1.8253050808950827e-05
-1.4847178688184799e-05   -4.466294107811409e-06   -1.8253050808950827e-05
-1.4847178688184799e-05   -4.466294107811409e-06   -1.8253050808950827e-05
-1.4417937703868732e-05   4.878856831420312e-07   -4.289798271598765e-06
-1.4417937703868732e-05   4.878856831420312e-07   -4.289798271598765e-06
-1.4417937703868732e-05   4.878856831420312e-07   -4.289798271598765e-06
-1.4417937703868732e-05   4.878856831420312e-07   -4.289798271598765e-06
-6.2000521473252745e-06   -5.022167872228631e-06   -1.4680242065948749e-05
-6.2000521473252745e-06   -5.022167872228631e-06   -1.4680242065948749e-05
-6.2000521473252745e-06   -5.022167872228631e-06   -1.4680242065948749e-05
-6.2000521473252745e-06   -5.022167872228631e-06   -1.4680242065948749e-05
-1.035820999249775e-05   -2.226349885455273e-06   -9.427469782725338e-06
-1.035820999249775e-05   -2.226349885455273e-06   -9.427469782725338e-06
-1.035820999249775e-05   -2.226349885455273e-06   -9.427469782725338e-06
-1.035820999249775e-05   -2.226349885455273e-06   -9.427469782725338e-06
-6.2000521473252745e-06   4.878856831420312e-07   -9.837661383764007e-07
-6.2000521473252745e-06   4.878856831420312e-07   -9.837661383764007e-07
-6.2000521473252745e-06   4.878856831420312e-07   -9.837661383764007e-07
-6.2000521473252745e-06   4.878856831420312e-07   -9.837661383764007e-07
-1.4417937703868732e-05   -5.022167872228631e-06   -1.798627419917118e-05
-1.4417937703868732e-05   -5.022167872228631e-06   -1.798627419917118e-05
-1.4417937703868732e-05   -5.022167872228631e-06   -1.798627419917118e-05
-1.4417937703868732e-05   -5.022167872228631e-06   -1.798627419917118e-05
-1.4007227457846879e-05   6.463978656567415e-07   -3.788715274175784e-06
-1.4007227457846879e-05   6.463978656567415e-07   -3.788715274175784e-06
-1.4007227457846879e-05   6.463978656567415e-07   -3.788715274175784e-06
-1.4007227457846879e-05   6.463978656567415e-07   -3.788715274175784e-06
-5.894076962642129e-06   -5.04188344762214e-06   -1.3897663978216341e-05
-5.894076962642129e-06   -5.04188344762214e-06   -1.3897663978216341e-05
-5.894076962642129e-06   -5.04188344762214e-06   -1.3897663978216341e-05
-5.894076962642129e-06   -5.04188344762214e-06   -1.3897663978216341e-05
-9.939447382787793e-06   -2.2264058937619896e-06   -8.844666476956318e-06
-9.939447382787793e-06   -2.2264058937619896e-06   -8.844666476956318e-06
-9.939447382787793e-06   -2.2264058937619896e-06   -8.844666476956318e-06
-9.939447382787793e-06   -2.2264058937619896e-06   -8.844666476956318e-06
-5.894076962642122e-06   6.463978656567415e-07   -3.757464862084005e-07
-5.894076962642122e-06   6.463978656567415e-07   -3.757464862084005e-07
-5.894076962642122e-06   6.463978656567415e-07   -3.757464862084005e-07
-5.894076962642122e-06   6.463978656567415e-07   -3.757464862084005e-07
-1.4007227457846903e-05   -5.04188344762214e-06   -1.7310632766183724e-05
-1.4007227457846903e-05   -5.04188344762214e-06   -1.7310632766183724e-05
-1.4007227457846903e-05   -5.04188344762214e-06   -1.7310632766183724e-05
-1.4007227457846903e-05   -5.04188344762214e-06   -1.7310632766183724e-05
-1.332879056295639e-05   7.788820627758998e-07   -3.2843782619662826e-06
-1.332879056295639e-05   7.788820627758998e-07   -3.2843782619662826e-06
-1.332879056295639e-05   7.788820627758998e-07   -3.2843782619662826e-06
-1.332879056295639e-05   7.788820627758998e-07   -3.2843782619662826e-06
-5.365437446274886e-06   -4.551767255218985e-06   -1.3358243865638542e-05
-5.365437446274886e-06   -4.551767255218985e-06   -1.3358243865638542e-05
-5.365437446274886e-06   -4.551767255218985e-06   -1.3358243865638542e-05
-5.365437446274886e-06   -4.551767255218985e-06   -1.3358243865638542e-05
-9.532286850464539e-06   -1.9310723831782737e-06   -7.985911781880018e-06
-9.532286850464539e-06   -1.9310723831782737e-06   -7.985911781880018e-06
-9.532286850464539e-06   -1.9310723831782737e-06   -7.985911781880018e-06
-9.532286850464539e-06   -1.9310723831782737e-06   -7.985911781880018e-06
-1.4847178688184799e-05   2.170590532490869e-06   -2.902164521606293e-06
-1.4847178688184799e-05   2.170590532490869e-06   -2.902164521606293e-06
-1.4847178688184799e-05   2.170590532490869e-06   -2.902164521606293e-06
-1.4847178688184799e-05   2.170590532490869e-06   -2.902164521606293e-06
-2.5371505157210778e-05   0.0   -2.174506295614414e-05
-2.5371505157210778e-05   0.0   -2.174506295614414e-05
-2.5371505157210778e-05   0.0   -2.174506295614414e-05
-2.5371505157210778e-05   0.0   -2.174506295614414e-05
-2.4749669032197006e-05   2.717204541242838e-06   -2.172538490750626e-06
-2.4749669032197006e-05   2.717204541242838e-06   -2.172538490750626e-06
-2.4749669032197006e-05   2.717204541242838e-06   -2.172538490750626e-06
-2.4749669032197006e-05   2.717204541242838e-06   -2.172538490750626e-06
-1.4417937703868707e-05   0.0   -1.776176797988543e-05
-1.4417937703868707e-05   0.0   -1.776176797988543e-05
-1.4417937703868707e-05   0.0   -1.776176797988543e-05
-1.4417937703868707e-05   0.0   -1.776176797988543e-05
-1.9005066791187078e-05   8.481495931249045e-07   -1.0625442590229712e-05
-1.9005066791187078e-05   8.481495931249045e-07   -1.0625442590229712e-05
-1.9005066791187078e-05   8.481495931249045e-07   -1.0625442590229712e-05
-1.9005066791187078e-05   8.481495931249045e-07   -1.0625442590229712e-05
-1.4417937703868718e-05   2.7172045412429463e-06   -5.422157660049122e-07
-1.4417937703868718e-05   2.7172045412429463e-06   -5.422157660049122e-07
-1.4417937703868718e-05   2.7172045412429463e-06   -5.422157660049122e-07
-1.4417937703868718e-05   2.7172045412429463e-06   -5.422157660049122e-07
-2.4749669032196962e-05   0.0   -1.9392090704631055e-05
-2.4749669032196962e-05   0.0   -1.9392090704631055e-05
-2.4749669032196962e-05   0.0   -1.9392090704631055e-05
-2.4749669032196962e-05   0.0   -1.9392090704631055e-05
-2.421963261458838e-05   2.8414377300398867e-06   -6.858429737323737e-07
-2.421963261458838e-05   2.8414377300398867e-06   -6.858429737323737e-07
-2.421963261458838e-05   2.8414377300398867e-06   -6.858429737323737e-07
-2.421963261458838e-05   2.8414377300398867e-06   -6.858429737323737e-07
-1.4007227457846903e-05   0.0   -1.600165559694433e-05
-1.4007227457846903e-05   0.0   -1.600165559694433e-05
-1.4007227457846903e-05   0.0   -1.600165559694433e-05
-1.4007227457846903e-05   0.0   -1.600165559694433e-05
-1.8836547009568223e-05   1.3200813801453196e-06   -8.74483850549576e-06
-1.8836547009568223e-05   1.3200813801453196e-06   -8.74483850549576e-06
-1.8836547009568223e-05   1.3200813801453196e-06   -8.74483850549576e-06
-1.8836547009568223e-05   1.3200813801453196e-06   -8.74483850549576e-06
-1.4007227457846903e-05   2.8414377300397782e-06   1.019019664291515e-06
-1.4007227457846903e-05   2.8414377300397782e-06   1.019019664291515e-06
-1.4007227457846903e-05   2.8414377300397782e-06   1.019019664291515e-06
-1.4007227457846903e-05   2.8414377300397782e-06   1.019019664291515e-06
-2.4219632614588338e-05   0.0   -1.770651823496816e-05
-2.4219632614588338e-05   0.0   -1.770651823496816e-05
-2.4219632614588338e-05   0.0   -1.770651823496816e-05
-2.4219632614588338e-05   0.0   -1.770651823496816e-05
-2.315802485225612e-05   3.0456307726441003e-06   1.7211776432814792e-06
-2.315802485225612e-05   3.0456307726441003e-06   1.7211776432814792e-06
-2.315802485225612e-05   3.0456307726441003e-06   1.7211776432814792e-06
-2.315802485225612e-05   3.0456307726441003e-06   1.7211776432814792e-06
-1.3328790562956412e-05   0.0   -1.2833501041964975e-05
-1.3328790562956412e-05   0.0   -1.2833501041964975e-05
-1.3328790562956412e-05   0.0   -1.2833501041964975e-05
-1.3328790562956412e-05   0.0   -1.2833501041964975e-05
-1.7895919413606708e-05   1.6211471742646815e-06   -6.194307928773248e-06
-1.7895919413606708e-05   1.6211471742646815e-06   -6.194307928773248e-06
-1.7895919413606708e-05   1.6211471742646815e-06   -6.194307928773248e-06
-1.7895919413606708e-05   1.6211471742646815e-06   -6.194307928773248e-06
1.8690063065902644e-05   -3.1723867426006885e-06   1.10886541451285e-05
1.8690063065902644e-05   -3.1723867426006885e-06   1.10886541451285e-05
1.8690063065902644e-05   -3.1723867426006885e-06   1.10886541451285e-05
1.8690063065902644e-05   -3.1723867426006885e-06   1.10886541451285e-05
9.653156517352394e-06   -2.4784682921765062e-06   -3.5565056988674294e-06
9.653156517352394e-06   -2.4784682921765062e-06   -3.5565056988674294e-06
9.653156517352394e-06   -2.4784682921765062e-06   -3.5565056988674294e-06
9.653156517352394e-06   -2.4784682921765062e-06   -3.5565056988674294e-06
9.419259596541084e-06   -3.2518643016612872e-06   9.753799061026588e-06
9.419259596541084e-06   -3.2518643016612872e-06   9.753799061026588e-06
9.419259596541084e-06   -3.2518643016612872e-06   9.753799061026588e-06
9.419259596541084e-06   -3.2518643016612872e-06   9.753799061026588e-06
1.850257117369703e-05   -2.7186476607567005e-06   -5.704983552109384e-06
1.850257117369703e-05   -2.7186476607567005e-06   -5.704983552109384e-06
1.850257117369703e-05   -2.7186476607567005e-06   -5.704983552109384e-06
1.850257117369703e-05   -2.7186476607567005e-06   -5.704983552109384e-06
1.3488487623408102e-05   -2.7518000149553794e-06   2.6717137775580707e-06
1.3488487623408102e-05   -2.7518000149553794e-06   2.6717137775580707e-06
1.3488487623408102e-05   -2.7518000149553794e-06   2.6717137775580707e-06
1.3488487623408102e-05   -2.7518000149553794e-06   2.6717137775580707e-06
1.850257117369703e-05   -3.2518643016612872e-06   9.433869076483836e-06
1.850257117369703e-05   -3.2518643016612872e-06   9.433869076483836e-06
1.850257117369703e-05   -3.2518643016612872e-06   9.433869076483836e-06
1.850257117369703e-05   -3.2518643016612872e-06   9.433869076483836e-06
9.419259596541084e-06   -2.7186476607567005e-06   -5.385053567566619e-06
9.419259596541084e-06   -2.7186476607567005e-06   -5.385053567566619e-06
9.419259596541084e-06   -2.7186476607567005e-06   -5.385053567566619e-06
9.419259596541084e-06   -2.7186476607567005e-06   -5.385053567566619e-06
9.206831472284246e-06   -3.220172147473427e-06   8.737277703150875e-06
9.206831472284246e-06   -3.220172147473427e-06   8.737277703150875e-06
9.206831472284246e-06   -3.220172147473427e-06   8.737277703150875e-06
9.206831472284246e-06   -3.220172147473427e-06   8.737277703150875e-06
1.828250541244877e-05   -2.738178798077106e-06   -6.67804154009447e-06
1.828250541244877e-05   -2.738178798077106e-06   -6.67804154009447e-06
1.828250541244877e-05   -2.738178798077106e-06   -6.67804154009447e-06
1.828250541244877e-05   -2.738178798077106e-06   -6.67804154009447e-06
1.3488811575412235e-05   -2.8001506257381873e-06   1.348631284896402e-06
1.3488811575412235e-05   -2.8001506257381873e-06   1.348631284896402e-06
1.3488811575412235e-05   -2.8001506257381873e-06   1.348631284896402e-06
1.3488811575412235e-05   -2.8001506257381873e-06   1.348631284896402e-06
1.82825054124488e-05   -3.220172147473427e-06   8.44808169351305e-06
1.82825054124488e-05   -3.220172147473427e-06   8.44808169351305e-06
1.82825054124488e-05   -3.220172147473427e-06   8.44808169351305e-06
1.82825054124488e-05   -3.220172147473427e-06   8.44808169351305e-06
9.206831472284246e-06   -2.738178798077106e-06   -6.388845530456706e-06
9.206831472284246e-06   -2.738178798077106e-06   -6.388845530456706e-06
9.206831472284246e-06   -2.738178798077106e-06   -6.388845530456706e-06
9.206831472284246e-06   -2.738178798077106e-06   -6.388845530456706e-06
8.94721008179301e-06   -3.034544109980445e-06   7.083384165566071e-06
8.94721008179301e-06   -3.034544109980445e-06   7.083384165566071e-06
8.94721008179301e-06   -3.034544109980445e-06   7.083384165566071e-06
8.94721008179301e-06   -3.034544109980445e-06   7.083384165566071e-06
1.7937404859686223e-05   -2.672306172570591e-06   -8.117616560035263e-06
1.7937404859686223e-05   -2.672306172570591e-06   -8.117616560035263e-06
1.7937404859686223e-05   -2.672306172570591e-06   -8.117616560035263e-06
1.7937404859686223e-05   -2.672306172570591e-06   -8.117616560035263e-06
1.3037819834367824e-05   -2.6617229777021675e-06   4.200856524094808e-08
1.3037819834367824e-05   -2.6617229777021675e-06   4.200856524094808e-08
1.3037819834367824e-05   -2.6617229777021675e-06   4.200856524094808e-08
1.3037819834367824e-05   -2.6617229777021675e-06   4.200856524094808e-08
9.653156517352394e-06   -3.099502901479146e-06   8.225617079609033e-06
9.653156517352394e-06   -3.099502901479146e-06   8.225617079609033e-06
9.653156517352394e-06   -3.099502901479146e-06   8.225617079609033e-06
9.653156517352394e-06   -3.099502901479146e-06   8.225617079609033e-06
1.9320488205836107e-06   -1.4936264719075335e-06   -3.6793698905959933e-06
1.9320488205836107e-06   -1.4936264719075335e-06   -3.6793698905959933e-06
1.9320488205836107e-06   -1.4936264719075335e-06   -3.6793698905959933e-06
1.9320488205836107e-06   -1.4936264719075335e-06   -3.6793698905959933e-06
1.5620744913859494e-06   -3.0791576849701317e-06   9.341467257294384e-06
1.5620744913859494e-06   -3.0791576849701317e-06   9.341467257294384e-06
1.5620744913859494e-06   -3.0791576849701317e-06   9.341467257294384e-06
1.5620744913859494e-06   -3.0791576849701317e-06   9.341467257294384e-06
9.419259596541084e-06   -1.581490326870317e-06   -4.652441666157364e-06
9.419259596541084e-06   -1.581490326870317e-06   -4.652441666157364e-06
9.419259596541084e-06   -1.581490326870317e-06   -4.652441666157364e-06
9.419259596541084e-06   -1.581490326870317e-06   -4.652441666157364e-06
5.631978571709976e-06   -2.2271303322113226e-06   2.047077378432413e-06
5.631978571709976e-06   -2.2271303322113226e-06   2.047077378432413e-06
5.631978571709976e-06   -2.2271303322113226e-06   2.047077378432413e-06
5.631978571709976e-06   -2.2271303322113226e-06   2.047077378432413e-06
9.41925959654109e-06   -3.0791576849701317e-06   8.442866842434528e-06
9.41925959654109e-06   -3.0791576849701317e-06   8.442866842434528e-06
9.41925959654109e-06   -3.0791576849701317e-06   8.442866842434528e-06
9.41925959654109e-06   -3.0791576849701317e-06   8.442866842434528e-06
1.5620744913859494e-06   -1.581490326870317e-06   -3.7538412512975214e-06
1.5620744913859494e-06   -1.581490326870317e-06   -3.7538412512975214e-06
1.5620744913859494e-06   -1.581490326870317e-06   -3.7538412512975214e-06
1.5620744913859494e-06   -1.581490326870317e-06   -3.7538412512975214e-06
1.2968740761111212e-06   -3.0318374610160265e-06   9.339822274299404e-06
1.2968740761111212e-06   -3.0318374610160265e-06   9.339822274299404e-06
1.2968740761111212e-06   -3.0318374610160265e-06   9.339822274299404e-06
1.2968740761111212e-06   -3.0318374610160265e-06   9.339822274299404e-06
9.206831472284246e-06   -1.6171315851560555e-06   -4.692263578171823e-06
9.206831472284246e-06   -1.6171315851560555e-06   -4.692263578171823e-06
9.206831472284246e-06   -1.6171315851560555e-06   -4.692263578171823e-06
9.206831472284246e-06   -1.6171315851560555e-06   -4.692263578171823e-06
5.311573068015099e-06   -2.178885356686109e-06   2.1368860251951016e-06
5.311573068015099e-06   -2.178885356686109e-06   2.1368860251951016e-06
5.311573068015099e-06   -2.178885356686109e-06   2.1368860251951016e-06
5.311573068015099e-06   -2.178885356686109e-06   2.1368860251951016e-06
9.206831472284263e-06   -3.0318374610160265e-06   8.490998748783378e-06
9.206831472284263e-06   -3.0318374610160265e-06   8.490998748783378e-06
9.206831472284263e-06   -3.0318374610160265e-06   8.490998748783378e-06
9.206831472284263e-06   -3.0318374610160265e-06   8.490998748783378e-06
1.2968740761111212e-06   -1.6171315851560555e-06   -3.8434400526557834e-06
1.2968740761111212e-06   -1.6171315851560555e-06   -3.8434400526557834e-06
1.2968740761111212e-06   -1.6171315851560555e-06   -3.8434400526557834e-06
1.2968740761111212e-06   -1.6171315851560555e-06   -3.8434400526557834e-06
1.0024276930106814e-06   -2.9411807121506586e-06   9.626184719547213e-06
1.0024276930106814e-06   -2.9411807121506586e-06   9.626184719547213e-06
1.0024276930106814e-06   -2.9411807121506586e-06   9.626184719547213e-06
1.0024276930106814e-06   -2.9411807121506586e-06   9.626184719547213e-06
8.947210081793e-06   -1.5745631455077198e-06   -4.435089801742357e-06
8.947210081793e-06   -1.5745631455077198e-06   -4.435089801742357e-06
8.947210081793e-06   -1.5745631455077198e-06   -4.435089801742357e-06
8.947210081793e-06   -1.5745631455077198e-06   -4.435089801742357e-06
5.1183243604032885e-06   -2.078561826935211e-06   2.2487856094302887e-06
5.1183243604032885e-06   -2.078561826935211e-06   2.2487856094302887e-06
5.1183243604032885e-06   -2.078561826935211e-06   2.2487856094302887e-06
5.1183243604032885e-06   -2.078561826935211e-06   2.2487856094302887e-06
1.9320488205836175e-06   -3.6510283132467356e-06   8.413408805102972e-06
1.9320488205836175e-06   -3.6510283132467356e-06   8.413408805102972e-06
1.9320488205836175e-06   -3.6510283132467356e-06   8.413408805102972e-06
1.9320488205836175e-06   -3.6510283132467356e-06   8.413408805102972e-06
-5.493937786470725e-06   -5.680782865321492e-07   -2.1134655239589384e-06
-5.493937786470725e-06   -5.680782865321492e-07   -2.1134655239589384e-06
-5.493937786470725e-06   -5.680782865321492e-07   -2.1134655239589384e-06
-5.493937786470725e-06   -5.680782865321492e-07   -2.1134655239589384e-06
-6.06844879445878e-06   -3.724969836580382e-06   1.074099697855979e-05
-6.06844879445878e-06   -3.724969836580382e-06   1.074099697855979e-05
-6.06844879445878e-06   -3.724969836580382e-06   1.074099697855979e-05
-6.06844879445878e-06   -3.724969836580382e-06   1.074099697855979e-05
1.5620744913859494e-06   -5.979535746265634e-07   -3.852751588353677e-06
1.5620744913859494e-06   -5.979535746265634e-07   -3.852751588353677e-06
1.5620744913859494e-06   -5.979535746265634e-07   -3.852751588353677e-06
1.5620744913859494e-06   -5.979535746265634e-07   -3.852751588353677e-06
-1.9541206906941096e-06   -2.0652291977090852e-06   2.8879390889626e-06
-1.9541206906941096e-06   -2.0652291977090852e-06   2.8879390889626e-06
-1.9541206906941096e-06   -2.0652291977090852e-06   2.8879390889626e-06
-1.9541206906941096e-06   -2.0652291977090852e-06   2.8879390889626e-06
1.5620744913859494e-06   -3.724969836580382e-06   8.864787221387498e-06
1.5620744913859494e-06   -3.724969836580382e-06   8.864787221387498e-06
1.5620744913859494e-06   -3.724969836580382e-06   8.864787221387498e-06
1.5620744913859494e-06   -3.724969836580382e-06   8.864787221387498e-06
-6.06844879445877e-06   -5.979535746265634e-07   -1.9765418311814263e-06
-6.06844879445877e-06   -5.979535746265634e-07   -1.9765418311814263e-06
-6.06844879445877e-06   -5.979535746265634e-07   -1.9765418311814263e-06
-6.06844879445877e-06   -5.979535746265634e-07   -1.9765418311814263e-06
-6.421863209807661e-06   -3.699337612956817e-06   1.1142210855026049e-05
-6.421863209807661e-06   -3.699337612956817e-06   1.1142210855026049e-05
-6.421863209807661e-06   -3.699337612956817e-06   1.1142210855026049e-05
-6.421863209807661e-06   -3.699337612956817e-06   1.1142210855026049e-05
1.2968740761111212e-06   -6.354708229525888e-07   -3.5606713621744716e-06
1.2968740761111212e-06   -6.354708229525888e-07   -3.5606713621744716e-06
1.2968740761111212e-06   -6.354708229525888e-07   -3.5606713621744716e-06
1.2968740761111212e-06   -6.354708229525888e-07   -3.5606713621744716e-06
-2.3441635647325843e-06   -2.0524417925094768e-06   3.3579072876325036e-06
-2.3441635647325843e-06   -2.0524417925094768e-06   3.3579072876325036e-06
-2.3441635647325843e-06   -2.0524417925094768e-06   3.3579072876325036e-06
-2.3441635647325843e-06   -2.0524417925094768e-06   3.3579072876325036e-06
1.2968740761111144e-06   -3.6993376129569253e-06   9.30389078102349e-06
1.2968740761111144e-06   -3.6993376129569253e-06   9.30389078102349e-06
1.2968740761111144e-06   -3.6993376129569253e-06   9.30389078102349e-06
1.2968740761111144e-06   -3.6993376129569253e-06   9.30389078102349e-06
-6.4218632098076545e-06   -6.354708229525888e-07   -1.7223512881718995e-06
-6.4218632098076545e-06   -6.354708229525888e-07   -1.7223512881718995e-06
-6.4218632098076545e-06   -6.354708229525888e-07   -1.7223512881718995e-06
-6.4218632098076545e-06   -6.354708229525888e-07   -1.7223512881718995e-06
-6.834830281314929e-06   -3.560007357741044e-06   1.165796789589184e-05
-6.834830281314929e-06   -3.560007357741044e-06   1.165796789589184e-05
-6.834830281314929e-06   -3.560007357741044e-06   1.165796789589184e-05
-6.834830281314929e-06   -3.560007357741044e-06   1.165796789589184e-05
1.0024276930106814e-06   -6.268059555571658e-07   -3.1640495692945704e-06
1.0024276930106814e-06   -6.268059555571658e-07   -3.1640495692945704e-06
1.0024276930106814e-06   -6.268059555571658e-07   -3.1640495692945704e-06
1.0024276930106814e-06   -6.268059555571658e-07   -3.1640495692945704e-06
-2.66294517635304e-06   -1.962477462538791e-06   3.7463081171673336e-06
-2.66294517635304e-06   -1.962477462538791e-06   3.7463081171673336e-06
-2.66294517635304e-06   -1.962477462538791e-06   3.7463081171673336e-06
-2.66294517635304e-06   -1.962477462538791e-06   3.7463081171673336e-06
-5.4939377864707315e-06   -4.466294107811409e-06   1.0128312402984756e-05
-5.4939377864707315e-06   -4.466294107811409e-06   1.0128312402984756e-05
-5.4939377864707315e-06   -4.466294107811409e-06   1.0128312402984756e-05
-5.4939377864707315e-06   -4.466294107811409e-06   1.0128312402984756e-05
-1.3882798435085822e-05   7.823318171031523e-07   -7.039464564249616e-07
-1.3882798435085822e-05   7.823318171031523e-07   -7.039464564249616e-07
-1.3882798435085822e-05   7.823318171031523e-07   -7.039464564249616e-07
-1.3882798435085822e-05   7.823318171031523e-07   -7.039464564249616e-07
-1.4581632412425838e-05   -5.022167872228631e-06   1.4241237147353853e-05
-1.4581632412425838e-05   -5.022167872228631e-06   1.4241237147353853e-05
-1.4581632412425838e-05   -5.022167872228631e-06   1.4241237147353853e-05
-1.4581632412425838e-05   -5.022167872228631e-06   1.4241237147353853e-05
-6.06844879445877e-06   7.511979448185293e-07   -3.4114217061528113e-06
-6.06844879445877e-06   7.511979448185293e-07   -3.4114217061528113e-06
-6.06844879445877e-06   7.511979448185293e-07   -3.4114217061528113e-06
-6.06844879445877e-06   7.511979448185293e-07   -3.4114217061528113e-06
-9.872379674191012e-06   -1.7762532176493137e-06   4.444933790881574e-06
-9.872379674191012e-06   -1.7762532176493137e-06   4.444933790881574e-06
-9.872379674191012e-06   -1.7762532176493137e-06   4.444933790881574e-06
-9.872379674191012e-06   -1.7762532176493137e-06   4.444933790881574e-06
-6.06844879445878e-06   -5.022167872228631e-06   1.0777217657125513e-05
-6.06844879445878e-06   -5.022167872228631e-06   1.0777217657125513e-05
-6.06844879445878e-06   -5.022167872228631e-06   1.0777217657125513e-05
-6.06844879445878e-06   -5.022167872228631e-06   1.0777217657125513e-05
-1.4581632412425838e-05   7.511979448185293e-07   5.2597784075446644e-08
-1.4581632412425838e-05   7.511979448185293e-07   5.2597784075446644e-08
-1.4581632412425838e-05   7.511979448185293e-07   5.2597784075446644e-08
-1.4581632412425838e-05   7.511979448185293e-07   5.2597784075446644e-08
-1.5005897050828516e-05   -5.04188344762214e-06   1.5049458690069106e-05
-1.5005897050828516e-05   -5.04188344762214e-06   1.5049458690069106e-05
-1.5005897050828516e-05   -5.04188344762214e-06   1.5049458690069106e-05
-1.5005897050828516e-05   -5.04188344762214e-06   1.5049458690069106e-05
-6.4218632098076545e-06   6.829998354546682e-07   -2.692194348145115e-06
-6.4218632098076545e-06   6.829998354546682e-07   -2.692194348145115e-06
-6.4218632098076545e-06   6.829998354546682e-07   -2.692194348145115e-06
-6.4218632098076545e-06   6.829998354546682e-07   -2.692194348145115e-06
-1.0320612972176002e-05   -2.073380217104768e-06   5.459549954004513e-06
-1.0320612972176002e-05   -2.073380217104768e-06   5.459549954004513e-06
-1.0320612972176002e-05   -2.073380217104768e-06   5.459549954004513e-06
-1.0320612972176002e-05   -2.073380217104768e-06   5.459549954004513e-06
-6.421863209807644e-06   -5.04188344762214e-06   1.1614528720222945e-05
-6.421863209807644e-06   -5.04188344762214e-06   1.1614528720222945e-05
-6.421863209807644e-06   -5.04188344762214e-06   1.1614528720222945e-05
-6.421863209807644e-06   -5.04188344762214e-06   1.1614528720222945e-05
-1.5005897050828485e-05   6.829998354546682e-07   7.427356217010054e-07
-1.5005897050828485e-05   6.829998354546682e-07   7.427356217010054e-07
-1.5005897050828485e-05   6.829998354546682e-07   7.427356217010054e-07
-1.5005897050828485e-05   6.829998354546682e-07   7.427356217010054e-07
-1.546496459624347e-05   -4.551767255218985e-06   1.538401685021243e-05
-1.546496459624347e-05   -4.551767255218985e-06   1.538401685021243e-05
-1.546496459624347e-05   -4.551767255218985e-06   1.538401685021243e-05
-1.546496459624347e-05   -4.551767255218985e-06   1.538401685021243e-05
-6.834830281314905e-06   6.043808080568236e-07   -2.0932291793005525e-06
-6.834830281314905e-06   6.043808080568236e-07   -2.0932291793005525e-06
-6.834830281314905e-06   6.043808080568236e-07   -2.0932291793005525e-06
-6.834830281314905e-06   6.043808080568236e-07   -2.0932291793005525e-06
-1.0789368301429201e-05   -2.083489691974633e-06   6.1103898209089586e-06
-1.0789368301429201e-05   -2.083489691974633e-06   6.1103898209089586e-06
-1.0789368301429201e-05   -2.083489691974633e-06   6.1103898209089586e-06
-1.0789368301429201e-05   -2.083489691974633e-06   6.1103898209089586e-06
-1.3882798435085771e-05   0.0   1.1087830130234529e-05
-1.3882798435085771e-05   0.0   1.1087830130234529e-05
-1.3882798435085771e-05   0.0   1.1087830130234529e-05
-1.3882798435085771e-05   0.0   1.1087830130234529e-05
-2.4250341158401157e-05   3.202728133460753e-06   -4.269770861881376e-06
-2.4250341158401157e-05   3.202728133460753e-06   -4.269770861881376e-06
-2.4250341158401157e-05   3.202728133460753e-06   -4.269770861881376e-06
-2.4250341158401157e-05   3.202728133460753e-06   -4.269770861881376e-06
-2.519815556975813e-05   0.0   1.6331867096825293e-05
-2.519815556975813e-05   0.0   1.6331867096825293e-05
-2.519815556975813e-05   0.0   1.6331867096825293e-05
-2.519815556975813e-05   0.0   1.6331867096825293e-05
-1.458163241242581e-05   3.1102062169761826e-06   -3.228461895581018e-06
-1.458163241242581e-05   3.1102062169761826e-06   -3.228461895581018e-06
-1.458163241242581e-05   3.1102062169761826e-06   -3.228461895581018e-06
-1.458163241242581e-05   3.1102062169761826e-06   -3.228461895581018e-06
-1.8650822363069297e-05   1.898767918401571e-06   4.280384334636226e-06
-1.8650822363069297e-05   1.898767918401571e-06   4.280384334636226e-06
-1.8650822363069297e-05   1.898767918401571e-06   4.280384334636226e-06
-1.8650822363069297e-05   1.898767918401571e-06   4.280384334636226e-06
-1.4581632412425797e-05   0.0   1.4465743366639584e-05
-1.4581632412425797e-05   0.0   1.4465743366639584e-05
-1.4581632412425797e-05   0.0   1.4465743366639584e-05
-1.4581632412425797e-05   0.0   1.4465743366639584e-05
-2.5198155569758175e-05   3.1102062169761826e-06   -1.3623381653953492e-06
-2.5198155569758175e-05   3.1102062169761826e-06   -1.3623381653953492e-06
-2.5198155569758175e-05   3.1102062169761826e-06   -1.3623381653953492e-06
-2.5198155569758175e-05   3.1102062169761826e-06   -1.3623381653953492e-06
-2.567354456892724e-05   0.0   1.8180949830257868e-05
-2.567354456892724e-05   0.0   1.8180949830257868e-05
-2.567354456892724e-05   0.0   1.8180949830257868e-05
-2.567354456892724e-05   0.0   1.8180949830257868e-05
-1.5005897050828485e-05   3.0375232849158378e-06   -1.4209766708562604e-06
-1.5005897050828485e-05   3.0375232849158378e-06   -1.4209766708562604e-06
-1.5005897050828485e-05   3.0375232849158378e-06   -1.4209766708562604e-06
-1.5005897050828485e-05   3.0375232849158378e-06   -1.4209766708562604e-06
-1.958568725522282e-05   1.5907241767550108e-06   7.080086468031025e-06
-1.958568725522282e-05   1.5907241767550108e-06   7.080086468031025e-06
-1.958568725522282e-05   1.5907241767550108e-06   7.080086468031025e-06
-1.958568725522282e-05   1.5907241767550108e-06   7.080086468031025e-06
-1.5005897050828485e-05   0.0   1.6358435859308398e-05
-1.5005897050828485e-05   0.0   1.6358435859308398e-05
-1.5005897050828485e-05   0.0   1.6358435859308398e-05
-1.5005897050828485e-05   0.0   1.6358435859308398e-05
-2.5673544568927332e-05   3.0375232849158378e-06   4.0153730009322326e-07
-2.5673544568927332e-05   3.0375232849158378e-06   4.0153730009322326e-07
-2.5673544568927332e-05   3.0375232849158378e-06   4.0153730009322326e-07
-2.5673544568927332e-05   3.0375232849158378e-06   4.0153730009322326e-07
-2.6195411291029916e-05   0.0   2.064273966244102e-05
-2.6195411291029916e-05   0.0   2.064273966244102e-05
-2.6195411291029916e-05   0.0   2.064273966244102e-05
-2.6195411291029916e-05   0.0   2.064273966244102e-05
-1.546496459624347e-05   2.559317329596804e-06   1.223071440038772e-06
-1.546496459624347e-05   2.559317329596804e-06   1.223071440038772e-06
-1.546496459624347e-05   2.559317329596804e-06   1.223071440038772e-06
-1.546496459624347e-05   2.559317329596804e-06   1.223071440038772e-06
-1.9722361995763543e-05   1.130552682705819e-06   9.175992560706822e-06
-1.9722361995763543e-05   1.130552682705819e-06   9.175992560706822e-06
-1.9722361995763543e-05   1.130552682705819e-06   9.175992560706822e-06
-1.9722361995763543e-05   1.130552682705819e-06   9.175992560706822e-06
1.6586702725987576e-05   -2.4784682921765062e-06   1.1646273305405247e-05
1.6586702725987576e-05   -2.4784682921765062e-06   1.1646273305405247e-05
1.6586702725987576e-05   -2.4784682921765062e-06   1.1646273305405247e-05
1.6586702725987576e-05   -2.4784682921765062e-06   1.1646273305405247e-05
8.358052220054839e-06   -1.8970961740991197e-06   -1.7193209336362355e-06
8.358052220054839e-06   -1.8970961740991197e-06   -1.7193209336362355e-06
8.358052220054839e-06   -1.8970961740991197e-06   -1.7193209336362355e-06
8.358052220054839e-06   -1.8970961740991197e-06   -1.7193209336362355e-06
8.14611119509569e-06   -2.718647660756592e-06   1.0136995870065719e-05
8.14611119509569e-06   -2.718647660756592e-06   1.0136995870065719e-05
8.14611119509569e-06   -2.718647660756592e-06   1.0136995870065719e-05
8.14611119509569e-06   -2.718647660756592e-06   1.0136995870065719e-05
1.621208772984646e-05   -2.1426906415105687e-06   -3.6518725660666076e-06
1.621208772984646e-05   -2.1426906415105687e-06   -3.6518725660666076e-06
1.621208772984646e-05   -2.1426906415105687e-06   -3.6518725660666076e-06
1.621208772984646e-05   -2.1426906415105687e-06   -3.6518725660666076e-06
1.1777030738425029e-05   -2.2191330000367925e-06   3.785754501418176e-06
1.1777030738425029e-05   -2.2191330000367925e-06   3.785754501418176e-06
1.1777030738425029e-05   -2.2191330000367925e-06   3.785754501418176e-06
1.1777030738425029e-05   -2.2191330000367925e-06   3.785754501418176e-06
1.621208772984643e-05   -2.718647660756592e-06   9.79142165851804e-06
1.621208772984643e-05   -2.718647660756592e-06   9.79142165851804e-06
1.621208772984643e-05   -2.718647660756592e-06   9.79142165851804e-06
1.621208772984643e-05   -2.718647660756592e-06   9.79142165851804e-06
8.1461111950957e-06   -2.1426906415105687e-06   -3.3062983545188913e-06
8.1461111950957e-06   -2.1426906415105687e-06   -3.3062983545188913e-06
8.1461111950957e-06   -2.1426906415105687e-06   -3.3062983545188913e-06
8.1461111950957e-06   -2.1426906415105687e-06   -3.3062983545188913e-06
7.873180689293704e-06   -2.738178798077106e-06   9.081470596110613e-06
7.873180689293704e-06   -2.738178798077106e-06   9.081470596110613e-06
7.873180689293704e-06   -2.738178798077106e-06   9.081470596110613e-06
7.873180689293704e-06   -2.738178798077106e-06   9.081470596110613e-06
1.5831448777681132e-05   -2.1774034472490413e-06   -4.518774761698664e-06
1.5831448777681132e-05   -2.1774034472490413e-06   -4.518774761698664e-06
1.5831448777681132e-05   -2.1774034472490413e-06   -4.518774761698664e-06
1.5831448777681132e-05   -2.1774034472490413e-06   -4.518774761698664e-06
1.1680563280487368e-05   -2.314286533971143e-06   2.4814975856575516e-06
1.1680563280487368e-05   -2.314286533971143e-06   2.4814975856575516e-06
1.1680563280487368e-05   -2.314286533971143e-06   2.4814975856575516e-06
1.1680563280487368e-05   -2.314286533971143e-06   2.4814975856575516e-06
1.5831448777681132e-05   -2.738178798077106e-06   8.74500538561372e-06
1.5831448777681132e-05   -2.738178798077106e-06   8.74500538561372e-06
1.5831448777681132e-05   -2.738178798077106e-06   8.74500538561372e-06
1.5831448777681132e-05   -2.738178798077106e-06   8.74500538561372e-06
7.873180689293704e-06   -2.1774034472490413e-06   -4.1823095512018185e-06
7.873180689293704e-06   -2.1774034472490413e-06   -4.1823095512018185e-06
7.873180689293704e-06   -2.1774034472490413e-06   -4.1823095512018185e-06
7.873180689293704e-06   -2.1774034472490413e-06   -4.1823095512018185e-06
7.586174525533289e-06   -2.6723061725704824e-06   7.509051112444896e-06
7.586174525533289e-06   -2.6723061725704824e-06   7.509051112444896e-06
7.586174525533289e-06   -2.6723061725704824e-06   7.509051112444896e-06
7.586174525533289e-06   -2.6723061725704824e-06   7.509051112444896e-06
1.5354427257641155e-05   -2.155666813769886e-06   -5.748020389681878e-06
1.5354427257641155e-05   -2.155666813769886e-06   -5.748020389681878e-06
1.5354427257641155e-05   -2.155666813769886e-06   -5.748020389681878e-06
1.5354427257641155e-05   -2.155666813769886e-06   -5.748020389681878e-06
1.1174513319989822e-05   -2.251042347360308e-06   1.2757281598914502e-06
1.1174513319989822e-05   -2.251042347360308e-06   1.2757281598914502e-06
1.1174513319989822e-05   -2.251042347360308e-06   1.2757281598914502e-06
1.1174513319989822e-05   -2.251042347360308e-06   1.2757281598914502e-06
8.358052220054856e-06   -1.4936264719075335e-06   1.090870652678018e-05
8.358052220054856e-06   -1.4936264719075335e-06   1.090870652678018e-05
8.358052220054856e-06   -1.4936264719075335e-06   1.090870652678018e-05
8.358052220054856e-06   -1.4936264719075335e-06   1.090870652678018e-05
8.417368618987423e-07   -6.596691154027012e-07   -1.1181113229104017e-06
8.417368618987423e-07   -6.596691154027012e-07   -1.1181113229104017e-06
8.417368618987423e-07   -6.596691154027012e-07   -1.1181113229104017e-06
8.417368618987423e-07   -6.596691154027012e-07   -1.1181113229104017e-06
6.303220278445207e-07   -1.581490326870317e-06   1.1344563904763913e-05
6.303220278445207e-07   -1.581490326870317e-06   1.1344563904763913e-05
6.303220278445207e-07   -1.581490326870317e-06   1.1344563904763913e-05
6.303220278445207e-07   -1.581490326870317e-06   1.1344563904763913e-05
8.1461111950957e-06   -7.898967713887645e-07   -1.6567075072769526e-06
8.1461111950957e-06   -7.898967713887645e-07   -1.6567075072769526e-06
8.1461111950957e-06   -7.898967713887645e-07   -1.6567075072769526e-06
8.1461111950957e-06   -7.898967713887645e-07   -1.6567075072769526e-06
4.4505114870973e-06   -1.0530227042570856e-06   4.660500899107971e-06
4.4505114870973e-06   -1.0530227042570856e-06   4.660500899107971e-06
4.4505114870973e-06   -1.0530227042570856e-06   4.660500899107971e-06
4.4505114870973e-06   -1.0530227042570856e-06   4.660500899107971e-06
8.146111195095696e-06   -1.581490326870317e-06   1.086960777147496e-05
8.146111195095696e-06   -1.581490326870317e-06   1.086960777147496e-05
8.146111195095696e-06   -1.581490326870317e-06   1.086960777147496e-05
8.146111195095696e-06   -1.581490326870317e-06   1.086960777147496e-05
6.303220278445207e-07   -7.898967713887645e-07   -1.1817513739880402e-06
6.303220278445207e-07   -7.898967713887645e-07   -1.1817513739880402e-06
6.303220278445207e-07   -7.898967713887645e-07   -1.1817513739880402e-06
6.303220278445207e-07   -7.898967713887645e-07   -1.1817513739880402e-06
3.613865386907432e-07   -1.6171315851560555e-06   1.122459962529023e-05
3.613865386907432e-07   -1.6171315851560555e-06   1.122459962529023e-05
3.613865386907432e-07   -1.6171315851560555e-06   1.122459962529023e-05
3.613865386907432e-07   -1.6171315851560555e-06   1.122459962529023e-05
7.873180689293704e-06   -8.728864569980442e-07   -1.7416043692761307e-06
7.873180689293704e-06   -8.728864569980442e-07   -1.7416043692761307e-06
7.873180689293704e-06   -8.728864569980442e-07   -1.7416043692761307e-06
7.873180689293704e-06   -8.728864569980442e-07   -1.7416043692761307e-06
4.180868953073222e-06   -1.1010402061115403e-06   4.549140773892909e-06
4.180868953073222e-06   -1.1010402061115403e-06   4.549140773892909e-06
4.180868953073222e-06   -1.1010402061115403e-06   4.549140773892909e-06
4.180868953073222e-06   -1.1010402061115403e-06   4.549140773892909e-06
7.873180689293691e-06   -1.617131585155947e-06   1.0778052548395401e-05
7.873180689293691e-06   -1.617131585155947e-06   1.0778052548395401e-05
7.873180689293691e-06   -1.617131585155947e-06   1.0778052548395401e-05
7.873180689293691e-06   -1.617131585155947e-06   1.0778052548395401e-05
3.613865386907432e-07   -8.728864569980442e-07   -1.2950572923814039e-06
3.613865386907432e-07   -8.728864569980442e-07   -1.2950572923814039e-06
3.613865386907432e-07   -8.728864569980442e-07   -1.2950572923814039e-06
3.613865386907432e-07   -8.728864569980442e-07   -1.2950572923814039e-06
6.440403570704984e-08   -1.5745631455078282e-06   1.1376011687630797e-05
6.440403570704984e-08   -1.5745631455078282e-06   1.1376011687630797e-05
6.440403570704984e-08   -1.5745631455078282e-06   1.1376011687630797e-05
6.440403570704984e-08   -1.5745631455078282e-06   1.1376011687630797e-05
7.586174525533282e-06   -9.049355132762513e-07   -1.562049041418546e-06
7.586174525533282e-06   -9.049355132762513e-07   -1.562049041418546e-06
7.586174525533282e-06   -9.049355132762513e-07   -1.562049041418546e-06
7.586174525533282e-06   -9.049355132762513e-07   -1.562049041418546e-06
3.965074643951595e-06   -1.0872210866666454e-06   4.582488771918736e-06
3.965074643951595e-06   -1.0872210866666454e-06   4.582488771918736e-06
3.965074643951595e-06   -1.0872210866666454e-06   4.582488771918736e-06
3.965074643951595e-06   -1.0872210866666454e-06   4.582488771918736e-06
8.417368618987355e-07   -5.680782865321492e-07   1.1125215291291426e-05
8.417368618987355e-07   -5.680782865321492e-07   1.1125215291291426e-05
8.417368618987355e-07   -5.680782865321492e-07   1.1125215291291426e-05
8.417368618987355e-07   -5.680782865321492e-07   1.1125215291291426e-05
-6.447128657075459e-06   6.073551117749629e-07   -3.1763386801461277e-07
-6.447128657075459e-06   6.073551117749629e-07   -3.1763386801461277e-07
-6.447128657075459e-06   6.073551117749629e-07   -3.1763386801461277e-07
-6.447128657075459e-06   6.073551117749629e-07   -3.1763386801461277e-07
-6.685690576655831e-06   -5.979535746265634e-07   1.1910942412931289e-05
-6.685690576655831e-06   -5.979535746265634e-07   1.1910942412931289e-05
-6.685690576655831e-06   -5.979535746265634e-07   1.1910942412931289e-05
-6.685690576655831e-06   -5.979535746265634e-07   1.1910942412931289e-05
6.303220278445207e-07   5.108611674125609e-07   -9.477007731261626e-07
6.303220278445207e-07   5.108611674125609e-07   -9.477007731261626e-07
6.303220278445207e-07   5.108611674125609e-07   -9.477007731261626e-07
6.303220278445207e-07   5.108611674125609e-07   -9.477007731261626e-07
-2.9101659005302596e-06   3.8948457319683445e-08   5.236260066887529e-06
-2.9101659005302596e-06   3.8948457319683445e-08   5.236260066887529e-06
-2.9101659005302596e-06   3.8948457319683445e-08   5.236260066887529e-06
-2.9101659005302596e-06   3.8948457319683445e-08   5.236260066887529e-06
6.303220278445275e-07   -5.979535746265634e-07   1.1245653567707825e-05
6.303220278445275e-07   -5.979535746265634e-07   1.1245653567707825e-05
6.303220278445275e-07   -5.979535746265634e-07   1.1245653567707825e-05
6.303220278445275e-07   -5.979535746265634e-07   1.1245653567707825e-05
-6.685690576655831e-06   5.108611674126693e-07   -2.824119279026447e-07
-6.685690576655831e-06   5.108611674126693e-07   -2.824119279026447e-07
-6.685690576655831e-06   5.108611674126693e-07   -2.824119279026447e-07
-6.685690576655831e-06   5.108611674126693e-07   -2.824119279026447e-07
-7.0033879611758606e-06   -6.354708229525888e-07   1.2141288167838514e-05
-7.0033879611758606e-06   -6.354708229525888e-07   1.2141288167838514e-05
-7.0033879611758606e-06   -6.354708229525888e-07   1.2141288167838514e-05
-7.0033879611758606e-06   -6.354708229525888e-07   1.2141288167838514e-05
3.613865386907432e-07   4.210622638256209e-07   -7.672558506728025e-07
3.613865386907432e-07   4.210622638256209e-07   -7.672558506728025e-07
3.613865386907432e-07   4.210622638256209e-07   -7.672558506728025e-07
3.613865386907432e-07   4.210622638256209e-07   -7.672558506728025e-07
-3.144909172224423e-06   1.4028316760398424e-08   5.3207907024250135e-06
-3.144909172224423e-06   1.4028316760398424e-08   5.3207907024250135e-06
-3.144909172224423e-06   1.4028316760398424e-08   5.3207907024250135e-06
-3.144909172224423e-06   1.4028316760398424e-08   5.3207907024250135e-06
3.613865386907432e-07   -6.354708229525888e-07   1.1507368315771501e-05
3.613865386907432e-07   -6.354708229525888e-07   1.1507368315771501e-05
3.613865386907432e-07   -6.354708229525888e-07   1.1507368315771501e-05
3.613865386907432e-07   -6.354708229525888e-07   1.1507368315771501e-05
-7.003387961175847e-06   4.210622638256209e-07   -1.3333599860587122e-07
-7.003387961175847e-06   4.210622638256209e-07   -1.3333599860587122e-07
-7.003387961175847e-06   4.210622638256209e-07   -1.3333599860587122e-07
-7.003387961175847e-06   4.210622638256209e-07   -1.3333599860587122e-07
-7.341817573063364e-06   -6.268059555571658e-07   1.2417467180332533e-05
-7.341817573063364e-06   -6.268059555571658e-07   1.2417467180332533e-05
-7.341817573063364e-06   -6.268059555571658e-07   1.2417467180332533e-05
-7.341817573063364e-06   -6.268059555571658e-07   1.2417467180332533e-05
6.440403570704984e-08   3.571703781756353e-07   -5.166213011911113e-07
6.440403570704984e-08   3.571703781756353e-07   -5.166213011911113e-07
6.440403570704984e-08   3.571703781756353e-07   -5.166213011911113e-07
6.440403570704984e-08   3.571703781756353e-07   -5.166213011911113e-07
-3.443442935140857e-06   -2.646507802294383e-09   5.545680448475616e-06
-3.443442935140857e-06   -2.646507802294383e-09   5.545680448475616e-06
-3.443442935140857e-06   -2.646507802294383e-09   5.545680448475616e-06
-3.443442935140857e-06   -2.646507802294383e-09   5.545680448475616e-06
-6.447128657075432e-06   7.823318171031523e-07   1.0090818842860901e-05
-6.447128657075432e-06   7.823318171031523e-07   1.0090818842860901e-05
-6.447128657075432e-06   7.823318171031523e-07   1.0090818842860901e-05
-6.447128657075432e-06   7.823318171031523e-07   1.0090818842860901e-05
-1.3612413676066266e-05   1.951069863384753e-06   -1.1500800276883073e-06
-1.3612413676066266e-05   1.951069863384753e-06   -1.1500800276883073e-06
-1.3612413676066266e-05   1.951069863384753e-06   -1.1500800276883073e-06
-1.3612413676066266e-05   1.951069863384753e-06   -1.1500800276883073e-06
-1.3955332660576173e-05   7.511979448185293e-07   1.1139004836964613e-05
-1.3955332660576173e-05   7.511979448185293e-07   1.1139004836964613e-05
-1.3955332660576173e-05   7.511979448185293e-07   1.1139004836964613e-05
-1.3955332660576173e-05   7.511979448185293e-07   1.1139004836964613e-05
-6.685690576655804e-06   1.8561017764932158e-06   -1.6400076019074166e-06
-6.685690576655804e-06   1.8561017764932158e-06   -1.6400076019074166e-06
-6.685690576655804e-06   1.8561017764932158e-06   -1.6400076019074166e-06
-6.685690576655804e-06   1.8561017764932158e-06   -1.6400076019074166e-06
-1.0097986718244507e-05   1.3534644855436135e-06   4.348735008643406e-06
-1.0097986718244507e-05   1.3534644855436135e-06   4.348735008643406e-06
-1.0097986718244507e-05   1.3534644855436135e-06   4.348735008643406e-06
-1.0097986718244507e-05   1.3534644855436135e-06   4.348735008643406e-06
-6.685690576655818e-06   7.511979448185293e-07   1.0476062537959822e-05
-6.685690576655818e-06   7.511979448185293e-07   1.0476062537959822e-05
-6.685690576655818e-06   7.511979448185293e-07   1.0476062537959822e-05
-6.685690576655818e-06   7.511979448185293e-07   1.0476062537959822e-05
-1.3955332660576146e-05   1.8561017764932158e-06   -9.770653029026128e-07
-1.3955332660576146e-05   1.8561017764932158e-06   -9.770653029026128e-07
-1.3955332660576146e-05   1.8561017764932158e-06   -9.770653029026128e-07
-1.3955332660576146e-05   1.8561017764932158e-06   -9.770653029026128e-07
-1.4377136914402709e-05   6.829998354546682e-07   1.1821632580193869e-05
-1.4377136914402709e-05   6.829998354546682e-07   1.1821632580193869e-05
-1.4377136914402709e-05   6.829998354546682e-07   1.1821632580193869e-05
-1.4377136914402709e-05   6.829998354546682e-07   1.1821632580193869e-05
-7.003387961175847e-06   1.766645622668984e-06   -1.1181364808460594e-06
-7.003387961175847e-06   1.766645622668984e-06   -1.1181364808460594e-06
-7.003387961175847e-06   1.766645622668984e-06   -1.1181364808460594e-06
-7.003387961175847e-06   1.766645622668984e-06   -1.1181364808460594e-06
-1.0350278906588543e-05   1.3352549282740064e-06   4.71884951147865e-06
-1.0350278906588543e-05   1.3352549282740064e-06   4.71884951147865e-06
-1.0350278906588543e-05   1.3352549282740064e-06   4.71884951147865e-06
-1.0350278906588543e-05   1.3352549282740064e-06   4.71884951147865e-06
-7.00338796117584e-06   6.829998354546682e-07   1.1171445107865366e-05
-7.00338796117584e-06   6.829998354546682e-07   1.1171445107865366e-05
-7.00338796117584e-06   6.829998354546682e-07   1.1171445107865366e-05
-7.00338796117584e-06   6.829998354546682e-07   1.1171445107865366e-05
-1.4377136914402709e-05   1.7666456226688755e-06   -4.679490085175296e-07
-1.4377136914402709e-05   1.7666456226688755e-06   -4.679490085175296e-07
-1.4377136914402709e-05   1.7666456226688755e-06   -4.679490085175296e-07
-1.4377136914402709e-05   1.7666456226688755e-06   -4.679490085175296e-07
-1.4821691929456066e-05   6.043808080568236e-07   1.2352459098222037e-05
-1.4821691929456066e-05   6.043808080568236e-07   1.2352459098222037e-05
-1.4821691929456066e-05   6.043808080568236e-07   1.2352459098222037e-05
-1.4821691929456066e-05   6.043808080568236e-07   1.2352459098222037e-05
-7.341817573063337e-06   1.6445347567333336e-06   -7.38090531638276e-07
-7.341817573063337e-06   1.6445347567333336e-06   -7.38090531638276e-07
-7.341817573063337e-06   1.6445347567333336e-06   -7.38090531638276e-07
-7.341817573063337e-06   1.6445347567333336e-06   -7.38090531638276e-07
-1.0781544580673451e-05   1.2639926341574247e-06   5.223113087924388e-06
-1.0781544580673451e-05   1.2639926341574247e-06   5.223113087924388e-06
-1.0781544580673451e-05   1.2639926341574247e-06   5.223113087924388e-06
-1.0781544580673451e-05   1.2639926341574247e-06   5.223113087924388e-06
-1.3612413676066266e-05   3.202728133460753e-06   5.304600385096865e-06
-1.3612413676066266e-05   3.202728133460753e-06   5.304600385096865e-06
-1.3612413676066266e-05   3.202728133460753e-06   5.304600385096865e-06
-1.3612413676066266e-05   3.202728133460753e-06   5.304600385096865e-06
-2.0505067596935713e-05   3.1731480690485366e-06   -6.200904188332864e-06
-2.0505067596935713e-05   3.1731480690485366e-06   -6.200904188332864e-06
-2.0505067596935713e-05   3.1731480690485366e-06   -6.200904188332864e-06
-2.0505067596935713e-05   3.1731480690485366e-06   -6.200904188332864e-06
-2.112325061579724e-05   3.110206216976074e-06   7.937159860435994e-06
-2.112325061579724e-05   3.110206216976074e-06   7.937159860435994e-06
-2.112325061579724e-05   3.110206216976074e-06   7.937159860435994e-06
-2.112325061579724e-05   3.110206216976074e-06   7.937159860435994e-06
-1.3955332660576146e-05   3.2422307221892724e-06   -4.088584768060423e-06
-1.3955332660576146e-05   3.2422307221892724e-06   -4.088584768060423e-06
-1.3955332660576146e-05   3.2422307221892724e-06   -4.088584768060423e-06
-1.3955332660576146e-05   3.2422307221892724e-06   -4.088584768060423e-06
-1.6602667723587574e-05   3.2248100092671476e-06   3.3409276471190103e-07
-1.6602667723587574e-05   3.2248100092671476e-06   3.3409276471190103e-07
-1.6602667723587574e-05   3.2248100092671476e-06   3.3409276471190103e-07
-1.6602667723587574e-05   3.2248100092671476e-06   3.3409276471190103e-07
-1.395533266057614e-05   3.1102062169761826e-06   7.857945157308107e-06
-1.395533266057614e-05   3.1102062169761826e-06   7.857945157308107e-06
-1.395533266057614e-05   3.1102062169761826e-06   7.857945157308107e-06
-1.395533266057614e-05   3.1102062169761826e-06   7.857945157308107e-06
-2.112325061579724e-05   3.2422307221892724e-06   -4.00937006493255e-06
-2.112325061579724e-05   3.2422307221892724e-06   -4.00937006493255e-06
-2.112325061579724e-05   3.2422307221892724e-06   -4.00937006493255e-06
-2.112325061579724e-05   3.2422307221892724e-06   -4.00937006493255e-06
-2.172928730906082e-05   3.0375232849157293e-06   9.768347050770235e-06
-2.172928730906082e-05   3.0375232849157293e-06   9.768347050770235e-06
-2.172928730906082e-05   3.0375232849157293e-06   9.768347050770235e-06
-2.172928730906082e-05   3.0375232849157293e-06   9.768347050770235e-06
-1.4377136914402689e-05   3.2215678901384263e-06   -2.5956637034602986e-06
-1.4377136914402689e-05   3.2215678901384263e-06   -2.5956637034602986e-06
-1.4377136914402689e-05   3.2215678901384263e-06   -2.5956637034602986e-06
-1.4377136914402689e-05   3.2215678901384263e-06   -2.5956637034602986e-06
-1.7325970929747982e-05   3.231591175857423e-06   2.3130456840173225e-06
-1.7325970929747982e-05   3.231591175857423e-06   2.3130456840173225e-06
-1.7325970929747982e-05   3.231591175857423e-06   2.3130456840173225e-06
-1.7325970929747982e-05   3.231591175857423e-06   2.3130456840173225e-06
-1.4377136914402689e-05   3.0375232849158378e-06   9.65792028763667e-06
-1.4377136914402689e-05   3.0375232849158378e-06   9.65792028763667e-06
-1.4377136914402689e-05   3.0375232849158378e-06   9.65792028763667e-06
-1.4377136914402689e-05   3.0375232849158378e-06   9.65792028763667e-06
-2.172928730906082e-05   3.2215678901384263e-06   -2.485236940326721e-06
-2.172928730906082e-05   3.2215678901384263e-06   -2.485236940326721e-06
-2.172928730906082e-05   3.2215678901384263e-06   -2.485236940326721e-06
-2.172928730906082e-05   3.2215678901384263e-06   -2.485236940326721e-06
-2.2445398815057923e-05   2.5593173295966956e-06   1.2823806577398047e-05
-2.2445398815057923e-05   2.5593173295966956e-06   1.2823806577398047e-05
-2.2445398815057923e-05   2.5593173295966956e-06   1.2823806577398047e-05
-2.2445398815057923e-05   2.5593173295966956e-06   1.2823806577398047e-05
-1.4821691929456012e-05   2.9738768259336646e-06   -1.3110726307398164e-07
-1.4821691929456012e-05   2.9738768259336646e-06   -1.3110726307398164e-07
-1.4821691929456012e-05   2.9738768259336646e-06   -1.3110726307398164e-07
-1.4821691929456012e-05   2.9738768259336646e-06   -1.3110726307398164e-07
-1.7564375277908504e-05   3.0841794742193264e-06   4.373850062042303e-06
-1.7564375277908504e-05   3.0841794742193264e-06   4.373850062042303e-06
-1.7564375277908504e-05   3.0841794742193264e-06   4.373850062042303e-06
-1.7564375277908504e-05   3.0841794742193264e-06   4.373850062042303e-06
1.361474166314908e-05   -1.8970961740991197e-06   1.0372345315618522e-05
1.361474166314908e-05   -1.8970961740991197e-06   1.0372345315618522e-05
1.361474166314908e-05   -1.8970961740991197e-06   1.0372345315618522e-05
1.361474166314908e-05   -1.8970961740991197e-06   1.0372345315618522e-05
6.715461638873015e-06   -1.4124566641268753e-06   -8.356710188581824e-07
6.715461638873015e-06   -1.4124566641268753e-06   -8.356710188581824e-07
6.715461638873015e-06   -1.4124566641268753e-06   -8.356710188581824e-07
6.715461638873015e-06   -1.4124566641268753e-06   -8.356710188581824e-07
6.470855197067517e-06   -2.1426906415104603e-06   8.999766298679066e-06
6.470855197067517e-06   -2.1426906415104603e-06   8.999766298679066e-06
6.470855197067517e-06   -2.1426906415104603e-06   8.999766298679066e-06
6.470855197067517e-06   -2.1426906415104603e-06   8.999766298679066e-06
1.3166082806649772e-05   -1.632151402593371e-06   -2.465269927308304e-06
1.3166082806649772e-05   -1.632151402593371e-06   -2.465269927308304e-06
1.3166082806649772e-05   -1.632151402593371e-06   -2.465269927308304e-06
1.3166082806649772e-05   -1.632151402593371e-06   -2.465269927308304e-06
9.534759193582675e-06   -1.7524891537943395e-06   3.6591387451907244e-06
9.534759193582675e-06   -1.7524891537943395e-06   3.6591387451907244e-06
9.534759193582675e-06   -1.7524891537943395e-06   3.6591387451907244e-06
9.534759193582675e-06   -1.7524891537943395e-06   3.6591387451907244e-06
1.316608280664975e-05   -2.1426906415104603e-06   8.693442755328758e-06
1.316608280664975e-05   -2.1426906415104603e-06   8.693442755328758e-06
1.316608280664975e-05   -2.1426906415104603e-06   8.693442755328758e-06
1.316608280664975e-05   -2.1426906415104603e-06   8.693442755328758e-06
6.470855197067541e-06   -1.632151402593371e-06   -2.1589463839580053e-06
6.470855197067541e-06   -1.632151402593371e-06   -2.1589463839580053e-06
6.470855197067541e-06   -1.632151402593371e-06   -2.1589463839580053e-06
6.470855197067541e-06   -1.632151402593371e-06   -2.1589463839580053e-06
6.198322061943687e-06   -2.177403447248933e-06   8.052283702885332e-06
6.198322061943687e-06   -2.177403447248933e-06   8.052283702885332e-06
6.198322061943687e-06   -2.177403447248933e-06   8.052283702885332e-06
6.198322061943687e-06   -2.177403447248933e-06   8.052283702885332e-06
1.2758287067381468e-05   -1.6750691386856892e-06   -3.182391891315617e-06
1.2758287067381468e-05   -1.6750691386856892e-06   -3.182391891315617e-06
1.2758287067381468e-05   -1.6750691386856892e-06   -3.182391891315617e-06
1.2758287067381468e-05   -1.6750691386856892e-06   -3.182391891315617e-06
9.373985728395691e-06   -1.838188738357508e-06   2.555982100130446e-06
9.373985728395691e-06   -1.838188738357508e-06   2.555982100130446e-06
9.373985728395691e-06   -1.838188738357508e-06   2.555982100130446e-06
9.373985728395691e-06   -1.838188738357508e-06   2.555982100130446e-06
1.2758287067381424e-05   -2.177403447248933e-06   7.750883117747331e-06
1.2758287067381424e-05   -2.177403447248933e-06   7.750883117747331e-06
1.2758287067381424e-05   -2.177403447248933e-06   7.750883117747331e-06
1.2758287067381424e-05   -2.177403447248933e-06   7.750883117747331e-06
6.198322061943697e-06   -1.6750691386856892e-06   -2.8809913061776334e-06
6.198322061943697e-06   -1.6750691386856892e-06   -2.8809913061776334e-06
6.198322061943697e-06   -1.6750691386856892e-06   -2.8809913061776334e-06
6.198322061943697e-06   -1.6750691386856892e-06   -2.8809913061776334e-06
5.935519179963872e-06   -2.155666813769886e-06   6.720912173309207e-06
5.935519179963872e-06   -2.155666813769886e-06   6.720912173309207e-06
5.935519179963872e-06   -2.155666813769886e-06   6.720912173309207e-06
5.935519179963872e-06   -2.155666813769886e-06   6.720912173309207e-06
1.2294990409452772e-05   -1.686210547907109e-06   -4.159880302023288e-06
1.2294990409452772e-05   -1.686210547907109e-06   -4.159880302023288e-06
1.2294990409452772e-05   -1.686210547907109e-06   -4.159880302023288e-06
1.2294990409452772e-05   -1.686210547907109e-06   -4.159880302023288e-06
8.907612470195045e-06   -1.8045924356586886e-06   1.556778729390674e-06
8.907612470195045e-06   -1.8045924356586886e-06   1.556778729390674e-06
8.907612470195045e-06   -1.8045924356586886e-06   1.556778729390674e-06
8.907612470195045e-06   -1.8045924356586886e-06   1.556778729390674e-06
6.715461638873015e-06   -6.596691154025927e-07   1.0763964218424727e-05
6.715461638873015e-06   -6.596691154025927e-07   1.0763964218424727e-05
6.715461638873015e-06   -6.596691154025927e-07   1.0763964218424727e-05
6.715461638873015e-06   -6.596691154025927e-07   1.0763964218424727e-05
2.3819642648264367e-07   -2.726095078564583e-07   2.007579623018686e-07
2.3819642648264367e-07   -2.726095078564583e-07   2.007579623018686e-07
2.3819642648264367e-07   -2.726095078564583e-07   2.007579623018686e-07
2.3819642648264367e-07   -2.726095078564583e-07   2.007579623018686e-07
2.6115307218447462e-09   -7.898967713887645e-07   1.0867194310731475e-05
2.6115307218447462e-09   -7.898967713887645e-07   1.0867194310731475e-05
2.6115307218447462e-09   -7.898967713887645e-07   1.0867194310731475e-05
2.6115307218447462e-09   -7.898967713887645e-07   1.0867194310731475e-05
6.470855197067541e-06   -4.268348300378753e-07   -1.31048964655226e-07
6.470855197067541e-06   -4.268348300378753e-07   -1.31048964655226e-07
6.470855197067541e-06   -4.268348300378753e-07   -1.31048964655226e-07
6.470855197067541e-06   -4.268348300378753e-07   -1.31048964655226e-07
3.3156240433975127e-06   -5.181674736958516e-07   5.182469210989648e-06
3.3156240433975127e-06   -5.181674736958516e-07   5.182469210989648e-06
3.3156240433975127e-06   -5.181674736958516e-07   5.182469210989648e-06
3.3156240433975127e-06   -5.181674736958516e-07   5.182469210989648e-06
6.470855197067534e-06   -7.898967713887645e-07   1.064935714592091e-05
6.470855197067534e-06   -7.898967713887645e-07   1.064935714592091e-05
6.470855197067534e-06   -7.898967713887645e-07   1.064935714592091e-05
6.470855197067534e-06   -7.898967713887645e-07   1.064935714592091e-05
2.61153072183797e-09   -4.268348300378753e-07   8.678820015531634e-08
2.61153072183797e-09   -4.268348300378753e-07   8.678820015531634e-08
2.61153072183797e-09   -4.268348300378753e-07   8.678820015531634e-08
2.61153072183797e-09   -4.268348300378753e-07   8.678820015531634e-08
-2.423210265140152e-07   -8.728864569980442e-07   1.0693060747935857e-05
-2.423210265140152e-07   -8.728864569980442e-07   1.0693060747935857e-05
-2.423210265140152e-07   -8.728864569980442e-07   1.0693060747935857e-05
-2.423210265140152e-07   -8.728864569980442e-07   1.0693060747935857e-05
6.198322061943697e-06   -5.394333517899207e-07   -2.414162626185448e-07
6.198322061943697e-06   -5.394333517899207e-07   -2.414162626185448e-07
6.198322061943697e-06   -5.394333517899207e-07   -2.414162626185448e-07
6.198322061943697e-06   -5.394333517899207e-07   -2.414162626185448e-07
3.0433846797808674e-06   -5.98076375025753e-07   5.051998521594459e-06
3.0433846797808674e-06   -5.98076375025753e-07   5.051998521594459e-06
3.0433846797808674e-06   -5.98076375025753e-07   5.051998521594459e-06
3.0433846797808674e-06   -5.98076375025753e-07   5.051998521594459e-06
6.198322061943687e-06   -8.728864569980442e-07   1.0492988884810972e-05
6.198322061943687e-06   -8.728864569980442e-07   1.0492988884810972e-05
6.198322061943687e-06   -8.728864569980442e-07   1.0492988884810972e-05
6.198322061943687e-06   -8.728864569980442e-07   1.0492988884810972e-05
-2.423210265140152e-07   -5.394333517899207e-07   -4.13443994936734e-08
-2.423210265140152e-07   -5.394333517899207e-07   -4.13443994936734e-08
-2.423210265140152e-07   -5.394333517899207e-07   -4.13443994936734e-08
-2.423210265140152e-07   -5.394333517899207e-07   -4.13443994936734e-08
-4.97334663500463e-07   -9.049355132761429e-07   1.0764326698449998e-05
-4.97334663500463e-07   -9.049355132761429e-07   1.0764326698449998e-05
-4.97334663500463e-07   -9.049355132761429e-07   1.0764326698449998e-05
-4.97334663500463e-07   -9.049355132761429e-07   1.0764326698449998e-05
5.9355191799638875e-06   -6.25890859679728e-07   -1.2452316614842453e-07
5.9355191799638875e-06   -6.25890859679728e-07   -1.2452316614842453e-07
5.9355191799638875e-06   -6.25890859679728e-07   -1.2452316614842453e-07
5.9355191799638875e-06   -6.25890859679728e-07   -1.2452316614842453e-07
2.841787811061184e-06   -6.386131177697329e-07   5.039329136876964e-06
2.841787811061184e-06   -6.386131177697329e-07   5.039329136876964e-06
2.841787811061184e-06   -6.386131177697329e-07   5.039329136876964e-06
2.841787811061184e-06   -6.386131177697329e-07   5.039329136876964e-06
2.381964264826369e-07   6.073551117749629e-07   1.1091417398863919e-05
2.381964264826369e-07   6.073551117749629e-07   1.1091417398863919e-05
2.381964264826369e-07   6.073551117749629e-07   1.1091417398863919e-05
2.381964264826369e-07   6.073551117749629e-07   1.1091417398863919e-05
-6.055217962101285e-06   8.657424815067911e-07   7.574258397297908e-07
-6.055217962101285e-06   8.657424815067911e-07   7.574258397297908e-07
-6.055217962101285e-06   8.657424815067911e-07   7.574258397297908e-07
-6.055217962101285e-06   8.657424815067911e-07   7.574258397297908e-07
-6.301819106068915e-06   5.108611674125609e-07   1.1238535169300426e-05
-6.301819106068915e-06   5.108611674125609e-07   1.1238535169300426e-05
-6.301819106068915e-06   5.108611674125609e-07   1.1238535169300426e-05
-6.301819106068915e-06   5.108611674125609e-07   1.1238535169300426e-05
2.61153072183797e-09   7.396782635910515e-07   5.93860516942119e-07
2.61153072183797e-09   7.396782635910515e-07   5.93860516942119e-07
2.61153072183797e-09   7.396782635910515e-07   5.93860516942119e-07
2.61153072183797e-09   7.396782635910515e-07   5.93860516942119e-07
-3.033573925707936e-06   6.866023536096586e-07   5.686015156980542e-06
-3.033573925707936e-06   6.866023536096586e-07   5.686015156980542e-06
-3.033573925707936e-06   6.866023536096586e-07   5.686015156980542e-06
-3.033573925707936e-06   6.866023536096586e-07   5.686015156980542e-06
2.6115307218447462e-09   5.108611674125609e-07   1.1101244911593353e-05
2.6115307218447462e-09   5.108611674125609e-07   1.1101244911593353e-05
2.6115307218447462e-09   5.108611674125609e-07   1.1101244911593353e-05
2.6115307218447462e-09   5.108611674125609e-07   1.1101244911593353e-05
-6.301819106068915e-06   7.396782635910515e-07   7.311507746491849e-07
-6.301819106068915e-06   7.396782635910515e-07   7.311507746491849e-07
-6.301819106068915e-06   7.396782635910515e-07   7.311507746491849e-07
-6.301819106068915e-06   7.396782635910515e-07   7.311507746491849e-07
-6.561621490652548e-06   4.210622638256209e-07   1.1338648458205324e-05
-6.561621490652548e-06   4.210622638256209e-07   1.1338648458205324e-05
-6.561621490652548e-06   4.210622638256209e-07   1.1338648458205324e-05
-6.561621490652548e-06   4.210622638256209e-07   1.1338648458205324e-05
-2.423210265140152e-07   6.173727114271079e-07   6.886947494135954e-07
-2.423210265140152e-07   6.173727114271079e-07   6.886947494135954e-07
-2.423210265140152e-07   6.173727114271079e-07   6.886947494135954e-07
-2.423210265140152e-07   6.173727114271079e-07   6.886947494135954e-07
-3.2622621332072375e-06   6.159012079120412e-07   5.7228128293446005e-06
-3.2622621332072375e-06   6.159012079120412e-07   5.7228128293446005e-06
-3.2622621332072375e-06   6.159012079120412e-07   5.7228128293446005e-06
-3.2622621332072375e-06   6.159012079120412e-07   5.7228128293446005e-06
-2.423210265140152e-07   4.210622638256209e-07   1.1220862189644486e-05
-2.423210265140152e-07   4.210622638256209e-07   1.1220862189644486e-05
-2.423210265140152e-07   4.210622638256209e-07   1.1220862189644486e-05
-2.423210265140152e-07   4.210622638256209e-07   1.1220862189644486e-05
-6.561621490652562e-06   6.173727114271079e-07   8.064810179744266e-07
-6.561621490652562e-06   6.173727114271079e-07   8.064810179744266e-07
-6.561621490652562e-06   6.173727114271079e-07   8.064810179744266e-07
-6.561621490652562e-06   6.173727114271079e-07   8.064810179744266e-07
-6.82937248659502e-06   3.571703781756353e-07   1.1498864965582263e-05
-6.82937248659502e-06   3.571703781756353e-07   1.1498864965582263e-05
-6.82937248659502e-06   3.571703781756353e-07   1.1498864965582263e-05
-6.82937248659502e-06   3.571703781756353e-07   1.1498864965582263e-05
-4.97334663500463e-07   5.086488885818396e-07   8.545814875142292e-07
-4.97334663500463e-07   5.086488885818396e-07   8.545814875142292e-07
-4.97334663500463e-07   5.086488885818396e-07   8.545814875142292e-07
-4.97334663500463e-07   5.086488885818396e-07   8.545814875142292e-07
-3.5097977289609827e-06   5.484268909671918e-07   5.851486461850913e-06
-3.5097977289609827e-06   5.484268909671918e-07   5.851486461850913e-06
-3.5097977289609827e-06   5.484268909671918e-07   5.851486461850913e-06
-3.5097977289609827e-06   5.484268909671918e-07   5.851486461850913e-06
-6.055217962101298e-06   1.9510698633846447e-06   9.712760833260425e-06
-6.055217962101298e-06   1.9510698633846447e-06   9.712760833260425e-06
-6.055217962101298e-06   1.9510698633846447e-06   9.712760833260425e-06
-6.055217962101298e-06   1.9510698633846447e-06   9.712760833260425e-06
-1.2173603786351598e-05   1.9763069280922044e-06   -4.6940663499879694e-07
-1.2173603786351598e-05   1.9763069280922044e-06   -4.6940663499879694e-07
-1.2173603786351598e-05   1.9763069280922044e-06   -4.6940663499879694e-07
-1.2173603786351598e-05   1.9763069280922044e-06   -4.6940663499879694e-07
-1.2459594941318809e-05   1.8561017764932158e-06   9.882046225406977e-06
-1.2459594941318809e-05   1.8561017764932158e-06   9.882046225406977e-06
-1.2459594941318809e-05   1.8561017764932158e-06   9.882046225406977e-06
-1.2459594941318809e-05   1.8561017764932158e-06   9.882046225406977e-06
-6.301819106068921e-06   1.8579463266787683e-06   -3.8202023012079856e-07
-6.301819106068921e-06   1.8579463266787683e-06   -3.8202023012079856e-07
-6.301819106068921e-06   1.8579463266787683e-06   -3.8202023012079856e-07
-6.301819106068921e-06   1.8579463266787683e-06   -3.8202023012079856e-07
-9.206341043593498e-06   1.9028086241818518e-06   4.43193228725171e-06
-9.206341043593498e-06   1.9028086241818518e-06   4.43193228725171e-06
-9.206341043593498e-06   1.9028086241818518e-06   4.43193228725171e-06
-9.206341043593498e-06   1.9028086241818518e-06   4.43193228725171e-06
-6.301819106068921e-06   1.8561017764932158e-06   9.880939495295667e-06
-6.301819106068921e-06   1.8561017764932158e-06   9.880939495295667e-06
-6.301819106068921e-06   1.8561017764932158e-06   9.880939495295667e-06
-6.301819106068921e-06   1.8561017764932158e-06   9.880939495295667e-06
-1.2459594941318796e-05   1.8579463266787683e-06   -3.8091350000948876e-07
-1.2459594941318796e-05   1.8579463266787683e-06   -3.8091350000948876e-07
-1.2459594941318796e-05   1.8579463266787683e-06   -3.8091350000948876e-07
-1.2459594941318796e-05   1.8579463266787683e-06   -3.8091350000948876e-07
-1.2775442437152377e-05   1.7666456226688755e-06   1.0342116104989382e-05
-1.2775442437152377e-05   1.7666456226688755e-06   1.0342116104989382e-05
-1.2775442437152377e-05   1.7666456226688755e-06   1.0342116104989382e-05
-1.2775442437152377e-05   1.7666456226688755e-06   1.0342116104989382e-05
-6.561621490652562e-06   1.747092504376089e-06   -2.520268201314127e-09
-6.561621490652562e-06   1.747092504376089e-06   -2.520268201314127e-09
-6.561621490652562e-06   1.747092504376089e-06   -2.520268201314127e-09
-6.561621490652562e-06   1.747092504376089e-06   -2.520268201314127e-09
-9.409549367323176e-06   1.8371280846383575e-06   4.690004844759018e-06
-9.409549367323176e-06   1.8371280846383575e-06   4.690004844759018e-06
-9.409549367323176e-06   1.8371280846383575e-06   4.690004844759018e-06
-9.409549367323176e-06   1.8371280846383575e-06   4.690004844759018e-06
-6.561621490652555e-06   1.7666456226688755e-06   1.0353847975965108e-05
-6.561621490652555e-06   1.7666456226688755e-06   1.0353847975965108e-05
-6.561621490652555e-06   1.7666456226688755e-06   1.0353847975965108e-05
-6.561621490652555e-06   1.7666456226688755e-06   1.0353847975965108e-05
-1.2775442437152357e-05   1.747092504376089e-06   -1.425213917694533e-08
-1.2775442437152357e-05   1.747092504376089e-06   -1.425213917694533e-08
-1.2775442437152357e-05   1.747092504376089e-06   -1.425213917694533e-08
-1.2775442437152357e-05   1.747092504376089e-06   -1.425213917694533e-08
-1.30757890551508e-05   1.6445347567333336e-06   1.0666370945283058e-05
-1.30757890551508e-05   1.6445347567333336e-06   1.0666370945283058e-05
-1.30757890551508e-05   1.6445347567333336e-06   1.0666370945283058e-05
-1.30757890551508e-05   1.6445347567333336e-06   1.0666370945283058e-05
-6.829372486595047e-06   1.6101364407125488e-06   2.7631565396925317e-07
-6.829372486595047e-06   1.6101364407125488e-06   2.7631565396925317e-07
-6.829372486595047e-06   1.6101364407125488e-06   2.7631565396925317e-07
-6.829372486595047e-06   1.6101364407125488e-06   2.7631565396925317e-07
-9.740772609842092e-06   1.7495463778564781e-06   5.045003230428393e-06
-9.740772609842092e-06   1.7495463778564781e-06   5.045003230428393e-06
-9.740772609842092e-06   1.7495463778564781e-06   5.045003230428393e-06
-9.740772609842092e-06   1.7495463778564781e-06   5.045003230428393e-06
-1.2173603786351571e-05   3.173148069048428e-06   4.694826950087799e-06
-1.2173603786351571e-05   3.173148069048428e-06   4.694826950087799e-06
-1.2173603786351571e-05   3.173148069048428e-06   4.694826950087799e-06
-1.2173603786351571e-05   3.173148069048428e-06   4.694826950087799e-06
-1.8028303941782534e-05   2.8652131526433295e-06   -5.2477675921403205e-06
-1.8028303941782534e-05   2.8652131526433295e-06   -5.2477675921403205e-06
-1.8028303941782534e-05   2.8652131526433295e-06   -5.2477675921403205e-06
-1.8028303941782534e-05   2.8652131526433295e-06   -5.2477675921403205e-06
-1.847915923748344e-05   3.2422307221892724e-06   6.566375116505462e-06
-1.847915923748344e-05   3.2422307221892724e-06   6.566375116505462e-06
-1.847915923748344e-05   3.2422307221892724e-06   6.566375116505462e-06
-1.847915923748344e-05   3.2422307221892724e-06   6.566375116505462e-06
-1.2459594941318809e-05   2.9019779826163633e-06   -3.262080400025271e-06
-1.2459594941318809e-05   2.9019779826163633e-06   -3.262080400025271e-06
-1.2459594941318809e-05   2.9019779826163633e-06   -3.262080400025271e-06
-1.2459594941318809e-05   2.9019779826163633e-06   -3.262080400025271e-06
-1.469884910674914e-05   3.0241672977214832e-06   3.9669628662891373e-07
-1.469884910674914e-05   3.0241672977214832e-06   3.9669628662891373e-07
-1.469884910674914e-05   3.0241672977214832e-06   3.9669628662891373e-07
-1.469884910674914e-05   3.0241672977214832e-06   3.9669628662891373e-07
-1.2459594941318782e-05   3.2422307221892724e-06   6.770526760249153e-06
-1.2459594941318782e-05   3.2422307221892724e-06   6.770526760249153e-06
-1.2459594941318782e-05   3.2422307221892724e-06   6.770526760249153e-06
-1.2459594941318782e-05   3.2422307221892724e-06   6.770526760249153e-06
-1.8479159237483507e-05   2.9019779826163633e-06   -3.4662320437689757e-06
-1.8479159237483507e-05   2.9019779826163633e-06   -3.4662320437689757e-06
-1.8479159237483507e-05   2.9019779826163633e-06   -3.4662320437689757e-06
-1.8479159237483507e-05   2.9019779826163633e-06   -3.4662320437689757e-06
-1.8917727621576132e-05   3.2215678901385348e-06   8.004555882893901e-06
-1.8917727621576132e-05   3.2215678901385348e-06   8.004555882893901e-06
-1.8917727621576132e-05   3.2215678901385348e-06   8.004555882893901e-06
-1.8917727621576132e-05   3.2215678901385348e-06   8.004555882893901e-06
-1.2775442437152377e-05   2.87182534488401e-06   -2.0227405639930792e-06
-1.2775442437152377e-05   2.87182534488401e-06   -2.0227405639930792e-06
-1.2775442437152377e-05   2.87182534488401e-06   -2.0227405639930792e-06
-1.2775442437152377e-05   2.87182534488401e-06   -2.0227405639930792e-06
-1.526443844609547e-05   3.0818601435011767e-06   1.999565238408683e-06
-1.526443844609547e-05   3.0818601435011767e-06   1.999565238408683e-06
-1.526443844609547e-05   3.0818601435011767e-06   1.999565238408683e-06
-1.526443844609547e-05   3.0818601435011767e-06   1.999565238408683e-06
-1.2775442437152377e-05   3.2215678901385348e-06   8.214401410046681e-06
-1.2775442437152377e-05   3.2215678901385348e-06   8.214401410046681e-06
-1.2775442437152377e-05   3.2215678901385348e-06   8.214401410046681e-06
-1.2775442437152377e-05   3.2215678901385348e-06   8.214401410046681e-06
-1.89177276215762e-05   2.87182534488401e-06   -2.2325860911457643e-06
-1.89177276215762e-05   2.87182534488401e-06   -2.2325860911457643e-06
-1.89177276215762e-05   2.87182534488401e-06   -2.2325860911457643e-06
-1.89177276215762e-05   2.87182534488401e-06   -2.2325860911457643e-06
-1.942824347474276e-05   2.973876825933773e-06   1.0457891469034183e-05
-1.942824347474276e-05   2.973876825933773e-06   1.0457891469034183e-05
-1.942824347474276e-05   2.973876825933773e-06   1.0457891469034183e-05
-1.942824347474276e-05   2.973876825933773e-06   1.0457891469034183e-05
-1.30757890551508e-05   2.654926199921492e-06   6.183781198818678e-08
-1.30757890551508e-05   2.654926199921492e-06   6.183781198818678e-08
-1.30757890551508e-05   2.654926199921492e-06   6.183781198818678e-08
-1.30757890551508e-05   2.654926199921492e-06   6.183781198818678e-08
-1.5390728614597604e-05   2.991979792331726e-06   3.717838255620304e-06
-1.5390728614597604e-05   2.991979792331726e-06   3.717838255620304e-06
-1.5390728614597604e-05   2.991979792331726e-06   3.717838255620304e-06
-1.5390728614597604e-05   2.991979792331726e-06   3.717838255620304e-06
1.0489611970064146e-05   -1.4124566641268753e-06   8.770806900872683e-06
1.0489611970064146e-05   -1.4124566641268753e-06   8.770806900872683e-06
1.0489611970064146e-05   -1.4124566641268753e-06   8.770806900872683e-06
1.0489611970064146e-05   -1.4124566641268753e-06   8.770806900872683e-06
4.924448684919956e-06   -9.524632317114805e-07   -2.2846918158497993e-07
4.924448684919956e-06   -9.524632317114805e-07   -2.2846918158497993e-07
4.924448684919956e-06   -9.524632317114805e-07   -2.2846918158497993e-07
4.924448684919956e-06   -9.524632317114805e-07   -2.2846918158497993e-07
4.704678695079567e-06   -1.632151402593371e-06   7.690197578849904e-06
4.704678695079567e-06   -1.632151402593371e-06   7.690197578849904e-06
4.704678695079567e-06   -1.632151402593371e-06   7.690197578849904e-06
4.704678695079567e-06   -1.632151402593371e-06   7.690197578849904e-06
1.0063336117139787e-05   -1.1490870743697265e-06   -1.5307367215179692e-06
1.0063336117139787e-05   -1.1490870743697265e-06   -1.5307367215179692e-06
1.0063336117139787e-05   -1.1490870743697265e-06   -1.5307367215179692e-06
1.0063336117139787e-05   -1.1490870743697265e-06   -1.5307367215179692e-06
7.191132303393155e-06   -1.2949978317716281e-06   3.3438160891675417e-06
7.191132303393155e-06   -1.2949978317716281e-06   3.3438160891675417e-06
7.191132303393155e-06   -1.2949978317716281e-06   3.3438160891675417e-06
7.191132303393155e-06   -1.2949978317716281e-06   3.3438160891675417e-06
1.0063336117139787e-05   -1.632151402593371e-06   7.400358981915771e-06
1.0063336117139787e-05   -1.632151402593371e-06   7.400358981915771e-06
1.0063336117139787e-05   -1.632151402593371e-06   7.400358981915771e-06
1.0063336117139787e-05   -1.632151402593371e-06   7.400358981915771e-06
4.704678695079574e-06   -1.1490870743697265e-06   -1.2408981245837724e-06
4.704678695079574e-06   -1.1490870743697265e-06   -1.2408981245837724e-06
4.704678695079574e-06   -1.1490870743697265e-06   -1.2408981245837724e-06
4.704678695079574e-06   -1.1490870743697265e-06   -1.2408981245837724e-06
4.461070769758862e-06   -1.6750691386856892e-06   6.932318706378475e-06
4.461070769758862e-06   -1.6750691386856892e-06   6.932318706378475e-06
4.461070769758862e-06   -1.6750691386856892e-06   6.932318706378475e-06
4.461070769758862e-06   -1.6750691386856892e-06   6.932318706378475e-06
9.688435929959593e-06   -1.2005800654638988e-06   -2.064650004555737e-06
9.688435929959593e-06   -1.2005800654638988e-06   -2.064650004555737e-06
9.688435929959593e-06   -1.2005800654638988e-06   -2.064650004555737e-06
9.688435929959593e-06   -1.2005800654638988e-06   -2.064650004555737e-06
7.021618039620517e-06   -1.3753510451735814e-06   2.484909067168681e-06
7.021618039620517e-06   -1.3753510451735814e-06   2.484909067168681e-06
7.021618039620517e-06   -1.3753510451735814e-06   2.484909067168681e-06
7.021618039620517e-06   -1.3753510451735814e-06   2.484909067168681e-06
9.688435929959574e-06   -1.6750691386856892e-06   6.647625262445477e-06
9.688435929959574e-06   -1.6750691386856892e-06   6.647625262445477e-06
9.688435929959574e-06   -1.6750691386856892e-06   6.647625262445477e-06
9.688435929959574e-06   -1.6750691386856892e-06   6.647625262445477e-06
4.46107076975887e-06   -1.2005800654638988e-06   -1.7799565606226877e-06
4.46107076975887e-06   -1.2005800654638988e-06   -1.7799565606226877e-06
4.46107076975887e-06   -1.2005800654638988e-06   -1.7799565606226877e-06
4.46107076975887e-06   -1.2005800654638988e-06   -1.7799565606226877e-06
4.235547719973169e-06   -1.686210547907109e-06   5.8961993344552725e-06
4.235547719973169e-06   -1.686210547907109e-06   5.8961993344552725e-06
4.235547719973169e-06   -1.686210547907109e-06   5.8961993344552725e-06
4.235547719973169e-06   -1.686210547907109e-06   5.8961993344552725e-06
9.267640819256443e-06   -1.2439023092784569e-06   -2.7560074408607247e-06
9.267640819256443e-06   -1.2439023092784569e-06   -2.7560074408607247e-06
9.267640819256443e-06   -1.2439023092784569e-06   -2.7560074408607247e-06
9.267640819256443e-06   -1.2439023092784569e-06   -2.7560074408607247e-06
6.622948059463198e-06   -1.3650398791125156e-06   1.7244963673619662e-06
6.622948059463198e-06   -1.3650398791125156e-06   1.7244963673619662e-06
6.622948059463198e-06   -1.3650398791125156e-06   1.7244963673619662e-06
6.622948059463198e-06   -1.3650398791125156e-06   1.7244963673619662e-06
4.924448684919936e-06   -2.726095078564583e-07   9.850996176954344e-06
4.924448684919936e-06   -2.726095078564583e-07   9.850996176954344e-06
4.924448684919936e-06   -2.726095078564583e-07   9.850996176954344e-06
4.924448684919936e-06   -2.726095078564583e-07   9.850996176954344e-06
-3.3524693900087996e-07   -1.4878553274513297e-08   1.2394753765020985e-06
-3.3524693900087996e-07   -1.4878553274513297e-08   1.2394753765020985e-06
-3.3524693900087996e-07   -1.4878553274513297e-08   1.2394753765020985e-06
-3.3524693900087996e-07   -1.4878553274513297e-08   1.2394753765020985e-06
-5.42440388966731e-07   -4.268348300378753e-07   9.863740222602218e-06
-5.42440388966731e-07   -4.268348300378753e-07   9.863740222602218e-06
-5.42440388966731e-07   -4.268348300378753e-07   9.863740222602218e-06
-5.42440388966731e-07   -4.268348300378753e-07   9.863740222602218e-06
4.704678695079574e-06   -1.8409278928870065e-07   9.728965247421738e-07
4.704678695079574e-06   -1.8409278928870065e-07   9.728965247421738e-07
4.704678695079574e-06   -1.8409278928870065e-07   9.728965247421738e-07
4.704678695079574e-06   -1.8409278928870065e-07   9.728965247421738e-07
2.1521023795990373e-06   -2.3104166319183606e-07   5.255359708218306e-06
2.1521023795990373e-06   -2.3104166319183606e-07   5.255359708218306e-06
2.1521023795990373e-06   -2.3104166319183606e-07   5.255359708218306e-06
2.1521023795990373e-06   -2.3104166319183606e-07   5.255359708218306e-06
4.704678695079562e-06   -4.268348300378753e-07   9.718094998152713e-06
4.704678695079562e-06   -4.268348300378753e-07   9.718094998152713e-06
4.704678695079562e-06   -4.268348300378753e-07   9.718094998152713e-06
4.704678695079562e-06   -4.268348300378753e-07   9.718094998152713e-06
-5.42440388966731e-07   -1.8409278928870065e-07   1.1185417491917158e-06
-5.42440388966731e-07   -1.8409278928870065e-07   1.1185417491917158e-06
-5.42440388966731e-07   -1.8409278928870065e-07   1.1185417491917158e-06
-5.42440388966731e-07   -1.8409278928870065e-07   1.1185417491917158e-06
-7.542788701606401e-07   -5.394333517899207e-07   9.706107703241187e-06
-7.542788701606401e-07   -5.394333517899207e-07   9.706107703241187e-06
-7.542788701606401e-07   -5.394333517899207e-07   9.706107703241187e-06
-7.542788701606401e-07   -5.394333517899207e-07   9.706107703241187e-06
4.46107076975887e-06   -3.1574342961731856e-07   8.796443500717286e-07
4.46107076975887e-06   -3.1574342961731856e-07   8.796443500717286e-07
4.46107076975887e-06   -3.1574342961731856e-07   8.796443500717286e-07
4.46107076975887e-06   -3.1574342961731856e-07   8.796443500717286e-07
1.918117795907565e-06   -3.3456206847352465e-07   5.12919048980466e-06
1.918117795907565e-06   -3.3456206847352465e-07   5.12919048980466e-06
1.918117795907565e-06   -3.3456206847352465e-07   5.12919048980466e-06
1.918117795907565e-06   -3.3456206847352465e-07   5.12919048980466e-06
4.461070769758862e-06   -5.394333517900292e-07   9.571893749937659e-06
4.461070769758862e-06   -5.394333517900292e-07   9.571893749937659e-06
4.461070769758862e-06   -5.394333517900292e-07   9.571893749937659e-06
4.461070769758862e-06   -5.394333517900292e-07   9.571893749937659e-06
-7.542788701606401e-07   -3.1574342961731856e-07   1.0138583033753252e-06
-7.542788701606401e-07   -3.1574342961731856e-07   1.0138583033753252e-06
-7.542788701606401e-07   -3.1574342961731856e-07   1.0138583033753252e-06
-7.542788701606401e-07   -3.1574342961731856e-07   1.0138583033753252e-06
-9.674115733991878e-07   -6.25890859679728e-07   9.764101988981276e-06
-9.674115733991878e-07   -6.25890859679728e-07   9.764101988981276e-06
-9.674115733991878e-07   -6.25890859679728e-07   9.764101988981276e-06
-9.674115733991878e-07   -6.25890859679728e-07   9.764101988981276e-06
4.235547719973173e-06   -4.355253960649976e-07   9.782838885251583e-07
4.235547719973173e-06   -4.355253960649976e-07   9.782838885251583e-07
4.235547719973173e-06   -4.355253960649976e-07   9.782838885251583e-07
4.235547719973173e-06   -4.355253960649976e-07   9.782838885251583e-07
1.7420183325160891e-06   -4.0912394635430824e-07   5.118325331127517e-06
1.7420183325160891e-06   -4.0912394635430824e-07   5.118325331127517e-06
1.7420183325160891e-06   -4.0912394635430824e-07   5.118325331127517e-06
1.7420183325160891e-06   -4.0912394635430824e-07   5.118325331127517e-06
-3.3524693900088674e-07   8.657424815067911e-07   1.0407270205292423e-05
-3.3524693900088674e-07   8.657424815067911e-07   1.0407270205292423e-05
-3.3524693900088674e-07   8.657424815067911e-07   1.0407270205292423e-05
-3.3524693900088674e-07   8.657424815067911e-07   1.0407270205292423e-05
-5.48435761659966e-06   8.949909594735319e-07   1.8429681627412753e-06
-5.48435761659966e-06   8.949909594735319e-07   1.8429681627412753e-06
-5.48435761659966e-06   8.949909594735319e-07   1.8429681627412753e-06
-5.48435761659966e-06   8.949909594735319e-07   1.8429681627412753e-06
-5.693249984147485e-06   7.396782635910515e-07   1.0375952477773107e-05
-5.693249984147485e-06   7.396782635910515e-07   1.0375952477773107e-05
-5.693249984147485e-06   7.396782635910515e-07   1.0375952477773107e-05
-5.693249984147485e-06   7.396782635910515e-07   1.0375952477773107e-05
-5.424403889667243e-07   7.482448275646482e-07   1.7861298807543511e-06
-5.424403889667243e-07   7.482448275646482e-07   1.7861298807543511e-06
-5.424403889667243e-07   7.482448275646482e-07   1.7861298807543511e-06
-5.424403889667243e-07   7.482448275646482e-07   1.7861298807543511e-06
-3.0215191715923987e-06   7.968086830000779e-07   5.888789538535877e-06
-3.0215191715923987e-06   7.968086830000779e-07   5.888789538535877e-06
-3.0215191715923987e-06   7.968086830000779e-07   5.888789538535877e-06
-3.0215191715923987e-06   7.968086830000779e-07   5.888789538535877e-06
-5.424403889667243e-07   7.396782635910515e-07   1.037081253938896e-05
-5.424403889667243e-07   7.396782635910515e-07   1.037081253938896e-05
-5.424403889667243e-07   7.396782635910515e-07   1.037081253938896e-05
-5.424403889667243e-07   7.396782635910515e-07   1.037081253938896e-05
-5.693249984147485e-06   7.482448275646482e-07   1.7912698191385051e-06
-5.693249984147485e-06   7.482448275646482e-07   1.7912698191385051e-06
-5.693249984147485e-06   7.482448275646482e-07   1.7912698191385051e-06
-5.693249984147485e-06   7.482448275646482e-07   1.7912698191385051e-06
-5.907041442160606e-06   6.173727114271079e-07   1.0428074220140385e-05
-5.907041442160606e-06   6.173727114271079e-07   1.0428074220140385e-05
-5.907041442160606e-06   6.173727114271079e-07   1.0428074220140385e-05
-5.907041442160606e-06   6.173727114271079e-07   1.0428074220140385e-05
-7.542788701606469e-07   6.039183247471451e-07   1.8482092321484865e-06
-7.542788701606469e-07   6.039183247471451e-07   1.8482092321484865e-06
-7.542788701606469e-07   6.039183247471451e-07   1.8482092321484865e-06
-7.542788701606469e-07   6.039183247471451e-07   1.8482092321484865e-06
-3.214932982479441e-06   6.989992962349928e-07   5.892250836453974e-06
-3.214932982479441e-06   6.989992962349928e-07   5.892250836453974e-06
-3.214932982479441e-06   6.989992962349928e-07   5.892250836453974e-06
-3.214932982479441e-06   6.989992962349928e-07   5.892250836453974e-06
-7.542788701606469e-07   6.173727114271079e-07   1.043614685214845e-05
-7.542788701606469e-07   6.173727114271079e-07   1.043614685214845e-05
-7.542788701606469e-07   6.173727114271079e-07   1.043614685214845e-05
-7.542788701606469e-07   6.173727114271079e-07   1.043614685214845e-05
-5.907041442160606e-06   6.039183247471451e-07   1.840136600140456e-06
-5.907041442160606e-06   6.039183247471451e-07   1.840136600140456e-06
-5.907041442160606e-06   6.039183247471451e-07   1.840136600140456e-06
-5.907041442160606e-06   6.039183247471451e-07   1.840136600140456e-06
-6.120457674159593e-06   5.086488885818396e-07   1.0550859115039213e-05
-6.120457674159593e-06   5.086488885818396e-07   1.0550859115039213e-05
-6.120457674159593e-06   5.086488885818396e-07   1.0550859115039213e-05
-6.120457674159593e-06   5.086488885818396e-07   1.0550859115039213e-05
-9.674115733991878e-07   4.671143295038524e-07   1.9873696825520806e-06
-9.674115733991878e-07   4.671143295038524e-07   1.9873696825520806e-06
-9.674115733991878e-07   4.671143295038524e-07   1.9873696825520806e-06
-9.674115733991878e-07   4.671143295038524e-07   1.9873696825520806e-06
-3.417687924044604e-06   6.039367187594784e-07   5.989070166741205e-06
-3.417687924044604e-06   6.039367187594784e-07   5.989070166741205e-06
-3.417687924044604e-06   6.039367187594784e-07   5.989070166741205e-06
-3.417687924044604e-06   6.039367187594784e-07   5.989070166741205e-06
-5.484357616599647e-06   1.9763069280922044e-06   9.182844578519366e-06
-5.484357616599647e-06   1.9763069280922044e-06   9.182844578519366e-06
-5.484357616599647e-06   1.9763069280922044e-06   9.182844578519366e-06
-5.484357616599647e-06   1.9763069280922044e-06   9.182844578519366e-06
-1.053626146653421e-05   1.7733461819019903e-06   6.412283809142873e-07
-1.053626146653421e-05   1.7733461819019903e-06   6.412283809142873e-07
-1.053626146653421e-05   1.7733461819019903e-06   6.412283809142873e-07
-1.053626146653421e-05   1.7733461819019903e-06   6.412283809142873e-07
-1.0761528167422532e-05   1.8579463266787683e-06   9.128704972464856e-06
-1.0761528167422532e-05   1.8579463266787683e-06   9.128704972464856e-06
-1.0761528167422532e-05   1.8579463266787683e-06   9.128704972464856e-06
-1.0761528167422532e-05   1.8579463266787683e-06   9.128704972464856e-06
-5.693249984147499e-06   1.6344854924482503e-06   8.156511675447829e-07
-5.693249984147499e-06   1.6344854924482503e-06   8.156511675447829e-07
-5.693249984147499e-06   1.6344854924482503e-06   8.156511675447829e-07
-5.693249984147499e-06   1.6344854924482503e-06   8.156511675447829e-07
-8.091572489394331e-06   1.7848702817379594e-06   4.7226244693823185e-06
-8.091572489394331e-06   1.7848702817379594e-06   4.7226244693823185e-06
-8.091572489394331e-06   1.7848702817379594e-06   4.7226244693823185e-06
-8.091572489394331e-06   1.7848702817379594e-06   4.7226244693823185e-06
-5.693249984147485e-06   1.85794632667866e-06   9.262781473003178e-06
-5.693249984147485e-06   1.85794632667866e-06   9.262781473003178e-06
-5.693249984147485e-06   1.85794632667866e-06   9.262781473003178e-06
-5.693249984147485e-06   1.85794632667866e-06   9.262781473003178e-06
-1.0761528167422532e-05   1.6344854924482503e-06   6.815746670064883e-07
-1.0761528167422532e-05   1.6344854924482503e-06   6.815746670064883e-07
-1.0761528167422532e-05   1.6344854924482503e-06   6.815746670064883e-07
-1.0761528167422532e-05   1.6344854924482503e-06   6.815746670064883e-07
-1.1008720136567891e-05   1.747092504376089e-06   9.472938010542348e-06
-1.1008720136567891e-05   1.747092504376089e-06   9.472938010542348e-06
-1.1008720136567891e-05   1.747092504376089e-06   9.472938010542348e-06
-1.1008720136567891e-05   1.747092504376089e-06   9.472938010542348e-06
-5.907041442160619e-06   1.503534298672067e-06   1.1162751099526351e-06
-5.907041442160619e-06   1.503534298672067e-06   1.1162751099526351e-06
-5.907041442160619e-06   1.503534298672067e-06   1.1162751099526351e-06
-5.907041442160619e-06   1.503534298672067e-06   1.1162751099526351e-06
-8.249926211695165e-06   1.6969308394144782e-06   4.905045134731667e-06
-8.249926211695165e-06   1.6969308394144782e-06   4.905045134731667e-06
-8.249926211695165e-06   1.6969308394144782e-06   4.905045134731667e-06
-8.249926211695165e-06   1.6969308394144782e-06   4.905045134731667e-06
-5.907041442160612e-06   1.7470925043761975e-06   9.619072933964739e-06
-5.907041442160612e-06   1.7470925043761975e-06   9.619072933964739e-06
-5.907041442160612e-06   1.7470925043761975e-06   9.619072933964739e-06
-5.907041442160612e-06   1.7470925043761975e-06   9.619072933964739e-06
-1.1008720136567891e-05   1.503534298672067e-06   9.70140186530203e-07
-1.1008720136567891e-05   1.503534298672067e-06   9.70140186530203e-07
-1.1008720136567891e-05   1.503534298672067e-06   9.70140186530203e-07
-1.1008720136567891e-05   1.503534298672067e-06   9.70140186530203e-07
-1.1233803759129232e-05   1.6101364407125488e-06   9.72538454496898e-06
-1.1233803759129232e-05   1.6101364407125488e-06   9.72538454496898e-06
-1.1233803759129232e-05   1.6101364407125488e-06   9.72538454496898e-06
-1.1233803759129232e-05   1.6101364407125488e-06   9.72538454496898e-06
-6.120457674159607e-06   1.3496003902434793e-06   1.3594627003010729e-06
-6.120457674159607e-06   1.3496003902434793e-06   1.3594627003010729e-06
-6.120457674159607e-06   1.3496003902434793e-06   1.3594627003010729e-06
-6.120457674159607e-06   1.3496003902434793e-06   1.3594627003010729e-06
-8.508787748613286e-06   1.5959995594049328e-06   5.1921733228941505e-06
-8.508787748613286e-06   1.5959995594049328e-06   5.1921733228941505e-06
-8.508787748613286e-06   1.5959995594049328e-06   5.1921733228941505e-06
-8.508787748613286e-06   1.5959995594049328e-06   5.1921733228941505e-06
-1.053626146653421e-05   2.8652131526433295e-06   4.467468123506887e-06
-1.053626146653421e-05   2.8652131526433295e-06   4.467468123506887e-06
-1.053626146653421e-05   2.8652131526433295e-06   4.467468123506887e-06
-1.053626146653421e-05   2.8652131526433295e-06   4.467468123506887e-06
-1.537155966179229e-05   2.4645194964191715e-06   -3.8317783956577016e-06
-1.537155966179229e-05   2.4645194964191715e-06   -3.8317783956577016e-06
-1.537155966179229e-05   2.4645194964191715e-06   -3.8317783956577016e-06
-1.537155966179229e-05   2.4645194964191715e-06   -3.8317783956577016e-06
-1.577827442473753e-05   2.9019779826163633e-06   5.98129696258512e-06
-1.577827442473753e-05   2.9019779826163633e-06   5.98129696258512e-06
-1.577827442473753e-05   2.9019779826163633e-06   5.98129696258512e-06
-1.577827442473753e-05   2.9019779826163633e-06   5.98129696258512e-06
-1.0761528167422532e-05   2.458242799509877e-06   -2.1137056897427102e-06
-1.0761528167422532e-05   2.458242799509877e-06   -2.1137056897427102e-06
-1.0761528167422532e-05   2.458242799509877e-06   -2.1137056897427102e-06
-1.0761528167422532e-05   2.458242799509877e-06   -2.1137056897427102e-06
-1.2612167610834358e-05   2.6309520035241833e-06   8.67067860201823e-07
-1.2612167610834358e-05   2.6309520035241833e-06   8.67067860201823e-07
-1.2612167610834358e-05   2.6309520035241833e-06   8.67067860201823e-07
-1.2612167610834358e-05   2.6309520035241833e-06   8.67067860201823e-07
-1.0761528167422518e-05   2.9019779826163633e-06   6.2475380724490875e-06
-1.0761528167422518e-05   2.9019779826163633e-06   6.2475380724490875e-06
-1.0761528167422518e-05   2.9019779826163633e-06   6.2475380724490875e-06
-1.0761528167422518e-05   2.9019779826163633e-06   6.2475380724490875e-06
-1.5778274424737556e-05   2.458242799509877e-06   -2.3799467996066237e-06
-1.5778274424737556e-05   2.458242799509877e-06   -2.3799467996066237e-06
-1.5778274424737556e-05   2.458242799509877e-06   -2.3799467996066237e-06
-1.5778274424737556e-05   2.458242799509877e-06   -2.3799467996066237e-06
-1.614068873705341e-05   2.87182534488401e-06   7.187449611466301e-06
-1.614068873705341e-05   2.87182534488401e-06   7.187449611466301e-06
-1.614068873705341e-05   2.87182534488401e-06   7.187449611466301e-06
-1.614068873705341e-05   2.87182534488401e-06   7.187449611466301e-06
-1.1008720136567891e-05   2.4101587211175198e-06   -1.088831415083075e-06
-1.1008720136567891e-05   2.4101587211175198e-06   -1.088831415083075e-06
-1.1008720136567891e-05   2.4101587211175198e-06   -1.088831415083075e-06
-1.1008720136567891e-05   2.4101587211175198e-06   -1.088831415083075e-06
-1.3088246061015524e-05   2.66221019286925e-06   2.2258142426124215e-06
-1.3088246061015524e-05   2.66221019286925e-06   2.2258142426124215e-06
-1.3088246061015524e-05   2.66221019286925e-06   2.2258142426124215e-06
-1.3088246061015524e-05   2.66221019286925e-06   2.2258142426124215e-06
-1.1008720136567891e-05   2.8718253448839015e-06   7.4644495857262814e-06
-1.1008720136567891e-05   2.8718253448839015e-06   7.4644495857262814e-06
-1.1008720136567891e-05   2.8718253448839015e-06   7.4644495857262814e-06
-1.1008720136567891e-05   2.8718253448839015e-06   7.4644495857262814e-06
-1.6140688737053437e-05   2.4101587211175198e-06   -1.3658313893429746e-06
-1.6140688737053437e-05   2.4101587211175198e-06   -1.3658313893429746e-06
-1.6140688737053437e-05   2.4101587211175198e-06   -1.3658313893429746e-06
-1.6140688737053437e-05   2.4101587211175198e-06   -1.3658313893429746e-06
-1.6555454940189436e-05   2.6549261999213834e-06   9.25452333915656e-06
-1.6555454940189436e-05   2.6549261999213834e-06   9.25452333915656e-06
-1.6555454940189436e-05   2.6549261999213834e-06   9.25452333915656e-06
-1.6555454940189436e-05   2.6549261999213834e-06   9.25452333915656e-06
-1.1233803759129232e-05   2.193222277515239e-06   6.621270574998987e-07
-1.1233803759129232e-05   2.193222277515239e-06   6.621270574998987e-07
-1.1233803759129232e-05   2.193222277515239e-06   6.621270574998987e-07
-1.1233803759129232e-05   2.193222277515239e-06   6.621270574998987e-07
-1.3176057814612822e-05   2.5716880009122494e-06   3.6721377159347132e-06
-1.3176057814612822e-05   2.5716880009122494e-06   3.6721377159347132e-06
-1.3176057814612822e-05   2.5716880009122494e-06   3.6721377159347132e-06
-1.3176057814612822e-05   2.5716880009122494e-06   3.6721377159347132e-06
7.37319065783586e-06   -9.524632317113721e-07   7.239889716198424e-06
7.37319065783586e-06   -9.524632317113721e-07   7.239889716198424e-06
7.37319065783586e-06   -9.524632317113721e-07   7.239889716198424e-06
7.37319065783586e-06   -9.524632317113721e-07   7.239889716198424e-06
3.068598992913833e-06   -4.891698246658333e-07   3.4354631888903293e-07
3.068598992913833e-06   -4.891698246658333e-07   3.4354631888903293e-07
3.068598992913833e-06   -4.891698246658333e-07   3.4354631888903293e-07
3.068598992913833e-06   -4.891698246658333e-07   3.4354631888903293e-07
2.8899870046317393e-06   -1.1490870743697265e-06   6.492367181503713e-06
2.8899870046317393e-06   -1.1490870743697265e-06   6.492367181503713e-06
2.8899870046317393e-06   -1.1490870743697265e-06   6.492367181503713e-06
2.8899870046317393e-06   -1.1490870743697265e-06   6.492367181503713e-06
6.990608713062724e-06   -6.673425371715182e-07   -6.31049054866866e-07
6.990608713062724e-06   -6.673425371715182e-07   -6.31049054866866e-07
6.990608713062724e-06   -6.673425371715182e-07   -6.31049054866866e-07
6.990608713062724e-06   -6.673425371715182e-07   -6.31049054866866e-07
4.828828733597089e-06   -8.327103274061425e-07   3.071138251716822e-06
4.828828733597089e-06   -8.327103274061425e-07   3.071138251716822e-06
4.828828733597089e-06   -8.327103274061425e-07   3.071138251716822e-06
4.828828733597089e-06   -8.327103274061425e-07   3.071138251716822e-06
6.990608713062737e-06   -1.149087074369835e-06   6.2033204591848854e-06
6.990608713062737e-06   -1.149087074369835e-06   6.2033204591848854e-06
6.990608713062737e-06   -1.149087074369835e-06   6.2033204591848854e-06
6.990608713062737e-06   -1.149087074369835e-06   6.2033204591848854e-06
2.8899870046317275e-06   -6.673425371715182e-07   -3.420023325478557e-07
2.8899870046317275e-06   -6.673425371715182e-07   -3.420023325478557e-07
2.8899870046317275e-06   -6.673425371715182e-07   -3.420023325478557e-07
2.8899870046317275e-06   -6.673425371715182e-07   -3.420023325478557e-07
2.688203870453363e-06   -1.2005800654638988e-06   5.939522989788627e-06
2.688203870453363e-06   -1.2005800654638988e-06   5.939522989788627e-06
2.688203870453363e-06   -1.2005800654638988e-06   5.939522989788627e-06
2.688203870453363e-06   -1.2005800654638988e-06   5.939522989788627e-06
6.6609822549504765e-06   -7.274473789464515e-07   -9.656539296170008e-07
6.6609822549504765e-06   -7.274473789464515e-07   -9.656539296170008e-07
6.6609822549504765e-06   -7.274473789464515e-07   -9.656539296170008e-07
6.6609822549504765e-06   -7.274473789464515e-07   -9.656539296170008e-07
4.664467018858997e-06   -9.087223696938322e-07   2.470636458317359e-06
4.664467018858997e-06   -9.087223696938322e-07   2.470636458317359e-06
4.664467018858997e-06   -9.087223696938322e-07   2.470636458317359e-06
4.664467018858997e-06   -9.087223696938322e-07   2.470636458317359e-06
6.660982254950488e-06   -1.2005800654638988e-06   5.655643377878181e-06
6.660982254950488e-06   -1.2005800654638988e-06   5.655643377878181e-06
6.660982254950488e-06   -1.2005800654638988e-06   5.655643377878181e-06
6.660982254950488e-06   -1.2005800654638988e-06   5.655643377878181e-06
2.6882038704533598e-06   -7.274473789464515e-07   -6.817743177065677e-07
2.6882038704533598e-06   -7.274473789464515e-07   -6.817743177065677e-07
2.6882038704533598e-06   -7.274473789464515e-07   -6.817743177065677e-07
2.6882038704533598e-06   -7.274473789464515e-07   -6.817743177065677e-07
2.5068288682994198e-06   -1.2439023092784569e-06   5.212548533513957e-06
2.5068288682994198e-06   -1.2439023092784569e-06   5.212548533513957e-06
2.5068288682994198e-06   -1.2439023092784569e-06   5.212548533513957e-06
2.5068288682994198e-06   -1.2439023092784569e-06   5.212548533513957e-06
6.285066200428052e-06   -8.029456062113856e-07   -1.3490877085406563e-06
6.285066200428052e-06   -8.029456062113856e-07   -1.3490877085406563e-06
6.285066200428052e-06   -8.029456062113856e-07   -1.3490877085406563e-06
6.285066200428052e-06   -8.029456062113856e-07   -1.3490877085406563e-06
4.342497826580504e-06   -9.209098492178971e-07   1.959304793675839e-06
4.342497826580504e-06   -9.209098492178971e-07   1.959304793675839e-06
4.342497826580504e-06   -9.209098492178971e-07   1.959304793675839e-06
4.342497826580504e-06   -9.209098492178971e-07   1.959304793675839e-06
3.068598992913843e-06   -1.4878553274404877e-08   8.831171745763713e-06
3.068598992913843e-06   -1.4878553274404877e-08   8.831171745763713e-06
3.068598992913843e-06   -1.4878553274404877e-08   8.831171745763713e-06
3.068598992913843e-06   -1.4878553274404877e-08   8.831171745763713e-06
-9.598659706842213e-07   2.2370718000443027e-07   2.2602149130676705e-06
-9.598659706842213e-07   2.2370718000443027e-07   2.2602149130676705e-06
-9.598659706842213e-07   2.2370718000443027e-07   2.2602149130676705e-06
-9.598659706842213e-07   2.2370718000443027e-07   2.2602149130676705e-06
-1.124499211728072e-06   -1.8409278928870065e-07   8.843924696102427e-06
-1.124499211728072e-06   -1.8409278928870065e-07   8.843924696102427e-06
-1.124499211728072e-06   -1.8409278928870065e-07   8.843924696102427e-06
-1.124499211728072e-06   -1.8409278928870065e-07   8.843924696102427e-06
2.8899870046317275e-06   4.551198616576085e-08   2.015351470230031e-06
2.8899870046317275e-06   4.551198616576085e-08   2.015351470230031e-06
2.8899870046317275e-06   4.551198616576085e-08   2.015351470230031e-06
2.8899870046317275e-06   4.551198616576085e-08   2.015351470230031e-06
9.3943639215258e-07   1.734838557315363e-09   5.292535446260575e-06
9.3943639215258e-07   1.734838557315363e-09   5.292535446260575e-06
9.3943639215258e-07   1.734838557315363e-09   5.292535446260575e-06
9.3943639215258e-07   1.734838557315363e-09   5.292535446260575e-06
2.889987004631736e-06   -1.8409278928870065e-07   8.70616183082975e-06
2.889987004631736e-06   -1.8409278928870065e-07   8.70616183082975e-06
2.889987004631736e-06   -1.8409278928870065e-07   8.70616183082975e-06
2.889987004631736e-06   -1.8409278928870065e-07   8.70616183082975e-06
-1.1244992117280788e-06   4.551198616576085e-08   2.1531143355027807e-06
-1.1244992117280788e-06   4.551198616576085e-08   2.1531143355027807e-06
-1.1244992117280788e-06   4.551198616576085e-08   2.1531143355027807e-06
-1.1244992117280788e-06   4.551198616576085e-08   2.1531143355027807e-06
-1.293089104028649e-06   -3.1574342961731856e-07   8.72937202682088e-06
-1.293089104028649e-06   -3.1574342961731856e-07   8.72937202682088e-06
-1.293089104028649e-06   -3.1574342961731856e-07   8.72937202682088e-06
-1.293089104028649e-06   -3.1574342961731856e-07   8.72937202682088e-06
2.6882038704533598e-06   -9.866321905424493e-08   1.963635609679738e-06
2.6882038704533598e-06   -9.866321905424493e-08   1.963635609679738e-06
2.6882038704533598e-06   -9.866321905424493e-08   1.963635609679738e-06
2.6882038704533598e-06   -9.866321905424493e-08   1.963635609679738e-06
7.572515558130416e-07   -1.1613907254762364e-07   5.1923749795099e-06
7.572515558130416e-07   -1.1613907254762364e-07   5.1923749795099e-06
7.572515558130416e-07   -1.1613907254762364e-07   5.1923749795099e-06
7.572515558130416e-07   -1.1613907254762364e-07   5.1923749795099e-06
2.6882038704533683e-06   -3.1574342961731856e-07   8.599123900483057e-06
2.6882038704533683e-06   -3.1574342961731856e-07   8.599123900483057e-06
2.6882038704533683e-06   -3.1574342961731856e-07   8.599123900483057e-06
2.6882038704533683e-06   -3.1574342961731856e-07   8.599123900483057e-06
-1.293089104028649e-06   -9.866321905429914e-08   2.093883736017574e-06
-1.293089104028649e-06   -9.866321905429914e-08   2.093883736017574e-06
-1.293089104028649e-06   -9.866321905429914e-08   2.093883736017574e-06
-1.293089104028649e-06   -9.866321905429914e-08   2.093883736017574e-06
-1.4604636169854898e-06   -4.355253960649976e-07   8.799570795450925e-06
-1.4604636169854898e-06   -4.355253960649976e-07   8.799570795450925e-06
-1.4604636169854898e-06   -4.355253960649976e-07   8.799570795450925e-06
-1.4604636169854898e-06   -4.355253960649976e-07   8.799570795450925e-06
2.506828868299408e-06   -2.386656031843921e-07   2.0693007775811353e-06
2.506828868299408e-06   -2.386656031843921e-07   2.0693007775811353e-06
2.506828868299408e-06   -2.386656031843921e-07   2.0693007775811353e-06
2.506828868299408e-06   -2.386656031843921e-07   2.0693007775811353e-06
6.152540343437562e-07   -2.1243952150629825e-07   5.20618985183364e-06
6.152540343437562e-07   -2.1243952150629825e-07   5.20618985183364e-06
6.152540343437562e-07   -2.1243952150629825e-07   5.20618985183364e-06
6.152540343437562e-07   -2.1243952150629825e-07   5.20618985183364e-06
-9.598659706842145e-07   8.949909594736403e-07   9.560266885190092e-06
-9.598659706842145e-07   8.949909594736403e-07   9.560266885190092e-06
-9.598659706842145e-07   8.949909594736403e-07   9.560266885190092e-06
-9.598659706842145e-07   8.949909594736403e-07   9.560266885190092e-06
-4.917846637507721e-06   8.863237472610057e-07   2.9584321131566793e-06
-4.917846637507721e-06   8.863237472610057e-07   2.9584321131566793e-06
-4.917846637507721e-06   8.863237472610057e-07   2.9584321131566793e-06
-4.917846637507721e-06   8.863237472610057e-07   2.9584321131566793e-06
-5.080847282559128e-06   7.482448275646482e-07   9.49829869715407e-06
-5.080847282559128e-06   7.482448275646482e-07   9.49829869715407e-06
-5.080847282559128e-06   7.482448275646482e-07   9.49829869715407e-06
-5.080847282559128e-06   7.482448275646482e-07   9.49829869715407e-06
-1.1244992117280788e-06   7.262212767129286e-07   2.917599376280053e-06
-1.1244992117280788e-06   7.262212767129286e-07   2.917599376280053e-06
-1.1244992117280788e-06   7.262212767129286e-07   2.917599376280053e-06
-1.1244992117280788e-06   7.262212767129286e-07   2.917599376280053e-06
-3.0284767954308777e-06   7.925337612927621e-07   6.05110785837032e-06
-3.0284767954308777e-06   7.925337612927621e-07   6.05110785837032e-06
-3.0284767954308777e-06   7.925337612927621e-07   6.05110785837032e-06
-3.0284767954308777e-06   7.925337612927621e-07   6.05110785837032e-06
-1.124499211728072e-06   7.482448275646482e-07   9.511512827665124e-06
-1.124499211728072e-06   7.482448275646482e-07   9.511512827665124e-06
-1.124499211728072e-06   7.482448275646482e-07   9.511512827665124e-06
-1.124499211728072e-06   7.482448275646482e-07   9.511512827665124e-06
-5.080847282559128e-06   7.262212767129286e-07   2.904385245769013e-06
-5.080847282559128e-06   7.262212767129286e-07   2.904385245769013e-06
-5.080847282559128e-06   7.262212767129286e-07   2.904385245769013e-06
-5.080847282559128e-06   7.262212767129286e-07   2.904385245769013e-06
-5.247535190457848e-06   6.039183247471451e-07   9.542179748936734e-06
-5.247535190457848e-06   6.039183247471451e-07   9.542179748936734e-06
-5.247535190457848e-06   6.039183247471451e-07   9.542179748936734e-06
-5.247535190457848e-06   6.039183247471451e-07   9.542179748936734e-06
-1.293089104028649e-06   5.680129803183704e-07   2.9729794782120907e-06
-1.293089104028649e-06   5.680129803183704e-07   2.9729794782120907e-06
-1.293089104028649e-06   5.680129803183704e-07   2.9729794782120907e-06
-1.293089104028649e-06   5.680129803183704e-07   2.9729794782120907e-06
-3.1771857564183346e-06   6.771055531197188e-07   6.047685021847574e-06
-3.1771857564183346e-06   6.771055531197188e-07   6.047685021847574e-06
-3.1771857564183346e-06   6.771055531197188e-07   6.047685021847574e-06
-3.1771857564183346e-06   6.771055531197188e-07   6.047685021847574e-06
-1.293089104028649e-06   6.039183247471451e-07   9.56372295559402e-06
-1.293089104028649e-06   6.039183247471451e-07   9.56372295559402e-06
-1.293089104028649e-06   6.039183247471451e-07   9.56372295559402e-06
-1.293089104028649e-06   6.039183247471451e-07   9.56372295559402e-06
-5.247535190457848e-06   5.680129803183704e-07   2.9514362715548313e-06
-5.247535190457848e-06   5.680129803183704e-07   2.9514362715548313e-06
-5.247535190457848e-06   5.680129803183704e-07   2.9514362715548313e-06
-5.247535190457848e-06   5.680129803183704e-07   2.9514362715548313e-06
-5.4120499900273646e-06   4.671143295038524e-07   9.663746798832821e-06
-5.4120499900273646e-06   4.671143295038524e-07   9.663746798832821e-06
-5.4120499900273646e-06   4.671143295038524e-07   9.663746798832821e-06
-5.4120499900273646e-06   4.671143295038524e-07   9.663746798832821e-06
-1.460463616985483e-06   4.159634753768209e-07   3.1084600229059085e-06
-1.460463616985483e-06   4.159634753768209e-07   3.1084600229059085e-06
-1.460463616985483e-06   4.159634753768209e-07   3.1084600229059085e-06
-1.460463616985483e-06   4.159634753768209e-07   3.1084600229059085e-06
-3.3330309632927006e-06   5.645956861153332e-07   6.140226273641526e-06
-3.3330309632927006e-06   5.645956861153332e-07   6.140226273641526e-06
-3.3330309632927006e-06   5.645956861153332e-07   6.140226273641526e-06
-3.3330309632927006e-06   5.645956861153332e-07   6.140226273641526e-06
-4.917846637507721e-06   1.7733461819019903e-06   8.475103223749673e-06
-4.917846637507721e-06   1.7733461819019903e-06   8.475103223749673e-06
-4.917846637507721e-06   1.7733461819019903e-06   8.475103223749673e-06
-4.917846637507721e-06   1.7733461819019903e-06   8.475103223749673e-06
-8.821412434842466e-06   1.5323418923154008e-06   1.8245576544397848e-06
-8.821412434842466e-06   1.5323418923154008e-06   1.8245576544397848e-06
-8.821412434842466e-06   1.5323418923154008e-06   1.8245576544397848e-06
-8.821412434842466e-06   1.5323418923154008e-06   1.8245576544397848e-06
-8.996944150487142e-06   1.6344854924482503e-06   8.368315920079402e-06
-8.996944150487142e-06   1.6344854924482503e-06   8.368315920079402e-06
-8.996944150487142e-06   1.6344854924482503e-06   8.368315920079402e-06
-8.996944150487142e-06   1.6344854924482503e-06   8.368315920079402e-06
-5.0808472825591145e-06   1.3772119499799707e-06   1.995851932347012e-06
-5.0808472825591145e-06   1.3772119499799707e-06   1.995851932347012e-06
-5.0808472825591145e-06   1.3772119499799707e-06   1.995851932347012e-06
-5.0808472825591145e-06   1.3772119499799707e-06   1.995851932347012e-06
-6.934212158050908e-06   1.5505285398209698e-06   4.9808034375955975e-06
-6.934212158050908e-06   1.5505285398209698e-06   4.9808034375955975e-06
-6.934212158050908e-06   1.5505285398209698e-06   4.9808034375955975e-06
-6.934212158050908e-06   1.5505285398209698e-06   4.9808034375955975e-06
-5.080847282559128e-06   1.6344854924482503e-06   8.522680045560348e-06
-5.080847282559128e-06   1.6344854924482503e-06   8.522680045560348e-06
-5.080847282559128e-06   1.6344854924482503e-06   8.522680045560348e-06
-5.080847282559128e-06   1.6344854924482503e-06   8.522680045560348e-06
-8.996944150487128e-06   1.377211949980025e-06   1.8414878068660388e-06
-8.996944150487128e-06   1.377211949980025e-06   1.8414878068660388e-06
-8.996944150487128e-06   1.377211949980025e-06   1.8414878068660388e-06
-8.996944150487128e-06   1.377211949980025e-06   1.8414878068660388e-06
-9.193861533802271e-06   1.503534298672067e-06   8.655589370676277e-06
-9.193861533802271e-06   1.503534298672067e-06   8.655589370676277e-06
-9.193861533802271e-06   1.503534298672067e-06   8.655589370676277e-06
-9.193861533802271e-06   1.503534298672067e-06   8.655589370676277e-06
-5.247535190457834e-06   1.2323194852176234e-06   2.241107686508278e-06
-5.247535190457834e-06   1.2323194852176234e-06   2.241107686508278e-06
-5.247535190457834e-06   1.2323194852176234e-06   2.241107686508278e-06
-5.247535190457834e-06   1.2323194852176234e-06   2.241107686508278e-06
-7.052995815084299e-06   1.4454382412225917e-06   5.122337473949579e-06
-7.052995815084299e-06   1.4454382412225917e-06   5.122337473949579e-06
-7.052995815084299e-06   1.4454382412225917e-06   5.122337473949579e-06
-7.052995815084299e-06   1.4454382412225917e-06   5.122337473949579e-06
-5.247535190457841e-06   1.503534298672067e-06   8.8183182587489e-06
-5.247535190457841e-06   1.503534298672067e-06   8.8183182587489e-06
-5.247535190457841e-06   1.503534298672067e-06   8.8183182587489e-06
-5.247535190457841e-06   1.503534298672067e-06   8.8183182587489e-06
-9.193861533802257e-06   1.2323194852176234e-06   2.078378798435574e-06
-9.193861533802257e-06   1.2323194852176234e-06   2.078378798435574e-06
-9.193861533802257e-06   1.2323194852176234e-06   2.078378798435574e-06
-9.193861533802257e-06   1.2323194852176234e-06   2.078378798435574e-06
-9.367932475392657e-06   1.3496003902434793e-06   8.892409816974934e-06
-9.367932475392657e-06   1.3496003902434793e-06   8.892409816974934e-06
-9.367932475392657e-06   1.3496003902434793e-06   8.892409816974934e-06
-9.367932475392657e-06   1.3496003902434793e-06   8.892409816974934e-06
-5.412049990027344e-06   1.0690158318205274e-06   2.467623076419942e-06
-5.412049990027344e-06   1.0690158318205274e-06   2.467623076419942e-06
-5.412049990027344e-06   1.0690158318205274e-06   2.467623076419942e-06
-5.412049990027344e-06   1.0690158318205274e-06   2.467623076419942e-06
-7.251932676174792e-06   1.3333070964504918e-06   5.3755194612211305e-06
-7.251932676174792e-06   1.3333070964504918e-06   5.3755194612211305e-06
-7.251932676174792e-06   1.3333070964504918e-06   5.3755194612211305e-06
-7.251932676174792e-06   1.3333070964504918e-06   5.3755194612211305e-06
-8.821412434842466e-06   2.4645194964191715e-06   4.097910067160139e-06
-8.821412434842466e-06   2.4645194964191715e-06   4.097910067160139e-06
-8.821412434842466e-06   2.4645194964191715e-06   4.097910067160139e-06
-8.821412434842466e-06   2.4645194964191715e-06   4.097910067160139e-06
-1.251750395395508e-05   2.0297154303483902e-06   -2.3231249043367493e-06
-1.251750395395508e-05   2.0297154303483902e-06   -2.3231249043367493e-06
-1.251750395395508e-05   2.0297154303483902e-06   -2.3231249043367493e-06
-1.251750395395508e-05   2.0297154303483902e-06   -2.3231249043367493e-06
-1.2887111525994359e-05   2.458242799509877e-06   5.288127175019587e-06
-1.2887111525994359e-05   2.458242799509877e-06   5.288127175019587e-06
-1.2887111525994359e-05   2.458242799509877e-06   5.288127175019587e-06
-1.2887111525994359e-05   2.458242799509877e-06   5.288127175019587e-06
-8.996944150487128e-06   1.9833954856588137e-06   -9.105767291818165e-07
-8.996944150487128e-06   1.9833954856588137e-06   -9.105767291818165e-07
-8.996944150487128e-06   1.9833954856588137e-06   -9.105767291818165e-07
-8.996944150487128e-06   1.9833954856588137e-06   -9.105767291818165e-07
-1.0399885676645393e-05   2.1910723384781098e-06   1.3030530360572058e-06
-1.0399885676645393e-05   2.1910723384781098e-06   1.3030530360572058e-06
-1.0399885676645393e-05   2.1910723384781098e-06   1.3030530360572058e-06
-1.0399885676645393e-05   2.1910723384781098e-06   1.3030530360572058e-06
-8.996944150487142e-06   2.458242799509877e-06   5.573035563330203e-06
-8.996944150487142e-06   2.458242799509877e-06   5.573035563330203e-06
-8.996944150487142e-06   2.458242799509877e-06   5.573035563330203e-06
-8.996944150487142e-06   2.458242799509877e-06   5.573035563330203e-06
-1.28871115259944e-05   1.9833954856588137e-06   -1.1954851174924598e-06
-1.28871115259944e-05   1.9833954856588137e-06   -1.1954851174924598e-06
-1.28871115259944e-05   1.9833954856588137e-06   -1.1954851174924598e-06
-1.28871115259944e-05   1.9833954856588137e-06   -1.1954851174924598e-06
-1.3207860462144988e-05   2.4101587211175198e-06   6.303524450947985e-06
-1.3207860462144988e-05   2.4101587211175198e-06   6.303524450947985e-06
-1.3207860462144988e-05   2.4101587211175198e-06   6.303524450947985e-06
-1.3207860462144988e-05   2.4101587211175198e-06   6.303524450947985e-06
-9.19386153380223e-06   1.9216698575926774e-06   -9.338044484167338e-08
-9.19386153380223e-06   1.9216698575926774e-06   -9.338044484167338e-08
-9.19386153380223e-06   1.9216698575926774e-06   -9.338044484167338e-08
-9.19386153380223e-06   1.9216698575926774e-06   -9.338044484167338e-08
-1.0797151086678879e-05   2.195021445447877e-06   2.414757857240079e-06
-1.0797151086678879e-05   2.195021445447877e-06   2.414757857240079e-06
-1.0797151086678879e-05   2.195021445447877e-06   2.414757857240079e-06
-1.0797151086678879e-05   2.195021445447877e-06   2.414757857240079e-06
-9.193861533802271e-06   2.4101587211175198e-06   6.596617769062999e-06
-9.193861533802271e-06   2.4101587211175198e-06   6.596617769062999e-06
-9.193861533802271e-06   2.4101587211175198e-06   6.596617769062999e-06
-9.193861533802271e-06   2.4101587211175198e-06   6.596617769062999e-06
-1.3207860462144988e-05   1.9216698575926774e-06   -3.864737629565246e-07
-1.3207860462144988e-05   1.9216698575926774e-06   -3.864737629565246e-07
-1.3207860462144988e-05   1.9216698575926774e-06   -3.864737629565246e-07
-1.3207860462144988e-05   1.9216698575926774e-06   -3.864737629565246e-07
-1.3578421980888069e-05   2.193222277515239e-06   8.061793701624948e-06
-1.3578421980888069e-05   2.193222277515239e-06   8.061793701624948e-06
-1.3578421980888069e-05   2.193222277515239e-06   8.061793701624948e-06
-1.3578421980888069e-05   2.193222277515239e-06   8.061793701624948e-06
-9.36793247539263e-06   1.7105521061314653e-06   1.333913295296197e-06
-9.36793247539263e-06   1.7105521061314653e-06   1.333913295296197e-06
-9.36793247539263e-06   1.7105521061314653e-06   1.333913295296197e-06
-9.36793247539263e-06   1.7105521061314653e-06   1.333913295296197e-06
-1.087495332386667e-05   2.102702572344406e-06   3.6103244296917443e-06
-1.087495332386667e-05   2.102702572344406e-06   3.6103244296917443e-06
-1.087495332386667e-05   2.102702572344406e-06   3.6103244296917443e-06
-1.087495332386667e-05   2.102702572344406e-06   3.6103244296917443e-06
4.251374482137717e-06   -4.891698246658333e-07   5.785393360746224e-06
4.251374482137717e-06   -4.891698246658333e-07   5.785393360746224e-06
4.251374482137717e-06   -4.891698246658333e-07   5.785393360746224e-06
4.251374482137717e-06   -4.891698246658333e-07   5.785393360746224e-06
1.1725069105775808e-06   -2.3739001018077167e-08   9.332059023346782e-07
1.1725069105775808e-06   -2.3739001018077167e-08   9.332059023346782e-07
1.1725069105775808e-06   -2.3739001018077167e-08   9.332059023346782e-07
1.1725069105775808e-06   -2.3739001018077167e-08   9.332059023346782e-07
1.036398769224822e-06   -6.673425371715182e-07   5.373170542842412e-06
1.036398769224822e-06   -6.673425371715182e-07   5.373170542842412e-06
1.036398769224822e-06   -6.673425371715182e-07   5.373170542842412e-06
1.036398769224822e-06   -6.673425371715182e-07   5.373170542842412e-06
3.9131445652377965e-06   -1.8490691941540436e-07   2.891328455005066e-07
3.9131445652377965e-06   -1.8490691941540436e-07   2.891328455005066e-07
3.9131445652377965e-06   -1.8490691941540436e-07   2.891328455005066e-07
3.9131445652377965e-06   -1.8490691941540436e-07   2.891328455005066e-07
2.443111506290074e-06   -3.640665308626183e-07   2.8466837106152294e-06
2.443111506290074e-06   -3.640665308626183e-07   2.8466837106152294e-06
2.443111506290074e-06   -3.640665308626183e-07   2.8466837106152294e-06
2.443111506290074e-06   -3.640665308626183e-07   2.8466837106152294e-06
3.9131445652378e-06   -6.673425371715182e-07   5.08370917218882e-06
3.9131445652378e-06   -6.673425371715182e-07   5.08370917218882e-06
3.9131445652378e-06   -6.673425371715182e-07   5.08370917218882e-06
3.9131445652378e-06   -6.673425371715182e-07   5.08370917218882e-06
1.0363987692248204e-06   -1.8490691941540436e-07   5.785942161541939e-07
1.0363987692248204e-06   -1.8490691941540436e-07   5.785942161541939e-07
1.0363987692248204e-06   -1.8490691941540436e-07   5.785942161541939e-07
1.0363987692248204e-06   -1.8490691941540436e-07   5.785942161541939e-07
8.766736771667322e-07   -7.274473789464515e-07   5.029017721665371e-06
8.766736771667322e-07   -7.274473789464515e-07   5.029017721665371e-06
8.766736771667322e-07   -7.274473789464515e-07   5.029017721665371e-06
8.766736771667322e-07   -7.274473789464515e-07   5.029017721665371e-06
3.625499719338819e-06   -2.526490830017129e-07   1.627620071450352e-07
3.625499719338819e-06   -2.526490830017129e-07   1.627620071450352e-07
3.625499719338819e-06   -2.526490830017129e-07   1.627620071450352e-07
3.625499719338819e-06   -2.526490830017129e-07   1.627620071450352e-07
2.283891510270152e-06   -4.3458891423931757e-07   2.507939587668718e-06
2.283891510270152e-06   -4.3458891423931757e-07   2.507939587668718e-06
2.283891510270152e-06   -4.3458891423931757e-07   2.507939587668718e-06
2.283891510270152e-06   -4.3458891423931757e-07   2.507939587668718e-06
3.6254997193388223e-06   -7.274473789464515e-07   4.7441387440985065e-06
3.6254997193388223e-06   -7.274473789464515e-07   4.7441387440985065e-06
3.6254997193388223e-06   -7.274473789464515e-07   4.7441387440985065e-06
3.6254997193388223e-06   -7.274473789464515e-07   4.7441387440985065e-06
8.766736771667288e-07   -2.526490830017129e-07   4.476409847119136e-07
8.766736771667288e-07   -2.526490830017129e-07   4.476409847119136e-07
8.766736771667288e-07   -2.526490830017129e-07   4.476409847119136e-07
8.766736771667288e-07   -2.526490830017129e-07   4.476409847119136e-07
7.377113339588066e-07   -8.029456062113856e-07   4.620584128166348e-06
7.377113339588066e-07   -8.029456062113856e-07   4.620584128166348e-06
7.377113339588066e-07   -8.029456062113856e-07   4.620584128166348e-06
7.377113339588066e-07   -8.029456062113856e-07   4.620584128166348e-06
3.2868464320676266e-06   -3.621837310908418e-07   1.0756850624604394e-07
3.2868464320676266e-06   -3.621837310908418e-07   1.0756850624604394e-07
3.2868464320676266e-06   -3.621837310908418e-07   1.0756850624604394e-07
3.2868464320676266e-06   -3.621837310908418e-07   1.0756850624604394e-07
2.0374683177886047e-06   -4.677775367993575e-07   2.253221646802983e-06
2.0374683177886047e-06   -4.677775367993575e-07   2.253221646802983e-06
2.0374683177886047e-06   -4.677775367993575e-07   2.253221646802983e-06
2.0374683177886047e-06   -4.677775367993575e-07   2.253221646802983e-06
1.1725069105775825e-06   2.2370718000443027e-07   7.838169009146171e-06
1.1725069105775825e-06   2.2370718000443027e-07   7.838169009146171e-06
1.1725069105775825e-06   2.2370718000443027e-07   7.838169009146171e-06
1.1725069105775825e-06   2.2370718000443027e-07   7.838169009146171e-06
-1.6222227419106897e-06   4.380329273469502e-07   3.308881703404558e-06
-1.6222227419106897e-06   4.380329273469502e-07   3.308881703404558e-06
-1.6222227419106897e-06   4.380329273469502e-07   3.308881703404558e-06
-1.6222227419106897e-06   4.380329273469502e-07   3.308881703404558e-06
-1.74239250257837e-06   4.551198616576085e-08   7.858159516231135e-06
-1.74239250257837e-06   4.551198616576085e-08   7.858159516231135e-06
-1.74239250257837e-06   4.551198616576085e-08   7.858159516231135e-06
-1.74239250257837e-06   4.551198616576085e-08   7.858159516231135e-06
1.0363987692248204e-06   2.582372705169241e-07   3.099205559281841e-06
1.0363987692248204e-06   2.582372705169241e-07   3.099205559281841e-06
1.0363987692248204e-06   2.582372705169241e-07   3.099205559281841e-06
1.0363987692248204e-06   2.582372705169241e-07   3.099205559281841e-06
-3.1056692082157273e-07   2.2244646349288367e-07   5.365622860240449e-06
-3.1056692082157273e-07   2.2244646349288367e-07   5.365622860240449e-06
-3.1056692082157273e-07   2.2244646349288367e-07   5.365622860240449e-06
-3.1056692082157273e-07   2.2244646349288367e-07   5.365622860240449e-06
1.0363987692248212e-06   4.551198616576085e-08   7.730524345620372e-06
1.0363987692248212e-06   4.551198616576085e-08   7.730524345620372e-06
1.0363987692248212e-06   4.551198616576085e-08   7.730524345620372e-06
1.0363987692248212e-06   4.551198616576085e-08   7.730524345620372e-06
-1.74239250257837e-06   2.582372705169241e-07   3.22684072989255e-06
-1.74239250257837e-06   2.582372705169241e-07   3.22684072989255e-06
-1.74239250257837e-06   2.582372705169241e-07   3.22684072989255e-06
-1.74239250257837e-06   2.582372705169241e-07   3.22684072989255e-06
-1.8663242065829587e-06   -9.866321905429914e-08   7.798175878324758e-06
-1.8663242065829587e-06   -9.866321905429914e-08   7.798175878324758e-06
-1.8663242065829587e-06   -9.866321905429914e-08   7.798175878324758e-06
-1.8663242065829587e-06   -9.866321905429914e-08   7.798175878324758e-06
8.766736771667288e-07   1.0758382973429046e-07   3.1027645094688354e-06
8.766736771667288e-07   1.0758382973429046e-07   3.1027645094688354e-06
8.766736771667288e-07   1.0758382973429046e-07   3.1027645094688354e-06
8.766736771667288e-07   1.0758382973429046e-07   3.1027645094688354e-06
-4.3956349222867233e-07   9.813614289163599e-08   5.302161737233562e-06
-4.3956349222867233e-07   9.813614289163599e-08   5.302161737233562e-06
-4.3956349222867233e-07   9.813614289163599e-08   5.302161737233562e-06
-4.3956349222867233e-07   9.813614289163599e-08   5.302161737233562e-06
8.766736771667322e-07   -9.866321905429914e-08   7.67442764905169e-06
8.766736771667322e-07   -9.866321905429914e-08   7.67442764905169e-06
8.766736771667322e-07   -9.866321905429914e-08   7.67442764905169e-06
8.766736771667322e-07   -9.866321905429914e-08   7.67442764905169e-06
-1.8663242065829587e-06   1.0758382973429046e-07   3.2265127387420074e-06
-1.8663242065829587e-06   1.0758382973429046e-07   3.2265127387420074e-06
-1.8663242065829587e-06   1.0758382973429046e-07   3.2265127387420074e-06
-1.8663242065829587e-06   1.0758382973429046e-07   3.2265127387420074e-06
-1.988695724904684e-06   -2.386656031843921e-07   7.891039492163333e-06
-1.988695724904684e-06   -2.386656031843921e-07   7.891039492163333e-06
-1.988695724904684e-06   -2.386656031843921e-07   7.891039492163333e-06
-1.988695724904684e-06   -2.386656031843921e-07   7.891039492163333e-06
7.37711333958805e-07   -4.426410365874394e-08   3.230386827675502e-06
7.37711333958805e-07   -4.426410365874394e-08   3.230386827675502e-06
7.37711333958805e-07   -4.426410365874394e-08   3.230386827675502e-06
7.37711333958805e-07   -4.426410365874394e-08   3.230386827675502e-06
-5.476268716606029e-07   -1.1443853549356932e-08   5.352925020308966e-06
-5.476268716606029e-07   -1.1443853549356932e-08   5.352925020308966e-06
-5.476268716606029e-07   -1.1443853549356932e-08   5.352925020308966e-06
-5.476268716606029e-07   -1.1443853549356932e-08   5.352925020308966e-06
-1.6222227419106897e-06   8.863237472610057e-07   8.670181984968283e-06
-1.6222227419106897e-06   8.863237472610057e-07   8.670181984968283e-06
-1.6222227419106897e-06   8.863237472610057e-07   8.670181984968283e-06
-1.6222227419106897e-06   8.863237472610057e-07   8.670181984968283e-06
-4.3628441664264145e-06   8.409975612161933e-07   4.075283899148525e-06
-4.3628441664264145e-06   8.409975612161933e-07   4.075283899148525e-06
-4.3628441664264145e-06   8.409975612161933e-07   4.075283899148525e-06
-4.3628441664264145e-06   8.409975612161933e-07   4.075283899148525e-06
-4.478683001802583e-06   7.262212767129828e-07   8.593110930216392e-06
-4.478683001802583e-06   7.262212767129828e-07   8.593110930216392e-06
-4.478683001802583e-06   7.262212767129828e-07   8.593110930216392e-06
-4.478683001802583e-06   7.262212767129828e-07   8.593110930216392e-06
-1.7423925025783631e-06   6.769985653929896e-07   4.0621603916347435e-06
-1.7423925025783631e-06   6.769985653929896e-07   4.0621603916347435e-06
-1.7423925025783631e-06   6.769985653929896e-07   4.0621603916347435e-06
-1.7423925025783631e-06   6.769985653929896e-07   4.0621603916347435e-06
-3.057756742669614e-06   7.623351630634987e-07   6.203232166518088e-06
-3.057756742669614e-06   7.623351630634987e-07   6.203232166518088e-06
-3.057756742669614e-06   7.623351630634987e-07   6.203232166518088e-06
-3.057756742669614e-06   7.623351630634987e-07   6.203232166518088e-06
-1.74239250257837e-06   7.262212767129828e-07   8.62264455700842e-06
-1.74239250257837e-06   7.262212767129828e-07   8.62264455700842e-06
-1.74239250257837e-06   7.262212767129828e-07   8.62264455700842e-06
-1.74239250257837e-06   7.262212767129828e-07   8.62264455700842e-06
-4.478683001802576e-06   6.769985653929354e-07   4.032626764842776e-06
-4.478683001802576e-06   6.769985653929354e-07   4.032626764842776e-06
-4.478683001802576e-06   6.769985653929354e-07   4.032626764842776e-06
-4.478683001802576e-06   6.769985653929354e-07   4.032626764842776e-06
-4.598112255616578e-06   5.680129803183704e-07   8.644798525640014e-06
-4.598112255616578e-06   5.680129803183704e-07   8.644798525640014e-06
-4.598112255616578e-06   5.680129803183704e-07   8.644798525640014e-06
-4.598112255616578e-06   5.680129803183704e-07   8.644798525640014e-06
-1.866324206582952e-06   5.138911555194951e-07   4.124291538796634e-06
-1.866324206582952e-06   5.138911555194951e-07   4.124291538796634e-06
-1.866324206582952e-06   5.138911555194951e-07   4.124291538796634e-06
-1.866324206582952e-06   5.138911555194951e-07   4.124291538796634e-06
-3.16046994222192e-06   6.384053332765083e-07   6.206492591540638e-06
-3.16046994222192e-06   6.384053332765083e-07   6.206492591540638e-06
-3.16046994222192e-06   6.384053332765083e-07   6.206492591540638e-06
-3.16046994222192e-06   6.384053332765083e-07   6.206492591540638e-06
-1.8663242065829587e-06   5.680129803183704e-07   8.677271620519274e-06
-1.8663242065829587e-06   5.680129803183704e-07   8.677271620519274e-06
-1.8663242065829587e-06   5.680129803183704e-07   8.677271620519274e-06
-1.8663242065829587e-06   5.680129803183704e-07   8.677271620519274e-06
-4.5981122556165715e-06   5.138911555195493e-07   4.091818443917333e-06
-4.5981122556165715e-06   5.138911555195493e-07   4.091818443917333e-06
-4.5981122556165715e-06   5.138911555195493e-07   4.091818443917333e-06
-4.5981122556165715e-06   5.138911555195493e-07   4.091818443917333e-06
-4.715534713195086e-06   4.159634753768209e-07   8.77740711564362e-06
-4.715534713195086e-06   4.159634753768209e-07   8.77740711564362e-06
-4.715534713195086e-06   4.159634753768209e-07   8.77740711564362e-06
-4.715534713195086e-06   4.159634753768209e-07   8.77740711564362e-06
-1.988695724904684e-06   3.581705651832328e-07   4.267351214609165e-06
-1.988695724904684e-06   3.581705651832328e-07   4.267351214609165e-06
-1.988695724904684e-06   3.581705651832328e-07   4.267351214609165e-06
-1.988695724904684e-06   3.581705651832328e-07   4.267351214609165e-06
-3.2699610194600543e-06   5.171888059265226e-07   6.307382427755634e-06
-3.2699610194600543e-06   5.171888059265226e-07   6.307382427755634e-06
-3.2699610194600543e-06   5.171888059265226e-07   6.307382427755634e-06
-3.2699610194600543e-06   5.171888059265226e-07   6.307382427755634e-06
-4.3628441664264145e-06   1.5323418923154008e-06   7.653714388376515e-06
-4.3628441664264145e-06   1.5323418923154008e-06   7.653714388376515e-06
-4.3628441664264145e-06   1.5323418923154008e-06   7.653714388376515e-06
-4.3628441664264145e-06   1.5323418923154008e-06   7.653714388376515e-06
-7.0631287857429715e-06   1.261370957393777e-06   2.990657461895876e-06
-7.0631287857429715e-06   1.261370957393777e-06   2.990657461895876e-06
-7.0631287857429715e-06   1.261370957393777e-06   2.990657461895876e-06
-7.0631287857429715e-06   1.261370957393777e-06   2.990657461895876e-06
-7.189982750687837e-06   1.3772119499799707e-06   7.516321351466108e-06
-7.189982750687837e-06   1.3772119499799707e-06   7.516321351466108e-06
-7.189982750687837e-06   1.3772119499799707e-06   7.516321351466108e-06
-7.189982750687837e-06   1.3772119499799707e-06   7.516321351466108e-06
-4.478683001802569e-06   1.0967848410995177e-06   3.165744701985707e-06
-4.478683001802569e-06   1.0967848410995177e-06   3.165744701985707e-06
-4.478683001802569e-06   1.0967848410995177e-06   3.165744701985707e-06
-4.478683001802569e-06   1.0967848410995177e-06   3.165744701985707e-06
-5.7594957579072335e-06   1.2932891108064512e-06   5.182530067002951e-06
-5.7594957579072335e-06   1.2932891108064512e-06   5.182530067002951e-06
-5.7594957579072335e-06   1.2932891108064512e-06   5.182530067002951e-06
-5.7594957579072335e-06   1.2932891108064512e-06   5.182530067002951e-06
-4.478683001802583e-06   1.3772119499799707e-06   7.684577616794391e-06
-4.478683001802583e-06   1.3772119499799707e-06   7.684577616794391e-06
-4.478683001802583e-06   1.3772119499799707e-06   7.684577616794391e-06
-4.478683001802583e-06   1.3772119499799707e-06   7.684577616794391e-06
-7.189982750687823e-06   1.0967848410995719e-06   2.9974884366574243e-06
-7.189982750687823e-06   1.0967848410995719e-06   2.9974884366574243e-06
-7.189982750687823e-06   1.0967848410995719e-06   2.9974884366574243e-06
-7.189982750687823e-06   1.0967848410995719e-06   2.9974884366574243e-06
-7.339504050373684e-06   1.2323194852176776e-06   7.762680731011461e-06
-7.339504050373684e-06   1.2323194852176776e-06   7.762680731011461e-06
-7.339504050373684e-06   1.2323194852176776e-06   7.762680731011461e-06
-7.339504050373684e-06   1.2323194852176776e-06   7.762680731011461e-06
-4.598112255616565e-06   9.460041359144172e-07   3.365483615998301e-06
-4.598112255616565e-06   9.460041359144172e-07   3.365483615998301e-06
-4.598112255616565e-06   9.460041359144172e-07   3.365483615998301e-06
-4.598112255616565e-06   9.460041359144172e-07   3.365483615998301e-06
-5.8398496706999376e-06   1.1775076033681306e-06   5.296143893998318e-06
-5.8398496706999376e-06   1.1775076033681306e-06   5.296143893998318e-06
-5.8398496706999376e-06   1.1775076033681306e-06   5.296143893998318e-06
-5.8398496706999376e-06   1.1775076033681306e-06   5.296143893998318e-06
-4.598112255616578e-06   1.2323194852176776e-06   7.934469940593352e-06
-4.598112255616578e-06   1.2323194852176776e-06   7.934469940593352e-06
-4.598112255616578e-06   1.2323194852176776e-06   7.934469940593352e-06
-4.598112255616578e-06   1.2323194852176776e-06   7.934469940593352e-06
-7.339504050373657e-06   9.460041359144172e-07   3.193694406416342e-06
-7.339504050373657e-06   9.460041359144172e-07   3.193694406416342e-06
-7.339504050373657e-06   9.460041359144172e-07   3.193694406416342e-06
-7.339504050373657e-06   9.460041359144172e-07   3.193694406416342e-06
-7.466916585402141e-06   1.0690158318205274e-06   7.996047801557928e-06
-7.466916585402141e-06   1.0690158318205274e-06   7.996047801557928e-06
-7.466916585402141e-06   1.0690158318205274e-06   7.996047801557928e-06
-7.466916585402141e-06   1.0690158318205274e-06   7.996047801557928e-06
-4.7155347131950726e-06   7.836610316940863e-07   3.5816242279554774e-06
-4.7155347131950726e-06   7.836610316940863e-07   3.5816242279554774e-06
-4.7155347131950726e-06   7.836610316940863e-07   3.5816242279554774e-06
-4.7155347131950726e-06   7.836610316940863e-07   3.5816242279554774e-06
-5.981491334769327e-06   1.0602517489341923e-06   5.525597500235404e-06
-5.981491334769327e-06   1.0602517489341923e-06   5.525597500235404e-06
-5.981491334769327e-06   1.0602517489341923e-06   5.525597500235404e-06
-5.981491334769327e-06   1.0602517489341923e-06   5.525597500235404e-06
-7.0631287857429986e-06   2.0297154303483902e-06   3.604331708289459e-06
-7.0631287857429986e-06   2.0297154303483902e-06   3.604331708289459e-06
-7.0631287857429986e-06   2.0297154303483902e-06   3.604331708289459e-06
-7.0631287857429986e-06   2.0297154303483902e-06   3.604331708289459e-06
-9.534969231984053e-06   1.5706544709984463e-06   -7.908389443889727e-07
-9.534969231984053e-06   1.5706544709984463e-06   -7.908389443889727e-07
-9.534969231984053e-06   1.5706544709984463e-06   -7.908389443889727e-07
-9.534969231984053e-06   1.5706544709984463e-06   -7.908389443889727e-07
-9.861758729790576e-06   1.9833954856588137e-06   4.467123924679624e-06
-9.861758729790576e-06   1.9833954856588137e-06   4.467123924679624e-06
-9.861758729790576e-06   1.9833954856588137e-06   4.467123924679624e-06
-9.861758729790576e-06   1.9833954856588137e-06   4.467123924679624e-06
-7.189982750687796e-06   1.488174001094576e-06   3.112968502469568e-07
-7.189982750687796e-06   1.488174001094576e-06   3.112968502469568e-07
-7.189982750687796e-06   1.488174001094576e-06   3.112968502469568e-07
-7.189982750687796e-06   1.488174001094576e-06   3.112968502469568e-07
-8.105105382191063e-06   1.732942372840952e-06   1.689640213038186e-06
-8.105105382191063e-06   1.732942372840952e-06   1.689640213038186e-06
-8.105105382191063e-06   1.732942372840952e-06   1.689640213038186e-06
-8.105105382191063e-06   1.732942372840952e-06   1.689640213038186e-06
-7.1899827506878095e-06   1.9833954856588137e-06   4.764256815418199e-06
-7.1899827506878095e-06   1.9833954856588137e-06   4.764256815418199e-06
-7.1899827506878095e-06   1.9833954856588137e-06   4.764256815418199e-06
-7.1899827506878095e-06   1.9833954856588137e-06   4.764256815418199e-06
-9.861758729790603e-06   1.488174001094576e-06   1.4163959508408687e-08
-9.861758729790603e-06   1.488174001094576e-06   1.4163959508408687e-08
-9.861758729790603e-06   1.488174001094576e-06   1.4163959508408687e-08
-9.861758729790603e-06   1.488174001094576e-06   1.4163959508408687e-08
-1.0141497960707455e-05   1.9216698575926774e-06   5.288071890608261e-06
-1.0141497960707455e-05   1.9216698575926774e-06   5.288071890608261e-06
-1.0141497960707455e-05   1.9216698575926774e-06   5.288071890608261e-06
-1.0141497960707455e-05   1.9216698575926774e-06   5.288071890608261e-06
-7.339504050373657e-06   1.416920529049323e-06   9.209316371779238e-07
-7.339504050373657e-06   1.416920529049323e-06   9.209316371779238e-07
-7.339504050373657e-06   1.416920529049323e-06   9.209316371779238e-07
-7.339504050373657e-06   1.416920529049323e-06   9.209316371779238e-07
-8.422404912478196e-06   1.7131134475636012e-06   2.548050656243743e-06
-8.422404912478196e-06   1.7131134475636012e-06   2.548050656243743e-06
-8.422404912478196e-06   1.7131134475636012e-06   2.548050656243743e-06
-8.422404912478196e-06   1.7131134475636012e-06   2.548050656243743e-06
-7.33950405037367e-06   1.9216698575926774e-06   5.590921487734241e-06
-7.33950405037367e-06   1.9216698575926774e-06   5.590921487734241e-06
-7.33950405037367e-06   1.9216698575926774e-06   5.590921487734241e-06
-7.33950405037367e-06   1.9216698575926774e-06   5.590921487734241e-06
-1.0141497960707496e-05   1.416920529049323e-06   6.180820400519029e-07
-1.0141497960707496e-05   1.416920529049323e-06   6.180820400519029e-07
-1.0141497960707496e-05   1.416920529049323e-06   6.180820400519029e-07
-1.0141497960707496e-05   1.416920529049323e-06   6.180820400519029e-07
-1.047449986972456e-05   1.7105521061314653e-06   6.735943379169876e-06
-1.047449986972456e-05   1.7105521061314653e-06   6.735943379169876e-06
-1.047449986972456e-05   1.7105521061314653e-06   6.735943379169876e-06
-1.047449986972456e-05   1.7105521061314653e-06   6.735943379169876e-06
-7.4669165854021e-06   1.2193098122679114e-06   2.0180499482839868e-06
-7.4669165854021e-06   1.2193098122679114e-06   2.0180499482839868e-06
-7.4669165854021e-06   1.2193098122679114e-06   2.0180499482839868e-06
-7.4669165854021e-06   1.2193098122679114e-06   2.0180499482839868e-06
-8.494058815146977e-06   1.6232315999970687e-06   3.487600591888006e-06
-8.494058815146977e-06   1.6232315999970687e-06   3.487600591888006e-06
-8.494058815146977e-06   1.6232315999970687e-06   3.487600591888006e-06
-8.494058815146977e-06   1.6232315999970687e-06   3.487600591888006e-06
1.0830116783305333e-06   -2.3739001018022957e-08   4.399294765358209e-06
1.0830116783305333e-06   -2.3739001018022957e-08   4.399294765358209e-06
1.0830116783305333e-06   -2.3739001018022957e-08   4.399294765358209e-06
1.0830116783305333e-06   -2.3739001018022957e-08   4.399294765358209e-06
-7.479553759200886e-07   4.288878707269352e-07   1.619259131320879e-06
-7.479553759200886e-07   4.288878707269352e-07   1.619259131320879e-06
-7.479553759200886e-07   4.288878707269352e-07   1.619259131320879e-06
-7.479553759200886e-07   4.288878707269352e-07   1.619259131320879e-06
-8.478849666104853e-07   -1.8490691941535015e-07   4.3096952751034705e-06
-8.478849666104853e-07   -1.8490691941535015e-07   4.3096952751034705e-06
-8.478849666104853e-07   -1.8490691941535015e-07   4.3096952751034705e-06
-8.478849666104853e-07   -1.8490691941535015e-07   4.3096952751034705e-06
7.817860614980257e-07   2.7829745087018173e-07   1.3156542727512963e-06
7.817860614980257e-07   2.7829745087018173e-07   1.3156542727512963e-06
7.817860614980257e-07   2.7829745087018173e-07   1.3156542727512963e-06
7.817860614980257e-07   2.7829745087018173e-07   1.3156542727512963e-06
1.7849124242406817e-08   9.799477461989222e-08   2.6970641072607916e-06
1.7849124242406817e-08   9.799477461989222e-08   2.6970641072607916e-06
1.7849124242406817e-08   9.799477461989222e-08   2.6970641072607916e-06
1.7849124242406817e-08   9.799477461989222e-08   2.6970641072607916e-06
7.817860614980257e-07   -1.8490691941535015e-07   4.031772652932157e-06
7.817860614980257e-07   -1.8490691941535015e-07   4.031772652932157e-06
7.817860614980257e-07   -1.8490691941535015e-07   4.031772652932157e-06
7.817860614980257e-07   -1.8490691941535015e-07   4.031772652932157e-06
-8.478849666104853e-07   2.7829745087018173e-07   1.5935768949226032e-06
-8.478849666104853e-07   2.7829745087018173e-07   1.5935768949226032e-06
-8.478849666104853e-07   2.7829745087018173e-07   1.5935768949226032e-06
-8.478849666104853e-07   2.7829745087018173e-07   1.5935768949226032e-06
-9.719227761973244e-07   -2.526490830017129e-07   4.178266903757125e-06
-9.719227761973244e-07   -2.526490830017129e-07   4.178266903757125e-06
-9.719227761973244e-07   -2.526490830017129e-07   4.178266903757125e-06
-9.719227761973244e-07   -2.526490830017129e-07   4.178266903757125e-06
5.188495500224603e-07   1.9788144153977784e-07   1.4233280453325938e-06
5.188495500224603e-07   1.9788144153977784e-07   1.4233280453325938e-06
5.188495500224603e-07   1.9788144153977784e-07   1.4233280453325938e-06
5.188495500224603e-07   1.9788144153977784e-07   1.4233280453325938e-06
-1.4212609136131903e-07   3.401646895574966e-08   2.6232730978559396e-06
-1.4212609136131903e-07   3.401646895574966e-08   2.6232730978559396e-06
-1.4212609136131903e-07   3.401646895574966e-08   2.6232730978559396e-06
-1.4212609136131903e-07   3.401646895574966e-08   2.6232730978559396e-06
5.188495500224603e-07   -2.526490830017129e-07   3.907948589032209e-06
5.188495500224603e-07   -2.526490830017129e-07   3.907948589032209e-06
5.188495500224603e-07   -2.526490830017129e-07   3.907948589032209e-06
5.188495500224603e-07   -2.526490830017129e-07   3.907948589032209e-06
-9.719227761973235e-07   1.9788144153977784e-07   1.693646360057476e-06
-9.719227761973235e-07   1.9788144153977784e-07   1.693646360057476e-06
-9.719227761973235e-07   1.9788144153977784e-07   1.693646360057476e-06
-9.719227761973235e-07   1.9788144153977784e-07   1.693646360057476e-06
-1.0765915285515885e-06   -3.621837310908418e-07   4.104014273103261e-06
-1.0765915285515885e-06   -3.621837310908418e-07   4.104014273103261e-06
-1.0765915285515885e-06   -3.621837310908418e-07   4.104014273103261e-06
-1.0765915285515885e-06   -3.621837310908418e-07   4.104014273103261e-06
1.8775627497855145e-07   2.9722004829427044e-08   1.7616244923342474e-06
1.8775627497855145e-07   2.9722004829427044e-08   1.7616244923342474e-06
1.8775627497855145e-07   2.9722004829427044e-08   1.7616244923342474e-06
1.8775627497855145e-07   2.9722004829427044e-08   1.7616244923342474e-06
-3.2316272609314126e-07   -2.0995734685449845e-08   2.6435868044959805e-06
-3.2316272609314126e-07   -2.0995734685449845e-08   2.6435868044959805e-06
-3.2316272609314126e-07   -2.0995734685449845e-08   2.6435868044959805e-06
-3.2316272609314126e-07   -2.0995734685449845e-08   2.6435868044959805e-06
-7.479553759200886e-07   4.380329273469502e-07   6.917951241069585e-06
-7.479553759200886e-07   4.380329273469502e-07   6.917951241069585e-06
-7.479553759200886e-07   4.380329273469502e-07   6.917951241069585e-06
-7.479553759200886e-07   4.380329273469502e-07   6.917951241069585e-06
-2.2755927989590643e-06   5.320612532355848e-07   4.42830586487117e-06
-2.2755927989590643e-06   5.320612532355848e-07   4.42830586487117e-06
-2.2755927989590643e-06   5.320612532355848e-07   4.42830586487117e-06
-2.2755927989590643e-06   5.320612532355848e-07   4.42830586487117e-06
-2.3521996041415925e-06   2.582372705169241e-07   6.894500926269505e-06
-2.3521996041415925e-06   2.582372705169241e-07   6.894500926269505e-06
-2.3521996041415925e-06   2.582372705169241e-07   6.894500926269505e-06
-2.3521996041415925e-06   2.582372705169241e-07   6.894500926269505e-06
-8.478849666104853e-07   3.652277839142899e-07   4.323115555679238e-06
-8.478849666104853e-07   3.652277839142899e-07   4.323115555679238e-06
-8.478849666104853e-07   3.652277839142899e-07   4.323115555679238e-06
-8.478849666104853e-07   3.652277839142899e-07   4.323115555679238e-06
-1.567732424509476e-06   3.7763465459474685e-07   5.5154171964359305e-06
-1.567732424509476e-06   3.7763465459474685e-07   5.5154171964359305e-06
-1.567732424509476e-06   3.7763465459474685e-07   5.5154171964359305e-06
-1.567732424509476e-06   3.7763465459474685e-07   5.5154171964359305e-06
-8.478849666104861e-07   2.582372705169241e-07   6.8303066182310635e-06
-8.478849666104861e-07   2.582372705169241e-07   6.8303066182310635e-06
-8.478849666104861e-07   2.582372705169241e-07   6.8303066182310635e-06
-8.478849666104861e-07   2.582372705169241e-07   6.8303066182310635e-06
-2.3521996041415857e-06   3.652277839142899e-07   4.387309863717649e-06
-2.3521996041415857e-06   3.652277839142899e-07   4.387309863717649e-06
-2.3521996041415857e-06   3.652277839142899e-07   4.387309863717649e-06
-2.3521996041415857e-06   3.652277839142899e-07   4.387309863717649e-06
-2.4313936637755524e-06   1.0758382973423625e-07   6.896912331508839e-06
-2.4313936637755524e-06   1.0758382973423625e-07   6.896912331508839e-06
-2.4313936637755524e-06   1.0758382973423625e-07   6.896912331508839e-06
-2.4313936637755524e-06   1.0758382973423625e-07   6.896912331508839e-06
-9.719227761973235e-07   2.1345366805884149e-07   4.4009389492170516e-06
-9.719227761973235e-07   2.1345366805884149e-07   4.4009389492170516e-06
-9.719227761973235e-07   2.1345366805884149e-07   4.4009389492170516e-06
-9.719227761973235e-07   2.1345366805884149e-07   4.4009389492170516e-06
-1.6463433947158685e-06   2.5703775430947935e-07   5.498822861664353e-06
-1.6463433947158685e-06   2.5703775430947935e-07   5.498822861664353e-06
-1.6463433947158685e-06   2.5703775430947935e-07   5.498822861664353e-06
-1.6463433947158685e-06   2.5703775430947935e-07   5.498822861664353e-06
-9.719227761973244e-07   1.0758382973423625e-07   6.833390428514043e-06
-9.719227761973244e-07   1.0758382973423625e-07   6.833390428514043e-06
-9.719227761973244e-07   1.0758382973423625e-07   6.833390428514043e-06
-9.719227761973244e-07   1.0758382973423625e-07   6.833390428514043e-06
-2.4313936637755524e-06   2.1345366805884149e-07   4.46446085221181e-06
-2.4313936637755524e-06   2.1345366805884149e-07   4.46446085221181e-06
-2.4313936637755524e-06   2.1345366805884149e-07   4.46446085221181e-06
-2.4313936637755524e-06   2.1345366805884149e-07   4.46446085221181e-06
-2.5095495785376935e-06   -4.426410365874394e-08   7.019768532765051e-06
-2.5095495785376935e-06   -4.426410365874394e-08   7.019768532765051e-06
-2.5095495785376935e-06   -4.426410365874394e-08   7.019768532765051e-06
-2.5095495785376935e-06   -4.426410365874394e-08   7.019768532765051e-06
-1.0765915285515868e-06   5.1391001849052185e-08   4.574112052816884e-06
-1.0765915285515868e-06   5.1391001849052185e-08   4.574112052816884e-06
-1.0765915285515868e-06   5.1391001849052185e-08   4.574112052816884e-06
-1.0765915285515868e-06   5.1391001849052185e-08   4.574112052816884e-06
-1.7240566127160392e-06   1.4064282588175346e-07   5.599669432004674e-06
-1.7240566127160392e-06   1.4064282588175346e-07   5.599669432004674e-06
-1.7240566127160392e-06   1.4064282588175346e-07   5.599669432004674e-06
-1.7240566127160392e-06   1.4064282588175346e-07   5.599669432004674e-06
-2.2755927989590575e-06   8.409975612161933e-07   7.76796614397363e-06
-2.2755927989590575e-06   8.409975612161933e-07   7.76796614397363e-06
-2.2755927989590575e-06   8.409975612161933e-07   7.76796614397363e-06
-2.2755927989590575e-06   8.409975612161933e-07   7.76796614397363e-06
-3.785545380158791e-06   6.52778946280924e-07   5.138447339679558e-06
-3.785545380158791e-06   6.52778946280924e-07   5.138447339679558e-06
-3.785545380158791e-06   6.52778946280924e-07   5.138447339679558e-06
-3.785545380158791e-06   6.52778946280924e-07   5.138447339679558e-06
-3.851202913823779e-06   6.769985653929354e-07   7.623586222882633e-06
-3.851202913823779e-06   6.769985653929354e-07   7.623586222882633e-06
-3.851202913823779e-06   6.769985653929354e-07   7.623586222882633e-06
-3.851202913823779e-06   6.769985653929354e-07   7.623586222882633e-06
-2.3521996041415857e-06   4.999412901776894e-07   5.23148173854141e-06
-2.3521996041415857e-06   4.999412901776894e-07   5.23148173854141e-06
-2.3521996041415857e-06   4.999412901776894e-07   5.23148173854141e-06
-2.3521996041415857e-06   4.999412901776894e-07   5.23148173854141e-06
-3.0685362645586434e-06   6.52954818415488e-07   6.33356805562719e-06
-3.0685362645586434e-06   6.52954818415488e-07   6.33356805562719e-06
-3.0685362645586434e-06   6.52954818415488e-07   6.33356805562719e-06
-3.0685362645586434e-06   6.52954818415488e-07   6.33356805562719e-06
-2.3521996041415857e-06   6.769985653929354e-07   7.729820588011705e-06
-2.3521996041415857e-06   6.769985653929354e-07   7.729820588011705e-06
-2.3521996041415857e-06   6.769985653929354e-07   7.729820588011705e-06
-2.3521996041415857e-06   6.769985653929354e-07   7.729820588011705e-06
-3.851202913823779e-06   4.999412901776894e-07   5.125247373412284e-06
-3.851202913823779e-06   4.999412901776894e-07   5.125247373412284e-06
-3.851202913823779e-06   4.999412901776894e-07   5.125247373412284e-06
-3.851202913823779e-06   4.999412901776894e-07   5.125247373412284e-06
-3.921240957062332e-06   5.138911555195493e-07   7.693230093195117e-06
-3.921240957062332e-06   5.138911555195493e-07   7.693230093195117e-06
-3.921240957062332e-06   5.138911555195493e-07   7.693230093195117e-06
-3.921240957062332e-06   5.138911555195493e-07   7.693230093195117e-06
-2.4313936637755524e-06   3.447894249056487e-07   5.31161230941883e-06
-2.4313936637755524e-06   3.447894249056487e-07   5.31161230941883e-06
-2.4313936637755524e-06   3.447894249056487e-07   5.31161230941883e-06
-2.4313936637755524e-06   3.447894249056487e-07   5.31161230941883e-06
-3.124686618631112e-06   5.315259426345083e-07   6.35505865687412e-06
-3.124686618631112e-06   5.315259426345083e-07   6.35505865687412e-06
-3.124686618631112e-06   5.315259426345083e-07   6.35505865687412e-06
-3.124686618631112e-06   5.315259426345083e-07   6.35505865687412e-06
-2.4313936637755524e-06   5.138911555194951e-07   7.794691131563425e-06
-2.4313936637755524e-06   5.138911555194951e-07   7.794691131563425e-06
-2.4313936637755524e-06   5.138911555194951e-07   7.794691131563425e-06
-2.4313936637755524e-06   5.138911555194951e-07   7.794691131563425e-06
-3.921240957062319e-06   3.447894249056487e-07   5.210151271050481e-06
-3.921240957062319e-06   3.447894249056487e-07   5.210151271050481e-06
-3.921240957062319e-06   3.447894249056487e-07   5.210151271050481e-06
-3.921240957062319e-06   3.447894249056487e-07   5.210151271050481e-06
-3.989852577508408e-06   3.581705651832328e-07   7.844341717256611e-06
-3.989852577508408e-06   3.581705651832328e-07   7.844341717256611e-06
-3.989852577508408e-06   3.581705651832328e-07   7.844341717256611e-06
-3.989852577508408e-06   3.581705651832328e-07   7.844341717256611e-06
-2.5095495785376935e-06   1.9858672730533157e-07   5.472920355032248e-06
-2.5095495785376935e-06   1.9858672730533157e-07   5.472920355032248e-06
-2.5095495785376935e-06   1.9858672730533157e-07   5.472920355032248e-06
-2.5095495785376935e-06   1.9858672730533157e-07   5.472920355032248e-06
-3.1871801498414066e-06   4.1228698509414513e-07   6.474084485865087e-06
-3.1871801498414066e-06   4.1228698509414513e-07   6.474084485865087e-06
-3.1871801498414066e-06   4.1228698509414513e-07   6.474084485865087e-06
-3.1871801498414066e-06   4.1228698509414513e-07   6.474084485865087e-06
-3.7855453801588046e-06   1.261370957393777e-06   6.732991098712827e-06
-3.7855453801588046e-06   1.261370957393777e-06   6.732991098712827e-06
-3.7855453801588046e-06   1.261370957393777e-06   6.732991098712827e-06
-3.7855453801588046e-06   1.261370957393777e-06   6.732991098712827e-06
-5.276525709393899e-06   8.920463625148515e-07   4.0264291263936316e-06
-5.276525709393899e-06   8.920463625148515e-07   4.0264291263936316e-06
-5.276525709393899e-06   8.920463625148515e-07   4.0264291263936316e-06
-5.276525709393899e-06   8.920463625148515e-07   4.0264291263936316e-06
-5.348949390269136e-06   1.0967848410995177e-06   6.537511188742522e-06
-5.348949390269136e-06   1.0967848410995177e-06   6.537511188742522e-06
-5.348949390269136e-06   1.0967848410995177e-06   6.537511188742522e-06
-5.348949390269136e-06   1.0967848410995177e-06   6.537511188742522e-06
-3.851202913823779e-06   7.314632222945238e-07   4.260460032616577e-06
-3.851202913823779e-06   7.314632222945238e-07   4.260460032616577e-06
-3.851202913823779e-06   7.314632222945238e-07   4.260460032616577e-06
-3.851202913823779e-06   7.314632222945238e-07   4.260460032616577e-06
-4.55583724934841e-06   9.844831524226274e-07   5.2830386337474565e-06
-4.55583724934841e-06   9.844831524226274e-07   5.2830386337474565e-06
-4.55583724934841e-06   9.844831524226274e-07   5.2830386337474565e-06
-4.55583724934841e-06   9.844831524226274e-07   5.2830386337474565e-06
-3.851202913823779e-06   1.0967848410995719e-06   6.756704160025496e-06
-3.851202913823779e-06   1.0967848410995719e-06   6.756704160025496e-06
-3.851202913823779e-06   1.0967848410995719e-06   6.756704160025496e-06
-3.851202913823779e-06   1.0967848410995719e-06   6.756704160025496e-06
-5.348949390269122e-06   7.314632222944696e-07   4.041267061333569e-06
-5.348949390269122e-06   7.314632222944696e-07   4.041267061333569e-06
-5.348949390269122e-06   7.314632222944696e-07   4.041267061333569e-06
-5.348949390269122e-06   7.314632222944696e-07   4.041267061333569e-06
-5.447349504477745e-06   9.46004135914363e-07   6.751923360375617e-06
-5.447349504477745e-06   9.46004135914363e-07   6.751923360375617e-06
-5.447349504477745e-06   9.46004135914363e-07   6.751923360375617e-06
-5.447349504477745e-06   9.46004135914363e-07   6.751923360375617e-06
-3.921240957062332e-06   5.877176277470212e-07   4.423381019583758e-06
-3.921240957062332e-06   5.877176277470212e-07   4.423381019583758e-06
-3.921240957062332e-06   5.877176277470212e-07   4.423381019583758e-06
-3.921240957062332e-06   5.877176277470212e-07   4.423381019583758e-06
-4.595078376698502e-06   8.668609542091042e-07   5.378957389766777e-06
-4.595078376698502e-06   8.668609542091042e-07   5.378957389766777e-06
-4.595078376698502e-06   8.668609542091042e-07   5.378957389766777e-06
-4.595078376698502e-06   8.668609542091042e-07   5.378957389766777e-06
-3.921240957062319e-06   9.460041359144172e-07   6.966895265276017e-06
-3.921240957062319e-06   9.460041359144172e-07   6.966895265276017e-06
-3.921240957062319e-06   9.460041359144172e-07   6.966895265276017e-06
-3.921240957062319e-06   9.460041359144172e-07   6.966895265276017e-06
-5.447349504477731e-06   5.877176277470212e-07   4.208409114683331e-06
-5.447349504477731e-06   5.877176277470212e-07   4.208409114683331e-06
-5.447349504477731e-06   5.877176277470212e-07   4.208409114683331e-06
-5.447349504477731e-06   5.877176277470212e-07   4.208409114683331e-06
-5.52584200996155e-06   7.836610316940863e-07   6.987296225983758e-06
-5.52584200996155e-06   7.836610316940863e-07   6.987296225983758e-06
-5.52584200996155e-06   7.836610316940863e-07   6.987296225983758e-06
-5.52584200996155e-06   7.836610316940863e-07   6.987296225983758e-06
-3.989852577508408e-06   4.403372804686256e-07   4.633308089297219e-06
-3.989852577508408e-06   4.403372804686256e-07   4.633308089297219e-06
-3.989852577508408e-06   4.403372804686256e-07   4.633308089297219e-06
-3.989852577508408e-06   4.403372804686256e-07   4.633308089297219e-06
-4.677513436496887e-06   7.539776982411987e-07   5.591225270281237e-06
-4.677513436496887e-06   7.539776982411987e-07   5.591225270281237e-06
-4.677513436496887e-06   7.539776982411987e-07   5.591225270281237e-06
-4.677513436496887e-06   7.539776982411987e-07   5.591225270281237e-06
-5.276525709393899e-06   1.5706544709984463e-06   3.0053365111105783e-06
-5.276525709393899e-06   1.5706544709984463e-06   3.0053365111105783e-06
-5.276525709393899e-06   1.5706544709984463e-06   3.0053365111105783e-06
-5.276525709393899e-06   1.5706544709984463e-06   3.0053365111105783e-06
-6.490795632564729e-06   1.0705068777716771e-06   6.814647498898082e-07
-6.490795632564729e-06   1.0705068777716771e-06   6.814647498898082e-07
-6.490795632564729e-06   1.0705068777716771e-06   6.814647498898082e-07
-6.490795632564729e-06   1.0705068777716771e-06   6.814647498898082e-07
-6.759989497236976e-06   1.488174001094576e-06   3.5367552506912524e-06
-6.759989497236976e-06   1.488174001094576e-06   3.5367552506912524e-06
-6.759989497236976e-06   1.488174001094576e-06   3.5367552506912524e-06
-6.759989497236976e-06   1.488174001094576e-06   3.5367552506912524e-06
-5.348949390269122e-06   9.63900081693244e-07   1.4995860907189465e-06
-5.348949390269122e-06   9.63900081693244e-07   1.4995860907189465e-06
-5.348949390269122e-06   9.63900081693244e-07   1.4995860907189465e-06
-5.348949390269122e-06   9.63900081693244e-07   1.4995860907189465e-06
-5.760886994170562e-06   1.2573448269612608e-06   2.0100819167271885e-06
-5.760886994170562e-06   1.2573448269612608e-06   2.0100819167271885e-06
-5.760886994170562e-06   1.2573448269612608e-06   2.0100819167271885e-06
-5.760886994170562e-06   1.2573448269612608e-06   2.0100819167271885e-06
-5.348949390269122e-06   1.4881740010945217e-06   3.8513196023319594e-06
-5.348949390269122e-06   1.4881740010945217e-06   3.8513196023319594e-06
-5.348949390269122e-06   1.4881740010945217e-06   3.8513196023319594e-06
-5.348949390269122e-06   1.4881740010945217e-06   3.8513196023319594e-06
-6.75998949723699e-06   9.639000816932981e-07   1.1850217390781691e-06
-6.75998949723699e-06   9.639000816932981e-07   1.1850217390781691e-06
-6.75998949723699e-06   9.639000816932981e-07   1.1850217390781691e-06
-6.75998949723699e-06   9.639000816932981e-07   1.1850217390781691e-06
-6.9898299860619585e-06   1.416920529049323e-06   4.162934456232491e-06
-6.9898299860619585e-06   1.416920529049323e-06   4.162934456232491e-06
-6.9898299860619585e-06   1.416920529049323e-06   4.162934456232491e-06
-6.9898299860619585e-06   1.416920529049323e-06   4.162934456232491e-06
-5.447349504477731e-06   8.898769708747282e-07   1.9083597884968836e-06
-5.447349504477731e-06   8.898769708747282e-07   1.9083597884968836e-06
-5.447349504477731e-06   8.898769708747282e-07   1.9083597884968836e-06
-5.447349504477731e-06   8.898769708747282e-07   1.9083597884968836e-06
-5.991163210561606e-06   1.2171527610892858e-06   2.618350491174733e-06
-5.991163210561606e-06   1.2171527610892858e-06   2.618350491174733e-06
-5.991163210561606e-06   1.2171527610892858e-06   2.618350491174733e-06
-5.991163210561606e-06   1.2171527610892858e-06   2.618350491174733e-06
-5.447349504477731e-06   1.416920529049323e-06   4.479160591137226e-06
-5.447349504477731e-06   1.416920529049323e-06   4.479160591137226e-06
-5.447349504477731e-06   1.416920529049323e-06   4.479160591137226e-06
-5.447349504477731e-06   1.416920529049323e-06   4.479160591137226e-06
-6.989829986061972e-06   8.898769708747282e-07   1.592133653592106e-06
-6.989829986061972e-06   8.898769708747282e-07   1.592133653592106e-06
-6.989829986061972e-06   8.898769708747282e-07   1.592133653592106e-06
-6.989829986061972e-06   8.898769708747282e-07   1.592133653592106e-06
-7.279679511295521e-06   1.2193098122679114e-06   5.292896456399459e-06
-7.279679511295521e-06   1.2193098122679114e-06   5.292896456399459e-06
-7.279679511295521e-06   1.2193098122679114e-06   5.292896456399459e-06
-7.279679511295521e-06   1.2193098122679114e-06   5.292896456399459e-06
-5.5258420099615365e-06   7.159125289535871e-07   2.671872324164741e-06
-5.5258420099615365e-06   7.159125289535871e-07   2.671872324164741e-06
-5.5258420099615365e-06   7.159125289535871e-07   2.671872324164741e-06
-5.5258420099615365e-06   7.159125289535871e-07   2.671872324164741e-06
-6.053366049978812e-06   1.1347048975220999e-06   3.2998036363857737e-06
-6.053366049978812e-06   1.1347048975220999e-06   3.2998036363857737e-06
-6.053366049978812e-06   1.1347048975220999e-06   3.2998036363857737e-06
-6.053366049978812e-06   1.1347048975220999e-06   3.2998036363857737e-06
-2.2638103259866243e-06   4.288878707269352e-07   3.216496966497825e-06
-2.2638103259866243e-06   4.288878707269352e-07   3.216496966497825e-06
-2.2638103259866243e-06   4.288878707269352e-07   3.216496966497825e-06
-2.2638103259866243e-06   4.288878707269352e-07   3.216496966497825e-06
-2.647375057933491e-06   8.41327439000814e-07   2.8246861542173866e-06
-2.647375057933491e-06   8.41327439000814e-07   2.8246861542173866e-06
-2.647375057933491e-06   8.41327439000814e-07   2.8246861542173866e-06
-2.647375057933491e-06   8.41327439000814e-07   2.8246861542173866e-06
-2.72409505468352e-06   2.7829745087018173e-07   3.40821777582395e-06
-2.72409505468352e-06   2.7829745087018173e-07   3.40821777582395e-06
-2.72409505468352e-06   2.7829745087018173e-07   3.40821777582395e-06
-2.72409505468352e-06   2.7829745087018173e-07   3.40821777582395e-06
-2.5696922349756385e-06   6.510697231957815e-07   2.9272163795820996e-06
-2.5696922349756385e-06   6.510697231957815e-07   2.9272163795820996e-06
-2.5696922349756385e-06   6.510697231957815e-07   2.9272163795820996e-06
-2.5696922349756385e-06   6.510697231957815e-07   2.9272163795820996e-06
-2.493018908881634e-06   5.107661645330013e-07   2.8836096379564424e-06
-2.493018908881634e-06   5.107661645330013e-07   2.8836096379564424e-06
-2.493018908881634e-06   5.107661645330013e-07   2.8836096379564424e-06
-2.493018908881634e-06   5.107661645330013e-07   2.8836096379564424e-06
-2.569692234975642e-06   2.782974508701275e-07   3.1845544124285523e-06
-2.569692234975642e-06   2.782974508701275e-07   3.1845544124285523e-06
-2.569692234975642e-06   2.782974508701275e-07   3.1845544124285523e-06
-2.569692234975642e-06   2.782974508701275e-07   3.1845544124285523e-06
-2.72409505468352e-06   6.510697231957815e-07   3.1508797429774635e-06
-2.72409505468352e-06   6.510697231957815e-07   3.1508797429774635e-06
-2.72409505468352e-06   6.510697231957815e-07   3.1508797429774635e-06
-2.72409505468352e-06   6.510697231957815e-07   3.1508797429774635e-06
-2.8233381744538973e-06   1.9788144153972363e-07   3.488812248018632e-06
-2.8233381744538973e-06   1.9788144153972363e-07   3.488812248018632e-06
-2.8233381744538973e-06   1.9788144153972363e-07   3.488812248018632e-06
-2.8233381744538973e-06   1.9788144153972363e-07   3.488812248018632e-06
-2.869184610526365e-06   5.220060481977832e-07   3.3707482108112025e-06
-2.869184610526365e-06   5.220060481977832e-07   3.3707482108112025e-06
-2.869184610526365e-06   5.220060481977832e-07   3.3707482108112025e-06
-2.869184610526365e-06   5.220060481977832e-07   3.3707482108112025e-06
-2.6741235877820796e-06   4.294387066056083e-07   3.101186911192588e-06
-2.6741235877820796e-06   4.294387066056083e-07   3.101186911192588e-06
-2.6741235877820796e-06   4.294387066056083e-07   3.101186911192588e-06
-2.6741235877820796e-06   4.294387066056083e-07   3.101186911192588e-06
-2.869184610526372e-06   1.9788144153972363e-07   3.2943374840237313e-06
-2.869184610526372e-06   1.9788144153972363e-07   3.2943374840237313e-06
-2.869184610526372e-06   1.9788144153972363e-07   3.2943374840237313e-06
-2.869184610526372e-06   1.9788144153972363e-07   3.2943374840237313e-06
-2.8233381744538973e-06   5.220060481977832e-07   3.5652229748060153e-06
-2.8233381744538973e-06   5.220060481977832e-07   3.5652229748060153e-06
-2.8233381744538973e-06   5.220060481977832e-07   3.5652229748060153e-06
-2.8233381744538973e-06   5.220060481977832e-07   3.5652229748060153e-06
-2.8896354994971647e-06   2.9722004829427044e-08   3.786780332564279e-06
-2.8896354994971647e-06   2.9722004829427044e-08   3.786780332564279e-06
-2.8896354994971647e-06   2.9722004829427044e-08   3.786780332564279e-06
-2.8896354994971647e-06   2.9722004829427044e-08   3.786780332564279e-06
-3.1893219840507324e-06   2.0592364623504616e-07   4.180536821976795e-06
-3.1893219840507324e-06   2.0592364623504616e-07   4.180536821976795e-06
-3.1893219840507324e-06   2.0592364623504616e-07   4.180536821976795e-06
-3.1893219840507324e-06   2.0592364623504616e-07   4.180536821976795e-06
-2.8104895304955206e-06   3.3272486220080355e-07   3.4730686698052467e-06
-2.8104895304955206e-06   3.3272486220080355e-07   3.4730686698052467e-06
-2.8104895304955206e-06   3.3272486220080355e-07   3.4730686698052467e-06
-2.8104895304955206e-06   3.3272486220080355e-07   3.4730686698052467e-06
-2.647375057933487e-06   5.32061253235639e-07   6.216590445479235e-06
-2.647375057933487e-06   5.32061253235639e-07   6.216590445479235e-06
-2.647375057933487e-06   5.32061253235639e-07   6.216590445479235e-06
-2.647375057933487e-06   5.32061253235639e-07   6.216590445479235e-06
-2.78852354524914e-06   2.1936036114541656e-07   5.79372243136571e-06
-2.78852354524914e-06   2.1936036114541656e-07   5.79372243136571e-06
-2.78852354524914e-06   2.1936036114541656e-07   5.79372243136571e-06
-2.78852354524914e-06   2.1936036114541656e-07   5.79372243136571e-06
-2.8168785928910756e-06   3.652277839142899e-07   5.9788564193818255e-06
-2.8168785928910756e-06   3.652277839142899e-07   5.9788564193818255e-06
-2.8168785928910756e-06   3.652277839142899e-07   5.9788564193818255e-06
-2.8168785928910756e-06   3.652277839142899e-07   5.9788564193818255e-06
-2.72409505468352e-06   1.0039442191632692e-07   5.983117206234654e-06
-2.72409505468352e-06   1.0039442191632692e-07   5.983117206234654e-06
-2.72409505468352e-06   1.0039442191632692e-07   5.983117206234654e-06
-2.72409505468352e-06   1.0039442191632692e-07   5.983117206234654e-06
-2.7381203671369898e-06   2.671815571735135e-07   5.906420445836174e-06
-2.7381203671369898e-06   2.671815571735135e-07   5.906420445836174e-06
-2.7381203671369898e-06   2.671815571735135e-07   5.906420445836174e-06
-2.7381203671369898e-06   2.671815571735135e-07   5.906420445836174e-06
-2.7240950546835166e-06   3.652277839142357e-07   6.1377564365805e-06
-2.7240950546835166e-06   3.652277839142357e-07   6.1377564365805e-06
-2.7240950546835166e-06   3.652277839142357e-07   6.1377564365805e-06
-2.7240950546835166e-06   3.652277839142357e-07   6.1377564365805e-06
-2.816878592891069e-06   1.0039442191632692e-07   5.824217189035898e-06
-2.816878592891069e-06   1.0039442191632692e-07   5.824217189035898e-06
-2.816878592891069e-06   1.0039442191632692e-07   5.824217189035898e-06
-2.816878592891069e-06   1.0039442191632692e-07   5.824217189035898e-06
-2.851107104811765e-06   2.1345366805884149e-07   6.04810426183279e-06
-2.851107104811765e-06   2.1345366805884149e-07   6.04810426183279e-06
-2.851107104811765e-06   2.1345366805884149e-07   6.04810426183279e-06
-2.851107104811765e-06   2.1345366805884149e-07   6.04810426183279e-06
-2.8233381744538973e-06   -3.321395751680156e-08   6.149823286581674e-06
-2.8233381744538973e-06   -3.321395751680156e-08   6.149823286581674e-06
-2.8233381744538973e-06   -3.321395751680156e-08   6.149823286581674e-06
-2.8233381744538973e-06   -3.321395751680156e-08   6.149823286581674e-06
-2.7718832842940496e-06   1.7097003743662704e-07   5.941554739343169e-06
-2.7718832842940496e-06   1.7097003743662704e-07   5.941554739343169e-06
-2.7718832842940496e-06   1.7097003743662704e-07   5.941554739343169e-06
-2.7718832842940496e-06   1.7097003743662704e-07   5.941554739343169e-06
-2.8233381744538973e-06   2.1345366805884149e-07   6.196104837178062e-06
-2.8233381744538973e-06   2.1345366805884149e-07   6.196104837178062e-06
-2.8233381744538973e-06   2.1345366805884149e-07   6.196104837178062e-06
-2.8233381744538973e-06   2.1345366805884149e-07   6.196104837178062e-06
-2.8511071048117515e-06   -3.321395751680156e-08   6.0018227112363076e-06
-2.8511071048117515e-06   -3.321395751680156e-08   6.0018227112363076e-06
-2.8511071048117515e-06   -3.321395751680156e-08   6.0018227112363076e-06
-2.8511071048117515e-06   -3.321395751680156e-08   6.0018227112363076e-06
-2.878640985148899e-06   5.1391001849052185e-08   6.209620482257284e-06
-2.878640985148899e-06   5.1391001849052185e-08   6.209620482257284e-06
-2.878640985148899e-06   5.1391001849052185e-08   6.209620482257284e-06
-2.878640985148899e-06   5.1391001849052185e-08   6.209620482257284e-06
-2.889635499497163e-06   -2.061156135467761e-07   6.382448642075168e-06
-2.889635499497163e-06   -2.061156135467761e-07   6.382448642075168e-06
-2.889635499497163e-06   -2.061156135467761e-07   6.382448642075168e-06
-2.889635499497163e-06   -2.061156135467761e-07   6.382448642075168e-06
-2.8210535963538707e-06   6.052986294325822e-08   6.10815818427555e-06
-2.8210535963538707e-06   6.052986294325822e-08   6.10815818427555e-06
-2.8210535963538707e-06   6.052986294325822e-08   6.10815818427555e-06
-2.8210535963538707e-06   6.052986294325822e-08   6.10815818427555e-06
-2.7885235452491537e-06   6.52778946280924e-07   6.852042553994733e-06
-2.7885235452491537e-06   6.52778946280924e-07   6.852042553994733e-06
-2.7885235452491537e-06   6.52778946280924e-07   6.852042553994733e-06
-2.7885235452491537e-06   6.52778946280924e-07   6.852042553994733e-06
-3.0877609012943844e-06   6.329867675920384e-08   5.999625465539646e-06
-3.0877609012943844e-06   6.329867675920384e-08   5.999625465539646e-06
-3.0877609012943844e-06   6.329867675920384e-08   5.999625465539646e-06
-3.0877609012943844e-06   6.329867675920384e-08   5.999625465539646e-06
-3.101876923240765e-06   4.999412901776894e-07   6.5023607000293335e-06
-3.101876923240765e-06   4.999412901776894e-07   6.5023607000293335e-06
-3.101876923240765e-06   4.999412901776894e-07   6.5023607000293335e-06
-3.101876923240765e-06   4.999412901776894e-07   6.5023607000293335e-06
-2.816878592891069e-06   -3.450470011602991e-08   6.348031076956059e-06
-2.816878592891069e-06   -3.450470011602991e-08   6.348031076956059e-06
-2.816878592891069e-06   -3.450470011602991e-08   6.348031076956059e-06
-2.816878592891069e-06   -3.450470011602991e-08   6.348031076956059e-06
-2.9448640066534076e-06   2.8402460772606664e-07   6.37022251518806e-06
-2.9448640066534076e-06   2.8402460772606664e-07   6.37022251518806e-06
-2.9448640066534076e-06   2.8402460772606664e-07   6.37022251518806e-06
-2.9448640066534076e-06   2.8402460772606664e-07   6.37022251518806e-06
-2.816878592891069e-06   4.999412901777437e-07   6.823028294205533e-06
-2.816878592891069e-06   4.999412901777437e-07   6.823028294205533e-06
-2.816878592891069e-06   4.999412901777437e-07   6.823028294205533e-06
-2.816878592891069e-06   4.999412901777437e-07   6.823028294205533e-06
-3.101876923240765e-06   -3.450470011602991e-08   6.027363482779799e-06
-3.101876923240765e-06   -3.450470011602991e-08   6.027363482779799e-06
-3.101876923240765e-06   -3.450470011602991e-08   6.027363482779799e-06
-3.101876923240765e-06   -3.450470011602991e-08   6.027363482779799e-06
-3.122245140654861e-06   3.447894249056487e-07   6.597531154380141e-06
-3.122245140654861e-06   3.447894249056487e-07   6.597531154380141e-06
-3.122245140654861e-06   3.447894249056487e-07   6.597531154380141e-06
-3.122245140654861e-06   3.447894249056487e-07   6.597531154380141e-06
-2.8511071048117583e-06   -1.5141818286051097e-07   6.443358992634643e-06
-2.8511071048117583e-06   -1.5141818286051097e-07   6.443358992634643e-06
-2.8511071048117583e-06   -1.5141818286051097e-07   6.443358992634643e-06
-2.8511071048117583e-06   -1.5141818286051097e-07   6.443358992634643e-06
-2.9529501966044043e-06   1.8830754610761852e-07   6.409262041574636e-06
-2.9529501966044043e-06   1.8830754610761852e-07   6.409262041574636e-06
-2.9529501966044043e-06   1.8830754610761852e-07   6.409262041574636e-06
-2.9529501966044043e-06   1.8830754610761852e-07   6.409262041574636e-06
-2.851107104811765e-06   3.447894249055945e-07   6.895255719039728e-06
-2.851107104811765e-06   3.447894249055945e-07   6.895255719039728e-06
-2.851107104811765e-06   3.447894249055945e-07   6.895255719039728e-06
-2.851107104811765e-06   3.447894249055945e-07   6.895255719039728e-06
-3.1222451406548473e-06   -1.5141818286053808e-07   6.14563442797492e-06
-3.1222451406548473e-06   -1.5141818286053808e-07   6.14563442797492e-06
-3.1222451406548473e-06   -1.5141818286053808e-07   6.14563442797492e-06
-3.1222451406548473e-06   -1.5141818286053808e-07   6.14563442797492e-06
-3.137923778603099e-06   1.9858672730533157e-07   6.771604821730791e-06
-3.137923778603099e-06   1.9858672730533157e-07   6.771604821730791e-06
-3.137923778603099e-06   1.9858672730533157e-07   6.771604821730791e-06
-3.137923778603099e-06   1.9858672730533157e-07   6.771604821730791e-06
-2.878640985148892e-06   -2.6713143842324485e-07   6.6188977320775426e-06
-2.878640985148892e-06   -2.6713143842324485e-07   6.6188977320775426e-06
-2.878640985148892e-06   -2.6713143842324485e-07   6.6188977320775426e-06
-2.878640985148892e-06   -2.6713143842324485e-07   6.6188977320775426e-06
-2.9663003237488155e-06   9.027033401830774e-08   6.550555566278959e-06
-2.9663003237488155e-06   9.027033401830774e-08   6.550555566278959e-06
-2.9663003237488155e-06   9.027033401830774e-08   6.550555566278959e-06
-2.9663003237488155e-06   9.027033401830774e-08   6.550555566278959e-06
-3.0877609012943844e-06   8.920463625148515e-07   5.607930935923132e-06
-3.0877609012943844e-06   8.920463625148515e-07   5.607930935923132e-06
-3.0877609012943844e-06   8.920463625148515e-07   5.607930935923132e-06
-3.0877609012943844e-06   8.920463625148515e-07   5.607930935923132e-06
-3.482951204965832e-06   2.975394369728881e-07   4.592576274478871e-06
-3.482951204965832e-06   2.975394369728881e-07   4.592576274478871e-06
-3.482951204965832e-06   2.975394369728881e-07   4.592576274478871e-06
-3.482951204965832e-06   2.975394369728881e-07   4.592576274478871e-06
-3.495556354614728e-06   7.314632222944696e-07   5.299356266961629e-06
-3.495556354614728e-06   7.314632222944696e-07   5.299356266961629e-06
-3.495556354614728e-06   7.314632222944696e-07   5.299356266961629e-06
-3.495556354614728e-06   7.314632222944696e-07   5.299356266961629e-06
-3.101876923240765e-06   1.6776806850774808e-07   4.981440973610395e-06
-3.101876923240765e-06   1.6776806850774808e-07   4.981440973610395e-06
-3.101876923240765e-06   1.6776806850774808e-07   4.981440973610395e-06
-3.101876923240765e-06   1.6776806850774808e-07   4.981440973610395e-06
-3.2836315656941336e-06   5.323118397689063e-07   5.065639114942643e-06
-3.2836315656941336e-06   5.323118397689063e-07   5.065639114942643e-06
-3.2836315656941336e-06   5.323118397689063e-07   5.065639114942643e-06
-3.2836315656941336e-06   5.323118397689063e-07   5.065639114942643e-06
-3.101876923240765e-06   7.314632222944696e-07   5.637573359233613e-06
-3.101876923240765e-06   7.314632222944696e-07   5.637573359233613e-06
-3.101876923240765e-06   7.314632222944696e-07   5.637573359233613e-06
-3.101876923240765e-06   7.314632222944696e-07   5.637573359233613e-06
-3.495556354614728e-06   1.6776806850774808e-07   4.643223881338347e-06
-3.495556354614728e-06   1.6776806850774808e-07   4.643223881338347e-06
-3.495556354614728e-06   1.6776806850774808e-07   4.643223881338347e-06
-3.495556354614728e-06   1.6776806850774808e-07   4.643223881338347e-06
-3.539045549351977e-06   5.877176277470212e-07   5.4918109506472295e-06
-3.539045549351977e-06   5.877176277470212e-07   5.4918109506472295e-06
-3.539045549351977e-06   5.877176277470212e-07   5.4918109506472295e-06
-3.539045549351977e-06   5.877176277470212e-07   5.4918109506472295e-06
-3.1222451406548473e-06   5.613437397005458e-08   5.116093555084764e-06
-3.1222451406548473e-06   5.613437397005458e-08   5.116093555084764e-06
-3.1222451406548473e-06   5.613437397005458e-08   5.116093555084764e-06
-3.1222451406548473e-06   5.613437397005458e-08   5.116093555084764e-06
-3.280444439329139e-06   4.269639818450712e-07   5.157261288150016e-06
-3.280444439329139e-06   4.269639818450712e-07   5.157261288150016e-06
-3.280444439329139e-06   4.269639818450712e-07   5.157261288150016e-06
-3.280444439329139e-06   4.269639818450712e-07   5.157261288150016e-06
-3.1222451406548473e-06   5.877176277470212e-07   5.8107609029132415e-06
-3.1222451406548473e-06   5.877176277470212e-07   5.8107609029132415e-06
-3.1222451406548473e-06   5.877176277470212e-07   5.8107609029132415e-06
-3.1222451406548473e-06   5.877176277470212e-07   5.8107609029132415e-06
-3.539045549351977e-06   5.613437397008168e-08   4.797143602818634e-06
-3.539045549351977e-06   5.613437397008168e-08   4.797143602818634e-06
-3.539045549351977e-06   5.613437397008168e-08   4.797143602818634e-06
-3.539045549351977e-06   5.613437397008168e-08   4.797143602818634e-06
-3.5668549743682527e-06   4.403372804685714e-07   5.729499093391072e-06
-3.5668549743682527e-06   4.403372804685714e-07   5.729499093391072e-06
-3.5668549743682527e-06   4.403372804685714e-07   5.729499093391072e-06
-3.5668549743682527e-06   4.403372804685714e-07   5.729499093391072e-06
-3.1379237786030855e-06   -5.673566175052572e-08   5.312857532447171e-06
-3.1379237786030855e-06   -5.673566175052572e-08   5.312857532447171e-06
-3.1379237786030855e-06   -5.673566175052572e-08   5.312857532447171e-06
-3.1379237786030855e-06   -5.673566175052572e-08   5.312857532447171e-06
-3.3034624530153676e-06   3.3217704479415874e-07   5.355407699207367e-06
-3.3034624530153676e-06   3.3217704479415874e-07   5.355407699207367e-06
-3.3034624530153676e-06   3.3217704479415874e-07   5.355407699207367e-06
-3.3034624530153676e-06   3.3217704479415874e-07   5.355407699207367e-06
-3.482951204965832e-06   1.070506877771623e-06   2.2063509600302015e-06
-3.482951204965832e-06   1.070506877771623e-06   2.2063509600302015e-06
-3.482951204965832e-06   1.070506877771623e-06   2.2063509600302015e-06
-3.482951204965832e-06   1.070506877771623e-06   2.2063509600302015e-06
-3.537181758835132e-06   5.01937986573369e-07   1.7748253688624354e-06
-3.537181758835132e-06   5.01937986573369e-07   1.7748253688624354e-06
-3.537181758835132e-06   5.01937986573369e-07   1.7748253688624354e-06
-3.537181758835132e-06   5.01937986573369e-07   1.7748253688624354e-06
-3.7195526919840943e-06   9.639000816932981e-07   2.424517908102312e-06
-3.7195526919840943e-06   9.639000816932981e-07   2.424517908102312e-06
-3.7195526919840943e-06   9.639000816932981e-07   2.424517908102312e-06
-3.7195526919840943e-06   9.639000816932981e-07   2.424517908102312e-06
-3.4955563546147417e-06   4.0863776795211086e-07   2.3843480673980066e-06
-3.4955563546147417e-06   4.0863776795211086e-07   2.3843480673980066e-06
-3.4955563546147417e-06   4.0863776795211086e-07   2.3843480673980066e-06
-3.4955563546147417e-06   4.0863776795211086e-07   2.3843480673980066e-06
-3.44226643122862e-06   7.573828329970401e-07   2.0862844893941666e-06
-3.44226643122862e-06   7.573828329970401e-07   2.0862844893941666e-06
-3.44226643122862e-06   7.573828329970401e-07   2.0862844893941666e-06
-3.44226643122862e-06   7.573828329970401e-07   2.0862844893941666e-06
-3.4955563546147146e-06   9.63900081693244e-07   2.757675296346905e-06
-3.4955563546147146e-06   9.63900081693244e-07   2.757675296346905e-06
-3.4955563546147146e-06   9.63900081693244e-07   2.757675296346905e-06
-3.4955563546147146e-06   9.63900081693244e-07   2.757675296346905e-06
-3.7195526919841214e-06   4.0863776795211086e-07   2.051190679153305e-06
-3.7195526919841214e-06   4.0863776795211086e-07   2.051190679153305e-06
-3.7195526919841214e-06   4.0863776795211086e-07   2.051190679153305e-06
-3.7195526919841214e-06   4.0863776795211086e-07   2.051190679153305e-06
-3.8789497383174155e-06   8.898769708747282e-07   2.866634694073905e-06
-3.8789497383174155e-06   8.898769708747282e-07   2.866634694073905e-06
-3.8789497383174155e-06   8.898769708747282e-07   2.866634694073905e-06
-3.8789497383174155e-06   8.898769708747282e-07   2.866634694073905e-06
-3.539045549351977e-06   3.4799875356326666e-07   2.6252546428516142e-06
-3.539045549351977e-06   3.4799875356326666e-07   2.6252546428516142e-06
-3.539045549351977e-06   3.4799875356326666e-07   2.6252546428516142e-06
-3.539045549351977e-06   3.4799875356326666e-07   2.6252546428516142e-06
-3.574746756170331e-06   7.051705513459554e-07   2.470453575545797e-06
-3.574746756170331e-06   7.051705513459554e-07   2.470453575545797e-06
-3.574746756170331e-06   7.051705513459554e-07   2.470453575545797e-06
-3.574746756170331e-06   7.051705513459554e-07   2.470453575545797e-06
-3.5390455493519637e-06   8.89876970874674e-07   3.1917616244606735e-06
-3.5390455493519637e-06   8.89876970874674e-07   3.1917616244606735e-06
-3.5390455493519637e-06   8.89876970874674e-07   3.1917616244606735e-06
-3.5390455493519637e-06   8.89876970874674e-07   3.1917616244606735e-06
-3.878949738317443e-06   3.4799875356326666e-07   2.300127712464771e-06
-3.878949738317443e-06   3.4799875356326666e-07   2.300127712464771e-06
-3.878949738317443e-06   3.4799875356326666e-07   2.300127712464771e-06
-3.878949738317443e-06   3.4799875356326666e-07   2.300127712464771e-06
-4.1101157923211385e-06   7.159125289535871e-07   3.677574078533787e-06
-4.1101157923211385e-06   7.159125289535871e-07   3.677574078533787e-06
-4.1101157923211385e-06   7.159125289535871e-07   3.677574078533787e-06
-4.1101157923211385e-06   7.159125289535871e-07   3.677574078533787e-06
-3.5668549743682527e-06   2.2177336152009726e-07   3.068622882405707e-06
-3.5668549743682527e-06   2.2177336152009726e-07   3.068622882405707e-06
-3.5668549743682527e-06   2.2177336152009726e-07   3.068622882405707e-06
-3.5668549743682527e-06   2.2177336152009726e-07   3.068622882405707e-06
-3.620110722803609e-06   6.397663837722314e-07   2.9065866497797552e-06
-3.620110722803609e-06   6.397663837722314e-07   2.9065866497797552e-06
-3.620110722803609e-06   6.397663837722314e-07   2.9065866497797552e-06
-3.620110722803609e-06   6.397663837722314e-07   2.9065866497797552e-06
-6.338000519403801e-06   8.413274390007869e-07   2.75320080509169e-06
-6.338000519403801e-06   8.413274390007869e-07   2.75320080509169e-06
-6.338000519403801e-06   8.413274390007869e-07   2.75320080509169e-06
-6.338000519403801e-06   8.413274390007869e-07   2.75320080509169e-06
-4.35800083351488e-06   1.1552625693664483e-06   6.241561359792618e-06
-4.35800083351488e-06   1.1552625693664483e-06   6.241561359792618e-06
-4.35800083351488e-06   1.1552625693664483e-06   6.241561359792618e-06
-4.35800083351488e-06   1.1552625693664483e-06   6.241561359792618e-06
-4.361412611413235e-06   6.510697231957815e-07   3.0533888834993224e-06
-4.361412611413235e-06   6.510697231957815e-07   3.0533888834993224e-06
-4.361412611413235e-06   6.510697231957815e-07   3.0533888834993224e-06
-4.361412611413235e-06   6.510697231957815e-07   3.0533888834993224e-06
-7.0255074852173265e-06   4.2876816082005806e-07   7.626927943931606e-06
-7.0255074852173265e-06   4.2876816082005806e-07   7.626927943931606e-06
-7.0255074852173265e-06   4.2876816082005806e-07   7.626927943931606e-06
-7.0255074852173265e-06   4.2876816082005806e-07   7.626927943931606e-06
-5.234191827835595e-06   6.754810420688115e-07   4.493374119546153e-06
-5.234191827835595e-06   6.754810420688115e-07   4.493374119546153e-06
-5.234191827835595e-06   6.754810420688115e-07   4.493374119546153e-06
-5.234191827835595e-06   6.754810420688115e-07   4.493374119546153e-06
-7.025507485217335e-06   6.510697231957815e-07   3.1867698209247456e-06
-7.025507485217335e-06   6.510697231957815e-07   3.1867698209247456e-06
-7.025507485217335e-06   6.510697231957815e-07   3.1867698209247456e-06
-7.025507485217335e-06   6.510697231957815e-07   3.1867698209247456e-06
-4.361412611413235e-06   4.2876816082005806e-07   7.493547006506189e-06
-4.361412611413235e-06   4.2876816082005806e-07   7.493547006506189e-06
-4.361412611413235e-06   4.2876816082005806e-07   7.493547006506189e-06
-4.361412611413235e-06   4.2876816082005806e-07   7.493547006506189e-06
-4.43485503720108e-06   5.220060481977832e-07   3.3803900203983406e-06
-4.43485503720108e-06   5.220060481977832e-07   3.3803900203983406e-06
-4.43485503720108e-06   5.220060481977832e-07   3.3803900203983406e-06
-4.43485503720108e-06   5.220060481977832e-07   3.3803900203983406e-06
-7.062880163318767e-06   2.9374686424082756e-07   7.897387407635298e-06
-7.062880163318767e-06   2.9374686424082756e-07   7.897387407635298e-06
-7.062880163318767e-06   2.9374686424082756e-07   7.897387407635298e-06
-7.062880163318767e-06   2.9374686424082756e-07   7.897387407635298e-06
-5.607665016386339e-06   4.0756514963887695e-07   5.403737858175698e-06
-5.607665016386339e-06   4.0756514963887695e-07   5.403737858175698e-06
-5.607665016386339e-06   4.0756514963887695e-07   5.403737858175698e-06
-5.607665016386339e-06   4.0756514963887695e-07   5.403737858175698e-06
-7.0628801633187824e-06   5.220060481977832e-07   3.5173455307725194e-06
-7.0628801633187824e-06   5.220060481977832e-07   3.5173455307725194e-06
-7.0628801633187824e-06   5.220060481977832e-07   3.5173455307725194e-06
-7.0628801633187824e-06   5.220060481977832e-07   3.5173455307725194e-06
-4.434855037201071e-06   2.9374686424082756e-07   7.760431897261126e-06
-4.434855037201071e-06   2.9374686424082756e-07   7.760431897261126e-06
-4.434855037201071e-06   2.9374686424082756e-07   7.760431897261126e-06
-4.434855037201071e-06   2.9374686424082756e-07   7.760431897261126e-06
-4.401254847097473e-06   2.0592364623504616e-07   3.949639479948255e-06
-4.401254847097473e-06   2.0592364623504616e-07   3.949639479948255e-06
-4.401254847097473e-06   2.0592364623504616e-07   3.949639479948255e-06
-4.401254847097473e-06   2.0592364623504616e-07   3.949639479948255e-06
-7.161132750411451e-06   -2.886790137244193e-07   8.846197581447222e-06
-7.161132750411451e-06   -2.886790137244193e-07   8.846197581447222e-06
-7.161132750411451e-06   -2.886790137244193e-07   8.846197581447222e-06
-7.161132750411451e-06   -2.886790137244193e-07   8.846197581447222e-06
-5.5362269564513334e-06   1.8020828053844778e-07   5.85668888162263e-06
-5.5362269564513334e-06   1.8020828053844778e-07   5.85668888162263e-06
-5.5362269564513334e-06   1.8020828053844778e-07   5.85668888162263e-06
-5.5362269564513334e-06   1.8020828053844778e-07   5.85668888162263e-06
-4.358000833514889e-06   2.1936036114541656e-07   6.0982186957135245e-06
-4.358000833514889e-06   2.1936036114541656e-07   6.0982186957135245e-06
-4.358000833514889e-06   2.1936036114541656e-07   6.0982186957135245e-06
-4.358000833514889e-06   2.1936036114541656e-07   6.0982186957135245e-06
-2.712055405238161e-06   -1.4307228310090557e-06   7.851411160882078e-06
-2.712055405238161e-06   -1.4307228310090557e-06   7.851411160882078e-06
-2.712055405238161e-06   -1.4307228310090557e-06   7.851411160882078e-06
-2.712055405238161e-06   -1.4307228310090557e-06   7.851411160882078e-06
-2.726485179197566e-06   1.0039442191632692e-07   5.114908430911379e-06
-2.726485179197566e-06   1.0039442191632692e-07   5.114908430911379e-06
-2.726485179197566e-06   1.0039442191632692e-07   5.114908430911379e-06
-2.726485179197566e-06   1.0039442191632692e-07   5.114908430911379e-06
-4.361412611413235e-06   -1.184135437825581e-06   8.610505400449332e-06
-4.361412611413235e-06   -1.184135437825581e-06   8.610505400449332e-06
-4.361412611413235e-06   -1.184135437825581e-06   8.610505400449332e-06
-4.361412611413235e-06   -1.184135437825581e-06   8.610505400449332e-06
-3.5240540735268786e-06   -7.100726425523856e-07   6.930470160141528e-06
-3.5240540735268786e-06   -7.100726425523856e-07   6.930470160141528e-06
-3.5240540735268786e-06   -7.100726425523856e-07   6.930470160141528e-06
-3.5240540735268786e-06   -7.100726425523856e-07   6.930470160141528e-06
-4.36141261141324e-06   1.0039442191632692e-07   5.8856263467564585e-06
-4.36141261141324e-06   1.0039442191632692e-07   5.8856263467564585e-06
-4.36141261141324e-06   1.0039442191632692e-07   5.8856263467564585e-06
-4.36141261141324e-06   1.0039442191632692e-07   5.8856263467564585e-06
-2.726485179197559e-06   -1.184135437825581e-06   7.839787484604202e-06
-2.726485179197559e-06   -1.184135437825581e-06   7.839787484604202e-06
-2.726485179197559e-06   -1.184135437825581e-06   7.839787484604202e-06
-2.726485179197559e-06   -1.184135437825581e-06   7.839787484604202e-06
-2.7499286763332185e-06   -3.321395751680156e-08   5.260865435864723e-06
-2.7499286763332185e-06   -3.321395751680156e-08   5.260865435864723e-06
-2.7499286763332185e-06   -3.321395751680156e-08   5.260865435864723e-06
-2.7499286763332185e-06   -3.321395751680156e-08   5.260865435864723e-06
-4.434855037201071e-06   -1.2067554513655687e-06   8.773200933620385e-06
-4.434855037201071e-06   -1.2067554513655687e-06   8.773200933620385e-06
-4.434855037201071e-06   -1.2067554513655687e-06   8.773200933620385e-06
-4.434855037201071e-06   -1.2067554513655687e-06   8.773200933620385e-06
-3.5074455444947965e-06   -6.210024695946985e-07   6.876066656714036e-06
-3.5074455444947965e-06   -6.210024695946985e-07   6.876066656714036e-06
-3.5074455444947965e-06   -6.210024695946985e-07   6.876066656714036e-06
-3.5074455444947965e-06   -6.210024695946985e-07   6.876066656714036e-06
-4.43485503720108e-06   -3.321395751680156e-08   5.964990332174013e-06
-4.43485503720108e-06   -3.321395751680156e-08   5.964990332174013e-06
-4.43485503720108e-06   -3.321395751680156e-08   5.964990332174013e-06
-4.43485503720108e-06   -3.321395751680156e-08   5.964990332174013e-06
-2.7499286763332117e-06   -1.2067554513655687e-06   8.069076037311132e-06
-2.7499286763332117e-06   -1.2067554513655687e-06   8.069076037311132e-06
-2.7499286763332117e-06   -1.2067554513655687e-06   8.069076037311132e-06
-2.7499286763332117e-06   -1.2067554513655687e-06   8.069076037311132e-06
-2.7383628627665064e-06   -2.061156135467761e-07   5.445976246790357e-06
-2.7383628627665064e-06   -2.061156135467761e-07   5.445976246790357e-06
-2.7383628627665064e-06   -2.061156135467761e-07   5.445976246790357e-06
-2.7383628627665064e-06   -2.061156135467761e-07   5.445976246790357e-06
-4.4012548470974595e-06   -1.2058723942349222e-06   8.817316955754811e-06
-4.4012548470974595e-06   -1.2058723942349222e-06   8.817316955754811e-06
-4.4012548470974595e-06   -1.2058723942349222e-06   8.817316955754811e-06
-4.4012548470974595e-06   -1.2058723942349222e-06   8.817316955754811e-06
-3.537291244183198e-06   -6.891701505753306e-07   7.067356271368654e-06
-3.537291244183198e-06   -6.891701505753306e-07   7.067356271368654e-06
-3.537291244183198e-06   -6.891701505753306e-07   7.067356271368654e-06
-3.537291244183198e-06   -6.891701505753306e-07   7.067356271368654e-06
-2.712055405238161e-06   6.329867675923095e-08   5.667759976307808e-06
-2.712055405238161e-06   6.329867675923095e-08   5.667759976307808e-06
-2.712055405238161e-06   6.329867675923095e-08   5.667759976307808e-06
-2.712055405238161e-06   6.329867675923095e-08   5.667759976307808e-06
-2.041016115590148e-06   -1.1190603240201938e-06   6.076743391920203e-06
-2.041016115590148e-06   -1.1190603240201938e-06   6.076743391920203e-06
-2.041016115590148e-06   -1.1190603240201938e-06   6.076743391920203e-06
-2.041016115590148e-06   -1.1190603240201938e-06   6.076743391920203e-06
-2.0330098633991996e-06   -3.450470011602991e-08   4.999961287739321e-06
-2.0330098633991996e-06   -3.450470011602991e-08   4.999961287739321e-06
-2.0330098633991996e-06   -3.450470011602991e-08   4.999961287739321e-06
-2.0330098633991996e-06   -3.450470011602991e-08   4.999961287739321e-06
-2.726485179197559e-06   -1.099106418603026e-06   6.794514511828856e-06
-2.726485179197559e-06   -1.099106418603026e-06   6.794514511828856e-06
-2.726485179197559e-06   -1.099106418603026e-06   6.794514511828856e-06
-2.726485179197559e-06   -1.099106418603026e-06   6.794514511828856e-06
-2.365076893879361e-06   -5.628123089279255e-07   5.870390903826855e-06
-2.365076893879361e-06   -5.628123089279255e-07   5.870390903826855e-06
-2.365076893879361e-06   -5.628123089279255e-07   5.870390903826855e-06
-2.365076893879361e-06   -5.628123089279255e-07   5.870390903826855e-06
-2.726485179197559e-06   -3.450470011602991e-08   5.638722318831527e-06
-2.726485179197559e-06   -3.450470011602991e-08   5.638722318831527e-06
-2.726485179197559e-06   -3.450470011602991e-08   5.638722318831527e-06
-2.726485179197559e-06   -3.450470011602991e-08   5.638722318831527e-06
-2.0330098633991996e-06   -1.099106418603026e-06   6.155753480736647e-06
-2.0330098633991996e-06   -1.099106418603026e-06   6.155753480736647e-06
-2.0330098633991996e-06   -1.099106418603026e-06   6.155753480736647e-06
-2.0330098633991996e-06   -1.099106418603026e-06   6.155753480736647e-06
-2.0295897565479767e-06   -1.5141818286051097e-07   5.1151192710106375e-06
-2.0295897565479767e-06   -1.5141818286051097e-07   5.1151192710106375e-06
-2.0295897565479767e-06   -1.5141818286051097e-07   5.1151192710106375e-06
-2.0295897565479767e-06   -1.5141818286051097e-07   5.1151192710106375e-06
-2.7499286763332117e-06   -1.130222259947952e-06   6.90296658357175e-06
-2.7499286763332117e-06   -1.130222259947952e-06   6.90296658357175e-06
-2.7499286763332117e-06   -1.130222259947952e-06   6.90296658357175e-06
-2.7499286763332117e-06   -1.130222259947952e-06   6.90296658357175e-06
-2.354495650450914e-06   -5.946912519554711e-07   5.922592935638971e-06
-2.354495650450914e-06   -5.946912519554711e-07   5.922592935638971e-06
-2.354495650450914e-06   -5.946912519554711e-07   5.922592935638971e-06
-2.354495650450914e-06   -5.946912519554711e-07   5.922592935638971e-06
-2.7499286763332117e-06   -1.5141818286053808e-07   5.702401717263059e-06
-2.7499286763332117e-06   -1.5141818286053808e-07   5.702401717263059e-06
-2.7499286763332117e-06   -1.5141818286053808e-07   5.702401717263059e-06
-2.7499286763332117e-06   -1.5141818286053808e-07   5.702401717263059e-06
-2.0295897565479767e-06   -1.1302222599479385e-06   6.315684137319312e-06
-2.0295897565479767e-06   -1.1302222599479385e-06   6.315684137319312e-06
-2.0295897565479767e-06   -1.1302222599479385e-06   6.315684137319312e-06
-2.0295897565479767e-06   -1.1302222599479385e-06   6.315684137319312e-06
-2.0041562922516184e-06   -2.6713143842327196e-07   5.2950245314612495e-06
-2.0041562922516184e-06   -2.6713143842327196e-07   5.2950245314612495e-06
-2.0041562922516184e-06   -2.6713143842327196e-07   5.2950245314612495e-06
-2.0041562922516184e-06   -2.6713143842327196e-07   5.2950245314612495e-06
-2.7383628627665064e-06   -1.1703060627049015e-06   7.060606923555023e-06
-2.7383628627665064e-06   -1.1703060627049015e-06   7.060606923555023e-06
-2.7383628627665064e-06   -1.1703060627049015e-06   7.060606923555023e-06
-2.7383628627665064e-06   -1.1703060627049015e-06   7.060606923555023e-06
-2.3428997451393643e-06   -6.43596740901878e-07   6.0854761344279935e-06
-2.3428997451393643e-06   -6.43596740901878e-07   6.0854761344279935e-06
-2.3428997451393643e-06   -6.43596740901878e-07   6.0854761344279935e-06
-2.3428997451393643e-06   -6.43596740901878e-07   6.0854761344279935e-06
-2.0410161155901343e-06   2.975394369728881e-07   3.907999540104563e-06
-2.0410161155901343e-06   2.975394369728881e-07   3.907999540104563e-06
-2.0410161155901343e-06   2.975394369728881e-07   3.907999540104563e-06
-2.0410161155901343e-06   2.975394369728881e-07   3.907999540104563e-06
-1.7555095792392373e-06   -4.6380691837300664e-07   3.927035954148504e-06
-1.7555095792392373e-06   -4.6380691837300664e-07   3.927035954148504e-06
-1.7555095792392373e-06   -4.6380691837300664e-07   3.927035954148504e-06
-1.7555095792392373e-06   -4.6380691837300664e-07   3.927035954148504e-06
-1.7295793707895675e-06   1.6776806850774808e-07   3.5302137729882317e-06
-1.7295793707895675e-06   1.6776806850774808e-07   3.5302137729882317e-06
-1.7295793707895675e-06   1.6776806850774808e-07   3.5302137729882317e-06
-1.7295793707895675e-06   1.6776806850774808e-07   3.5302137729882317e-06
-2.0330098633991996e-06   -5.386069407950137e-07   4.4597562662526306e-06
-2.0330098633991996e-06   -5.386069407950137e-07   4.4597562662526306e-06
-2.0330098633991996e-06   -5.386069407950137e-07   4.4597562662526306e-06
-2.0330098633991996e-06   -5.386069407950137e-07   4.4597562662526306e-06
-1.876515244780686e-06   -1.0656354877089684e-07   3.939705866674062e-06
-1.876515244780686e-06   -1.0656354877089684e-07   3.939705866674062e-06
-1.876515244780686e-06   -1.0656354877089684e-07   3.939705866674062e-06
-1.876515244780686e-06   -1.0656354877089684e-07   3.939705866674062e-06
-2.0330098633991996e-06   1.6776806850774808e-07   3.954038778569883e-06
-2.0330098633991996e-06   1.6776806850774808e-07   3.954038778569883e-06
-2.0330098633991996e-06   1.6776806850774808e-07   3.954038778569883e-06
-2.0330098633991996e-06   1.6776806850774808e-07   3.954038778569883e-06
-1.7295793707895675e-06   -5.386069407950137e-07   4.035931260670986e-06
-1.7295793707895675e-06   -5.386069407950137e-07   4.035931260670986e-06
-1.7295793707895675e-06   -5.386069407950137e-07   4.035931260670986e-06
-1.7295793707895675e-06   -5.386069407950137e-07   4.035931260670986e-06
-1.7247334168988263e-06   5.613437397008168e-08   3.6938573995982937e-06
-1.7247334168988263e-06   5.613437397008168e-08   3.6938573995982937e-06
-1.7247334168988263e-06   5.613437397008168e-08   3.6938573995982937e-06
-1.7247334168988263e-06   5.613437397008168e-08   3.6938573995982937e-06
-2.029589756547963e-06   -5.967339569002398e-07   4.593672297535664e-06
-2.029589756547963e-06   -5.967339569002398e-07   4.593672297535664e-06
-2.029589756547963e-06   -5.967339569002398e-07   4.593672297535664e-06
-2.029589756547963e-06   -5.967339569002398e-07   4.593672297535664e-06
-1.8504153318433576e-06   -1.8391189541994168e-07   4.047355019472964e-06
-1.8504153318433576e-06   -1.8391189541994168e-07   4.047355019472964e-06
-1.8504153318433576e-06   -1.8391189541994168e-07   4.047355019472964e-06
-1.8504153318433576e-06   -1.8391189541994168e-07   4.047355019472964e-06
-2.0295897565479767e-06   5.613437397008168e-08   4.085578398120427e-06
-2.0295897565479767e-06   5.613437397008168e-08   4.085578398120427e-06
-2.0295897565479767e-06   5.613437397008168e-08   4.085578398120427e-06
-2.0295897565479767e-06   5.613437397008168e-08   4.085578398120427e-06
-1.7247334168988263e-06   -5.967339569002398e-07   4.20195129901351e-06
-1.7247334168988263e-06   -5.967339569002398e-07   4.20195129901351e-06
-1.7247334168988263e-06   -5.967339569002398e-07   4.20195129901351e-06
-1.7247334168988263e-06   -5.967339569002398e-07   4.20195129901351e-06
-1.7092536641074533e-06   -5.6735661750498614e-08   3.899326504752188e-06
-1.7092536641074533e-06   -5.6735661750498614e-08   3.899326504752188e-06
-1.7092536641074533e-06   -5.6735661750498614e-08   3.899326504752188e-06
-1.7092536641074533e-06   -5.6735661750498614e-08   3.899326504752188e-06
-2.0041562922516184e-06   -6.718835392768375e-07   4.75991961150824e-06
-2.0041562922516184e-06   -6.718835392768375e-07   4.75991961150824e-06
-2.0041562922516184e-06   -6.718835392768375e-07   4.75991961150824e-06
-2.0041562922516184e-06   -6.718835392768375e-07   4.75991961150824e-06
-1.8343994993655512e-06   -2.5279447436968457e-07   4.225538184420593e-06
-1.8343994993655512e-06   -2.5279447436968457e-07   4.225538184420593e-06
-1.8343994993655512e-06   -2.5279447436968457e-07   4.225538184420593e-06
-1.8343994993655512e-06   -2.5279447436968457e-07   4.225538184420593e-06
-1.7555095792392373e-06   5.01937986573369e-07   9.745821559995214e-07
-1.7555095792392373e-06   5.01937986573369e-07   9.745821559995214e-07
-1.7555095792392373e-06   5.01937986573369e-07   9.745821559995214e-07
-1.7555095792392373e-06   5.01937986573369e-07   9.745821559995214e-07
-1.098575806840734e-06   -4.442126731446364e-08   1.7416562243310283e-06
-1.098575806840734e-06   -4.442126731446364e-08   1.7416562243310283e-06
-1.098575806840734e-06   -4.442126731446364e-08   1.7416562243310283e-06
-1.098575806840734e-06   -4.442126731446364e-08   1.7416562243310283e-06
-1.170220167752672e-06   4.0863776795211086e-07   9.87115727573882e-07
-1.170220167752672e-06   4.0863776795211086e-07   9.87115727573882e-07
-1.170220167752672e-06   4.0863776795211086e-07   9.87115727573882e-07
-1.170220167752672e-06   4.0863776795211086e-07   9.87115727573882e-07
-1.7295793707895675e-06   -6.506595117127542e-08   2.203603297442784e-06
-1.7295793707895675e-06   -6.506595117127542e-08   2.203603297442784e-06
-1.7295793707895675e-06   -6.506595117127542e-08   2.203603297442784e-06
-1.7295793707895675e-06   -6.506595117127542e-08   2.203603297442784e-06
-1.388762247999638e-06   2.5989189386281314e-07   1.440600052439228e-06
-1.388762247999638e-06   2.5989189386281314e-07   1.440600052439228e-06
-1.388762247999638e-06   2.5989189386281314e-07   1.440600052439228e-06
-1.388762247999638e-06   2.5989189386281314e-07   1.440600052439228e-06
-1.7295793707895675e-06   4.0863776795211086e-07   1.271337959047827e-06
-1.7295793707895675e-06   4.0863776795211086e-07   1.271337959047827e-06
-1.7295793707895675e-06   4.0863776795211086e-07   1.271337959047827e-06
-1.7295793707895675e-06   4.0863776795211086e-07   1.271337959047827e-06
-1.1702201677526991e-06   -6.506595117127542e-08   1.919381065968744e-06
-1.1702201677526991e-06   -6.506595117127542e-08   1.919381065968744e-06
-1.1702201677526991e-06   -6.506595117127542e-08   1.919381065968744e-06
-1.1702201677526991e-06   -6.506595117127542e-08   1.919381065968744e-06
-1.230546216329857e-06   3.4799875356326666e-07   1.2579852903388516e-06
-1.230546216329857e-06   3.4799875356326666e-07   1.2579852903388516e-06
-1.230546216329857e-06   3.4799875356326666e-07   1.2579852903388516e-06
-1.230546216329857e-06   3.4799875356326666e-07   1.2579852903388516e-06
-1.7247334168988263e-06   -9.197316192423712e-08   2.3456137739128846e-06
-1.7247334168988263e-06   -9.197316192423712e-08   2.3456137739128846e-06
-1.7247334168988263e-06   -9.197316192423712e-08   2.3456137739128846e-06
-1.7247334168988263e-06   -9.197316192423712e-08   2.3456137739128846e-06
-1.4255104290619941e-06   2.1565669100650185e-07   1.6623308824263152e-06
-1.4255104290619941e-06   2.1565669100650185e-07   1.6623308824263152e-06
-1.4255104290619941e-06   2.1565669100650185e-07   1.6623308824263152e-06
-1.4255104290619941e-06   2.1565669100650185e-07   1.6623308824263152e-06
-1.7247334168988263e-06   3.4799875356326666e-07   1.521968439631278e-06
-1.7247334168988263e-06   3.4799875356326666e-07   1.521968439631278e-06
-1.7247334168988263e-06   3.4799875356326666e-07   1.521968439631278e-06
-1.7247334168988263e-06   3.4799875356326666e-07   1.521968439631278e-06
-1.230546216329857e-06   -9.197316192423712e-08   2.081630624620377e-06
-1.230546216329857e-06   -9.197316192423712e-08   2.081630624620377e-06
-1.230546216329857e-06   -9.197316192423712e-08   2.081630624620377e-06
-1.230546216329857e-06   -9.197316192423712e-08   2.081630624620377e-06
-1.3588076641788869e-06   2.2177336152009726e-07   1.7433791962352435e-06
-1.3588076641788869e-06   2.2177336152009726e-07   1.7433791962352435e-06
-1.3588076641788869e-06   2.2177336152009726e-07   1.7433791962352435e-06
-1.3588076641788869e-06   2.2177336152009726e-07   1.7433791962352435e-06
-1.7092536641074533e-06   -1.2815401149153072e-07   2.5374122865898436e-06
-1.7092536641074533e-06   -1.2815401149153072e-07   2.5374122865898436e-06
-1.7092536641074533e-06   -1.2815401149153072e-07   2.5374122865898436e-06
-1.7092536641074533e-06   -1.2815401149153072e-07   2.5374122865898436e-06
-1.4389789069996315e-06   1.838627059915865e-07   1.8997443275869008e-06
-1.4389789069996315e-06   1.838627059915865e-07   1.8997443275869008e-06
-1.4389789069996315e-06   1.838627059915865e-07   1.8997443275869008e-06
-1.4389789069996315e-06   1.838627059915865e-07   1.8997443275869008e-06
-1.5287167692558866e-05   1.1552625693664483e-06   7.066401870527507e-06
-1.5287167692558866e-05   1.1552625693664483e-06   7.066401870527507e-06
-1.5287167692558866e-05   1.1552625693664483e-06   7.066401870527507e-06
-1.5287167692558866e-05   1.1552625693664483e-06   7.066401870527507e-06
-3.5344758038571027e-06   -8.102002599844398e-06   2.109986258350395e-05
-3.5344758038571027e-06   -8.102002599844398e-06   2.109986258350395e-05
-3.5344758038571027e-06   -8.102002599844398e-06   2.109986258350395e-05
-3.5344758038571027e-06   -8.102002599844398e-06   2.109986258350395e-05
-4.189193386282787e-06   4.2876816082005806e-07   3.827143135231988e-06
-4.189193386282787e-06   4.2876816082005806e-07   3.827143135231988e-06
-4.189193386282787e-06   4.2876816082005806e-07   3.827143135231988e-06
-4.189193386282787e-06   4.2876816082005806e-07   3.827143135231988e-06
-1.3942755335518075e-05   -6.39271595426021e-06   2.4175970186338932e-05
-1.3942755335518075e-05   -6.39271595426021e-06   2.4175970186338932e-05
-1.3942755335518075e-05   -6.39271595426021e-06   2.4175970186338932e-05
-1.3942755335518075e-05   -6.39271595426021e-06   2.4175970186338932e-05
-9.280618207890298e-06   -3.178373390793344e-06   1.447713610221252e-05
-9.280618207890298e-06   -3.178373390793344e-06   1.447713610221252e-05
-9.280618207890298e-06   -3.178373390793344e-06   1.447713610221252e-05
-9.280618207890298e-06   -3.178373390793344e-06   1.447713610221252e-05
-1.3942755335518051e-05   4.2876816082005806e-07   7.920033604280144e-06
-1.3942755335518051e-05   4.2876816082005806e-07   7.920033604280144e-06
-1.3942755335518051e-05   4.2876816082005806e-07   7.920033604280144e-06
-1.3942755335518051e-05   4.2876816082005806e-07   7.920033604280144e-06
-4.18919338628279e-06   -6.39271595426021e-06   2.008307971729077e-05
-4.18919338628279e-06   -6.39271595426021e-06   2.008307971729077e-05
-4.18919338628279e-06   -6.39271595426021e-06   2.008307971729077e-05
-4.18919338628279e-06   -6.39271595426021e-06   2.008307971729077e-05
-4.304223807377783e-06   2.9374686424082756e-07   4.209234367613265e-06
-4.304223807377783e-06   2.9374686424082756e-07   4.209234367613265e-06
-4.304223807377783e-06   2.9374686424082756e-07   4.209234367613265e-06
-4.304223807377783e-06   2.9374686424082756e-07   4.209234367613265e-06
-1.3159851789770859e-05   -5.581818500663238e-06   2.2493953557210802e-05
-1.3159851789770859e-05   -5.581818500663238e-06   2.2493953557210802e-05
-1.3159851789770859e-05   -5.581818500663238e-06   2.2493953557210802e-05
-1.3159851789770859e-05   -5.581818500663238e-06   2.2493953557210802e-05
-9.019008200468245e-06   -3.021301215191038e-06   1.4056237203756473e-05
-9.019008200468245e-06   -3.021301215191038e-06   1.4056237203756473e-05
-9.019008200468245e-06   -3.021301215191038e-06   1.4056237203756473e-05
-9.019008200468245e-06   -3.021301215191038e-06   1.4056237203756473e-05
-1.3159851789770835e-05   2.9374686424082756e-07   7.734573586555698e-06
-1.3159851789770835e-05   2.9374686424082756e-07   7.734573586555698e-06
-1.3159851789770835e-05   2.9374686424082756e-07   7.734573586555698e-06
-1.3159851789770835e-05   2.9374686424082756e-07   7.734573586555698e-06
-4.30422380737779e-06   -5.581818500663238e-06   1.8968614338268362e-05
-4.30422380737779e-06   -5.581818500663238e-06   1.8968614338268362e-05
-4.30422380737779e-06   -5.581818500663238e-06   1.8968614338268362e-05
-4.30422380737779e-06   -5.581818500663238e-06   1.8968614338268362e-05
-4.7562317435911205e-06   -2.886790137244193e-07   5.251964431850703e-06
-4.7562317435911205e-06   -2.886790137244193e-07   5.251964431850703e-06
-4.7562317435911205e-06   -2.886790137244193e-07   5.251964431850703e-06
-4.7562317435911205e-06   -2.886790137244193e-07   5.251964431850703e-06
-1.214950007697024e-05   -4.496787058240754e-06   2.0098943147525664e-05
-1.214950007697024e-05   -4.496787058240754e-06   2.0098943147525664e-05
-1.214950007697024e-05   -4.496787058240754e-06   2.0098943147525664e-05
-1.214950007697024e-05   -4.496787058240754e-06   2.0098943147525664e-05
-8.69627482932604e-06   -2.7934374185374655e-06   1.3321557950963363e-05
-8.69627482932604e-06   -2.7934374185374655e-06   1.3321557950963363e-05
-8.69627482932604e-06   -2.7934374185374655e-06   1.3321557950963363e-05
-8.69627482932604e-06   -2.7934374185374655e-06   1.3321557950963363e-05
-3.5344758038570976e-06   -1.4307228310090557e-06   4.111942485383122e-06
-3.5344758038570976e-06   -1.4307228310090557e-06   4.111942485383122e-06
-3.5344758038570976e-06   -1.4307228310090557e-06   4.111942485383122e-06
-3.5344758038570976e-06   -1.4307228310090557e-06   4.111942485383122e-06
-1.213834630131355e-06   -2.6861574659789524e-06   7.2264169939441e-06
-1.213834630131355e-06   -2.6861574659789524e-06   7.2264169939441e-06
-1.213834630131355e-06   -2.6861574659789524e-06   7.2264169939441e-06
-1.213834630131355e-06   -2.6861574659789524e-06   7.2264169939441e-06
-1.379859339813421e-06   -1.184135437825581e-06   3.5615199004720814e-06
-1.379859339813421e-06   -1.184135437825581e-06   3.5615199004720814e-06
-1.379859339813421e-06   -1.184135437825581e-06   3.5615199004720814e-06
-1.379859339813421e-06   -1.184135437825581e-06   3.5615199004720814e-06
-4.18919338628279e-06   -3.488438152330679e-06   9.626324939957393e-06
-4.18919338628279e-06   -3.488438152330679e-06   9.626324939957393e-06
-4.18919338628279e-06   -3.488438152330679e-06   9.626324939957393e-06
-4.18919338628279e-06   -3.488438152330679e-06   9.626324939957393e-06
-2.444487637036437e-06   -1.8013366629510556e-06   5.706221130919005e-06
-2.444487637036437e-06   -1.8013366629510556e-06   5.706221130919005e-06
-2.444487637036437e-06   -1.8013366629510556e-06   5.706221130919005e-06
-2.444487637036437e-06   -1.8013366629510556e-06   5.706221130919005e-06
-4.189193386282782e-06   -1.184135437825581e-06   4.944101529175094e-06
-4.189193386282782e-06   -1.184135437825581e-06   4.944101529175094e-06
-4.189193386282782e-06   -1.184135437825581e-06   4.944101529175094e-06
-4.189193386282782e-06   -1.184135437825581e-06   4.944101529175094e-06
-1.379859339813421e-06   -3.488438152330679e-06   8.243743311254343e-06
-1.379859339813421e-06   -3.488438152330679e-06   8.243743311254343e-06
-1.379859339813421e-06   -3.488438152330679e-06   8.243743311254343e-06
-1.379859339813421e-06   -3.488438152330679e-06   8.243743311254343e-06
-1.5239350479901727e-06   -1.2067554513655823e-06   4.0075367519059875e-06
-1.5239350479901727e-06   -1.2067554513655823e-06   4.0075367519059875e-06
-1.5239350479901727e-06   -1.2067554513655823e-06   4.0075367519059875e-06
-1.5239350479901727e-06   -1.2067554513655823e-06   4.0075367519059875e-06
-4.30422380737779e-06   -3.230866538143165e-06   9.855818002951866e-06
-4.30422380737779e-06   -3.230866538143165e-06   9.855818002951866e-06
-4.30422380737779e-06   -3.230866538143165e-06   9.855818002951866e-06
-4.30422380737779e-06   -3.230866538143165e-06   9.855818002951866e-06
-2.7833396534319536e-06   -2.1793176581657296e-06   6.690081751722388e-06
-2.7833396534319536e-06   -2.1793176581657296e-06   6.690081751722388e-06
-2.7833396534319536e-06   -2.1793176581657296e-06   6.690081751722388e-06
-2.7833396534319536e-06   -2.1793176581657296e-06   6.690081751722388e-06
-4.304223807377783e-06   -1.2067554513655823e-06   5.222003403972537e-06
-4.304223807377783e-06   -1.2067554513655823e-06   5.222003403972537e-06
-4.304223807377783e-06   -1.2067554513655823e-06   5.222003403972537e-06
-4.304223807377783e-06   -1.2067554513655823e-06   5.222003403972537e-06
-1.5239350479901727e-06   -3.230866538143165e-06   8.641351350885314e-06
-1.5239350479901727e-06   -3.230866538143165e-06   8.641351350885314e-06
-1.5239350479901727e-06   -3.230866538143165e-06   8.641351350885314e-06
-1.5239350479901727e-06   -3.230866538143165e-06   8.641351350885314e-06
-1.762293819452683e-06   -1.2058723942349222e-06   4.40489924714709e-06
-1.762293819452683e-06   -1.2058723942349222e-06   4.40489924714709e-06
-1.762293819452683e-06   -1.2058723942349222e-06   4.40489924714709e-06
-1.762293819452683e-06   -1.2058723942349222e-06   4.40489924714709e-06
-4.756231743591124e-06   -3.0641159858797825e-06   1.0509741942364707e-05
-4.756231743591124e-06   -3.0641159858797825e-06   1.0509741942364707e-05
-4.756231743591124e-06   -3.0641159858797825e-06   1.0509741942364707e-05
-4.756231743591124e-06   -3.0641159858797825e-06   1.0509741942364707e-05
-2.994958295883087e-06   -1.993624379966308e-06   6.931991232636565e-06
-2.994958295883087e-06   -1.993624379966308e-06   6.931991232636565e-06
-2.994958295883087e-06   -1.993624379966308e-06   6.931991232636565e-06
-2.994958295883087e-06   -1.993624379966308e-06   6.931991232636565e-06
-1.213834630131355e-06   -1.1190603240201802e-06   2.2934293359069344e-06
-1.213834630131355e-06   -1.1190603240201802e-06   2.2934293359069344e-06
-1.213834630131355e-06   -1.1190603240201802e-06   2.2934293359069344e-06
-1.213834630131355e-06   -1.1190603240201802e-06   2.2934293359069344e-06
-6.879752008909896e-07   -8.491736153766984e-07   3.3317937431602958e-06
-6.879752008909896e-07   -8.491736153766984e-07   3.3317937431602958e-06
-6.879752008909896e-07   -8.491736153766984e-07   3.3317937431602958e-06
-6.879752008909896e-07   -8.491736153766984e-07   3.3317937431602958e-06
-6.736907637115963e-07   -1.0991064186030396e-06   2.528241202880518e-06
-6.736907637115963e-07   -1.0991064186030396e-06   2.528241202880518e-06
-6.736907637115963e-07   -1.0991064186030396e-06   2.528241202880518e-06
-6.736907637115963e-07   -1.0991064186030396e-06   2.528241202880518e-06
-1.379859339813421e-06   -1.0791159599634478e-06   3.6931945545330946e-06
-1.379859339813421e-06   -1.0791159599634478e-06   3.6931945545330946e-06
-1.379859339813421e-06   -1.0791159599634478e-06   3.6931945545330946e-06
-1.379859339813421e-06   -1.0791159599634478e-06   3.6931945545330946e-06
-9.250889434069867e-07   -9.65278353040597e-07   2.866941329701954e-06
-9.250889434069867e-07   -9.65278353040597e-07   2.866941329701954e-06
-9.250889434069867e-07   -9.65278353040597e-07   2.866941329701954e-06
-9.250889434069867e-07   -9.65278353040597e-07   2.866941329701954e-06
-1.379859339813421e-06   -1.099106418603026e-06   2.516246927696756e-06
-1.379859339813421e-06   -1.099106418603026e-06   2.516246927696756e-06
-1.379859339813421e-06   -1.099106418603026e-06   2.516246927696756e-06
-1.379859339813421e-06   -1.099106418603026e-06   2.516246927696756e-06
-6.736907637115963e-07   -1.0791159599634478e-06   3.705188829716843e-06
-6.736907637115963e-07   -1.0791159599634478e-06   3.705188829716843e-06
-6.736907637115963e-07   -1.0791159599634478e-06   3.705188829716843e-06
-6.736907637115963e-07   -1.0791159599634478e-06   3.705188829716843e-06
-6.876296156108975e-07   -1.1302222599479385e-06   2.711534880226829e-06
-6.876296156108975e-07   -1.1302222599479385e-06   2.711534880226829e-06
-6.876296156108975e-07   -1.1302222599479385e-06   2.711534880226829e-06
-6.876296156108975e-07   -1.1302222599479385e-06   2.711534880226829e-06
-1.5239350479901727e-06   -1.3467096231809178e-06   4.235269685465382e-06
-1.5239350479901727e-06   -1.3467096231809178e-06   4.235269685465382e-06
-1.5239350479901727e-06   -1.3467096231809178e-06   4.235269685465382e-06
-1.5239350479901727e-06   -1.3467096231809178e-06   4.235269685465382e-06
-9.967708582968574e-07   -1.0546288772095785e-06   3.1814142550603853e-06
-9.967708582968574e-07   -1.0546288772095785e-06   3.1814142550603853e-06
-9.967708582968574e-07   -1.0546288772095785e-06   3.1814142550603853e-06
-9.967708582968574e-07   -1.0546288772095785e-06   3.1814142550603853e-06
-1.5239350479901727e-06   -1.1302222599479385e-06   2.8414272981666124e-06
-1.5239350479901727e-06   -1.1302222599479385e-06   2.8414272981666124e-06
-1.5239350479901727e-06   -1.1302222599479385e-06   2.8414272981666124e-06
-1.5239350479901727e-06   -1.1302222599479385e-06   2.8414272981666124e-06
-6.876296156108975e-07   -1.3467096231809178e-06   4.105377267525599e-06
-6.876296156108975e-07   -1.3467096231809178e-06   4.105377267525599e-06
-6.876296156108975e-07   -1.3467096231809178e-06   4.105377267525599e-06
-6.876296156108975e-07   -1.3467096231809178e-06   4.105377267525599e-06
-7.21197144789055e-07   -1.1703060627049015e-06   2.9907716282963576e-06
-7.21197144789055e-07   -1.1703060627049015e-06   2.9907716282963576e-06
-7.21197144789055e-07   -1.1703060627049015e-06   2.9907716282963576e-06
-7.21197144789055e-07   -1.1703060627049015e-06   2.9907716282963576e-06
-1.7622938194526897e-06   -1.5990921544779034e-06   4.983204407799487e-06
-1.7622938194526897e-06   -1.5990921544779034e-06   4.983204407799487e-06
-1.7622938194526897e-06   -1.5990921544779034e-06   4.983204407799487e-06
-1.7622938194526897e-06   -1.5990921544779034e-06   4.983204407799487e-06
-1.0814895318717332e-06   -1.1399121209901983e-06   3.5730225750719535e-06
-1.0814895318717332e-06   -1.1399121209901983e-06   3.5730225750719535e-06
-1.0814895318717332e-06   -1.1399121209901983e-06   3.5730225750719535e-06
-1.0814895318717332e-06   -1.1399121209901983e-06   3.5730225750719535e-06
-6.879752008909896e-07   -4.6380691837300664e-07   7.624617365288984e-07
-6.879752008909896e-07   -4.6380691837300664e-07   7.624617365288984e-07
-6.879752008909896e-07   -4.6380691837300664e-07   7.624617365288984e-07
-6.879752008909896e-07   -4.6380691837300664e-07   7.624617365288984e-07
-5.352094061629497e-07   3.3409048863977173e-08   1.3154009747511883e-06
-5.352094061629497e-07   3.3409048863977173e-08   1.3154009747511883e-06
-5.352094061629497e-07   3.3409048863977173e-08   1.3154009747511883e-06
-5.352094061629497e-07   3.3409048863977173e-08   1.3154009747511883e-06
-4.437462037322639e-07   -5.386069407950137e-07   1.1207304875450084e-06
-4.437462037322639e-07   -5.386069407950137e-07   1.1207304875450084e-06
-4.437462037322639e-07   -5.386069407950137e-07   1.1207304875450084e-06
-4.437462037322639e-07   -5.386069407950137e-07   1.1207304875450084e-06
-6.736907637115963e-07   -5.779610888081555e-08   1.2154849216953491e-06
-6.736907637115963e-07   -5.779610888081555e-08   1.2154849216953491e-06
-6.736907637115963e-07   -5.779610888081555e-08   1.2154849216953491e-06
-6.736907637115963e-07   -5.779610888081555e-08   1.2154849216953491e-06
-5.481162257731011e-07   -2.519398496776519e-07   1.122680269609246e-06
-5.481162257731011e-07   -2.519398496776519e-07   1.122680269609246e-06
-5.481162257731011e-07   -2.519398496776519e-07   1.122680269609246e-06
-5.481162257731011e-07   -2.519398496776519e-07   1.122680269609246e-06
-6.736907637115963e-07   -5.386069407950137e-07   8.322439883965183e-07
-6.736907637115963e-07   -5.386069407950137e-07   8.322439883965183e-07
-6.736907637115963e-07   -5.386069407950137e-07   8.322439883965183e-07
-6.736907637115963e-07   -5.386069407950137e-07   8.322439883965183e-07
-4.437462037322639e-07   -5.779610888081555e-08   1.503971420843873e-06
-4.437462037322639e-07   -5.779610888081555e-08   1.503971420843873e-06
-4.437462037322639e-07   -5.779610888081555e-08   1.503971420843873e-06
-4.437462037322639e-07   -5.779610888081555e-08   1.503971420843873e-06
-3.9814681223912887e-07   -5.967339569002534e-07   1.2323140013565368e-06
-3.9814681223912887e-07   -5.967339569002534e-07   1.2323140013565368e-06
-3.9814681223912887e-07   -5.967339569002534e-07   1.2323140013565368e-06
-3.9814681223912887e-07   -5.967339569002534e-07   1.2323140013565368e-06
-6.876296156108975e-07   -1.9208235537805863e-07   1.471994379396112e-06
-6.876296156108975e-07   -1.9208235537805863e-07   1.471994379396112e-06
-6.876296156108975e-07   -1.9208235537805863e-07   1.471994379396112e-06
-6.876296156108975e-07   -1.9208235537805863e-07   1.471994379396112e-06
-5.067495561499481e-07   -3.153044153404147e-07   1.2444608496053205e-06
-5.067495561499481e-07   -3.153044153404147e-07   1.2444608496053205e-06
-5.067495561499481e-07   -3.153044153404147e-07   1.2444608496053205e-06
-5.067495561499481e-07   -3.153044153404147e-07   1.2444608496053205e-06
-6.876296156108975e-07   -5.967339569002534e-07   9.895230404431576e-07
-6.876296156108975e-07   -5.967339569002534e-07   9.895230404431576e-07
-6.876296156108975e-07   -5.967339569002534e-07   9.895230404431576e-07
-6.876296156108975e-07   -5.967339569002534e-07   9.895230404431576e-07
-3.9814681223912887e-07   -1.9208235537805863e-07   1.7147853403094167e-06
-3.9814681223912887e-07   -1.9208235537805863e-07   1.7147853403094167e-06
-3.9814681223912887e-07   -1.9208235537805863e-07   1.7147853403094167e-06
-3.9814681223912887e-07   -1.9208235537805863e-07   1.7147853403094167e-06
-3.288647760328747e-07   -6.71883539276851e-07   1.362121698002158e-06
-3.288647760328747e-07   -6.71883539276851e-07   1.362121698002158e-06
-3.288647760328747e-07   -6.71883539276851e-07   1.362121698002158e-06
-3.288647760328747e-07   -6.71883539276851e-07   1.362121698002158e-06
-7.21197144789055e-07   -4.549958606375241e-07   1.8858763720788286e-06
-7.21197144789055e-07   -4.549958606375241e-07   1.8858763720788286e-06
-7.21197144789055e-07   -4.549958606375241e-07   1.8858763720788286e-06
-7.21197144789055e-07   -4.549958606375241e-07   1.8858763720788286e-06
-4.782018406122081e-07   -4.0726918681616636e-07   1.452248194158028e-06
-4.782018406122081e-07   -4.0726918681616636e-07   1.452248194158028e-06
-4.782018406122081e-07   -4.0726918681616636e-07   1.452248194158028e-06
-4.782018406122081e-07   -4.0726918681616636e-07   1.452248194158028e-06
-5.352094061629497e-07   -4.442126731446364e-08   -7.967728606136999e-07
-5.352094061629497e-07   -4.442126731446364e-08   -7.967728606136999e-07
-5.352094061629497e-07   -4.442126731446364e-08   -7.967728606136999e-07
-5.352094061629497e-07   -4.442126731446364e-08   -7.967728606136999e-07
-1.2526077273697107e-07   6.629836674481122e-08   -4.709335780153233e-08
-1.2526077273697107e-07   6.629836674481122e-08   -4.709335780153233e-08
-1.2526077273697107e-07   6.629836674481122e-08   -4.709335780153233e-08
-1.2526077273697107e-07   6.629836674481122e-08   -4.709335780153233e-08
-3.6392920701696415e-08   -6.506595117127542e-08   -6.061896575315694e-07
-3.6392920701696415e-08   -6.506595117127542e-08   -6.061896575315694e-07
-3.6392920701696415e-08   -6.506595117127542e-08   -6.061896575315694e-07
-3.6392920701696415e-08   -6.506595117127542e-08   -6.061896575315694e-07
-4.437462037322639e-07   1.10613745748133e-07   -3.267533729903855e-08
-4.437462037322639e-07   1.10613745748133e-07   -3.267533729903855e-08
-4.437462037322639e-07   1.10613745748133e-07   -3.267533729903855e-08
-4.437462037322639e-07   1.10613745748133e-07   -3.267533729903855e-08
-2.6048582261683725e-07   3.3755335504705294e-08   -2.9199425967873973e-07
-2.6048582261683725e-07   3.3755335504705294e-08   -2.9199425967873973e-07
-2.6048582261683725e-07   3.3755335504705294e-08   -2.9199425967873973e-07
-2.6048582261683725e-07   3.3755335504705294e-08   -2.9199425967873973e-07
-4.437462037322639e-07   -6.506595117127542e-08   -7.115974756832612e-07
-4.437462037322639e-07   -6.506595117127542e-08   -7.115974756832612e-07
-4.437462037322639e-07   -6.506595117127542e-08   -7.115974756832612e-07
-4.437462037322639e-07   -6.506595117127542e-08   -7.115974756832612e-07
-3.6392920701696415e-08   1.10613745748133e-07   7.273248085263293e-08
-3.6392920701696415e-08   1.10613745748133e-07   7.273248085263293e-08
-3.6392920701696415e-08   1.10613745748133e-07   7.273248085263293e-08
-3.6392920701696415e-08   1.10613745748133e-07   7.273248085263293e-08
5.352433925736406e-09   -9.197316192423712e-08   -5.188058183812848e-07
5.352433925736406e-09   -9.197316192423712e-08   -5.188058183812848e-07
5.352433925736406e-09   -9.197316192423712e-08   -5.188058183812848e-07
5.352433925736406e-09   -9.197316192423712e-08   -5.188058183812848e-07
-3.9814681223912887e-07   8.338968034714942e-08   4.847521986397238e-08
-3.9814681223912887e-07   8.338968034714942e-08   4.847521986397238e-08
-3.9814681223912887e-07   8.338968034714942e-08   4.847521986397238e-08
-3.9814681223912887e-07   8.338968034714942e-08   4.847521986397238e-08
-1.9723052163950867e-07   2.1122482138044053e-08   -2.4902494554318003e-07
-1.9723052163950867e-07   2.1122482138044053e-08   -2.4902494554318003e-07
-1.9723052163950867e-07   2.1122482138044053e-08   -2.4902494554318003e-07
-1.9723052163950867e-07   2.1122482138044053e-08   -2.4902494554318003e-07
-3.9814681223912887e-07   -9.197316192423712e-08   -6.240235237440754e-07
-3.9814681223912887e-07   -9.197316192423712e-08   -6.240235237440754e-07
-3.9814681223912887e-07   -9.197316192423712e-08   -6.240235237440754e-07
-3.9814681223912887e-07   -9.197316192423712e-08   -6.240235237440754e-07
5.352433925736406e-09   8.338968034714942e-08   1.5369292522676974e-07
5.352433925736406e-09   8.338968034714942e-08   1.5369292522676974e-07
5.352433925736406e-09   8.338968034714942e-08   1.5369292522676974e-07
5.352433925736406e-09   8.338968034714942e-08   1.5369292522676974e-07
5.413126128033809e-08   -1.2815401149153072e-07   -3.8449180779633963e-07
5.413126128033809e-08   -1.2815401149153072e-07   -3.8449180779633963e-07
5.413126128033809e-08   -1.2815401149153072e-07   -3.8449180779633963e-07
5.413126128033809e-08   -1.2815401149153072e-07   -3.8449180779633963e-07
-3.288647760328747e-07   4.985447618199919e-08   1.4702982845490225e-07
-3.288647760328747e-07   4.985447618199919e-08   1.4702982845490225e-07
-3.288647760328747e-07   4.985447618199919e-08   1.4702982845490225e-07
-3.288647760328747e-07   4.985447618199919e-08   1.4702982845490225e-07
-1.4108674226037178e-07   3.6544176401610232e-09   -1.3821352604087437e-07
-1.4108674226037178e-07   3.6544176401610232e-09   -1.3821352604087437e-07
-1.4108674226037178e-07   3.6544176401610232e-09   -1.3821352604087437e-07
-1.4108674226037178e-07   3.6544176401610232e-09   -1.3821352604087437e-07
              </DataArray>   
             <DataArray type="Float64" NumberOfComponents="3" Name="Stress" format="ascii">   
-0.8027376327461795   -0.20068440818654487   -0.20068440818654487
-0.8027376327461795   -0.20068440818654487   -0.20068440818654487
-0.8027376327461795   -0.20068440818654487   -0.20068440818654487
-0.8027376327461795   -0.20068440818654487   -0.20068440818654487
-0.46418926130061816   -0.01543953908281856   -0.009594233512561053
-0.46418926130061816   -0.01543953908281856   -0.009594233512561053
-0.46418926130061816   -0.01543953908281856   -0.009594233512561053
-0.46418926130061816   -0.01543953908281856   -0.009594233512561053
-0.4997026411633028   -0.1249256602908257   -0.1249256602908257
-0.4997026411633028   -0.1249256602908257   -0.1249256602908257
-0.4997026411633028   -0.1249256602908257   -0.1249256602908257
-0.4997026411633028   -0.1249256602908257   -0.1249256602908257
-0.7733924641822427   -0.06408951856250308   -0.024691094031181894
-0.7733924641822427   -0.06408951856250308   -0.024691094031181894
-0.7733924641822427   -0.06408951856250308   -0.024691094031181894
-0.7733924641822427   -0.06408951856250308   -0.024691094031181894
-0.6063923473966881   -0.09975667534750321   -0.0017144453396072288
-0.6063923473966881   -0.09975667534750321   -0.0017144453396072288
-0.6063923473966881   -0.09975667534750321   -0.0017144453396072288
-0.6063923473966881   -0.09975667534750321   -0.0017144453396072288
-0.8395959351816744   -0.2098989837954186   -0.2098989837954186
-0.8395959351816744   -0.2098989837954186   -0.2098989837954186
-0.8395959351816744   -0.2098989837954186   -0.2098989837954186
-0.8395959351816744   -0.2098989837954186   -0.2098989837954186
-0.44925878218931076   0.0051241929166513656   -0.002756218628342518
-0.44925878218931076   0.0051241929166513656   -0.002756218628342518
-0.44925878218931076   0.0051241929166513656   -0.002756218628342518
-0.44925878218931076   0.0051241929166513656   -0.002756218628342518
-0.5006685636250217   -0.12516714090625541   -0.12516714090625541
-0.5006685636250217   -0.12516714090625541   -0.12516714090625541
-0.5006685636250217   -0.12516714090625541   -0.12516714090625541
-0.5006685636250217   -0.12516714090625541   -0.12516714090625541
-0.7988868142635122   -0.06456500849605792   -0.03611969619324653
-0.7988868142635122   -0.06456500849605792   -0.03611969619324653
-0.7988868142635122   -0.06456500849605792   -0.03611969619324653
-0.7988868142635122   -0.06456500849605792   -0.03611969619324653
-0.6285337517150343   -0.09376245290045475   -0.033311183359655855
-0.6285337517150343   -0.09376245290045475   -0.033311183359655855
-0.6285337517150343   -0.09376245290045475   -0.033311183359655855
-0.6285337517150343   -0.09376245290045475   -0.033311183359655855
-0.8652776370285028   -0.2163194092571257   -0.2163194092571257
-0.8652776370285028   -0.2163194092571257   -0.2163194092571257
-0.8652776370285028   -0.2163194092571257   -0.2163194092571257
-0.8652776370285028   -0.2163194092571257   -0.2163194092571257
-0.4475395728799765   0.013325427834868064   0.001985244077846799
-0.4475395728799765   0.013325427834868064   0.001985244077846799
-0.4475395728799765   0.013325427834868064   0.001985244077846799
-0.4475395728799765   0.013325427834868064   0.001985244077846799
-0.49990564735724907   -0.12497641183931227   -0.12497641183931227
-0.49990564735724907   -0.12497641183931227   -0.12497641183931227
-0.49990564735724907   -0.12497641183931227   -0.12497641183931227
-0.49990564735724907   -0.12497641183931227   -0.12497641183931227
-0.8445818922511712   -0.05631019229918749   -0.021905535184473628
-0.8445818922511712   -0.05631019229918749   -0.021905535184473628
-0.8445818922511712   -0.05631019229918749   -0.021905535184473628
-0.8445818922511712   -0.05631019229918749   -0.021905535184473628
-0.6447890100186829   -0.09216801512440342   -0.06011464510107493
-0.6447890100186829   -0.09216801512440342   -0.06011464510107493
-0.6447890100186829   -0.09216801512440342   -0.06011464510107493
-0.6447890100186829   -0.09216801512440342   -0.06011464510107493
-0.5102027853128257   -0.12755069632820643   -0.12755069632820643
-0.5102027853128257   -0.12755069632820643   -0.12755069632820643
-0.5102027853128257   -0.12755069632820643   -0.12755069632820643
-0.5102027853128257   -0.12755069632820643   -0.12755069632820643
-0.2134583659517887   -0.014685457238719377   -0.0047283479946718075
-0.2134583659517887   -0.014685457238719377   -0.0047283479946718075
-0.2134583659517887   -0.014685457238719377   -0.0047283479946718075
-0.2134583659517887   -0.014685457238719377   -0.0047283479946718075
-0.22353108486145654   -0.055882771215364134   -0.055882771215364134
-0.22353108486145654   -0.055882771215364134   -0.055882771215364134
-0.22353108486145654   -0.055882771215364134   -0.055882771215364134
-0.22353108486145654   -0.055882771215364134   -0.055882771215364134
-0.4642063728950757   -0.05488352602135587   -0.017486453219159925
-0.4642063728950757   -0.05488352602135587   -0.017486453219159925
-0.4642063728950757   -0.05488352602135587   -0.017486453219159925
-0.4642063728950757   -0.05488352602135587   -0.017486453219159925
-0.3426757385504138   -0.06508085151789769   0.002603366657960851
-0.3426757385504138   -0.06508085151789769   0.002603366657960851
-0.3426757385504138   -0.06508085151789769   0.002603366657960851
-0.3426757385504138   -0.06508085151789769   0.002603366657960851
-0.4997026411633024   -0.1249256602908256   -0.1249256602908256
-0.4997026411633024   -0.1249256602908256   -0.1249256602908256
-0.4997026411633024   -0.1249256602908256   -0.1249256602908256
-0.4997026411633024   -0.1249256602908256   -0.1249256602908256
-0.20098860457692114   0.0012055750704139737   -0.00025871607846525944
-0.20098860457692114   0.0012055750704139737   -0.00025871607846525944
-0.20098860457692114   0.0012055750704139737   -0.00025871607846525944
-0.20098860457692114   0.0012055750704139737   -0.00025871607846525944
-0.21810945627397194   -0.054527364068492984   -0.054527364068492984
-0.21810945627397194   -0.054527364068492984   -0.054527364068492984
-0.21810945627397194   -0.054527364068492984   -0.054527364068492984
-0.21810945627397194   -0.054527364068492984   -0.054527364068492984
-0.46260922623873063   -0.04465537404958231   -0.015382220831473219
-0.46260922623873063   -0.04465537404958231   -0.015382220831473219
-0.46260922623873063   -0.04465537404958231   -0.015382220831473219
-0.46260922623873063   -0.04465537404958231   -0.015382220831473219
-0.33747486495263673   -0.05469999903314134   -0.017597106496177482
-0.33747486495263673   -0.05469999903314134   -0.017597106496177482
-0.33747486495263673   -0.05469999903314134   -0.017597106496177482
-0.33747486495263673   -0.05469999903314134   -0.017597106496177482
-0.5006685636250217   -0.12516714090625541   -0.12516714090625541
-0.5006685636250217   -0.12516714090625541   -0.12516714090625541
-0.5006685636250217   -0.12516714090625541   -0.12516714090625541
-0.5006685636250217   -0.12516714090625541   -0.12516714090625541
-0.19259747959226084   0.01343704208360015   0.005068113187969341
-0.19259747959226084   0.01343704208360015   0.005068113187969341
-0.19259747959226084   0.01343704208360015   0.005068113187969341
-0.19259747959226084   0.01343704208360015   0.005068113187969341
-0.21309940358337368   -0.05327485089584342   -0.05327485089584342
-0.21309940358337368   -0.05327485089584342   -0.05327485089584342
-0.21309940358337368   -0.05327485089584342   -0.05327485089584342
-0.21309940358337368   -0.05327485089584342   -0.05327485089584342
-0.4587387746533979   -0.0343323152629693   -0.0097861448964051
-0.4587387746533979   -0.0343323152629693   -0.0097861448964051
-0.4587387746533979   -0.0343323152629693   -0.0097861448964051
-0.4587387746533979   -0.0343323152629693   -0.0097861448964051
-0.33868022792138325   -0.04828315403040431   -0.039140059357623116
-0.33868022792138325   -0.04828315403040431   -0.039140059357623116
-0.33868022792138325   -0.04828315403040431   -0.039140059357623116
-0.33868022792138325   -0.04828315403040431   -0.039140059357623116
-0.2328617832279009   -0.05821544580697523   -0.05821544580697523
-0.2328617832279009   -0.05821544580697523   -0.05821544580697523
-0.2328617832279009   -0.05821544580697523   -0.05821544580697523
-0.2328617832279009   -0.05821544580697523   -0.05821544580697523
0.026259066145700467   0.0014853498081752485   0.00023481494053844603
0.026259066145700467   0.0014853498081752485   0.00023481494053844603
0.026259066145700467   0.0014853498081752485   0.00023481494053844603
0.026259066145700467   0.0014853498081752485   0.00023481494053844603
0.034955757757545725   0.008738939439386431   0.008738939439386431
0.034955757757545725   0.008738939439386431   0.008738939439386431
0.034955757757545725   0.008738939439386431   0.008738939439386431
0.034955757757545725   0.008738939439386431   0.008738939439386431
-0.2101156486957457   -0.03630470708871378   -0.008383654513462001
-0.2101156486957457   -0.03630470708871378   -0.008383654513462001
-0.2101156486957457   -0.03630470708871378   -0.008383654513462001
-0.2101156486957457   -0.03630470708871378   -0.008383654513462001
-0.09064256805500925   -0.022965094452067694   0.01504081148531872
-0.09064256805500925   -0.022965094452067694   0.01504081148531872
-0.09064256805500925   -0.022965094452067694   0.01504081148531872
-0.09064256805500925   -0.022965094452067694   0.01504081148531872
-0.22353108486145654   -0.055882771215364134   -0.055882771215364134
-0.22353108486145654   -0.055882771215364134   -0.055882771215364134
-0.22353108486145654   -0.055882771215364134   -0.055882771215364134
-0.22353108486145654   -0.055882771215364134   -0.055882771215364134
0.03564438806462088   0.015590197707401342   0.005330832706746993
0.03564438806462088   0.015590197707401342   0.005330832706746993
0.03564438806462088   0.015590197707401342   0.005330832706746993
0.03564438806462088   0.015590197707401342   0.005330832706746993
0.039877224181387144   0.009969306045346786   0.009969306045346786
0.039877224181387144   0.009969306045346786   0.009969306045346786
0.039877224181387144   0.009969306045346786   0.009969306045346786
0.039877224181387144   0.009969306045346786   0.009969306045346786
-0.2022812912507229   -0.024296278827863046   -0.005617624192881063
-0.2022812912507229   -0.024296278827863046   -0.005617624192881063
-0.2022812912507229   -0.024296278827863046   -0.005617624192881063
-0.2022812912507229   -0.024296278827863046   -0.005617624192881063
-0.08652617444350805   -0.014132120199894908   -0.005277565487490037
-0.08652617444350805   -0.014132120199894908   -0.005277565487490037
-0.08652617444350805   -0.014132120199894908   -0.005277565487490037
-0.08652617444350805   -0.014132120199894908   -0.005277565487490037
-0.21810945627397194   -0.054527364068492984   -0.054527364068492984
-0.21810945627397194   -0.054527364068492984   -0.054527364068492984
-0.21810945627397194   -0.054527364068492984   -0.054527364068492984
-0.21810945627397194   -0.054527364068492984   -0.054527364068492984
0.04323575659798788   0.02773075867932893   0.009000515494368033
0.04323575659798788   0.02773075867932893   0.009000515494368033
0.04323575659798788   0.02773075867932893   0.009000515494368033
0.04323575659798788   0.02773075867932893   0.009000515494368033
0.046351915527215896   0.011587978881803974   0.011587978881803974
0.046351915527215896   0.011587978881803974   0.011587978881803974
0.046351915527215896   0.011587978881803974   0.011587978881803974
0.046351915527215896   0.011587978881803974   0.011587978881803974
-0.1937624001317701   -0.010010337664182245   0.0001456531305109674
-0.1937624001317701   -0.010010337664182245   0.0001456531305109674
-0.1937624001317701   -0.010010337664182245   0.0001456531305109674
-0.1937624001317701   -0.010010337664182245   0.0001456531305109674
-0.08349690749548133   -0.005616203372779158   -0.025413867424427247
-0.08349690749548133   -0.005616203372779158   -0.025413867424427247
-0.08349690749548133   -0.005616203372779158   -0.025413867424427247
-0.08349690749548133   -0.005616203372779158   -0.025413867424427247
0.028794481328841968   0.007198620332210492   0.007198620332210492
0.028794481328841968   0.007198620332210492   0.007198620332210492
0.028794481328841968   0.007198620332210492   0.007198620332210492
0.028794481328841968   0.007198620332210492   0.007198620332210492
0.28902439427755605   0.026574984327346764   0.009166924658557238
0.28902439427755605   0.026574984327346764   0.009166924658557238
0.28902439427755605   0.026574984327346764   0.009166924658557238
0.28902439427755605   0.026574984327346764   0.009166924658557238
0.31430460127290427   0.07857615031822607   0.07857615031822607
0.31430460127290427   0.07857615031822607   0.07857615031822607
0.31430460127290427   0.07857615031822607   0.07857615031822607
0.31430460127290427   0.07857615031822607   0.07857615031822607
0.026587163144979695   -0.020307048802347547   -0.004058045381710315
0.026587163144979695   -0.020307048802347547   -0.004058045381710315
0.026587163144979695   -0.020307048802347547   -0.004058045381710315
0.026587163144979695   -0.020307048802347547   -0.004058045381710315
0.16444914039578776   0.020499929327554563   0.0297728367974552
0.16444914039578776   0.020499929327554563   0.0297728367974552
0.16444914039578776   0.020499929327554563   0.0297728367974552
0.16444914039578776   0.020499929327554563   0.0297728367974552
0.034955757757545856   0.008738939439386464   0.008738939439386464
0.034955757757545856   0.008738939439386464   0.008738939439386464
0.034955757757545856   0.008738939439386464   0.008738939439386464
0.034955757757545856   0.008738939439386464   0.008738939439386464
0.29298819390155595   0.03658234931770993   0.013987914462000772
0.29298819390155595   0.03658234931770993   0.013987914462000772
0.29298819390155595   0.03658234931770993   0.013987914462000772
0.29298819390155595   0.03658234931770993   0.013987914462000772
0.3134342845643952   0.0783585711410988   0.0783585711410988
0.3134342845643952   0.0783585711410988   0.0783585711410988
0.3134342845643952   0.0783585711410988   0.0783585711410988
0.3134342845643952   0.0783585711410988   0.0783585711410988
0.034224079132190326   -0.008546537111726205   0.00021942395643537345
0.034224079132190326   -0.008546537111726205   0.00021942395643537345
0.034224079132190326   -0.008546537111726205   0.00021942395643537345
0.034224079132190326   -0.008546537111726205   0.00021942395643537345
0.16372013005874664   0.027085057642197992   0.007637997427167783
0.16372013005874664   0.027085057642197992   0.007637997427167783
0.16372013005874664   0.027085057642197992   0.007637997427167783
0.16372013005874664   0.027085057642197992   0.007637997427167783
0.03987722418138718   0.009969306045346795   0.009969306045346795
0.03987722418138718   0.009969306045346795   0.009969306045346795
0.03987722418138718   0.009969306045346795   0.009969306045346795
0.03987722418138718   0.009969306045346795   0.009969306045346795
0.2949604589309514   0.04702204739977886   0.017325966715199675
0.2949604589309514   0.04702204739977886   0.017325966715199675
0.2949604589309514   0.04702204739977886   0.017325966715199675
0.2949604589309514   0.04702204739977886   0.017325966715199675
0.3199617482873755   0.07999043707184388   0.07999043707184388
0.3199617482873755   0.07999043707184388   0.07999043707184388
0.3199617482873755   0.07999043707184388   0.07999043707184388
0.3199617482873755   0.07999043707184388   0.07999043707184388
0.04411506177989788   0.006967886860111013   0.0050238021669064955
0.04411506177989788   0.006967886860111013   0.0050238021669064955
0.04411506177989788   0.006967886860111013   0.0050238021669064955
0.04411506177989788   0.006967886860111013   0.0050238021669064955
0.16672337272090432   0.03686230514190902   -0.012883129592102985
0.16672337272090432   0.03686230514190902   -0.012883129592102985
0.16672337272090432   0.03686230514190902   -0.012883129592102985
0.16672337272090432   0.03686230514190902   -0.012883129592102985
0.31319556942263915   0.07829889235565979   0.07829889235565979
0.31319556942263915   0.07829889235565979   0.07829889235565979
0.31319556942263915   0.07829889235565979   0.07829889235565979
0.31319556942263915   0.07829889235565979   0.07829889235565979
0.6525179389448863   0.0498910797486435   0.01768520145643992
0.6525179389448863   0.0498910797486435   0.01768520145643992
0.6525179389448863   0.0498910797486435   0.01768520145643992
0.6525179389448863   0.0498910797486435   0.01768520145643992
0.667524538653973   0.16688113466349325   0.16688113466349325
0.667524538653973   0.16688113466349325   0.16688113466349325
0.667524538653973   0.16688113466349325   0.16688113466349325
0.667524538653973   0.16688113466349325   0.16688113466349325
0.2795022752764267   -0.015672361115664765   -0.0011869682302709343
0.2795022752764267   -0.015672361115664765   -0.0011869682302709343
0.2795022752764267   -0.015672361115664765   -0.0011869682302709343
0.2795022752764267   -0.015672361115664765   -0.0011869682302709343
0.4649796151283663   0.06597579322996672   0.05230203923948774
0.4649796151283663   0.06597579322996672   0.05230203923948774
0.4649796151283663   0.06597579322996672   0.05230203923948774
0.4649796151283663   0.06597579322996672   0.05230203923948774
0.314304601272904   0.078576150318226   0.078576150318226
0.314304601272904   0.078576150318226   0.078576150318226
0.314304601272904   0.078576150318226   0.078576150318226
0.314304601272904   0.078576150318226   0.078576150318226
0.6188276642098632   0.05873807478197213   0.031539822324476094
0.6188276642098632   0.05873807478197213   0.031539822324476094
0.6188276642098632   0.05873807478197213   0.031539822324476094
0.6188276642098632   0.05873807478197213   0.031539822324476094
0.6481509465083976   0.1620377366270994   0.1620377366270994
0.6481509465083976   0.1620377366270994   0.1620377366270994
0.6481509465083976   0.1620377366270994   0.1620377366270994
0.6481509465083976   0.1620377366270994   0.1620377366270994
0.2809293940765925   -0.008389162325234886   0.002581852168419021
0.2809293940765925   -0.008389162325234886   0.002581852168419021
0.2809293940765925   -0.008389162325234886   0.002581852168419021
0.2809293940765925   -0.008389162325234886   0.002581852168419021
0.4517208108066186   0.06802844916812822   0.02505062235703649
0.4517208108066186   0.06802844916812822   0.02505062235703649
0.4517208108066186   0.06802844916812822   0.02505062235703649
0.4517208108066186   0.06802844916812822   0.02505062235703649
0.3134342845643952   0.0783585711410988   0.0783585711410988
0.3134342845643952   0.0783585711410988   0.0783585711410988
0.3134342845643952   0.0783585711410988   0.0783585711410988
0.3134342845643952   0.0783585711410988   0.0783585711410988
0.599425454275994   0.059069401416166845   0.02137861067602466
0.599425454275994   0.059069401416166845   0.02137861067602466
0.599425454275994   0.059069401416166845   0.02137861067602466
0.599425454275994   0.059069401416166845   0.02137861067602466
0.6189765568651022   0.15474413921627556   0.15474413921627556
0.6189765568651022   0.15474413921627556   0.15474413921627556
0.6189765568651022   0.15474413921627556   0.15474413921627556
0.6189765568651022   0.15474413921627556   0.15474413921627556
0.2918082311695189   0.009935147392872816   0.009278141161531873
0.2918082311695189   0.009935147392872816   0.009278141161531873
0.2918082311695189   0.009935147392872816   0.009278141161531873
0.2918082311695189   0.009935147392872816   0.009278141161531873
0.43303167045530905   0.07393661478941861   -0.006702655729245046
0.43303167045530905   0.07393661478941861   -0.006702655729245046
0.43303167045530905   0.07393661478941861   -0.006702655729245046
0.43303167045530905   0.07393661478941861   -0.006702655729245046
-0.6303374249849101   -0.04521121001354991   0.007695575518074975
-0.6303374249849101   -0.04521121001354991   0.007695575518074975
-0.6303374249849101   -0.04521121001354991   0.007695575518074975
-0.6303374249849101   -0.04521121001354991   0.007695575518074975
-0.40180975963953247   -0.00983766478452712   -0.0028087299393128907
-0.40180975963953247   -0.00983766478452712   -0.0028087299393128907
-0.40180975963953247   -0.00983766478452712   -0.0028087299393128907
-0.40180975963953247   -0.00983766478452712   -0.0028087299393128907
-0.4040530288482972   0.0164799702806413   0.008816914850595013
-0.4040530288482972   0.0164799702806413   0.008816914850595013
-0.4040530288482972   0.0164799702806413   0.008816914850595013
-0.4040530288482972   0.0164799702806413   0.008816914850595013
-0.6394801883647481   -0.04392339158936981   -0.00783719160546792
-0.6394801883647481   -0.04392339158936981   -0.00783719160546792
-0.6394801883647481   -0.04392339158936981   -0.00783719160546792
-0.6394801883647481   -0.04392339158936981   -0.00783719160546792
-0.49856018613510966   -0.01720642536064189   -0.002284250230292901
-0.49856018613510966   -0.01720642536064189   -0.002284250230292901
-0.49856018613510966   -0.01720642536064189   -0.002284250230292901
-0.49856018613510966   -0.01720642536064189   -0.002284250230292901
-0.6345595626289646   -0.03068017529066283   0.0035227207747417708
-0.6345595626289646   -0.03068017529066283   0.0035227207747417708
-0.6345595626289646   -0.03068017529066283   0.0035227207747417708
-0.6345595626289646   -0.03068017529066283   0.0035227207747417708
-0.4096158183624562   0.002594590203560232   -0.005111652643111548
-0.4096158183624562   0.002594590203560232   -0.005111652643111548
-0.4096158183624562   0.002594590203560232   -0.005111652643111548
-0.4096158183624562   0.002594590203560232   -0.005111652643111548
-0.4042435093399561   0.023574990832231427   0.009936995524644186
-0.4042435093399561   0.023574990832231427   0.009936995524644186
-0.4042435093399561   0.023574990832231427   0.009936995524644186
-0.4042435093399561   0.023574990832231427   0.009936995524644186
-0.6429480162017785   -0.03858080336489218   -0.01031665802328011
-0.6429480162017785   -0.03858080336489218   -0.01031665802328011
-0.6429480162017785   -0.03858080336489218   -0.01031665802328011
-0.6429480162017785   -0.03858080336489218   -0.01031665802328011
-0.5121962837001082   -0.011400747335013423   -0.005006228939240565
-0.5121962837001082   -0.011400747335013423   -0.005006228939240565
-0.5121962837001082   -0.011400747335013423   -0.005006228939240565
-0.5121962837001082   -0.011400747335013423   -0.005006228939240565
-0.6311013667710222   -0.01809735217149161   0.028433137937095045
-0.6311013667710222   -0.01809735217149161   0.028433137937095045
-0.6311013667710222   -0.01809735217149161   0.028433137937095045
-0.6311013667710222   -0.01809735217149161   0.028433137937095045
-0.41122846133196617   0.007953237077576655   -0.009366010680748302
-0.41122846133196617   0.007953237077576655   -0.009366010680748302
-0.41122846133196617   0.007953237077576655   -0.009366010680748302
-0.41122846133196617   0.007953237077576655   -0.009366010680748302
-0.39656320231551134   0.04122681171832533   0.01776079496743105
-0.39656320231551134   0.04122681171832533   0.01776079496743105
-0.39656320231551134   0.04122681171832533   0.01776079496743105
-0.39656320231551134   0.04122681171832533   0.01776079496743105
-0.6245681153427787   -0.03087623272847284   -0.01673633690941348
-0.6245681153427787   -0.03087623272847284   -0.01673633690941348
-0.6245681153427787   -0.03087623272847284   -0.01673633690941348
-0.6245681153427787   -0.03087623272847284   -0.01673633690941348
-0.4921532066535443   0.004862290977518627   0.01100604952232078
-0.4921532066535443   0.004862290977518627   0.01100604952232078
-0.4921532066535443   0.004862290977518627   0.01100604952232078
-0.4921532066535443   0.004862290977518627   0.01100604952232078
-0.41162180851787755   -0.05476150331342984   -0.006945135802135283
-0.41162180851787755   -0.05476150331342984   -0.006945135802135283
-0.41162180851787755   -0.05476150331342984   -0.006945135802135283
-0.41162180851787755   -0.05476150331342984   -0.006945135802135283
-0.190379040331768   -0.004604403895419731   0.0019318351772630825
-0.190379040331768   -0.004604403895419731   0.0019318351772630825
-0.190379040331768   -0.004604403895419731   0.0019318351772630825
-0.190379040331768   -0.004604403895419731   0.0019318351772630825
-0.19284811667413831   0.0034912234670665954   0.0030290380020154585
-0.19284811667413831   0.0034912234670665954   0.0030290380020154585
-0.19284811667413831   0.0034912234670665954   0.0030290380020154585
-0.19284811667413831   0.0034912234670665954   0.0030290380020154585
-0.419599328896329   -0.04002958689596334   -0.012405028212959433
-0.419599328896329   -0.04002958689596334   -0.012405028212959433
-0.419599328896329   -0.04002958689596334   -0.012405028212959433
-0.419599328896329   -0.04002958689596334   -0.012405028212959433
-0.3036313931558847   -0.024831385423630302   -0.0071127031870660985
-0.3036313931558847   -0.024831385423630302   -0.0071127031870660985
-0.3036313931558847   -0.024831385423630302   -0.0071127031870660985
-0.3036313931558847   -0.024831385423630302   -0.0071127031870660985
-0.41914552363069335   -0.043672652733997314   -0.006492936046749009
-0.41914552363069335   -0.043672652733997314   -0.006492936046749009
-0.41914552363069335   -0.043672652733997314   -0.006492936046749009
-0.41914552363069335   -0.043672652733997314   -0.006492936046749009
-0.19256044254148422   0.007875768703390552   8.286342896336209e-05
-0.19256044254148422   0.007875768703390552   8.286342896336209e-05
-0.19256044254148422   0.007875768703390552   8.286342896336209e-05
-0.19256044254148422   0.007875768703390552   8.286342896336209e-05
-0.1918605546863021   0.0133707918794927   0.003999937261474249
-0.1918605546863021   0.0133707918794927   0.003999937261474249
-0.1918605546863021   0.0133707918794927   0.003999937261474249
-0.1918605546863021   0.0133707918794927   0.003999937261474249
-0.4194709361133387   -0.02918629439669726   -0.013438853113339942
-0.4194709361133387   -0.02918629439669726   -0.013438853113339942
-0.4194709361133387   -0.02918629439669726   -0.013438853113339942
-0.4194709361133387   -0.02918629439669726   -0.013438853113339942
-0.3027792188682832   -0.013757491584686178   -0.0033928266448358547
-0.3027792188682832   -0.013757491584686178   -0.0033928266448358547
-0.3027792188682832   -0.013757491584686178   -0.0033928266448358547
-0.3027792188682832   -0.013757491584686178   -0.0033928266448358547
-0.4177812883316663   -0.032873936685174986   -0.0013029719164999922
-0.4177812883316663   -0.032873936685174986   -0.0013029719164999922
-0.4177812883316663   -0.032873936685174986   -0.0013029719164999922
-0.4177812883316663   -0.032873936685174986   -0.0013029719164999922
-0.19216974174543125   0.018438894890514257   -0.0026141010451897415
-0.19216974174543125   0.018438894890514257   -0.0026141010451897415
-0.19216974174543125   0.018438894890514257   -0.0026141010451897415
-0.19216974174543125   0.018438894890514257   -0.0026141010451897415
-0.18839895734668555   0.023267665647632253   0.007873942349890774
-0.18839895734668555   0.023267665647632253   0.007873942349890774
-0.18839895734668555   0.023267665647632253   0.007873942349890774
-0.18839895734668555   0.023267665647632253   0.007873942349890774
-0.41468713447542804   -0.01665305115739389   -0.014979002956434975
-0.41468713447542804   -0.01665305115739389   -0.014979002956434975
-0.41468713447542804   -0.01665305115739389   -0.014979002956434975
-0.41468713447542804   -0.01665305115739389   -0.014979002956434975
-0.3012301735808802   -0.0032727258267625237   0.0014987648648086133
-0.3012301735808802   -0.0032727258267625237   0.0014987648648086133
-0.3012301735808802   -0.0032727258267625237   0.0014987648648086133
-0.3012301735808802   -0.0032727258267625237   0.0014987648648086133
-0.20063642114394117   -0.04561050432805464   -0.008348968450969408
-0.20063642114394117   -0.04561050432805464   -0.008348968450969408
-0.20063642114394117   -0.04561050432805464   -0.008348968450969408
-0.20063642114394117   -0.04561050432805464   -0.008348968450969408
0.019349961488503892   0.004383358777374988   0.007814144994690249
0.019349961488503892   0.004383358777374988   0.007814144994690249
0.019349961488503892   0.004383358777374988   0.007814144994690249
0.019349961488503892   0.004383358777374988   0.007814144994690249
0.018667490914298066   0.011263060127616619   0.0006720419581461913
0.018667490914298066   0.011263060127616619   0.0006720419581461913
0.018667490914298066   0.011263060127616619   0.0006720419581461913
0.018667490914298066   0.011263060127616619   0.0006720419581461913
-0.20124331187134512   -0.030112980137819677   -0.0053427343791322395
-0.20124331187134512   -0.030112980137819677   -0.0053427343791322395
-0.20124331187134512   -0.030112980137819677   -0.0053427343791322395
-0.20124331187134512   -0.030112980137819677   -0.0053427343791322395
-0.09185004064138491   -0.015224153186756711   -0.00298471043277463
-0.09185004064138491   -0.015224153186756711   -0.00298471043277463
-0.09185004064138491   -0.015224153186756711   -0.00298471043277463
-0.09185004064138491   -0.015224153186756711   -0.00298471043277463
-0.2026432312488486   -0.034687129147946444   -0.007768182256522929
-0.2026432312488486   -0.034687129147946444   -0.007768182256522929
-0.2026432312488486   -0.034687129147946444   -0.007768182256522929
-0.2026432312488486   -0.034687129147946444   -0.007768182256522929
0.020823502431273472   0.01659330127721538   0.006121858393424469
0.020823502431273472   0.01659330127721538   0.006121858393424469
0.020823502431273472   0.01659330127721538   0.006121858393424469
0.020823502431273472   0.01659330127721538   0.006121858393424469
0.020505205742881047   0.022105767447518444   0.003606110190422448
0.020505205742881047   0.022105767447518444   0.003606110190422448
0.020505205742881047   0.022105767447518444   0.003606110190422448
0.020505205742881047   0.022105767447518444   0.003606110190422448
-0.20031501158692958   -0.018215292701138988   -0.00668626266103171
-0.20031501158692958   -0.018215292701138988   -0.00668626266103171
-0.20031501158692958   -0.018215292701138988   -0.00668626266103171
-0.20031501158692958   -0.018215292701138988   -0.00668626266103171
-0.09016055549789634   -0.003719207353294663   0.001015141613664919
-0.09016055549789634   -0.003719207353294663   0.001015141613664919
-0.09016055549789634   -0.003719207353294663   0.001015141613664919
-0.09016055549789634   -0.003719207353294663   0.001015141613664919
-0.20087641586317295   -0.023694578550378632   -0.0040139981930089365
-0.20087641586317295   -0.023694578550378632   -0.0040139981930089365
-0.20087641586317295   -0.023694578550378632   -0.0040139981930089365
-0.20087641586317295   -0.023694578550378632   -0.0040139981930089365
0.02188283344334601   0.02840127672097998   0.004198739419285608
0.02188283344334601   0.02840127672097998   0.004198739419285608
0.02188283344334601   0.02840127672097998   0.004198739419285608
0.02188283344334601   0.02840127672097998   0.004198739419285608
0.021261309107953756   0.03414288376016607   0.005888051012528681
0.021261309107953756   0.03414288376016607   0.005888051012528681
0.021261309107953756   0.03414288376016607   0.005888051012528681
0.021261309107953756   0.03414288376016607   0.005888051012528681
-0.197421874622154   -0.005517226484317593   -0.008455751895500756
-0.197421874622154   -0.005517226484317593   -0.008455751895500756
-0.197421874622154   -0.005517226484317593   -0.008455751895500756
-0.197421874622154   -0.005517226484317593   -0.008455751895500756
-0.08763950538515893   0.008311322276806598   0.005394659725831296
-0.08763950538515893   0.008311322276806598   0.005394659725831296
-0.08763950538515893   0.008311322276806598   0.005394659725831296
-0.08763950538515893   0.008311322276806598   0.005394659725831296
0.008129026451736347   -0.03351575704323585   -0.010391414368536647
0.008129026451736347   -0.03351575704323585   -0.010391414368536647
0.008129026451736347   -0.03351575704323585   -0.010391414368536647
0.008129026451736347   -0.03351575704323585   -0.010391414368536647
0.23607617184534577   0.016129051798072842   0.014433158346799688
0.23607617184534577   0.016129051798072842   0.014433158346799688
0.23607617184534577   0.016129051798072842   0.014433158346799688
0.23607617184534577   0.016129051798072842   0.014433158346799688
0.2360266064460052   0.021919711437036832   -0.002363687485814869
0.2360266064460052   0.021919711437036832   -0.002363687485814869
0.2360266064460052   0.021919711437036832   -0.002363687485814869
0.2360266064460052   0.021919711437036832   -0.002363687485814869
0.012609692968817757   -0.019952755980763952   0.0015988683391252347
0.012609692968817757   -0.019952755980763952   0.0015988683391252347
0.012609692968817757   -0.019952755980763952   0.0015988683391252347
0.012609692968817757   -0.019952755980763952   0.0015988683391252347
0.12167493403052533   -0.002990352198307542   0.0001679166777911684
0.12167493403052533   -0.002990352198307542   0.0001679166777911684
0.12167493403052533   -0.002990352198307542   0.0001679166777911684
0.12167493403052533   -0.002990352198307542   0.0001679166777911684
0.009831368107200863   -0.024413084269588138   -0.007832427680134906
0.009831368107200863   -0.024413084269588138   -0.007832427680134906
0.009831368107200863   -0.024413084269588138   -0.007832427680134906
0.009831368107200863   -0.024413084269588138   -0.007832427680134906
0.24018054999088614   0.027755658409125035   0.012570083266499893
0.24018054999088614   0.027755658409125035   0.012570083266499893
0.24018054999088614   0.027755658409125035   0.012570083266499893
0.24018054999088614   0.027755658409125035   0.012570083266499893
0.23823067329454942   0.032661338567573056   0.0022522081905720845
0.23823067329454942   0.032661338567573056   0.0022522081905720845
0.23823067329454942   0.032661338567573056   0.0022522081905720845
0.23823067329454942   0.032661338567573056   0.0022522081905720845
0.013393659484035361   -0.009302569337351168   -0.0005432843189363675
0.013393659484035361   -0.009302569337351168   -0.0005432843189363675
0.013393659484035361   -0.009302569337351168   -0.0005432843189363675
0.013393659484035361   -0.009302569337351168   -0.0005432843189363675
0.12362833987706189   0.007266119513581321   0.005086005819350737
0.12362833987706189   0.007266119513581321   0.005086005819350737
0.12362833987706189   0.007266119513581321   0.005086005819350737
0.12362833987706189   0.007266119513581321   0.005086005819350737
0.01133980432517355   -0.014325252295446615   -0.005789877155149895
0.01133980432517355   -0.014325252295446615   -0.005789877155149895
0.01133980432517355   -0.014325252295446615   -0.005789877155149895
0.01133980432517355   -0.014325252295446615   -0.005789877155149895
0.24128273121995858   0.038682224292215066   0.01149161209297161
0.24128273121995858   0.038682224292215066   0.01149161209297161
0.24128273121995858   0.038682224292215066   0.01149161209297161
0.24128273121995858   0.038682224292215066   0.01149161209297161
0.23467678621263385   0.04505045401207614   0.004874913493995677
0.23467678621263385   0.04505045401207614   0.004874913493995677
0.23467678621263385   0.04505045401207614   0.004874913493995677
0.23467678621263385   0.04505045401207614   0.004874913493995677
0.013545514500502742   0.003834117874099016   -0.002382156138659335
0.013545514500502742   0.003834117874099016   -0.002382156138659335
0.013545514500502742   0.003834117874099016   -0.002382156138659335
0.013545514500502742   0.003834117874099016   -0.002382156138659335
0.1257784343766261   0.01898125910118907   0.009655817616568758
0.1257784343766261   0.01898125910118907   0.009655817616568758
0.1257784343766261   0.01898125910118907   0.009655817616568758
0.1257784343766261   0.01898125910118907   0.009655817616568758
0.21715344996428892   -0.044607615159038584   -0.019443784101373162
0.21715344996428892   -0.044607615159038584   -0.019443784101373162
0.21715344996428892   -0.044607615159038584   -0.019443784101373162
0.21715344996428892   -0.044607615159038584   -0.019443784101373162
0.4485451161320462   0.029643855307152175   0.01433440445778697
0.4485451161320462   0.029643855307152175   0.01433440445778697
0.4485451161320462   0.029643855307152175   0.01433440445778697
0.4485451161320462   0.029643855307152175   0.01433440445778697
0.4539757943862004   0.013603591324311395   -0.029280725140163926
0.4539757943862004   0.013603591324311395   -0.029280725140163926
0.4539757943862004   0.013603591324311395   -0.029280725140163926
0.4539757943862004   0.013603591324311395   -0.029280725140163926
0.23210347389261748   -0.008727039343633405   0.008667400527912584
0.23210347389261748   -0.008727039343633405   0.008667400527912584
0.23210347389261748   -0.008727039343633405   0.008667400527912584
0.23210347389261748   -0.008727039343633405   0.008667400527912584
0.32108694414644234   -0.005916866282371772   -0.008263973948436306
0.32108694414644234   -0.005916866282371772   -0.008263973948436306
0.32108694414644234   -0.005916866282371772   -0.008263973948436306
0.32108694414644234   -0.005916866282371772   -0.008263973948436306
0.22366666386563772   -0.029209022951576284   -0.013034665999040025
0.22366666386563772   -0.029209022951576284   -0.013034665999040025
0.22366666386563772   -0.029209022951576284   -0.013034665999040025
0.22366666386563772   -0.029209022951576284   -0.013034665999040025
0.46659623018848845   0.038269200707563136   0.009155844488024385
0.46659623018848845   0.038269200707563136   0.009155844488024385
0.46659623018848845   0.038269200707563136   0.009155844488024385
0.46659623018848845   0.038269200707563136   0.009155844488024385
0.4594879567481851   0.0254073259901553   -0.0069942689262230545
0.4594879567481851   0.0254073259901553   -0.0069942689262230545
0.4594879567481851   0.0254073259901553   -0.0069942689262230545
0.4594879567481851   0.0254073259901553   -0.0069942689262230545
0.23149248260144392   -0.003382287345144154   0.0046048806377576145
0.23149248260144392   -0.003382287345144154   0.0046048806377576145
0.23149248260144392   -0.003382287345144154   0.0046048806377576145
0.23149248260144392   -0.003382287345144154   0.0046048806377576145
0.33845490199199046   0.008484579118957405   0.005620433096495243
0.33845490199199046   0.008484579118957405   0.005620433096495243
0.33845490199199046   0.008484579118957405   0.005620433096495243
0.33845490199199046   0.008484579118957405   0.005620433096495243
0.2246749749018056   -0.02227450469582596   -0.010590440509750353
0.2246749749018056   -0.02227450469582596   -0.010590440509750353
0.2246749749018056   -0.02227450469582596   -0.010590440509750353
0.2246749749018056   -0.02227450469582596   -0.010590440509750353
0.46578518633646737   0.043779265229481466   0.006119939775862239
0.46578518633646737   0.043779265229481466   0.006119939775862239
0.46578518633646737   0.043779265229481466   0.006119939775862239
0.46578518633646737   0.043779265229481466   0.006119939775862239
0.45929855643975875   0.039464014978878456   -0.010567846178680274
0.45929855643975875   0.039464014978878456   -0.010567846178680274
0.45929855643975875   0.039464014978878456   -0.010567846178680274
0.45929855643975875   0.039464014978878456   -0.010567846178680274
0.22698824474240323   0.008821991846581168   0.002660668308333756
0.22698824474240323   0.008821991846581168   0.002660668308333756
0.22698824474240323   0.008821991846581168   0.002660668308333756
0.22698824474240323   0.008821991846581168   0.002660668308333756
0.33020231837314196   0.01507170452894386   0.004350840854282631
0.33020231837314196   0.01507170452894386   0.004350840854282631
0.33020231837314196   0.01507170452894386   0.004350840854282631
0.33020231837314196   0.01507170452894386   0.004350840854282631
-0.4920738557318511   -0.022128111840969564   0.026003130870791598
-0.4920738557318511   -0.022128111840969564   0.026003130870791598
-0.4920738557318511   -0.022128111840969564   0.026003130870791598
-0.4920738557318511   -0.022128111840969564   0.026003130870791598
-0.3278341716497163   -0.012888967104032457   -0.006765744959533431
-0.3278341716497163   -0.012888967104032457   -0.006765744959533431
-0.3278341716497163   -0.012888967104032457   -0.006765744959533431
-0.3278341716497163   -0.012888967104032457   -0.006765744959533431
-0.3156406125427266   0.02676092539949876   0.021744817516853462
-0.3156406125427266   0.02676092539949876   0.021744817516853462
-0.3156406125427266   0.02676092539949876   0.021744817516853462
-0.3156406125427266   0.02676092539949876   0.021744817516853462
-0.4942074876070853   -0.03543660141968284   -0.010559904176597933
-0.4942074876070853   -0.03543660141968284   -0.010559904176597933
-0.4942074876070853   -0.03543660141968284   -0.010559904176597933
-0.4942074876070853   -0.03543660141968284   -0.010559904176597933
-0.39096504307855934   -0.0060362431035277525   -0.0010235465964879044
-0.39096504307855934   -0.0060362431035277525   -0.0010235465964879044
-0.39096504307855934   -0.0060362431035277525   -0.0010235465964879044
-0.39096504307855934   -0.0060362431035277525   -0.0010235465964879044
-0.48013987657127477   -0.004682984160855996   0.02902453374362779
-0.48013987657127477   -0.004682984160855996   0.02902453374362779
-0.48013987657127477   -0.004682984160855996   0.02902453374362779
-0.48013987657127477   -0.004682984160855996   0.02902453374362779
-0.32749928720236277   -0.0017837554831536817   -0.009003874898674692
-0.32749928720236277   -0.0017837554831536817   -0.009003874898674692
-0.32749928720236277   -0.0017837554831536817   -0.009003874898674692
-0.32749928720236277   -0.0017837554831536817   -0.009003874898674692
-0.3142061026491641   0.03325123483547253   0.020101619425928943
-0.3142061026491641   0.03325123483547253   0.020101619425928943
-0.3142061026491641   0.03325123483547253   0.020101619425928943
-0.3142061026491641   0.03325123483547253   0.020101619425928943
-0.4862265877987654   -0.029537108942752133   -0.014410333274025921
-0.4862265877987654   -0.029537108942752133   -0.014410333274025921
-0.4862265877987654   -0.029537108942752133   -0.014410333274025921
-0.4862265877987654   -0.029537108942752133   -0.014410333274025921
-0.39152696964978856   0.0015850143889323959   0.004364405064872002
-0.39152696964978856   0.0015850143889323959   0.004364405064872002
-0.39152696964978856   0.0015850143889323959   0.004364405064872002
-0.39152696964978856   0.0015850143889323959   0.004364405064872002
-0.47314548145463414   0.001445544241640312   0.02001254526223797
-0.47314548145463414   0.001445544241640312   0.02001254526223797
-0.47314548145463414   0.001445544241640312   0.02001254526223797
-0.47314548145463414   0.001445544241640312   0.02001254526223797
-0.32656106859172257   0.0029947220526531787   -0.011416697504042225
-0.32656106859172257   0.0029947220526531787   -0.011416697504042225
-0.32656106859172257   0.0029947220526531787   -0.011416697504042225
-0.32656106859172257   0.0029947220526531787   -0.011416697504042225
-0.3143770703391304   0.0376999663277085   0.015953613367845024
-0.3143770703391304   0.0376999663277085   0.015953613367845024
-0.3143770703391304   0.0376999663277085   0.015953613367845024
-0.3143770703391304   0.0376999663277085   0.015953613367845024
-0.4759557570823873   -0.023185205092700764   -0.01833407178864412
-0.4759557570823873   -0.023185205092700764   -0.01833407178864412
-0.4759557570823873   -0.023185205092700764   -0.01833407178864412
-0.4759557570823873   -0.023185205092700764   -0.01833407178864412
-0.38004550166111695   0.008449634143432291   0.009340675336337995
-0.38004550166111695   0.008449634143432291   0.009340675336337995
-0.38004550166111695   0.008449634143432291   0.009340675336337995
-0.38004550166111695   0.008449634143432291   0.009340675336337995
-0.3286130902408423   -0.031122868263771974   0.007573563244576181
-0.3286130902408423   -0.031122868263771974   0.007573563244576181
-0.3286130902408423   -0.031122868263771974   0.007573563244576181
-0.3286130902408423   -0.031122868263771974   0.007573563244576181
-0.16692142592484055   -0.0062800513611895   0.00027307784189490713
-0.16692142592484055   -0.0062800513611895   0.00027307784189490713
-0.16692142592484055   -0.0062800513611895   0.00027307784189490713
-0.16692142592484055   -0.0062800513611895   0.00027307784189490713
-0.1620035319155087   0.016329314240325424   0.011793680487664063
-0.1620035319155087   0.016329314240325424   0.011793680487664063
-0.1620035319155087   0.016329314240325424   0.011793680487664063
-0.1620035319155087   0.016329314240325424   0.011793680487664063
-0.3337831278858366   -0.030690909177706997   -0.011515924621492394
-0.3337831278858366   -0.030690909177706997   -0.011515924621492394
-0.3337831278858366   -0.030690909177706997   -0.011515924621492394
-0.3337831278858366   -0.030690909177706997   -0.011515924621492394
-0.24698428006628603   -0.012123710898523002   -0.005148743175610437
-0.24698428006628603   -0.012123710898523002   -0.005148743175610437
-0.24698428006628603   -0.012123710898523002   -0.005148743175610437
-0.24698428006628603   -0.012123710898523002   -0.005148743175610437
-0.32741754638595166   -0.017656675009375622   0.0072777487096018015
-0.32741754638595166   -0.017656675009375622   0.0072777487096018015
-0.32741754638595166   -0.017656675009375622   0.0072777487096018015
-0.32741754638595166   -0.017656675009375622   0.0072777487096018015
-0.16709051393131252   0.0045736795560761614   -0.0018855949071044115
-0.16709051393131252   0.0045736795560761614   -0.0018855949071044115
-0.16709051393131252   0.0045736795560761614   -0.0018855949071044115
-0.16709051393131252   0.0045736795560761614   -0.0018855949071044115
-0.16136169298498343   0.02715918413704045   0.01017929642699341
-0.16136169298498343   0.02715918413704045   0.01017929642699341
-0.16136169298498343   0.02715918413704045   0.01017929642699341
-0.16136169298498343   0.02715918413704045   0.01017929642699341
-0.33172072459316493   -0.02060737014866537   -0.013612885309937466
-0.33172072459316493   -0.02060737014866537   -0.013612885309937466
-0.33172072459316493   -0.02060737014866537   -0.013612885309937466
-0.33172072459316493   -0.02060737014866537   -0.013612885309937466
-0.24414724855932357   -0.0012105537085880663   -9.722636488456587e-05
-0.24414724855932357   -0.0012105537085880663   -9.722636488456587e-05
-0.24414724855932357   -0.0012105537085880663   -9.722636488456587e-05
-0.24414724855932357   -0.0012105537085880663   -9.722636488456587e-05
-0.32522833232972487   -0.006668051537989189   0.004909757396586591
-0.32522833232972487   -0.006668051537989189   0.004909757396586591
-0.32522833232972487   -0.006668051537989189   0.004909757396586591
-0.32522833232972487   -0.006668051537989189   0.004909757396586591
-0.16681386540636375   0.014260085368424442   -0.004182466911289543
-0.16681386540636375   0.014260085368424442   -0.004182466911289543
-0.16681386540636375   0.014260085368424442   -0.004182466911289543
-0.16681386540636375   0.014260085368424442   -0.004182466911289543
-0.16118842491957147   0.0385639250140007   0.007607168344679505
-0.16118842491957147   0.0385639250140007   0.007607168344679505
-0.16118842491957147   0.0385639250140007   0.007607168344679505
-0.16118842491957147   0.0385639250140007   0.007607168344679505
-0.32997369369568813   -0.009692808459891594   -0.014636728627344383
-0.32997369369568813   -0.009692808459891594   -0.014636728627344383
-0.32997369369568813   -0.009692808459891594   -0.014636728627344383
-0.32997369369568813   -0.009692808459891594   -0.014636728627344383
-0.24415193860071066   0.00884217014050899   0.003784776112365846
-0.24415193860071066   0.00884217014050899   0.003784776112365846
-0.24415193860071066   0.00884217014050899   0.003784776112365846
-0.24415193860071066   0.00884217014050899   0.003784776112365846
-0.17305585093902467   -0.0358303770209267   -0.0008487215692896467
-0.17305585093902467   -0.0358303770209267   -0.0008487215692896467
-0.17305585093902467   -0.0358303770209267   -0.0008487215692896467
-0.17305585093902467   -0.0358303770209267   -0.0008487215692896467
-0.007427938128468514   0.0014516527994974198   0.007379572173137401
-0.007427938128468514   0.0014516527994974198   0.007379572173137401
-0.007427938128468514   0.0014516527994974198   0.007379572173137401
-0.007427938128468514   0.0014516527994974198   0.007379572173137401
-0.00793780088821154   0.010325680299383647   0.003545056823748894
-0.00793780088821154   0.010325680299383647   0.003545056823748894
-0.00793780088821154   0.010325680299383647   0.003545056823748894
-0.00793780088821154   0.010325680299383647   0.003545056823748894
-0.17304563142068555   -0.02282645817738213   -0.004261044620512617
-0.17304563142068555   -0.02282645817738213   -0.004261044620512617
-0.17304563142068555   -0.02282645817738213   -0.004261044620512617
-0.17304563142068555   -0.02282645817738213   -0.004261044620512617
-0.0906514496252684   -0.011327655306549427   -0.002912574982510344
-0.0906514496252684   -0.011327655306549427   -0.002912574982510344
-0.0906514496252684   -0.011327655306549427   -0.002912574982510344
-0.0906514496252684   -0.011327655306549427   -0.002912574982510344
-0.17285791559321345   -0.02383094894872815   -0.0023179747118062233
-0.17285791559321345   -0.02383094894872815   -0.0023179747118062233
-0.17285791559321345   -0.02383094894872815   -0.0023179747118062233
-0.17285791559321345   -0.02383094894872815   -0.0023179747118062233
-0.007174803525194234   0.01228088426121874   0.0054048396770004295
-0.007174803525194234   0.01228088426121874   0.0054048396770004295
-0.007174803525194234   0.01228088426121874   0.0054048396770004295
-0.007174803525194234   0.01228088426121874   0.0054048396770004295
-0.0070181866700004605   0.02211280924791513   0.0016574221673097281
-0.0070181866700004605   0.02211280924791513   0.0016574221673097281
-0.0070181866700004605   0.02211280924791513   0.0016574221673097281
-0.0070181866700004605   0.02211280924791513   0.0016574221673097281
-0.1724781779502523   -0.01197173386683453   -0.006272210395474503
-0.1724781779502523   -0.01197173386683453   -0.006272210395474503
-0.1724781779502523   -0.01197173386683453   -0.006272210395474503
-0.1724781779502523   -0.01197173386683453   -0.006272210395474503
-0.08964704497205668   -0.0004469161422910803   0.001175737523864788
-0.08964704497205668   -0.0004469161422910803   0.001175737523864788
-0.08964704497205668   -0.0004469161422910803   0.001175737523864788
-0.08964704497205668   -0.0004469161422910803   0.001175737523864788
-0.17222236831025411   -0.012210408938383974   -0.004754487123934054
-0.17222236831025411   -0.012210408938383974   -0.004754487123934054
-0.17222236831025411   -0.012210408938383974   -0.004754487123934054
-0.17222236831025411   -0.012210408938383974   -0.004754487123934054
-0.006490034586594335   0.02313544604286924   0.00327554578938636
-0.006490034586594335   0.02313544604286924   0.00327554578938636
-0.006490034586594335   0.02313544604286924   0.00327554578938636
-0.006490034586594335   0.02313544604286924   0.00327554578938636
-0.006719740625061437   0.03424369223591946   -0.00035329229140808327
-0.006719740625061437   0.03424369223591946   -0.00035329229140808327
-0.006719740625061437   0.03424369223591946   -0.00035329229140808327
-0.006719740625061437   0.03424369223591946   -0.00035329229140808327
-0.17227358278898144   -0.0009402237723936738   -0.008314472215976703
-0.17227358278898144   -0.0009402237723936738   -0.008314472215976703
-0.17227358278898144   -0.0009402237723936738   -0.008314472215976703
-0.17227358278898144   -0.0009402237723936738   -0.008314472215976703
-0.08883768194704458   0.010444897654915363   0.004927103990436183
-0.08883768194704458   0.010444897654915363   0.004927103990436183
-0.08883768194704458   0.010444897654915363   0.004927103990436183
-0.08883768194704458   0.010444897654915363   0.004927103990436183
-0.018800573830784383   -0.039449433095251674   -0.008582520443692739
-0.018800573830784383   -0.039449433095251674   -0.008582520443692739
-0.018800573830784383   -0.039449433095251674   -0.008582520443692739
-0.018800573830784383   -0.039449433095251674   -0.008582520443692739
0.15123806617748284   0.010462797367059077   0.014048135200971111
0.15123806617748284   0.010462797367059077   0.014048135200971111
0.15123806617748284   0.010462797367059077   0.014048135200971111
0.15123806617748284   0.010462797367059077   0.014048135200971111
0.14625236036010925   0.005317209341350878   -0.005693972441592105
0.14625236036010925   0.005317209341350878   -0.005693972441592105
0.14625236036010925   0.005317209341350878   -0.005693972441592105
0.14625236036010925   0.005317209341350878   -0.005693972441592105
-0.01293912728041641   -0.01426908218395004   0.00313318734605833
-0.01293912728041641   -0.01426908218395004   0.00313318734605833
-0.01293912728041641   -0.01426908218395004   0.00313318734605833
-0.01293912728041641   -0.01426908218395004   0.00313318734605833
0.0654835483693743   -0.009326508348610735   -0.0016761793367733287
0.0654835483693743   -0.009326508348610735   -0.0016761793367733287
0.0654835483693743   -0.009326508348610735   -0.0016761793367733287
0.0654835483693743   -0.009326508348610735   -0.0016761793367733287
-0.018612156622771596   -0.028680923230700015   -0.010820118318967623
-0.018612156622771596   -0.028680923230700015   -0.010820118318967623
-0.018612156622771596   -0.028680923230700015   -0.010820118318967623
-0.018612156622771596   -0.028680923230700015   -0.010820118318967623
0.1530076801056903   0.020811340791327036   0.012588494836336981
0.1530076801056903   0.020811340791327036   0.012588494836336981
0.1530076801056903   0.020811340791327036   0.012588494836336981
0.1530076801056903   0.020811340791327036   0.012588494836336981
0.14883634863055792   0.016296507935690468   -0.007990587100252664
0.14883634863055792   0.016296507935690468   -0.007990587100252664
0.14883634863055792   0.016296507935690468   -0.007990587100252664
0.14883634863055792   0.016296507935690468   -0.007990587100252664
-0.012484293419896719   -0.00453922265006034   0.0009789203158041165
-0.012484293419896719   -0.00453922265006034   0.0009789203158041165
-0.012484293419896719   -0.00453922265006034   0.0009789203158041165
-0.012484293419896719   -0.00453922265006034   0.0009789203158041165
0.06623980022439831   0.0005487257840911912   0.0023982405865782706
0.06623980022439831   0.0005487257840911912   0.0023982405865782706
0.06623980022439831   0.0005487257840911912   0.0023982405865782706
0.06623980022439831   0.0005487257840911912   0.0023982405865782706
-0.018005460776703418   -0.018089136957808026   -0.01307700216048188
-0.018005460776703418   -0.018089136957808026   -0.01307700216048188
-0.018005460776703418   -0.018089136957808026   -0.01307700216048188
-0.018005460776703418   -0.018089136957808026   -0.01307700216048188
0.15553800390762373   0.03102691016369693   0.010787287057069982
0.15553800390762373   0.03102691016369693   0.010787287057069982
0.15553800390762373   0.03102691016369693   0.010787287057069982
0.15553800390762373   0.03102691016369693   0.010787287057069982
0.1504882112310768   0.030019105307600165   -0.008399915701727635
0.1504882112310768   0.030019105307600165   -0.008399915701727635
0.1504882112310768   0.030019105307600165   -0.008399915701727635
0.1504882112310768   0.030019105307600165   -0.008399915701727635
-0.012374744378560662   0.006786555462163436   -0.0011711742851480663
-0.012374744378560662   0.006786555462163436   -0.0011711742851480663
-0.012374744378560662   0.006786555462163436   -0.0011711742851480663
-0.012374744378560662   0.006786555462163436   -0.0011711742851480663
0.06874106601178569   0.01151164366545833   0.007215955576795662
0.06874106601178569   0.01151164366545833   0.007215955576795662
0.06874106601178569   0.01151164366545833   0.007215955576795662
0.06874106601178569   0.01151164366545833   0.007215955576795662
0.1351121065174466   -0.03927783387812926   -0.01684103185402066
0.1351121065174466   -0.03927783387812926   -0.01684103185402066
0.1351121065174466   -0.03927783387812926   -0.01684103185402066
0.1351121065174466   -0.03927783387812926   -0.01684103185402066
0.2987483578605501   0.022221188278635097   0.01582990802838497
0.2987483578605501   0.022221188278635097   0.01582990802838497
0.2987483578605501   0.022221188278635097   0.01582990802838497
0.2987483578605501   0.022221188278635097   0.01582990802838497
0.2964661014856796   -0.0020729456637362392   -0.022424758665663732
0.2964661014856796   -0.0020729456637362392   -0.022424758665663732
0.2964661014856796   -0.0020729456637362392   -0.022424758665663732
0.2964661014856796   -0.0020729456637362392   -0.022424758665663732
0.1478673071190247   -0.0029862110179417964   0.010684181712279315
0.1478673071190247   -0.0029862110179417964   0.010684181712279315
0.1478673071190247   -0.0029862110179417964   0.010684181712279315
0.1478673071190247   -0.0029862110179417964   0.010684181712279315
0.20888037426272235   -0.007827330453993843   -0.006977999646954962
0.20888037426272235   -0.007827330453993843   -0.006977999646954962
0.20888037426272235   -0.007827330453993843   -0.006977999646954962
0.20888037426272235   -0.007827330453993843   -0.006977999646954962
0.13539235535538513   -0.03394841731786232   -0.020728370805997688
0.13539235535538513   -0.03394841731786232   -0.020728370805997688
0.13539235535538513   -0.03394841731786232   -0.020728370805997688
0.13539235535538513   -0.03394841731786232   -0.020728370805997688
0.30983265160609114   0.02978085899295531   0.01255418727970229
0.30983265160609114   0.02978085899295531   0.01255418727970229
0.30983265160609114   0.02978085899295531   0.01255418727970229
0.30983265160609114   0.02978085899295531   0.01255418727970229
0.3041126446864084   0.004189402493246251   -0.030156832255254812
0.3041126446864084   0.004189402493246251   -0.030156832255254812
0.3041126446864084   0.004189402493246251   -0.030156832255254812
0.3041126446864084   0.004189402493246251   -0.030156832255254812
0.1491367236931653   0.0017964672940924062   0.008011328854385153
0.1491367236931653   0.0017964672940924062   0.008011328854385153
0.1491367236931653   0.0017964672940924062   0.008011328854385153
0.1491367236931653   0.0017964672940924062   0.008011328854385153
0.2186542755740223   -0.001026574949474085   -0.002058191241600905
0.2186542755740223   -0.001026574949474085   -0.002058191241600905
0.2186542755740223   -0.001026574949474085   -0.002058191241600905
0.2186542755740223   -0.001026574949474085   -0.002058191241600905
0.13711042190317577   -0.02770368181053634   -0.02262003099093514
0.13711042190317577   -0.02770368181053634   -0.02262003099093514
0.13711042190317577   -0.02770368181053634   -0.02262003099093514
0.13711042190317577   -0.02770368181053634   -0.02262003099093514
0.31811388167556515   0.035664486797042434   0.00837426838673542
0.31811388167556515   0.035664486797042434   0.00837426838673542
0.31811388167556515   0.035664486797042434   0.00837426838673542
0.31811388167556515   0.035664486797042434   0.00837426838673542
0.31623370899323966   0.020447613840985215   -0.028456685970482457
0.31623370899323966   0.020447613840985215   -0.028456685970482457
0.31623370899323966   0.020447613840985215   -0.028456685970482457
0.31623370899323966   0.020447613840985215   -0.028456685970482457
0.14979154681875684   0.01225271161476484   0.005883155929510276
0.14979154681875684   0.01225271161476484   0.005883155929510276
0.14979154681875684   0.01225271161476484   0.005883155929510276
0.14979154681875684   0.01225271161476484   0.005883155929510276
0.22060173462419963   0.006703377610173582   0.003432174438865697
0.22060173462419963   0.006703377610173582   0.003432174438865697
0.22060173462419963   0.006703377610173582   0.003432174438865697
0.22060173462419963   0.006703377610173582   0.003432174438865697
-0.3488924037340926   -0.011072268700639175   0.023375979141809333
-0.3488924037340926   -0.011072268700639175   0.023375979141809333
-0.3488924037340926   -0.011072268700639175   0.023375979141809333
-0.3488924037340926   -0.011072268700639175   0.023375979141809333
-0.2454283150665537   -0.016733437116423867   -0.008748327908114046
-0.2454283150665537   -0.016733437116423867   -0.008748327908114046
-0.2454283150665537   -0.016733437116423867   -0.008748327908114046
-0.2454283150665537   -0.016733437116423867   -0.008748327908114046
-0.23079067896037134   0.02333634431750827   0.01988801586264371
-0.23079067896037134   0.02333634431750827   0.01988801586264371
-0.23079067896037134   0.02333634431750827   0.01988801586264371
-0.23079067896037134   0.02333634431750827   0.01988801586264371
-0.34890433147162186   -0.02879554878918098   -0.012813808893185235
-0.34890433147162186   -0.02879554878918098   -0.012813808893185235
-0.34890433147162186   -0.02879554878918098   -0.012813808893185235
-0.34890433147162186   -0.02879554878918098   -0.012813808893185235
-0.28155236756145974   -0.004410474685374657   -0.0008927346944052894
-0.28155236756145974   -0.004410474685374657   -0.0008927346944052894
-0.28155236756145974   -0.004410474685374657   -0.0008927346944052894
-0.28155236756145974   -0.004410474685374657   -0.0008927346944052894
-0.33557515464701754   0.002840959413151156   0.02219556702750431
-0.33557515464701754   0.002840959413151156   0.02219556702750431
-0.33557515464701754   0.002840959413151156   0.02219556702750431
-0.33557515464701754   0.002840959413151156   0.02219556702750431
-0.24302908868073686   -0.007209396780584708   -0.010758291641088878
-0.24302908868073686   -0.007209396780584708   -0.010758291641088878
-0.24302908868073686   -0.007209396780584708   -0.010758291641088878
-0.24302908868073686   -0.007209396780584708   -0.010758291641088878
-0.22860487961186785   0.028224636346504517   0.01677668498535593
-0.22860487961186785   0.028224636346504517   0.01677668498535593
-0.22860487961186785   0.028224636346504517   0.01677668498535593
-0.22860487961186785   0.028224636346504517   0.01677668498535593
-0.3404765264913198   -0.0233394902034613   -0.01615691721555116
-0.3404765264913198   -0.0233394902034613   -0.01615691721555116
-0.3404765264913198   -0.0233394902034613   -0.01615691721555116
-0.3404765264913198   -0.0233394902034613   -0.01615691721555116
-0.27946233687141675   0.0020197454227599276   0.0027746962528610135
-0.27946233687141675   0.0020197454227599276   0.0027746962528610135
-0.27946233687141675   0.0020197454227599276   0.0027746962528610135
-0.27946233687141675   0.0020197454227599276   0.0027746962528610135
-0.327284606697747   0.008688326868356536   0.017774864680495196
-0.327284606697747   0.008688326868356536   0.017774864680495196
-0.327284606697747   0.008688326868356536   0.017774864680495196
-0.327284606697747   0.008688326868356536   0.017774864680495196
-0.24081652861643027   -0.002822909936302437   -0.013234013754646405
-0.24081652861643027   -0.002822909936302437   -0.013234013754646405
-0.24081652861643027   -0.002822909936302437   -0.013234013754646405
-0.24081652861643027   -0.002822909936302437   -0.013234013754646405
-0.22740026511525127   0.03307917855687528   0.014432354492096264
-0.22740026511525127   0.03307917855687528   0.014432354492096264
-0.22740026511525127   0.03307917855687528   0.014432354492096264
-0.22740026511525127   0.03307917855687528   0.014432354492096264
-0.32923726639849116   -0.016083685798977586   -0.019318927778737956
-0.32923726639849116   -0.016083685798977586   -0.019318927778737956
-0.32923726639849116   -0.016083685798977586   -0.019318927778737956
-0.32923726639849116   -0.016083685798977586   -0.019318927778737956
-0.2688886815331869   0.008085456896457545   0.0078670570354662
-0.2688886815331869   0.008085456896457545   0.0078670570354662
-0.2688886815331869   0.008085456896457545   0.0078670570354662
-0.2688886815331869   0.008085456896457545   0.0078670570354662
-0.2424720408888797   -0.019654057291341908   0.008953663155172004
-0.2424720408888797   -0.019654057291341908   0.008953663155172004
-0.2424720408888797   -0.019654057291341908   0.008953663155172004
-0.2424720408888797   -0.019654057291341908   0.008953663155172004
-0.14181070362312956   -0.010834684143764983   -0.001417034011663305
-0.14181070362312956   -0.010834684143764983   -0.001417034011663305
-0.14181070362312956   -0.010834684143764983   -0.001417034011663305
-0.14181070362312956   -0.010834684143764983   -0.001417034011663305
-0.13457563663674627   0.013597315823708198   0.010717709136493303
-0.13457563663674627   0.013597315823708198   0.010717709136493303
-0.13457563663674627   0.013597315823708198   0.010717709136493303
-0.13457563663674627   0.013597315823708198   0.010717709136493303
-0.246180190052933   -0.02347598316712599   -0.010247212115530334
-0.246180190052933   -0.02347598316712599   -0.010247212115530334
-0.246180190052933   -0.02347598316712599   -0.010247212115530334
-0.246180190052933   -0.02347598316712599   -0.010247212115530334
-0.1905271203103205   -0.009208025108498379   -0.004006601827172123
-0.1905271203103205   -0.009208025108498379   -0.004006601827172123
-0.1905271203103205   -0.009208025108498379   -0.004006601827172123
-0.1905271203103205   -0.009208025108498379   -0.004006601827172123
-0.23958904695094946   -0.008085336684149326   0.007317856911408837
-0.23958904695094946   -0.008085336684149326   0.007317856911408837
-0.23958904695094946   -0.008085336684149326   0.007317856911408837
-0.23958904695094946   -0.008085336684149326   0.007317856911408837
-0.14031935510415292   -0.0009459060246918526   -0.0034576613521397825
-0.14031935510415292   -0.0009459060246918526   -0.0034576613521397825
-0.14031935510415292   -0.0009459060246918526   -0.0034576613521397825
-0.14031935510415292   -0.0009459060246918526   -0.0034576613521397825
-0.13286870470676504   0.023640017808249248   0.008772034588239608
-0.13286870470676504   0.023640017808249248   0.008772034588239608
-0.13286870470676504   0.023640017808249248   0.008772034588239608
-0.13286870470676504   0.023640017808249248   0.008772034588239608
-0.2428293654922033   -0.014037200352126356   -0.012083907717690492
-0.2428293654922033   -0.014037200352126356   -0.012083907717690492
-0.2428293654922033   -0.014037200352126356   -0.012083907717690492
-0.2428293654922033   -0.014037200352126356   -0.012083907717690492
-0.1868598411511198   0.0006167401239372053   0.00021717139339277707
-0.1868598411511198   0.0006167401239372053   0.00021717139339277707
-0.1868598411511198   0.0006167401239372053   0.00021717139339277707
-0.1868598411511198   0.0006167401239372053   0.00021717139339277707
-0.2357401810770094   0.002646898681485807   0.006677915324666744
-0.2357401810770094   0.002646898681485807   0.006677915324666744
-0.2357401810770094   0.002646898681485807   0.006677915324666744
-0.2357401810770094   0.002646898681485807   0.006677915324666744
-0.13890567759532121   0.008008130301275007   -0.005780942347565786
-0.13890567759532121   0.008008130301275007   -0.005780942347565786
-0.13890567759532121   0.008008130301275007   -0.005780942347565786
-0.13890567759532121   0.008008130301275007   -0.005780942347565786
-0.13121806952074114   0.034377705353121554   0.006960216262774401
-0.13121806952074114   0.034377705353121554   0.006960216262774401
-0.13121806952074114   0.034377705353121554   0.006960216262774401
-0.13121806952074114   0.034377705353121554   0.006960216262774401
-0.2403357462647475   -0.003827164501216   -0.013338708197292562
-0.2403357462647475   -0.003827164501216   -0.013338708197292562
-0.2403357462647475   -0.003827164501216   -0.013338708197292562
-0.2403357462647475   -0.003827164501216   -0.013338708197292562
-0.18542040068132118   0.009910832920525095   0.004257858794618433
-0.18542040068132118   0.009910832920525095   0.004257858794618433
-0.18542040068132118   0.009910832920525095   0.004257858794618433
-0.18542040068132118   0.009910832920525095   0.004257858794618433
-0.14474076129958613   -0.027389356314080068   0.00048734977636758484
-0.14474076129958613   -0.027389356314080068   0.00048734977636758484
-0.14474076129958613   -0.027389356314080068   0.00048734977636758484
-0.14474076129958613   -0.027389356314080068   0.00048734977636758484
-0.03914646368798249   -0.0034758307859927753   0.005874164752498904
-0.03914646368798249   -0.0034758307859927753   0.005874164752498904
-0.03914646368798249   -0.0034758307859927753   0.005874164752498904
-0.03914646368798249   -0.0034758307859927753   0.005874164752498904
-0.038240894184908086   0.005387529452360299   0.0020041562924220636
-0.038240894184908086   0.005387529452360299   0.0020041562924220636
-0.038240894184908086   0.005387529452360299   0.0020041562924220636
-0.038240894184908086   0.005387529452360299   0.0020041562924220636
-0.1431587252564585   -0.01590059719065381   -0.0026998209477068586
-0.1431587252564585   -0.01590059719065381   -0.0026998209477068586
-0.1431587252564585   -0.01590059719065381   -0.0026998209477068586
-0.1431587252564585   -0.01590059719065381   -0.0026998209477068586
-0.09148334150318277   -0.009894092982970368   -0.0028624033411461186
-0.09148334150318277   -0.009894092982970368   -0.0028624033411461186
-0.09148334150318277   -0.009894092982970368   -0.0028624033411461186
-0.09148334150318277   -0.009894092982970368   -0.0028624033411461186
-0.1429171993100959   -0.016189267093726   -0.0012035213128216067
-0.1429171993100959   -0.016189267093726   -0.0012035213128216067
-0.1429171993100959   -0.016189267093726   -0.0012035213128216067
-0.1429171993100959   -0.016189267093726   -0.0012035213128216067
-0.03763261745534647   0.006526002031356705   0.003907067361233695
-0.03763261745534647   0.006526002031356705   0.003907067361233695
-0.03763261745534647   0.006526002031356705   0.003907067361233695
-0.03763261745534647   0.006526002031356705   0.003907067361233695
-0.03617646610526009   0.01663824650313283   0.00047597960937007574
-0.03617646610526009   0.01663824650313283   0.00047597960937007574
-0.03617646610526009   0.01663824650313283   0.00047597960937007574
-0.03617646610526009   0.01663824650313283   0.00047597960937007574
-0.14144794085730486   -0.0058249425486485845   -0.004659185807561521
-0.14144794085730486   -0.0058249425486485845   -0.004659185807561521
-0.14144794085730486   -0.0058249425486485845   -0.004659185807561521
-0.14144794085730486   -0.0058249425486485845   -0.004659185807561521
-0.0892764472996562   0.00019659141296307636   0.0011267571954094342
-0.0892764472996562   0.00019659141296307636   0.0011267571954094342
-0.0892764472996562   0.00019659141296307636   0.0011267571954094342
-0.0892764472996562   0.00019659141296307636   0.0011267571954094342
-0.1409160632904562   -0.0049748474668114655   -0.0028498930551553057
-0.1409160632904562   -0.0049748474668114655   -0.0028498930551553057
-0.1409160632904562   -0.0049748474668114655   -0.0028498930551553057
-0.1409160632904562   -0.0049748474668114655   -0.0028498930551553057
-0.03592349168040842   0.016573003412996105   0.0018060948237655083
-0.03592349168040842   0.016573003412996105   0.0018060948237655083
-0.03592349168040842   0.016573003412996105   0.0018060948237655083
-0.03592349168040842   0.016573003412996105   0.0018060948237655083
-0.03431849378650548   0.02805233481194052   -0.0013067682967817084
-0.03431849378650548   0.02805233481194052   -0.0013067682967817084
-0.03431849378650548   0.02805233481194052   -0.0013067682967817084
-0.03431849378650548   0.02805233481194052   -0.0013067682967817084
-0.13995699589701646   0.004363434835565609   -0.006720145101046718
-0.13995699589701646   0.004363434835565609   -0.006720145101046718
-0.13995699589701646   0.004363434835565609   -0.006720145101046718
-0.13995699589701646   0.004363434835565609   -0.006720145101046718
-0.08726277195550503   0.01033604863704948   0.004970117294117841
-0.08726277195550503   0.01033604863704948   0.004970117294117841
-0.08726277195550503   0.01033604863704948   0.004970117294117841
-0.08726277195550503   0.01033604863704948   0.004970117294117841
-0.04792337099856518   -0.03373029802135524   -0.007755904565052465
-0.04792337099856518   -0.03373029802135524   -0.007755904565052465
-0.04792337099856518   -0.03373029802135524   -0.007755904565052465
-0.04792337099856518   -0.03373029802135524   -0.007755904565052465
0.061895245987006214   0.0047519013447615815   0.012722868244770966
0.061895245987006214   0.0047519013447615815   0.012722868244770966
0.061895245987006214   0.0047519013447615815   0.012722868244770966
0.061895245987006214   0.0047519013447615815   0.012722868244770966
0.05726831740921696   -0.0023144849171393856   -0.0073012710095217564
0.05726831740921696   -0.0023144849171393856   -0.0073012710095217564
0.05726831740921696   -0.0023144849171393856   -0.0073012710095217564
0.05726831740921696   -0.0023144849171393856   -0.0073012710095217564
-0.04030663942585235   -0.007728613518385234   0.004791573058446249
-0.04030663942585235   -0.007728613518385234   0.004791573058446249
-0.04030663942585235   -0.007728613518385234   0.004791573058446249
-0.04030663942585235   -0.007728613518385234   0.004791573058446249
0.007348810426746399   -0.00948161281860147   -0.0020482814854897863
0.007348810426746399   -0.00948161281860147   -0.0020482814854897863
0.007348810426746399   -0.00948161281860147   -0.0020482814854897863
0.007348810426746399   -0.00948161281860147   -0.0020482814854897863
-0.046333665556316975   -0.0234908846089952   -0.009581286503266907
-0.046333665556316975   -0.0234908846089952   -0.009581286503266907
-0.046333665556316975   -0.0234908846089952   -0.009581286503266907
-0.046333665556316975   -0.0234908846089952   -0.009581286503266907
0.0643054309541559   0.014457873587944743   0.011111938210087869
0.0643054309541559   0.014457873587944743   0.011111938210087869
0.0643054309541559   0.014457873587944743   0.011111938210087869
0.0643054309541559   0.014457873587944743   0.011111938210087869
0.06113031441570856   0.008331318293662215   -0.008282982801192232
0.06113031441570856   0.008331318293662215   -0.008282982801192232
0.06113031441570856   0.008331318293662215   -0.008282982801192232
0.06113031441570856   0.008331318293662215   -0.008282982801192232
-0.0388188269646319   0.0012814973021157607   0.0026209245135284196
-0.0388188269646319   0.0012814973021157607   0.0026209245135284196
-0.0388188269646319   0.0012814973021157607   0.0026209245135284196
-0.0388188269646319   0.0012814973021157607   0.0026209245135284196
0.009416202599351681   -0.00030461541997034176   0.002018753774810787
0.009416202599351681   -0.00030461541997034176   0.002018753774810787
0.009416202599351681   -0.00030461541997034176   0.002018753774810787
0.009416202599351681   -0.00030461541997034176   0.002018753774810787
-0.04463581384504237   -0.013501511096275984   -0.01168100149013229
-0.04463581384504237   -0.013501511096275984   -0.01168100149013229
-0.04463581384504237   -0.013501511096275984   -0.01168100149013229
-0.04463581384504237   -0.013501511096275984   -0.01168100149013229
0.0678241549391569   0.02399118033509102   0.009526357774619711
0.0678241549391569   0.02399118033509102   0.009526357774619711
0.0678241549391569   0.02399118033509102   0.009526357774619711
0.0678241549391569   0.02399118033509102   0.009526357774619711
0.06424860377662527   0.02042735932276632   -0.009590503137315739
0.06424860377662527   0.02042735932276632   -0.009590503137315739
0.06424860377662527   0.02042735932276632   -0.009590503137315739
0.06424860377662527   0.02042735932276632   -0.009590503137315739
-0.037230892291398136   0.011627966643105654   0.0005556073475894742
-0.037230892291398136   0.011627966643105654   0.0005556073475894742
-0.037230892291398136   0.011627966643105654   0.0005556073475894742
-0.037230892291398136   0.011627966643105654   0.0005556073475894742
0.012565609621793358   0.009625815888217646   0.006213057998404891
0.012565609621793358   0.009625815888217646   0.006213057998404891
0.012565609621793358   0.009625815888217646   0.006213057998404891
0.012565609621793358   0.009625815888217646   0.006213057998404891
0.04850407385258601   -0.03407489028762367   -0.015406200794944805
0.04850407385258601   -0.03407489028762367   -0.015406200794944805
0.04850407385258601   -0.03407489028762367   -0.015406200794944805
0.04850407385258601   -0.03407489028762367   -0.015406200794944805
0.15083664866857827   0.015034609065144332   0.016647936684357906
0.15083664866857827   0.015034609065144332   0.016647936684357906
0.15083664866857827   0.015034609065144332   0.016647936684357906
0.15083664866857827   0.015034609065144332   0.016647936684357906
0.1492268585640222   -0.008911315592424678   -0.020300892605132563
0.1492268585640222   -0.008911315592424678   -0.020300892605132563
0.1492268585640222   -0.008911315592424678   -0.020300892605132563
0.1492268585640222   -0.008911315592424678   -0.020300892605132563
0.06228181934051334   0.0030016259027499884   0.012450127827070263
0.06228181934051334   0.0030016259027499884   0.012450127827070263
0.06228181934051334   0.0030016259027499884   0.012450127827070263
0.06228181934051334   0.0030016259027499884   0.012450127827070263
0.09733982854100669   -0.007214201127370701   -0.005303209315480336
0.09733982854100669   -0.007214201127370701   -0.005303209315480336
0.09733982854100669   -0.007214201127370701   -0.005303209315480336
0.09733982854100669   -0.007214201127370701   -0.005303209315480336
0.04997057118081337   -0.028269409968146537   -0.017835077100533024
0.04997057118081337   -0.028269409968146537   -0.017835077100533024
0.04997057118081337   -0.028269409968146537   -0.017835077100533024
0.04997057118081337   -0.028269409968146537   -0.017835077100533024
0.16256782829074204   0.02338944184549173   0.014103198590554089
0.16256782829074204   0.02338944184549173   0.014103198590554089
0.16256782829074204   0.02338944184549173   0.014103198590554089
0.16256782829074204   0.02338944184549173   0.014103198590554089
0.15777320969437994   -0.0029596623508207423   -0.024405805371395257
0.15777320969437994   -0.0029596623508207423   -0.024405805371395257
0.15777320969437994   -0.0029596623508207423   -0.024405805371395257
0.15777320969437994   -0.0029596623508207423   -0.024405805371395257
0.06454180203409533   0.007365113229930062   0.00974066035447282
0.06454180203409533   0.007365113229930062   0.00974066035447282
0.06454180203409533   0.007365113229930062   0.00974066035447282
0.06454180203409533   0.007365113229930062   0.00974066035447282
0.10587509242620555   -0.00118606415307047   -0.0005370303229428599
0.10587509242620555   -0.00118606415307047   -0.0005370303229428599
0.10587509242620555   -0.00118606415307047   -0.0005370303229428599
0.10587509242620555   -0.00118606415307047   -0.0005370303229428599
0.05231215286006857   -0.023316005917125057   -0.02072646636860545
0.05231215286006857   -0.023316005917125057   -0.02072646636860545
0.05231215286006857   -0.023316005917125057   -0.02072646636860545
0.05231215286006857   -0.023316005917125057   -0.02072646636860545
0.17108099349296274   0.0287995914207916   0.010373859849909278
0.17108099349296274   0.0287995914207916   0.010373859849909278
0.17108099349296274   0.0287995914207916   0.010373859849909278
0.17108099349296274   0.0287995914207916   0.010373859849909278
0.17095150119257413   0.010072760718511656   -0.026176552925569134
0.17095150119257413   0.010072760718511656   -0.026176552925569134
0.17095150119257413   0.010072760718511656   -0.026176552925569134
0.17095150119257413   0.010072760718511656   -0.026176552925569134
0.06685114900595772   0.01609671817595902   0.007752864156153284
0.06685114900595772   0.01609671817595902   0.007752864156153284
0.06685114900595772   0.01609671817595902   0.007752864156153284
0.06685114900595772   0.01609671817595902   0.007752864156153284
0.11028949145660871   0.005412186722425855   0.003606141982438752
0.11028949145660871   0.005412186722425855   0.003606141982438752
0.11028949145660871   0.005412186722425855   0.003606141982438752
0.11028949145660871   0.005412186722425855   0.003606141982438752
-0.2066458180807486   -0.003070699405285579   0.020782863661768493
-0.2066458180807486   -0.003070699405285579   0.020782863661768493
-0.2066458180807486   -0.003070699405285579   0.020782863661768493
-0.2066458180807486   -0.003070699405285579   0.020782863661768493
-0.1628910439342004   -0.020959742392156283   -0.010150424780272768
-0.1628910439342004   -0.020959742392156283   -0.010150424780272768
-0.1628910439342004   -0.020959742392156283   -0.010150424780272768
-0.1628910439342004   -0.020959742392156283   -0.010150424780272768
-0.14737588240512364   0.017619450012757557   0.01773273605000921
-0.14737588240512364   0.017619450012757557   0.01773273605000921
-0.14737588240512364   0.017619450012757557   0.01773273605000921
-0.14737588240512364   0.017619450012757557   0.01773273605000921
-0.20585739897717917   -0.0224890854691978   -0.013868803256799761
-0.20585739897717917   -0.0224890854691978   -0.013868803256799761
-0.20585739897717917   -0.0224890854691978   -0.013868803256799761
-0.20585739897717917   -0.0224890854691978   -0.013868803256799761
-0.17385675629718234   -0.004697927117158995   -0.0028268545589127322
-0.17385675629718234   -0.004697927117158995   -0.0028268545589127322
-0.17385675629718234   -0.004697927117158995   -0.0028268545589127322
-0.17385675629718234   -0.004697927117158995   -0.0028268545589127322
-0.19283025542242585   0.00894799500737422   0.019829834040394734
-0.19283025542242585   0.00894799500737422   0.019829834040394734
-0.19283025542242585   0.00894799500737422   0.019829834040394734
-0.19283025542242585   0.00894799500737422   0.019829834040394734
-0.1594824687512826   -0.012897073255219983   -0.012283672412807204
-0.1594824687512826   -0.012897073255219983   -0.012283672412807204
-0.1594824687512826   -0.012897073255219983   -0.012283672412807204
-0.1594824687512826   -0.012897073255219983   -0.012283672412807204
-0.14381088954818075   0.02221923555894166   0.014971074653328385
-0.14381088954818075   0.02221923555894166   0.014971074653328385
-0.14381088954818075   0.02221923555894166   0.014971074653328385
-0.14381088954818075   0.02221923555894166   0.014971074653328385
-0.1963151839618805   -0.017272655243668184   -0.01728259566824115
-0.1963151839618805   -0.017272655243668184   -0.01728259566824115
-0.1963151839618805   -0.017272655243668184   -0.01728259566824115
-0.1963151839618805   -0.017272655243668184   -0.01728259566824115
-0.1688659138734198   0.0013029969896659818   0.0010285017226754171
-0.1688659138734198   0.0013029969896659818   0.0010285017226754171
-0.1688659138734198   0.0013029969896659818   0.0010285017226754171
-0.1688659138734198   0.0013029969896659818   0.0010285017226754171
-0.18330113164425701   0.014524978620251636   0.015990032055954527
-0.18330113164425701   0.014524978620251636   0.015990032055954527
-0.18330113164425701   0.014524978620251636   0.015990032055954527
-0.18330113164425701   0.014524978620251636   0.015990032055954527
-0.15595941016460285   -0.008712866603776934   -0.01483942626606256
-0.15595941016460285   -0.008712866603776934   -0.01483942626606256
-0.15595941016460285   -0.008712866603776934   -0.01483942626606256
-0.15595941016460285   -0.008712866603776934   -0.01483942626606256
-0.14095110981180553   0.028018814034182396   0.012907414800376283
-0.14095110981180553   0.028018814034182396   0.012907414800376283
-0.14095110981180553   0.028018814034182396   0.012907414800376283
-0.14095110981180553   0.028018814034182396   0.012907414800376283
-0.18350845959573742   -0.008907253314684886   -0.01998292256405642
-0.18350845959573742   -0.008907253314684886   -0.01998292256405642
-0.18350845959573742   -0.008907253314684886   -0.01998292256405642
-0.18350845959573742   -0.008907253314684886   -0.01998292256405642
-0.15886061153836326   0.0072603737872465185   0.005778994611365416
-0.15886061153836326   0.0072603737872465185   0.005778994611365416
-0.15886061153836326   0.0072603737872465185   0.005778994611365416
-0.15886061153836326   0.0072603737872465185   0.005778994611365416
-0.15699476557977313   -0.011594870677349656   0.009966095277056908
-0.15699476557977313   -0.011594870677349656   0.009966095277056908
-0.15699476557977313   -0.011594870677349656   0.009966095277056908
-0.15699476557977313   -0.011594870677349656   0.009966095277056908
-0.11677682199512278   -0.01587069216882396   -0.002995632846359427
-0.11677682199512278   -0.01587069216882396   -0.002995632846359427
-0.11677682199512278   -0.01587069216882396   -0.002995632846359427
-0.11677682199512278   -0.01587069216882396   -0.002995632846359427
-0.10819340230717407   0.007984884813737481   0.009070340043028091
-0.10819340230717407   0.007984884813737481   0.009070340043028091
-0.10819340230717407   0.007984884813737481   0.009070340043028091
-0.10819340230717407   0.007984884813737481   0.009070340043028091
-0.15947333570453373   -0.01655012148197875   -0.008584958952303927
-0.15947333570453373   -0.01655012148197875   -0.008584958952303927
-0.15947333570453373   -0.01655012148197875   -0.008584958952303927
-0.15947333570453373   -0.01655012148197875   -0.008584958952303927
-0.13502313277259573   -0.008273425713282514   -0.0037273965592739293
-0.13502313277259573   -0.008273425713282514   -0.0037273965592739293
-0.13502313277259573   -0.008273425713282514   -0.0037273965592739293
-0.13502313277259573   -0.008273425713282514   -0.0037273965592739293
-0.15296843770915702   -0.0010885903056207895   0.008477999848219682
-0.15296843770915702   -0.0010885903056207895   0.008477999848219682
-0.15296843770915702   -0.0010885903056207895   0.008477999848219682
-0.15296843770915702   -0.0010885903056207895   0.008477999848219682
-0.11395634064426793   -0.006734686704337949   -0.005024780124365708
-0.11395634064426793   -0.006734686704337949   -0.005024780124365708
-0.11395634064426793   -0.006734686704337949   -0.005024780124365708
-0.11395634064426793   -0.006734686704337949   -0.005024780124365708
-0.10512928884205062   0.01736823244008967   0.007243179593236976
-0.10512928884205062   0.01736823244008967   0.007243179593236976
-0.10512928884205062   0.01736823244008967   0.007243179593236976
-0.10512928884205062   0.01736823244008967   0.007243179593236976
-0.15482098708824218   -0.007573513382400136   -0.010286664105635147
-0.15482098708824218   -0.007573513382400136   -0.010286664105635147
-0.15482098708824218   -0.007573513382400136   -0.010286664105635147
-0.15482098708824218   -0.007573513382400136   -0.010286664105635147
-0.13054713952520441   0.000728890356296006   0.00030379268902849896
-0.13054713952520441   0.000728890356296006   0.00030379268902849896
-0.13054713952520441   0.000728890356296006   0.00030379268902849896
-0.13054713952520441   0.000728890356296006   0.00030379268902849896
-0.14793235503244076   0.008896316534631882   0.007686666256338171
-0.14793235503244076   0.008896316534631882   0.007686666256338171
-0.14793235503244076   0.008896316534631882   0.007686666256338171
-0.14793235503244076   0.008896316534631882   0.007686666256338171
-0.1111616085542739   0.001754714866635275   -0.007304901394426393
-0.1111616085542739   0.001754714866635275   -0.007304901394426393
-0.1111616085542739   0.001754714866635275   -0.007304901394426393
-0.1111616085542739   0.001754714866635275   -0.007304901394426393
-0.1020732294926888   0.027593609099161868   0.005502643032538064
-0.1020732294926888   0.027593609099161868   0.005502643032538064
-0.1020732294926888   0.027593609099161868   0.005502643032538064
-0.1020732294926888   0.027593609099161868   0.005502643032538064
-0.15101271675997996   0.0022714236317250766   -0.011653229538037579
-0.15101271675997996   0.0022714236317250766   -0.011653229538037579
-0.15101271675997996   0.0022714236317250766   -0.011653229538037579
-0.15101271675997996   0.0022714236317250766   -0.011653229538037579
-0.1273246490692883   0.009602446953587054   0.004264364318109323
-0.1273246490692883   0.009602446953587054   0.004264364318109323
-0.1273246490692883   0.009602446953587054   0.004264364318109323
-0.1273246490692883   0.009602446953587054   0.004264364318109323
-0.11658987650708971   -0.019771388179431738   0.0018397906044113144
-0.11658987650708971   -0.019771388179431738   0.0018397906044113144
-0.11658987650708971   -0.019771388179431738   0.0018397906044113144
-0.11658987650708971   -0.019771388179431738   0.0018397906044113144
-0.07117077392586359   -0.008589438867647944   0.0042366979117130655
-0.07117077392586359   -0.008589438867647944   0.0042366979117130655
-0.07117077392586359   -0.008589438867647944   0.0042366979117130655
-0.07117077392586359   -0.008589438867647944   0.0042366979117130655
-0.06892523653388254   -0.0004075208213476615   0.0005320721762479179
-0.06892523653388254   -0.0004075208213476615   0.0005320721762479179
-0.06892523653388254   -0.0004075208213476615   0.0005320721762479179
-0.06892523653388254   -0.0004075208213476615   0.0005320721762479179
-0.1135831205805486   -0.008925510317022768   -0.0009678561930843558
-0.1135831205805486   -0.008925510317022768   -0.0009678561930843558
-0.1135831205805486   -0.008925510317022768   -0.0009678561930843558
-0.1135831205805486   -0.008925510317022768   -0.0009678561930843558
-0.09271768849909671   -0.008977524148033905   -0.0027283779384552854
-0.09271768849909671   -0.008977524148033905   -0.0027283779384552854
-0.09271768849909671   -0.008977524148033905   -0.0027283779384552854
-0.09271768849909671   -0.008977524148033905   -0.0027283779384552854
-0.11343091283063915   -0.009367946723384485   0.0002356189628242504
-0.11343091283063915   -0.009367946723384485   0.0002356189628242504
-0.11343091283063915   -0.009367946723384485   0.0002356189628242504
-0.11343091283063915   -0.009367946723384485   0.0002356189628242504
-0.068338403212423   0.0007739566563810616   0.0022847613058168455
-0.068338403212423   0.0007739566563810616   0.0022847613058168455
-0.068338403212423   0.0007739566563810616   0.0022847613058168455
-0.068338403212423   0.0007739566563810616   0.0022847613058168455
-0.06558394225315978   0.010085432013305622   -0.000971311601939375
-0.06558394225315978   0.010085432013305622   -0.000971311601939375
-0.06558394225315978   0.010085432013305622   -0.000971311601939375
-0.06558394225315978   0.010085432013305622   -0.000971311601939375
-0.11051176763375778   0.0005732885468213017   -0.0028742704720318294
-0.11051176763375778   0.0005732885468213017   -0.0028742704720318294
-0.11051176763375778   0.0005732885468213017   -0.0028742704720318294
-0.11051176763375778   0.0005732885468213017   -0.0028742704720318294
-0.08918622105304558   0.00043579438973392545   0.0011908531867736742
-0.08918622105304558   0.00043579438973392545   0.0011908531867736742
-0.08918622105304558   0.00043579438973392545   0.0011908531867736742
-0.08918622105304558   0.00043579438973392545   0.0011908531867736742
-0.11011423197202595   0.0010924797221749105   -0.0014057833387267583
-0.11011423197202595   0.0010924797221749105   -0.0014057833387267583
-0.11011423197202595   0.0010924797221749105   -0.0014057833387267583
-0.11011423197202595   0.0010924797221749105   -0.0014057833387267583
-0.06531236881350473   0.010235349939340206   0.00023663767030194984
-0.06531236881350473   0.010235349939340206   0.00023663767030194984
-0.06531236881350473   0.010235349939340206   0.00023663767030194984
-0.06531236881350473   0.010235349939340206   0.00023663767030194984
-0.062426041466458075   0.020679012061122853   -0.00267321340381888
-0.062426041466458075   0.020679012061122853   -0.00267321340381888
-0.062426041466458075   0.020679012061122853   -0.00267321340381888
-0.062426041466458075   0.020679012061122853   -0.00267321340381888
-0.1076486110284555   0.010143824429547303   -0.004924479976680305
-0.1076486110284555   0.010143824429547303   -0.004924479976680305
-0.1076486110284555   0.010143824429547303   -0.004924479976680305
-0.1076486110284555   0.010143824429547303   -0.004924479976680305
-0.08585394589651112   0.009883557242409174   0.004951257171111307
-0.08585394589651112   0.009883557242409174   0.004951257171111307
-0.08585394589651112   0.009883557242409174   0.004951257171111307
-0.08585394589651112   0.009883557242409174   0.004951257171111307
-0.07693722244250172   -0.026830135581600252   -0.006354847957526439
-0.07693722244250172   -0.026830135581600252   -0.006354847957526439
-0.07693722244250172   -0.026830135581600252   -0.006354847957526439
-0.07693722244250172   -0.026830135581600252   -0.006354847957526439
-0.027141761821087396   -0.0008652044818050456   0.01108471617804233
-0.027141761821087396   -0.0008652044818050456   0.01108471617804233
-0.027141761821087396   -0.0008652044818050456   0.01108471617804233
-0.027141761821087396   -0.0008652044818050456   0.01108471617804233
-0.03046431501509668   -0.008394112596712223   -0.008378246743944374
-0.03046431501509668   -0.008394112596712223   -0.008378246743944374
-0.03046431501509668   -0.008394112596712223   -0.008378246743944374
-0.03046431501509668   -0.008394112596712223   -0.008378246743944374
-0.06787020478911367   -0.001012491194873913   0.006412201273617857
-0.06787020478911367   -0.001012491194873913   0.006412201273617857
-0.06787020478911367   -0.001012491194873913   0.006412201273617857
-0.06787020478911367   -0.001012491194873913   0.006412201273617857
-0.05056048059114329   -0.008875551865324426   -0.0019729734860227995
-0.05056048059114329   -0.008875551865324426   -0.0019729734860227995
-0.05056048059114329   -0.008875551865324426   -0.0019729734860227995
-0.05056048059114329   -0.008875551865324426   -0.0019729734860227995
-0.07397161028286699   -0.01703448814956774   -0.00807282924045549
-0.07397161028286699   -0.01703448814956774   -0.00807282924045549
-0.07397161028286699   -0.01703448814956774   -0.00807282924045549
-0.07397161028286699   -0.01703448814956774   -0.00807282924045549
-0.023536803229129565   0.008453990650195945   0.009411208938983036
-0.023536803229129565   0.008453990650195945   0.009411208938983036
-0.023536803229129565   0.008453990650195945   0.009411208938983036
-0.023536803229129565   0.008453990650195945   0.009411208938983036
-0.025513969400364874   0.0015308131214392413   -0.009437353954117385
-0.025513969400364874   0.0015308131214392413   -0.009437353954117385
-0.025513969400364874   0.0015308131214392413   -0.009437353954117385
-0.025513969400364874   0.0015308131214392413   -0.009437353954117385
-0.06504599118941218   0.007512852792467864   0.00429102293763637
-0.06504599118941218   0.007512852792467864   0.00429102293763637
-0.06504599118941218   0.007512852792467864   0.00429102293763637
-0.06504599118941218   0.007512852792467864   0.00429102293763637
-0.0467754998375659   -8.590410815681113e-05   0.0020289435421102274
-0.0467754998375659   -8.590410815681113e-05   0.0020289435421102274
-0.0467754998375659   -8.590410815681113e-05   0.0020289435421102274
-0.0467754998375659   -8.590410815681113e-05   0.0020289435421102274
-0.07095272085337434   -0.007679517413567203   -0.010050255176140145
-0.07095272085337434   -0.007679517413567203   -0.010050255176140145
-0.07095272085337434   -0.007679517413567203   -0.010050255176140145
-0.07095272085337434   -0.007679517413567203   -0.010050255176140145
-0.018837543615812326   0.017492879448063364   0.007982708642021693
-0.018837543615812326   0.017492879448063364   0.007982708642021693
-0.018837543615812326   0.017492879448063364   0.007982708642021693
-0.018837543615812326   0.017492879448063364   0.007982708642021693
-0.021332149711235468   0.012579131088670934   -0.010587313004742971
-0.021332149711235468   0.012579131088670934   -0.010587313004742971
-0.021332149711235468   0.012579131088670934   -0.010587313004742971
-0.021332149711235468   0.012579131088670934   -0.010587313004742971
-0.06215396970382957   0.017120758305064633   0.0022453991653818665
-0.06215396970382957   0.017120758305064633   0.0022453991653818665
-0.06215396970382957   0.017120758305064633   0.0022453991653818665
-0.06215396970382957   0.017120758305064633   0.0022453991653818665
-0.04288928682433715   0.009026142833623758   0.006014048550175425
-0.04288928682433715   0.009026142833623758   0.006014048550175425
-0.04288928682433715   0.009026142833623758   0.006014048550175425
-0.04288928682433715   0.009026142833623758   0.006014048550175425
-0.03772542385232332   -0.028789293723246054   -0.013909504736696275
-0.03772542385232332   -0.028789293723246054   -0.013909504736696275
-0.03772542385232332   -0.028789293723246054   -0.013909504736696275
-0.03772542385232332   -0.028789293723246054   -0.013909504736696275
0.005021755646802448   0.008002130114668523   0.017070302711743746
0.005021755646802448   0.008002130114668523   0.017070302711743746
0.005021755646802448   0.008002130114668523   0.017070302711743746
0.005021755646802448   0.008002130114668523   0.017070302711743746
0.0049554144512936275   -0.014646590661389108   -0.018464550104405515
0.0049554144512936275   -0.014646590661389108   -0.018464550104405515
0.0049554144512936275   -0.014646590661389108   -0.018464550104405515
0.0049554144512936275   -0.014646590661389108   -0.018464550104405515
-0.02251870291499963   0.008977776920173132   0.01397792423965552
-0.02251870291499963   0.008977776920173132   0.01397792423965552
-0.02251870291499963   0.008977776920173132   0.01397792423965552
-0.02251870291499963   0.008977776920173132   0.01397792423965552
-0.012686763340558061   -0.006279135608025899   -0.0031221600698746526
-0.012686763340558061   -0.006279135608025899   -0.0031221600698746526
-0.012686763340558061   -0.006279135608025899   -0.0031221600698746526
-0.012686763340558061   -0.006279135608025899   -0.0031221600698746526
-0.03472912744915578   -0.022091561102324308   -0.016004860408628276
-0.03472912744915578   -0.022091561102324308   -0.016004860408628276
-0.03472912744915578   -0.022091561102324308   -0.016004860408628276
-0.03472912744915578   -0.022091561102324308   -0.016004860408628276
0.018046517296715147   0.017303425672374105   0.015040947788937921
0.018046517296715147   0.017303425672374105   0.015040947788937921
0.018046517296715147   0.017303425672374105   0.015040947788937921
0.018046517296715147   0.017303425672374105   0.015040947788937921
0.014536603882096464   -0.008979422295227314   -0.02197681911931903
0.014536603882096464   -0.008979422295227314   -0.02197681911931903
0.014536603882096464   -0.008979422295227314   -0.02197681911931903
0.014536603882096464   -0.008979422295227314   -0.02197681911931903
-0.019067851527186   0.013091539486570273   0.011232509046646423
-0.019067851527186   0.013091539486570273   0.011232509046646423
-0.019067851527186   0.013091539486570273   0.011232509046646423
-0.019067851527186   0.013091539486570273   0.011232509046646423
-0.0049134875869593815   -0.0004247428731638178   0.0011885945880943014
-0.0049134875869593815   -0.0004247428731638178   0.0011885945880943014
-0.0049134875869593815   -0.0004247428731638178   0.0011885945880943014
-0.0049134875869593815   -0.0004247428731638178   0.0011885945880943014
-0.03112742596203607   -0.017426357640330698   -0.01854746600070342
-0.03112742596203607   -0.017426357640330698   -0.01854746600070342
-0.03112742596203607   -0.017426357640330698   -0.01854746600070342
-0.03112742596203607   -0.017426357640330698   -0.01854746600070342
0.02748185299201969   0.022424149506746576   0.01134585462832225
0.02748185299201969   0.022424149506746576   0.01134585462832225
0.02748185299201969   0.022424149506746576   0.01134585462832225
0.02748185299201969   0.022424149506746576   0.01134585462832225
0.028060233844696504   0.0020728335830163163   -0.023575643647299024
0.028060233844696504   0.0020728335830163163   -0.023575643647299024
0.028060233844696504   0.0020728335830163163   -0.023575643647299024
0.028060233844696504   0.0020728335830163163   -0.023575643647299024
-0.015852109535962614   0.020258999493261053   0.009133019467031173
-0.015852109535962614   0.020258999493261053   0.009133019467031173
-0.015852109535962614   0.020258999493261053   0.009133019467031173
-0.015852109535962614   0.020258999493261053   0.009133019467031173
0.0022606750636860553   0.0056834662657092505   0.005439283361129019
0.0022606750636860553   0.0056834662657092505   0.005439283361129019
0.0022606750636860553   0.0056834662657092505   0.005439283361129019
0.0022606750636860553   0.0056834662657092505   0.005439283361129019
-0.06577591093259572   0.004398366097302606   0.019524984665417012
-0.06577591093259572   0.004398366097302606   0.019524984665417012
-0.06577591093259572   0.004398366097302606   0.019524984665417012
-0.06577591093259572   0.004398366097302606   0.019524984665417012
-0.08140542850803546   -0.025290934203582333   -0.011356666528611871
-0.08140542850803546   -0.025290934203582333   -0.011356666528611871
-0.08140542850803546   -0.025290934203582333   -0.011356666528611871
-0.08140542850803546   -0.025290934203582333   -0.011356666528611871
-0.06499557343544365   0.011647045677178353   0.015950026933345508
-0.06499557343544365   0.011647045677178353   0.015950026933345508
-0.06499557343544365   0.011647045677178353   0.015950026933345508
-0.06499557343544365   0.011647045677178353   0.015950026933345508
-0.06396410588051368   -0.01620653268791031   -0.014703856769121951
-0.06396410588051368   -0.01620653268791031   -0.014703856769121951
-0.06396410588051368   -0.01620653268791031   -0.014703856769121951
-0.06396410588051368   -0.01620653268791031   -0.014703856769121951
-0.06739284827070181   -0.005165882961447066   -0.005487515304737513
-0.06739284827070181   -0.005165882961447066   -0.005487515304737513
-0.06739284827070181   -0.005165882961447066   -0.005487515304737513
-0.06739284827070181   -0.005165882961447066   -0.005487515304737513
-0.05117694022387801   0.014854878915042684   0.018170559911101516
-0.05117694022387801   0.014854878915042684   0.018170559911101516
-0.05117694022387801   0.014854878915042684   0.018170559911101516
-0.05117694022387801   0.014854878915042684   0.018170559911101516
-0.07695914936442587   -0.018590776198121328   -0.013630030836264873
-0.07695914936442587   -0.018590776198121328   -0.013630030836264873
-0.07695914936442587   -0.018590776198121328   -0.013630030836264873
-0.07695914936442587   -0.018590776198121328   -0.013630030836264873
-0.0600914428290291   0.016107710001131554   0.013395489422913812
-0.0600914428290291   0.016107710001131554   0.013395489422913812
-0.0600914428290291   0.016107710001131554   0.013395489422913812
-0.0600914428290291   0.016107710001131554   0.013395489422913812
-0.053187151596901565   -0.011165399514320867   -0.018261753846511488
-0.053187151596901565   -0.011165399514320867   -0.018261753846511488
-0.053187151596901565   -0.011165399514320867   -0.018261753846511488
-0.053187151596901565   -0.011165399514320867   -0.018261753846511488
-0.05944809805207465   0.0005105402020319262   -0.0012808191185403194
-0.05944809805207465   0.0005105402020319262   -0.0012808191185403194
-0.05944809805207465   0.0005105402020319262   -0.0012808191185403194
-0.05944809805207465   0.0005105402020319262   -0.0012808191185403194
-0.040349934166265554   0.020273917172975546   0.014485016619370236
-0.040349934166265554   0.020273917172975546   0.014485016619370236
-0.040349934166265554   0.020273917172975546   0.014485016619370236
-0.040349934166265554   0.020273917172975546   0.014485016619370236
-0.07215895926345686   -0.014561905689955508   -0.016272477058137065
-0.07215895926345686   -0.014561905689955508   -0.016272477058137065
-0.07215895926345686   -0.014561905689955508   -0.016272477058137065
-0.07215895926345686   -0.014561905689955508   -0.016272477058137065
-0.05562762142548827   0.022978541450707688   0.011565213092657277
-0.05562762142548827   0.022978541450707688   0.011565213092657277
-0.05562762142548827   0.022978541450707688   0.011565213092657277
-0.05562762142548827   0.022978541450707688   0.011565213092657277
-0.03879058963171181   -0.0015885685484494632   -0.020555425770746098
-0.03879058963171181   -0.0015885685484494632   -0.020555425770746098
-0.03879058963171181   -0.0015885685484494632   -0.020555425770746098
-0.03879058963171181   -0.0015885685484494632   -0.020555425770746098
-0.049962550209623195   0.006480686633563399   0.003195781529429834
-0.049962550209623195   0.006480686633563399   0.003195781529429834
-0.049962550209623195   0.006480686633563399   0.003195781529429834
-0.049962550209623195   0.006480686633563399   0.003195781529429834
-0.07266669504497629   -0.004200272410752201   0.011246338993852871
-0.07266669504497629   -0.004200272410752201   0.011246338993852871
-0.07266669504497629   -0.004200272410752201   0.011246338993852871
-0.07266669504497629   -0.004200272410752201   0.011246338993852871
-0.0923540076736308   -0.020644032474845184   -0.004432407235936699
-0.0923540076736308   -0.020644032474845184   -0.004432407235936699
-0.0923540076736308   -0.020644032474845184   -0.004432407235936699
-0.0923540076736308   -0.020644032474845184   -0.004432407235936699
-0.08263338805772512   0.002016977409189862   0.007410587856722869
-0.08263338805772512   0.002016977409189862   0.007410587856722869
-0.08263338805772512   0.002016977409189862   0.007410587856722869
-0.08263338805772512   0.002016977409189862   0.007410587856722869
-0.07372890161345119   -0.00942199497544446   -0.006647573304067443
-0.07372890161345119   -0.00942199497544446   -0.006647573304067443
-0.07372890161345119   -0.00942199497544446   -0.006647573304067443
-0.07372890161345119   -0.00942199497544446   -0.006647573304067443
-0.08043788180516212   -0.007425086791671091   -0.003787148486863905
-0.08043788180516212   -0.007425086791671091   -0.003787148486863905
-0.08043788180516212   -0.007425086791671091   -0.003787148486863905
-0.08043788180516212   -0.007425086791671091   -0.003787148486863905
-0.06744616066453102   0.0055342771745833345   0.009809859290503785
-0.06744616066453102   0.0055342771745833345   0.009809859290503785
-0.06744616066453102   0.0055342771745833345   0.009809859290503785
-0.06744616066453102   0.0055342771745833345   0.009809859290503785
-0.08826850963553354   -0.012291675369727844   -0.006456367253402018
-0.08826850963553354   -0.012291675369727844   -0.006456367253402018
-0.08826850963553354   -0.012291675369727844   -0.006456367253402018
-0.08826850963553354   -0.012291675369727844   -0.006456367253402018
-0.07826749151073376   0.01092344162798992   0.005644615368806699
-0.07826749151073376   0.01092344162798992   0.005644615368806699
-0.07826749151073376   0.01092344162798992   0.005644615368806699
-0.07826749151073376   0.01092344162798992   0.005644615368806699
-0.06782101339209445   -0.0008836708242544872   -0.008260982567025031
-0.06782101339209445   -0.0008836708242544872   -0.008260982567025031
-0.06782101339209445   -0.0008836708242544872   -0.008260982567025031
-0.06782101339209445   -0.0008836708242544872   -0.008260982567025031
-0.07518957004196788   0.0008450119713291522   8.224848637597513e-05
-0.07518957004196788   0.0008450119713291522   8.224848637597513e-05
-0.07518957004196788   0.0008450119713291522   8.224848637597513e-05
-0.07518957004196788   0.0008450119713291522   8.224848637597513e-05
-0.06122924580871177   0.014970837166467413   0.008843347359164522
-0.06122924580871177   0.014970837166467413   0.008843347359164522
-0.06122924580871177   0.014970837166467413   0.008843347359164522
-0.06122924580871177   0.014970837166467413   0.008843347359164522
-0.08416807625570856   -0.004239883524324667   -0.008694983203754158
-0.08416807625570856   -0.004239883524324667   -0.008694983203754158
-0.08416807625570856   -0.004239883524324667   -0.008694983203754158
-0.08416807625570856   -0.004239883524324667   -0.008694983203754158
-0.07387665566284692   0.02082240729256992   0.003965627669045933
-0.07387665566284692   0.02082240729256992   0.003965627669045933
-0.07387665566284692   0.02082240729256992   0.003965627669045933
-0.07387665566284692   0.02082240729256992   0.003965627669045933
-0.06276002322877026   0.008635045200137338   -0.009753299673181365
-0.06276002322877026   0.008635045200137338   -0.009753299673181365
-0.06276002322877026   0.008635045200137338   -0.009753299673181365
-0.06276002322877026   0.008635045200137338   -0.009753299673181365
-0.07022344217383025   0.009431909440045672   0.004036982662879827
-0.07022344217383025   0.009431909440045672   0.004036982662879827
-0.07022344217383025   0.009431909440045672   0.004036982662879827
-0.07022344217383025   0.009431909440045672   0.004036982662879827
-0.08917323127896805   -0.012393151223421068   0.003220593485951906
-0.08917323127896805   -0.012393151223421068   0.003220593485951906
-0.08917323127896805   -0.012393151223421068   0.003220593485951906
-0.08917323127896805   -0.012393151223421068   0.003220593485951906
-0.1031580987589911   -0.013276082828484071   0.002653626428145604
-0.1031580987589911   -0.013276082828484071   0.002653626428145604
-0.1031580987589911   -0.013276082828484071   0.002653626428145604
-0.1031580987589911   -0.013276082828484071   0.002653626428145604
-0.09970287168660805   -0.006152350076040659   -0.0009823038821143702
-0.09970287168660805   -0.006152350076040659   -0.0009823038821143702
-0.09970287168660805   -0.006152350076040659   -0.0009823038821143702
-0.09970287168660805   -0.006152350076040659   -0.0009823038821143702
-0.08467550391881723   -0.0016792617079527776   0.0008962476684044969
-0.08467550391881723   -0.0016792617079527776   0.0008962476684044969
-0.08467550391881723   -0.0016792617079527776   0.0008962476684044969
-0.08467550391881723   -0.0016792617079527776   0.0008962476684044969
-0.09431929883801304   -0.007901790408359692   -0.0025371943395930867
-0.09431929883801304   -0.007901790408359692   -0.0025371943395930867
-0.09431929883801304   -0.007901790408359692   -0.0025371943395930867
-0.09431929883801304   -0.007901790408359692   -0.0025371943395930867
-0.08471597057238055   -0.0026296487818712206   0.0016443014745053052
-0.08471597057238055   -0.0026296487818712206   0.0016443014745053052
-0.08471597057238055   -0.0026296487818712206   0.0016443014745053052
-0.08471597057238055   -0.0026296487818712206   0.0016443014745053052
-0.09904877674599555   -0.004588334715071786   0.0007241554599801154
-0.09904877674599555   -0.004588334715071786   0.0007241554599801154
-0.09904877674599555   -0.004588334715071786   0.0007241554599801154
-0.09904877674599555   -0.004588334715071786   0.0007241554599801154
-0.09510334206415186   0.0037346085374889183   -0.0024760960883073524
-0.09510334206415186   0.0037346085374889183   -0.0024760960883073524
-0.09510334206415186   0.0037346085374889183   -0.0024760960883073524
-0.09510334206415186   0.0037346085374889183   -0.0024760960883073524
-0.08032392276711725   0.00724584626721007   -0.0009599455523309893
-0.08032392276711725   0.00724584626721007   -0.0009599455523309893
-0.08032392276711725   0.00724584626721007   -0.0009599455523309893
-0.08032392276711725   0.00724584626721007   -0.0009599455523309893
-0.08950545353750601   0.0009171587196929176   0.001293895462806718
-0.08950545353750601   0.0009171587196929176   0.001293895462806718
-0.08950545353750601   0.0009171587196929176   0.001293895462806718
-0.08950545353750601   0.0009171587196929176   0.001293895462806718
-0.08013817725813632   0.007221488640257012   -6.860380474722934e-06
-0.08013817725813632   0.007221488640257012   -6.860380474722934e-06
-0.08013817725813632   0.007221488640257012   -6.860380474722934e-06
-0.08013817725813632   0.007221488640257012   -6.860380474722934e-06
-0.0947518357520406   0.004296217985532636   -0.001280173975794832
-0.0947518357520406   0.004296217985532636   -0.001280173975794832
-0.0947518357520406   0.004296217985532636   -0.001280173975794832
-0.0947518357520406   0.004296217985532636   -0.001280173975794832
-0.09069773402022578   0.013688952869528384   -0.004149714785004626
-0.09069773402022578   0.013688952869528384   -0.004149714785004626
-0.09069773402022578   0.013688952869528384   -0.004149714785004626
-0.09069773402022578   0.013688952869528384   -0.004149714785004626
-0.07619492004912852   0.016207573573151283   -0.0030108605429429603
-0.07619492004912852   0.016207573573151283   -0.0030108605429429603
-0.07619492004912852   0.016207573573151283   -0.0030108605429429603
-0.07619492004912852   0.016207573573151283   -0.0030108605429429603
-0.08492493343208121   0.009754042874712994   0.004944429592861897
-0.08492493343208121   0.009754042874712994   0.004944429592861897
-0.08492493343208121   0.009754042874712994   0.004944429592861897
-0.08492493343208121   0.009754042874712994   0.004944429592861897
-0.10599985688846471   -0.019850013450358882   -0.00498123359734954
-0.10599985688846471   -0.019850013450358882   -0.00498123359734954
-0.10599985688846471   -0.019850013450358882   -0.00498123359734954
-0.10599985688846471   -0.019850013450358882   -0.00498123359734954
-0.11501610709865083   -0.006050750717425998   0.009399332040471196
-0.11501610709865083   -0.006050750717425998   0.009399332040471196
-0.11501610709865083   -0.006050750717425998   0.009399332040471196
-0.11501610709865083   -0.006050750717425998   0.009399332040471196
-0.11701970014447427   -0.014029579832004594   -0.009523746556674952
-0.11701970014447427   -0.014029579832004594   -0.009523746556674952
-0.11701970014447427   -0.014029579832004594   -0.009523746556674952
-0.11701970014447427   -0.014029579832004594   -0.009523746556674952
-0.09549644967413029   0.005880236077849387   0.008017220026384456
-0.09549644967413029   0.005880236077849387   0.008017220026384456
-0.09549644967413029   0.005880236077849387   0.008017220026384456
-0.09549644967413029   0.005880236077849387   0.008017220026384456
-0.10791047111368786   -0.007977059090626504   -0.001604340422282676
-0.10791047111368786   -0.007977059090626504   -0.001604340422282676
-0.10791047111368786   -0.007977059090626504   -0.001604340422282676
-0.10791047111368786   -0.007977059090626504   -0.001604340422282676
-0.10167416762629405   -0.010378292290293554   -0.0066128413662922885
-0.10167416762629405   -0.010378292290293554   -0.0066128413662922885
-0.10167416762629405   -0.010378292290293554   -0.0066128413662922885
-0.10167416762629405   -0.010378292290293554   -0.0066128413662922885
-0.11019914153703991   0.0028717891914062307   0.007677677457085986
-0.11019914153703991   0.0028717891914062307   0.007677677457085986
-0.11019914153703991   0.0028717891914062307   0.007677677457085986
-0.11019914153703991   0.0028717891914062307   0.007677677457085986
-0.11092250561272038   -0.004658333972162452   -0.010688396462207001
-0.11092250561272038   -0.004658333972162452   -0.010688396462207001
-0.11092250561272038   -0.004658333972162452   -0.010688396462207001
-0.11092250561272038   -0.004658333972162452   -0.010688396462207001
-0.09137814287462595   0.01392379934961839   0.005960709047191877
-0.09137814287462595   0.01392379934961839   0.005960709047191877
-0.09137814287462595   0.01392379934961839   0.005960709047191877
-0.09137814287462595   0.01392379934961839   0.005960709047191877
-0.10239222463471268   0.0005323407692972397   0.0023583020249851655
-0.10239222463471268   0.0005323407692972397   0.0023583020249851655
-0.10239222463471268   0.0005323407692972397   0.0023583020249851655
-0.10239222463471268   0.0005323407692972397   0.0023583020249851655
-0.0973623028688874   -0.0015132270382130358   -0.008523064536285235
-0.0973623028688874   -0.0015132270382130358   -0.008523064536285235
-0.0973623028688874   -0.0015132270382130358   -0.008523064536285235
-0.0973623028688874   -0.0015132270382130358   -0.008523064536285235
-0.10428884520868778   0.011428192825438888   0.006393378760356186
-0.10428884520868778   0.011428192825438888   0.006393378760356186
-0.10428884520868778   0.011428192825438888   0.006393378760356186
-0.10428884520868778   0.011428192825438888   0.006393378760356186
-0.10559716487961414   0.005634876184126118   -0.011740816263526119
-0.10559716487961414   0.005634876184126118   -0.011740816263526119
-0.10559716487961414   0.005634876184126118   -0.011740816263526119
-0.10559716487961414   0.005634876184126118   -0.011740816263526119
-0.08724924416731226   0.022850488837539203   0.00393119851155215
-0.08724924416731226   0.022850488837539203   0.00393119851155215
-0.08724924416731226   0.022850488837539203   0.00393119851155215
-0.08724924416731226   0.022850488837539203   0.00393119851155215
-0.09777045952033356   0.0089307814476344   0.006131443921117257
-0.09777045952033356   0.0089307814476344   0.006131443921117257
-0.09777045952033356   0.0089307814476344   0.006131443921117257
-0.09777045952033356   0.0089307814476344   0.006131443921117257
-0.12290929599207154   -0.023518011153555958   -0.012599351990504678
-0.12290929599207154   -0.023518011153555958   -0.012599351990504678
-0.12290929599207154   -0.023518011153555958   -0.012599351990504678
-0.12290929599207154   -0.023518011153555958   -0.012599351990504678
-0.13814001002775203   0.001302021366542002   0.017116992501822213
-0.13814001002775203   0.001302021366542002   0.017116992501822213
-0.13814001002775203   0.001302021366542002   0.017116992501822213
-0.13814001002775203   0.001302021366542002   0.017116992501822213
-0.13661242775983215   -0.020008275932527367   -0.01685861517902216
-0.13661242775983215   -0.020008275932527367   -0.01685861517902216
-0.13661242775983215   -0.020008275932527367   -0.01685861517902216
-0.13661242775983215   -0.020008275932527367   -0.01685861517902216
-0.10626359409386528   0.014889349232875493   0.015337854631488412
-0.10626359409386528   0.014889349232875493   0.015337854631488412
-0.10626359409386528   0.014889349232875493   0.015337854631488412
-0.10626359409386528   0.014889349232875493   0.015337854631488412
-0.12088609627499328   -0.00522208983986594   -0.0006201234218695456
-0.12088609627499328   -0.00522208983986594   -0.0006201234218695456
-0.12088609627499328   -0.00522208983986594   -0.0006201234218695456
-0.12088609627499328   -0.00522208983986594   -0.0006201234218695456
-0.11836734315470507   -0.015871536886387268   -0.014420004553448704
-0.11836734315470507   -0.015871536886387268   -0.014420004553448704
-0.11836734315470507   -0.015871536886387268   -0.014420004553448704
-0.11836734315470507   -0.015871536886387268   -0.014420004553448704
-0.12383023672889264   0.011431052156834945   0.015613011886313023
-0.12383023672889264   0.011431052156834945   0.015613011886313023
-0.12383023672889264   0.011431052156834945   0.015613011886313023
-0.12383023672889264   0.011431052156834945   0.015613011886313023
-0.12593975308135721   -0.014554938456064575   -0.02012797911236429
-0.12593975308135721   -0.014554938456064575   -0.02012797911236429
-0.12593975308135721   -0.014554938456064575   -0.02012797911236429
-0.12593975308135721   -0.014554938456064575   -0.02012797911236429
-0.10159264721251741   0.018731619235780178   0.012570942330865276
-0.10159264721251741   0.018731619235780178   0.012570942330865276
-0.10159264721251741   0.018731619235780178   0.012570942330865276
-0.10159264721251741   0.018731619235780178   0.012570942330865276
-0.113812940689655   0.000499524587236802   0.003160026126797855
-0.113812940689655   0.000499524587236802   0.003160026126797855
-0.113812940689655   0.000499524587236802   0.003160026126797855
-0.113812940689655   0.000499524587236802   0.003160026126797855
-0.11347288573475961   -0.01137974614432117   -0.01671888490024486
-0.11347288573475961   -0.01137974614432117   -0.01671888490024486
-0.11347288573475961   -0.01137974614432117   -0.01671888490024486
-0.11347288573475961   -0.01137974614432117   -0.01671888490024486
-0.11334652909513376   0.016269412388016668   0.012013789974671745
-0.11334652909513376   0.016269412388016668   0.012013789974671745
-0.11334652909513376   0.016269412388016668   0.012013789974671745
-0.11334652909513376   0.016269412388016668   0.012013789974671745
-0.11182504147303303   -0.005169022521630474   -0.022034158670363704
-0.11182504147303303   -0.005169022521630474   -0.022034158670363704
-0.11182504147303303   -0.005169022521630474   -0.022034158670363704
-0.11182504147303303   -0.005169022521630474   -0.022034158670363704
-0.09743049569836738   0.024373329774584104   0.01035407605224931
-0.09743049569836738   0.024373329774584104   0.01035407605224931
-0.09743049569836738   0.024373329774584104   0.01035407605224931
-0.09743049569836738   0.024373329774584104   0.01035407605224931
-0.10383108536455997   0.006176116974778902   0.007575089504492212
-0.10383108536455997   0.006176116974778902   0.007575089504492212
-0.10383108536455997   0.006176116974778902   0.007575089504492212
-0.10383108536455997   0.006176116974778902   0.007575089504492212
0.07478257560486662   0.011953497018570514   0.018677485469250275
0.07478257560486662   0.011953497018570514   0.018677485469250275
0.07478257560486662   0.011953497018570514   0.018677485469250275
0.07478257560486662   0.011953497018570514   0.018677485469250275
-0.0009002666754226486   -0.029874883178630136   -0.012214713646108558
-0.0009002666754226486   -0.029874883178630136   -0.012214713646108558
-0.0009002666754226486   -0.029874883178630136   -0.012214713646108558
-0.0009002666754226486   -0.029874883178630136   -0.012214713646108558
0.016379341388381635   0.005681898935386197   0.014394854078465255
0.016379341388381635   0.005681898935386197   0.014394854078465255
0.016379341388381635   0.005681898935386197   0.014394854078465255
0.016379341388381635   0.005681898935386197   0.014394854078465255
0.07761207024848607   -0.010006422188364625   -0.015351952008629433
0.07761207024848607   -0.010006422188364625   -0.015351952008629433
0.07761207024848607   -0.010006422188364625   -0.015351952008629433
0.07761207024848607   -0.010006422188364625   -0.015351952008629433
0.038253931379145525   -0.005628849912583623   -0.008986415713408382
0.038253931379145525   -0.005628849912583623   -0.008986415713408382
0.038253931379145525   -0.005628849912583623   -0.008986415713408382
0.038253931379145525   -0.005628849912583623   -0.008986415713408382
0.09024188793591414   0.02094465023102376   0.01684606400912058
0.09024188793591414   0.02094465023102376   0.01684606400912058
0.09024188793591414   0.02094465023102376   0.01684606400912058
0.09024188793591414   0.02094465023102376   0.01684606400912058
0.004549260662040574   -0.02446943652291551   -0.014604214094938353
0.004549260662040574   -0.02446943652291551   -0.014604214094938353
0.004549260662040574   -0.02446943652291551   -0.014604214094938353
0.004549260662040574   -0.02446943652291551   -0.014604214094938353
0.022506181064583276   0.010022766546990252   0.011985743798559271
0.022506181064583276   0.010022766546990252   0.011985743798559271
0.022506181064583276   0.010022766546990252   0.011985743798559271
0.022506181064583276   0.010022766546990252   0.011985743798559271
0.08959969538498658   -0.005108822831959223   -0.019137455455442924
0.08959969538498658   -0.005108822831959223   -0.019137455455442924
0.08959969538498658   -0.005108822831959223   -0.019137455455442924
0.08959969538498658   -0.005108822831959223   -0.019137455455442924
0.049099287551229887   -0.0002446961229764927   -0.0043009871911141515
0.049099287551229887   -0.0002446961229764927   -0.0043009871911141515
0.049099287551229887   -0.0002446961229764927   -0.0043009871911141515
0.049099287551229887   -0.0002446961229764927   -0.0043009871911141515
0.10234460878042115   0.026240800890333423   0.013237487799437262
0.10234460878042115   0.026240800890333423   0.013237487799437262
0.10234460878042115   0.026240800890333423   0.013237487799437262
0.10234460878042115   0.026240800890333423   0.013237487799437262
0.010533312207359561   -0.02055481263709138   -0.017301021303476695
0.010533312207359561   -0.02055481263709138   -0.017301021303476695
0.010533312207359561   -0.02055481263709138   -0.017301021303476695
0.010533312207359561   -0.02055481263709138   -0.017301021303476695
0.0284417205362735   0.018042694424225875   0.010368578924645286
0.0284417205362735   0.018042694424225875   0.010368578924645286
0.0284417205362735   0.018042694424225875   0.010368578924645286
0.0284417205362735   0.018042694424225875   0.010368578924645286
0.10554071005707379   0.00583750906767996   -0.021083141133964107
0.10554071005707379   0.00583750906767996   -0.021083141133964107
0.10554071005707379   0.00583750906767996   -0.021083141133964107
0.10554071005707379   0.00583750906767996   -0.021083141133964107
0.05806823963163507   0.005827723978542154   9.696741405053702e-05
0.05806823963163507   0.005827723978542154   9.696741405053702e-05
0.05806823963163507   0.005827723978542154   9.696741405053702e-05
0.05806823963163507   0.005827723978542154   9.696741405053702e-05
0.01076846313302275   0.00343146131431005   0.01282259090317825
0.01076846313302275   0.00343146131431005   0.01282259090317825
0.01076846313302275   0.00343146131431005   0.01282259090317825
0.01076846313302275   0.00343146131431005   0.01282259090317825
-0.06890183641929838   -0.02543030144461037   -0.005616216350431016
-0.06890183641929838   -0.02543030144461037   -0.005616216350431016
-0.06890183641929838   -0.02543030144461037   -0.005616216350431016
-0.06890183641929838   -0.02543030144461037   -0.005616216350431016
-0.05809927455093337   -0.0038094642973052527   0.005785453024110773
-0.05809927455093337   -0.0038094642973052527   0.005785453024110773
-0.05809927455093337   -0.0038094642973052527   0.005785453024110773
-0.05809927455093337   -0.0038094642973052527   0.005785453024110773
0.010974608124703997   -0.0025684593784829563   -0.004378453926053793
0.010974608124703997   -0.0025684593784829563   -0.004378453926053793
0.010974608124703997   -0.0025684593784829563   -0.004378453926053793
0.010974608124703997   -0.0025684593784829563   -0.004378453926053793
-0.02690230274130768   -0.006444109871991116   -0.004282450292906295
-0.02690230274130768   -0.006444109871991116   -0.004282450292906295
-0.02690230274130768   -0.006444109871991116   -0.004282450292906295
-0.02690230274130768   -0.006444109871991116   -0.004282450292906295
0.017108115951874784   0.012349206970581384   0.0113714188607358
0.017108115951874784   0.012349206970581384   0.0113714188607358
0.017108115951874784   0.012349206970581384   0.0113714188607358
0.017108115951874784   0.012349206970581384   0.0113714188607358
-0.06364355998122952   -0.018137908249494947   -0.007607530175180239
-0.06364355998122952   -0.018137908249494947   -0.007607530175180239
-0.06364355998122952   -0.018137908249494947   -0.007607530175180239
-0.06364355998122952   -0.018137908249494947   -0.007607530175180239
-0.05252571045968185   0.004643428965389877   0.004079213448791863
-0.05252571045968185   0.004643428965389877   0.004079213448791863
-0.05252571045968185   0.004643428965389877   0.004079213448791863
-0.05252571045968185   0.004643428965389877   0.004079213448791863
0.01799903445542785   0.005410957776208332   -0.005938180476435938
0.01799903445542785   0.005410957776208332   -0.005938180476435938
0.01799903445542785   0.005410957776208332   -0.005938180476435938
0.01799903445542785   0.005410957776208332   -0.005938180476435938
-0.020987351451113075   0.0009804599903963556   -0.0005539457480155177
-0.020987351451113075   0.0009804599903963556   -0.0005539457480155177
-0.020987351451113075   0.0009804599903963556   -0.0005539457480155177
-0.020987351451113075   0.0009804599903963556   -0.0005539457480155177
0.024395094522780086   0.021251968999526784   0.010201108637006785
0.024395094522780086   0.021251968999526784   0.010201108637006785
0.024395094522780086   0.021251968999526784   0.010201108637006785
0.024395094522780086   0.021251968999526784   0.010201108637006785
-0.058351871685981334   -0.010627683416874537   -0.009780480300441105
-0.058351871685981334   -0.010627683416874537   -0.009780480300441105
-0.058351871685981334   -0.010627683416874537   -0.009780480300441105
-0.058351871685981334   -0.010627683416874537   -0.009780480300441105
-0.046912950061274064   0.014245753662785332   0.00245316947255474
-0.046912950061274064   0.014245753662785332   0.00245316947255474
-0.046912950061274064   0.014245753662785332   0.00245316947255474
-0.046912950061274064   0.014245753662785332   0.00245316947255474
0.024146800602039935   0.014503362312355533   -0.007566688634651238
0.024146800602039935   0.014503362312355533   -0.007566688634651238
0.024146800602039935   0.014503362312355533   -0.007566688634651238
0.024146800602039935   0.014503362312355533   -0.007566688634651238
-0.014400599433701446   0.009222438628185808   0.003437618296918896
-0.014400599433701446   0.009222438628185808   0.003437618296918896
-0.014400599433701446   0.009222438628185808   0.003437618296918896
-0.014400599433701446   0.009222438628185808   0.003437618296918896
-0.06271614416936602   -0.004785023754386583   0.004666967209007978
-0.06271614416936602   -0.004785023754386583   0.004666967209007978
-0.06271614416936602   -0.004785023754386583   0.004666967209007978
-0.06271614416936602   -0.004785023754386583   0.004666967209007978
-0.13563770095685496   -0.018318545115939805   0.0011065659958505694
-0.13563770095685496   -0.018318545115939805   0.0011065659958505694
-0.13563770095685496   -0.018318545115939805   0.0011065659958505694
-0.13563770095685496   -0.018318545115939805   0.0011065659958505694
-0.130805623252577   -0.011592361968083945   -0.0025391342984915537
-0.130805623252577   -0.011592361968083945   -0.0025391342984915537
-0.130805623252577   -0.011592361968083945   -0.0025391342984915537
-0.130805623252577   -0.011592361968083945   -0.0025391342984915537
-0.056964608932238224   0.004826689486982592   0.0028226273332996087
-0.056964608932238224   0.004826689486982592   0.0028226273332996087
-0.056964608932238224   0.004826689486982592   0.0028226273332996087
-0.056964608932238224   0.004826689486982592   0.0028226273332996087
-0.0966702468545397   -0.006869696086487227   -0.002525658069794721
-0.0966702468545397   -0.006869696086487227   -0.002525658069794721
-0.0966702468545397   -0.006869696086487227   -0.002525658069794721
-0.0966702468545397   -0.006869696086487227   -0.002525658069794721
-0.05701267497094401   0.004296543227743017   0.0031124433990102505
-0.05701267497094401   0.004296543227743017   0.0031124433990102505
-0.05701267497094401   0.004296543227743017   0.0031124433990102505
-0.05701267497094401   0.004296543227743017   0.0031124433990102505
-0.13024580729741655   -0.01055046579238842   -0.0007819506983847962
-0.13024580729741655   -0.01055046579238842   -0.0007819506983847962
-0.13024580729741655   -0.01055046579238842   -0.0007819506983847962
-0.13024580729741655   -0.01055046579238842   -0.0007819506983847962
-0.12493347088995962   -0.002282393262554038   -0.003991595078309154
-0.12493347088995962   -0.002282393262554038   -0.003991595078309154
-0.12493347088995962   -0.002282393262554038   -0.003991595078309154
-0.12493347088995962   -0.002282393262554038   -0.003991595078309154
-0.05144843475840945   0.013041620334384994   0.0010674005861597627
-0.05144843475840945   0.013041620334384994   0.0010674005861597627
-0.05144843475840945   0.013041620334384994   0.0010674005861597627
-0.05144843475840945   0.013041620334384994   0.0010674005861597627
-0.09059888106749842   0.0012920555504478716   0.001242115264618194
-0.09059888106749842   0.0012920555504478716   0.001242115264618194
-0.09059888106749842   0.0012920555504478716   0.001242115264618194
-0.09059888106749842   0.0012920555504478716   0.001242115264618194
-0.05127547974631149   0.013535235981703605   0.0014385599993309095
-0.05127547974631149   0.013535235981703605   0.0014385599993309095
-0.05127547974631149   0.013535235981703605   0.0014385599993309095
-0.05127547974631149   0.013535235981703605   0.0014385599993309095
-0.12469267500413302   -0.002362258011947005   -0.0027077508997843157
-0.12469267500413302   -0.002362258011947005   -0.0027077508997843157
-0.12469267500413302   -0.002362258011947005   -0.0027077508997843157
-0.12469267500413302   -0.002362258011947005   -0.0027077508997843157
-0.11929561427489213   0.007062471021971689   -0.0056356790730773265
-0.11929561427489213   0.007062471021971689   -0.0056356790730773265
-0.11929561427489213   0.007062471021971689   -0.0056356790730773265
-0.11929561427489213   0.007062471021971689   -0.0056356790730773265
-0.04618992823484807   0.021280489328591345   -0.0009664570611212751
-0.04618992823484807   0.021280489328591345   -0.0009664570611212751
-0.04618992823484807   0.021280489328591345   -0.0009664570611212751
-0.04618992823484807   0.021280489328591345   -0.0009664570611212751
-0.0848555857999001   0.009435713999372358   0.004764257624185825
-0.0848555857999001   0.009435713999372358   0.004764257624185825
-0.0848555857999001   0.009435713999372358   0.004764257624185825
-0.0848555857999001   0.009435713999372358   0.004764257624185825
-0.13549115374763898   -0.012767895891767536   -0.003711347182240669
-0.13549115374763898   -0.012767895891767536   -0.003711347182240669
-0.13549115374763898   -0.012767895891767536   -0.003711347182240669
-0.13549115374763898   -0.012767895891767536   -0.003711347182240669
-0.20203818674617688   -0.011622287157117682   0.007678819285433482
-0.20203818674617688   -0.011622287157117682   0.007678819285433482
-0.20203818674617688   -0.011622287157117682   0.007678819285433482
-0.20203818674617688   -0.011622287157117682   0.007678819285433482
-0.2023948493603955   -0.01924598033162406   -0.010715462334717544
-0.2023948493603955   -0.01924598033162406   -0.010715462334717544
-0.2023948493603955   -0.01924598033162406   -0.010715462334717544
-0.2023948493603955   -0.01924598033162406   -0.010715462334717544
-0.12367296582274036   0.011973807363955431   0.009557983518652342
-0.12367296582274036   0.011973807363955431   0.009557983518652342
-0.12367296582274036   0.011973807363955431   0.009557983518652342
-0.12367296582274036   0.011973807363955431   0.009557983518652342
-0.16495747305222833   -0.0071372269600244904   -0.0010889279912689323
-0.16495747305222833   -0.0071372269600244904   -0.0010889279912689323
-0.16495747305222833   -0.0071372269600244904   -0.0010889279912689323
-0.16495747305222833   -0.0071372269600244904   -0.0010889279912689323
-0.12974712117707166   -0.003617616171522363   -0.005221369717525225
-0.12974712117707166   -0.003617616171522363   -0.005221369717525225
-0.12974712117707166   -0.003617616171522363   -0.005221369717525225
-0.12974712117707166   -0.003617616171522363   -0.005221369717525225
-0.19588934612248476   -0.003223208912568949   0.0057892824357824845
-0.19588934612248476   -0.003223208912568949   0.0057892824357824845
-0.19588934612248476   -0.003223208912568949   0.0057892824357824845
-0.19588934612248476   -0.003223208912568949   0.0057892824357824845
-0.19497592238821376   -0.01037323507585787   -0.011926683566601606
-0.19497592238821376   -0.01037323507585787   -0.011926683566601606
-0.19497592238821376   -0.01037323507585787   -0.011926683566601606
-0.19497592238821376   -0.01037323507585787   -0.011926683566601606
-0.11826823078480239   0.019440462018589462   0.007611750166333612
-0.11826823078480239   0.019440462018589462   0.007611750166333612
-0.11826823078480239   0.019440462018589462   0.007611750166333612
-0.11826823078480239   0.019440462018589462   0.007611750166333612
-0.15760524031450948   0.0010984436268483833   0.002805078864094857
-0.15760524031450948   0.0010984436268483833   0.002805078864094857
-0.15760524031450948   0.0010984436268483833   0.002805078864094857
-0.15760524031450948   0.0010984436268483833   0.002805078864094857
-0.12413790477625986   0.004767061337816868   -0.007063219110181835
-0.12413790477625986   0.004767061337816868   -0.007063219110181835
-0.12413790477625986   0.004767061337816868   -0.007063219110181835
-0.12413790477625986   0.004767061337816868   -0.007063219110181835
-0.18862306087566538   0.004783353126004232   0.004681035794278142
-0.18862306087566538   0.004783353126004232   0.004681035794278142
-0.18862306087566538   0.004783353126004232   0.004681035794278142
-0.18862306087566538   0.004783353126004232   0.004681035794278142
-0.18834798797865493   -0.0007253305195674617   -0.012849154462638514
-0.18834798797865493   -0.0007253305195674617   -0.012849154462638514
-0.18834798797865493   -0.0007253305195674617   -0.012849154462638514
-0.18834798797865493   -0.0007253305195674617   -0.012849154462638514
-0.11292205675658852   0.02764646265691532   0.005648116883497048
-0.11292205675658852   0.02764646265691532   0.005648116883497048
-0.11292205675658852   0.02764646265691532   0.005648116883497048
-0.11292205675658852   0.02764646265691532   0.005648116883497048
-0.15220458865032147   0.008740732759870272   0.0062834045615009545
-0.15220458865032147   0.008740732759870272   0.0062834045615009545
-0.15220458865032147   0.008740732759870272   0.0062834045615009545
-0.15220458865032147   0.008740732759870272   0.0062834045615009545
-0.207188512281096   -0.018225080578122672   -0.011470014968157173
-0.207188512281096   -0.018225080578122672   -0.011470014968157173
-0.207188512281096   -0.018225080578122672   -0.011470014968157173
-0.207188512281096   -0.018225080578122672   -0.011470014968157173
-0.27803991307790193   -0.0053031861586977855   0.016919522393927175
-0.27803991307790193   -0.0053031861586977855   0.016919522393927175
-0.27803991307790193   -0.0053031861586977855   0.016919522393927175
-0.27803991307790193   -0.0053031861586977855   0.016919522393927175
-0.2745919723344855   -0.02492776894595085   -0.015419358022023062
-0.2745919723344855   -0.02492776894595085   -0.015419358022023062
-0.2745919723344855   -0.02492776894595085   -0.015419358022023062
-0.2745919723344855   -0.02492776894595085   -0.015419358022023062
-0.1890004252660498   0.020333207327087224   0.016677470478299684
-0.1890004252660498   0.020333207327087224   0.016677470478299684
-0.1890004252660498   0.020333207327087224   0.016677470478299684
-0.1890004252660498   0.020333207327087224   0.016677470478299684
-0.2269476173170027   -0.004073716899857388   0.0020218795394941064
-0.2269476173170027   -0.004073716899857388   0.0020218795394941064
-0.2269476173170027   -0.004073716899857388   0.0020218795394941064
-0.2269476173170027   -0.004073716899857388   0.0020218795394941064
-0.20094238840470713   -0.009711506777641973   -0.012987631110257098
-0.20094238840470713   -0.009711506777641973   -0.012987631110257098
-0.20094238840470713   -0.009711506777641973   -0.012987631110257098
-0.20094238840470713   -0.009711506777641973   -0.012987631110257098
-0.2622527342279297   0.0055142201266763224   0.0158348434381251
-0.2622527342279297   0.0055142201266763224   0.0158348434381251
-0.2622527342279297   0.0055142201266763224   0.0158348434381251
-0.2622527342279297   0.0055142201266763224   0.0158348434381251
-0.2626993188079151   -0.019680527647545888   -0.01838312049036743
-0.2626993188079151   -0.019680527647545888   -0.01838312049036743
-0.2626993188079151   -0.019680527647545888   -0.01838312049036743
-0.2626993188079151   -0.019680527647545888   -0.01838312049036743
-0.18300505672786183   0.023786356301731648   0.01376805335756719
-0.18300505672786183   0.023786356301731648   0.01376805335756719
-0.18300505672786183   0.023786356301731648   0.01376805335756719
-0.18300505672786183   0.023786356301731648   0.01376805335756719
-0.22042263497094042   0.00145559778078342   0.005147833887050571
-0.22042263497094042   0.00145559778078342   0.005147833887050571
-0.22042263497094042   0.00145559778078342   0.005147833887050571
-0.22042263497094042   0.00145559778078342   0.005147833887050571
-0.1946006347749368   -0.0053907190484110065   -0.015032761527663597
-0.1946006347749368   -0.0053907190484110065   -0.015032761527663597
-0.1946006347749368   -0.0053907190484110065   -0.015032761527663597
-0.1946006347749368   -0.0053907190484110065   -0.015032761527663597
-0.25062353683088023   0.00997675163255396   0.012338510114704805
-0.25062353683088023   0.00997675163255396   0.012338510114704805
-0.25062353683088023   0.00997675163255396   0.012338510114704805
-0.25062353683088023   0.00997675163255396   0.012338510114704805
-0.2479441871072467   -0.011908488061158823   -0.020541321717585947
-0.2479441871072467   -0.011908488061158823   -0.020541321717585947
-0.2479441871072467   -0.011908488061158823   -0.020541321717585947
-0.2479441871072467   -0.011908488061158823   -0.020541321717585947
-0.1777703237038463   0.027849103156996707   0.011464733234840457
-0.1777703237038463   0.027849103156996707   0.011464733234840457
-0.1777703237038463   0.027849103156996707   0.011464733234840457
-0.1777703237038463   0.027849103156996707   0.011464733234840457
-0.20763794465240848   0.006597028350860769   0.009597425138701541
-0.20763794465240848   0.006597028350860769   0.009597425138701541
-0.20763794465240848   0.006597028350860769   0.009597425138701541
-0.20763794465240848   0.006597028350860769   0.009597425138701541
0.21668511210432265   0.019768670277690414   0.01841767485574889
0.21668511210432265   0.019768670277690414   0.01841767485574889
0.21668511210432265   0.019768670277690414   0.01841767485574889
0.21668511210432265   0.019768670277690414   0.01841767485574889
0.0789054086529251   -0.03525369199202869   -0.0121035468584037
0.0789054086529251   -0.03525369199202869   -0.0121035468584037
0.0789054086529251   -0.03525369199202869   -0.0121035468584037
0.0789054086529251   -0.03525369199202869   -0.0121035468584037
0.09681344307262217   -0.00045328774371482597   0.013212347390483468
0.09681344307262217   -0.00045328774371482597   0.013212347390483468
0.09681344307262217   -0.00045328774371482597   0.013212347390483468
0.09681344307262217   -0.00045328774371482597   0.013212347390483468
0.220255023651645   -0.004318750863791507   -0.015479444948066415
0.220255023651645   -0.004318750863791507   -0.015479444948066415
0.220255023651645   -0.004318750863791507   -0.015479444948066415
0.220255023651645   -0.004318750863791507   -0.015479444948066415
0.14375078879335246   -0.006202317857255613   -0.01369885180643327
0.14375078879335246   -0.006202317857255613   -0.01369885180643327
0.14375078879335246   -0.006202317857255613   -0.01369885180643327
0.14375078879335246   -0.006202317857255613   -0.01369885180643327
0.23287904873713383   0.027318124861840053   0.01600380475374619
0.23287904873713383   0.027318124861840053   0.01600380475374619
0.23287904873713383   0.027318124861840053   0.01600380475374619
0.23287904873713383   0.027318124861840053   0.01600380475374619
0.08510110828128062   -0.031178473175198944   -0.014624141134739227
0.08510110828128062   -0.031178473175198944   -0.014624141134739227
0.08510110828128062   -0.031178473175198944   -0.014624141134739227
0.08510110828128062   -0.031178473175198944   -0.014624141134739227
0.10371745746590116   0.0037155033222871815   0.010866413234874498
0.10371745746590116   0.0037155033222871815   0.010866413234874498
0.10371745746590116   0.0037155033222871815   0.010866413234874498
0.10371745746590116   0.0037155033222871815   0.010866413234874498
0.23307138364366192   0.00040604953397962995   -0.019415426238285693
0.23307138364366192   0.00040604953397962995   -0.019415426238285693
0.23307138364366192   0.00040604953397962995   -0.019415426238285693
0.23307138364366192   0.00040604953397962995   -0.019415426238285693
0.15721576044162824   -0.0011216294477120678   -0.008348677265403925
0.15721576044162824   -0.0011216294477120678   -0.008348677265403925
0.15721576044162824   -0.0011216294477120678   -0.008348677265403925
0.15721576044162824   -0.0011216294477120678   -0.008348677265403925
0.24581471671147528   0.03241927520948245   0.012288013425276694
0.24581471671147528   0.03241927520948245   0.012288013425276694
0.24581471671147528   0.03241927520948245   0.012288013425276694
0.24581471671147528   0.03241927520948245   0.012288013425276694
0.09192772920828476   -0.02734411754301877   -0.017022607187900548
0.09192772920828476   -0.02734411754301877   -0.017022607187900548
0.09192772920828476   -0.02734411754301877   -0.017022607187900548
0.09192772920828476   -0.02734411754301877   -0.017022607187900548
0.11061574199571599   0.012952530331795619   0.009416933247971989
0.11061574199571599   0.012952530331795619   0.009416933247971989
0.11061574199571599   0.012952530331795619   0.009416933247971989
0.11061574199571599   0.012952530331795619   0.009416933247971989
0.2499432260475346   0.012717496342494944   -0.020916448028938134
0.2499432260475346   0.012717496342494944   -0.020916448028938134
0.2499432260475346   0.012717496342494944   -0.020916448028938134
0.2499432260475346   0.012717496342494944   -0.020916448028938134
0.16531008752318765   0.005100788462787539   -0.0037688396086377352
0.16531008752318765   0.005100788462787539   -0.0037688396086377352
0.16531008752318765   0.005100788462787539   -0.0037688396086377352
0.16531008752318765   0.005100788462787539   -0.0037688396086377352
0.09358918086835682   0.011169558106959946   0.014892064119765354
0.09358918086835682   0.011169558106959946   0.014892064119765354
0.09358918086835682   0.011169558106959946   0.014892064119765354
0.09358918086835682   0.011169558106959946   0.014892064119765354
-0.04645338427394594   -0.03292516643555834   -0.006370716523120147
-0.04645338427394594   -0.03292516643555834   -0.006370716523120147
-0.04645338427394594   -0.03292516643555834   -0.006370716523120147
-0.04645338427394594   -0.03292516643555834   -0.006370716523120147
-0.034249360033179535   -0.009851556647610353   0.004430027886192757
-0.034249360033179535   -0.009851556647610353   0.004430027886192757
-0.034249360033179535   -0.009851556647610353   0.004430027886192757
-0.034249360033179535   -0.009851556647610353   0.004430027886192757
0.09406032487338596   0.0008460782220784599   -0.0018526095714899065
0.09406032487338596   0.0008460782220784599   -0.0018526095714899065
0.09406032487338596   0.0008460782220784599   -0.0018526095714899065
0.09406032487338596   0.0008460782220784599   -0.0018526095714899065
0.025499875076943457   -0.006792382777688935   -0.0057741488379385855
0.025499875076943457   -0.006792382777688935   -0.0057741488379385855
0.025499875076943457   -0.006792382777688935   -0.0057741488379385855
0.025499875076943457   -0.006792382777688935   -0.0057741488379385855
0.10070518206447154   0.01891408092990369   0.013303673676111873
0.10070518206447154   0.01891408092990369   0.013303673676111873
0.10070518206447154   0.01891408092990369   0.013303673676111873
0.10070518206447154   0.01891408092990369   0.013303673676111873
-0.04033034457174268   -0.027355686702913287   -0.008470764751320008
-0.04033034457174268   -0.027355686702913287   -0.008470764751320008
-0.04033034457174268   -0.027355686702913287   -0.008470764751320008
-0.04033034457174268   -0.027355686702913287   -0.008470764751320008
-0.027829021488491642   -0.0020108598777449104   0.0027807871977173428
-0.027829021488491642   -0.0020108598777449104   0.0027807871977173428
-0.027829021488491642   -0.0020108598777449104   0.0027807871977173428
-0.027829021488491642   -0.0020108598777449104   0.0027807871977173428
0.10167024533557903   0.007850395828659762   -0.003504539923107804
0.10167024533557903   0.007850395828659762   -0.003504539923107804
0.10167024533557903   0.007850395828659762   -0.003504539923107804
0.10167024533557903   0.007850395828659762   -0.003504539923107804
0.03168145726494733   -0.0006138340300547336   -0.0022871518762709376
0.03168145726494733   -0.0006138340300547336   -0.0022871518762709376
0.03168145726494733   -0.0006138340300547336   -0.0022871518762709376
0.03168145726494733   -0.0006138340300547336   -0.0022871518762709376
0.10858510066132082   0.027083194682938416   0.011836937851321517
0.10858510066132082   0.027083194682938416   0.011836937851321517
0.10858510066132082   0.027083194682938416   0.011836937851321517
0.10858510066132082   0.027083194682938416   0.011836937851321517
-0.034181196593211255   -0.020680978511004106   -0.010309969692621518
-0.034181196593211255   -0.020680978511004106   -0.010309969692621518
-0.034181196593211255   -0.020680978511004106   -0.010309969692621518
-0.034181196593211255   -0.020680978511004106   -0.010309969692621518
-0.02147949575629164   0.00712015320978522   0.001143562210828784
-0.02147949575629164   0.00712015320978522   0.001143562210828784
-0.02147949575629164   0.00712015320978522   0.001143562210828784
-0.02147949575629164   0.00712015320978522   0.001143562210828784
0.10838500534920185   0.016231757331925296   -0.005015976984728317
0.10838500534920185   0.016231757331925296   -0.005015976984728317
0.10838500534920185   0.016231757331925296   -0.005015976984728317
0.10838500534920185   0.016231757331925296   -0.005015976984728317
0.039417056364295495   0.007003129827046171   0.001796185112859944
0.039417056364295495   0.007003129827046171   0.001796185112859944
0.039417056364295495   0.007003129827046171   0.001796185112859944
0.039417056364295495   0.007003129827046171   0.001796185112859944
-0.03681637156395255   0.0025018697347735444   0.006387310856514932
-0.03681637156395255   0.0025018697347735444   0.006387310856514932
-0.03681637156395255   0.0025018697347735444   0.006387310856514932
-0.03681637156395255   0.0025018697347735444   0.006387310856514932
-0.1693434978905637   -0.029178922273686184   -0.0009100616485789817
-0.1693434978905637   -0.029178922273686184   -0.0009100616485789817
-0.1693434978905637   -0.029178922273686184   -0.0009100616485789817
-0.1693434978905637   -0.029178922273686184   -0.0009100616485789817
-0.16177758393101657   -0.017491636765199787   -0.003956028928833945
-0.16177758393101657   -0.017491636765199787   -0.003956028928833945
-0.16177758393101657   -0.017491636765199787   -0.003956028928833945
-0.16177758393101657   -0.017491636765199787   -0.003956028928833945
-0.03136147602623788   0.004820994049797961   0.004196897223492726
-0.03136147602623788   0.004820994049797961   0.004196897223492726
-0.03136147602623788   0.004820994049797961   0.004196897223492726
-0.03136147602623788   0.004820994049797961   0.004196897223492726
-0.0999943322746288   -0.008915413432191174   -0.003619165211315978
-0.0999943322746288   -0.008915413432191174   -0.003619165211315978
-0.0999943322746288   -0.008915413432191174   -0.003619165211315978
-0.0999943322746288   -0.008915413432191174   -0.003619165211315978
-0.030071213290513637   0.010612236782541638   0.004856968169370253
-0.030071213290513637   0.010612236782541638   0.004856968169370253
-0.030071213290513637   0.010612236782541638   0.004856968169370253
-0.030071213290513637   0.010612236782541638   0.004856968169370253
-0.16267731883379896   -0.02289235166500163   -0.0030539885429441116
-0.16267731883379896   -0.02289235166500163   -0.0030539885429441116
-0.16267731883379896   -0.02289235166500163   -0.0030539885429441116
-0.16267731883379896   -0.02289235166500163   -0.0030539885429441116
-0.15469234830974304   -0.008888412126654331   -0.005338848167703275
-0.15469234830974304   -0.008888412126654331   -0.005338848167703275
-0.15469234830974304   -0.008888412126654331   -0.005338848167703275
-0.15469234830974304   -0.008888412126654331   -0.005338848167703275
-0.025117653956621157   0.011903211889198092   0.002423553090126764
-0.025117653956621157   0.011903211889198092   0.002423553090126764
-0.025117653956621157   0.011903211889198092   0.002423553090126764
-0.025117653956621157   0.011903211889198092   0.002423553090126764
-0.09284102758802576   -0.0017234344369511344   -4.715837565205227e-05
-0.09284102758802576   -0.0017234344369511344   -4.715837565205227e-05
-0.09284102758802576   -0.0017234344369511344   -4.715837565205227e-05
-0.09284102758802576   -0.0017234344369511344   -4.715837565205227e-05
-0.023555213866938752   0.019028814567495462   0.00311015086024141
-0.023555213866938752   0.019028814567495462   0.00311015086024141
-0.023555213866938752   0.019028814567495462   0.00311015086024141
-0.023555213866938752   0.019028814567495462   0.00311015086024141
-0.15589495661939387   -0.01565418302492013   -0.00458611881769164
-0.15589495661939387   -0.01565418302492013   -0.00458611881769164
-0.15589495661939387   -0.01565418302492013   -0.00458611881769164
-0.15589495661939387   -0.01565418302492013   -0.00458611881769164
-0.14809137678883538   -0.0003015801050493816   -0.006975355675345268
-0.14809137678883538   -0.0003015801050493816   -0.006975355675345268
-0.14809137678883538   -0.0003015801050493816   -0.006975355675345268
-0.14809137678883538   -0.0003015801050493816   -0.006975355675345268
-0.01917712815414943   0.019123761444945462   0.0006517919863805689
-0.01917712815414943   0.019123761444945462   0.0006517919863805689
-0.01917712815414943   0.019123761444945462   0.0006517919863805689
-0.01917712815414943   0.019123761444945462   0.0006517919863805689
-0.08628126513680828   0.005444473683968373   0.003346072942832269
-0.08628126513680828   0.005444473683968373   0.003346072942832269
-0.08628126513680828   0.005444473683968373   0.003346072942832269
-0.08628126513680828   0.005444473683968373   0.003346072942832269
-0.1650431674663897   -0.006230427932104821   -0.0023569038692893805
-0.1650431674663897   -0.006230427932104821   -0.0023569038692893805
-0.1650431674663897   -0.006230427932104821   -0.0023569038692893805
-0.1650431674663897   -0.006230427932104821   -0.0023569038692893805
-0.28992102916505996   -0.023834675215831692   0.005275659314800766
-0.28992102916505996   -0.023834675215831692   0.005275659314800766
-0.28992102916505996   -0.023834675215831692   0.005275659314800766
-0.28992102916505996   -0.023834675215831692   0.005275659314800766
-0.28649097124640127   -0.02487379839702586   -0.011862039862593224
-0.28649097124640127   -0.02487379839702586   -0.011862039862593224
-0.28649097124640127   -0.02487379839702586   -0.011862039862593224
-0.28649097124640127   -0.02487379839702586   -0.011862039862593224
-0.15313456251032076   0.011333276272699776   0.010434165136746795
-0.15313456251032076   0.011333276272699776   0.010434165136746795
-0.15313456251032076   0.011333276272699776   0.010434165136746795
-0.15313456251032076   0.011333276272699776   0.010434165136746795
-0.22210195939794636   -0.009570371720884374   -0.001276496135281354
-0.22210195939794636   -0.009570371720884374   -0.001276496135281354
-0.22210195939794636   -0.009570371720884374   -0.001276496135281354
-0.22210195939794636   -0.009570371720884374   -0.001276496135281354
-0.1577161376179142   0.002521241229571737   -0.0036616753580922916
-0.1577161376179142   0.002521241229571737   -0.0036616753580922916
-0.1577161376179142   0.002521241229571737   -0.0036616753580922916
-0.1577161376179142   0.002521241229571737   -0.0036616753580922916
-0.2818488827936325   -0.01600125000872208   0.0024758540129492437
-0.2818488827936325   -0.01600125000872208   0.0024758540129492437
-0.2818488827936325   -0.01600125000872208   0.0024758540129492437
-0.2818488827936325   -0.01600125000872208   0.0024758540129492437
-0.2771835875286248   -0.016489525183362615   -0.01312282909960427
-0.2771835875286248   -0.016489525183362615   -0.01312282909960427
-0.2771835875286248   -0.016489525183362615   -0.01312282909960427
-0.2771835875286248   -0.016489525183362615   -0.01312282909960427
-0.14656242017921678   0.018062432364418513   0.008359947993856353
-0.14656242017921678   0.018062432364418513   0.008359947993856353
-0.14656242017921678   0.018062432364418513   0.008359947993856353
-0.14656242017921678   0.018062432364418513   0.008359947993856353
-0.212581820108977   -0.0016333941925686171   0.002323851249492156
-0.212581820108977   -0.0016333941925686171   0.002323851249492156
-0.212581820108977   -0.0016333941925686171   0.002323851249492156
-0.212581820108977   -0.0016333941925686171   0.002323851249492156
-0.1508646086549366   0.01031760333935914   -0.005406165359683803
-0.1508646086549366   0.01031760333935914   -0.005406165359683803
-0.1508646086549366   0.01031760333935914   -0.005406165359683803
-0.1508646086549366   0.01031760333935914   -0.005406165359683803
-0.2726122739234323   -0.008475571028830543   0.0017197847718265647
-0.2726122739234323   -0.008475571028830543   0.0017197847718265647
-0.2726122739234323   -0.008475571028830543   0.0017197847718265647
-0.2726122739234323   -0.008475571028830543   0.0017197847718265647
-0.26886628063496515   -0.007434230470849942   -0.01381112487695264
-0.26886628063496515   -0.007434230470849942   -0.01381112487695264
-0.26886628063496515   -0.007434230470849942   -0.01381112487695264
-0.26886628063496515   -0.007434230470849942   -0.01381112487695264
-0.14019784270421531   0.025422161726982494   0.006768572915724597
-0.14019784270421531   0.025422161726982494   0.006768572915724597
-0.14019784270421531   0.025422161726982494   0.006768572915724597
-0.14019784270421531   0.025422161726982494   0.006768572915724597
-0.20628506508005484   0.005121195896309445   0.005418545506103
-0.20628506508005484   0.005121195896309445   0.005418545506103
-0.20628506508005484   0.005121195896309445   0.005418545506103
-0.20628506508005484   0.005121195896309445   0.005418545506103
-0.29097363830422907   -0.013365206668436595   -0.010456854928439776
-0.29097363830422907   -0.013365206668436595   -0.010456854928439776
-0.29097363830422907   -0.013365206668436595   -0.010456854928439776
-0.29097363830422907   -0.013365206668436595   -0.010456854928439776
-0.4156913584326576   -0.015130376104643628   0.018062215162427436
-0.4156913584326576   -0.015130376104643628   0.018062215162427436
-0.4156913584326576   -0.015130376104643628   0.018062215162427436
-0.4156913584326576   -0.015130376104643628   0.018062215162427436
-0.4083359710657269   -0.02967208991967473   -0.014013469955833002
-0.4083359710657269   -0.02967208991967473   -0.014013469955833002
-0.4083359710657269   -0.02967208991967473   -0.014013469955833002
-0.4083359710657269   -0.02967208991967473   -0.014013469955833002
-0.27087155675165364   0.02292395447789221   0.018437279736226813
-0.27087155675165364   0.02292395447789221   0.018437279736226813
-0.27087155675165364   0.02292395447789221   0.018437279736226813
-0.27087155675165364   0.02292395447789221   0.018437279736226813
-0.33106490148416634   -0.004078242457138642   0.0040458440694634105
-0.33106490148416634   -0.004078242457138642   0.0040458440694634105
-0.33106490148416634   -0.004078242457138642   0.0040458440694634105
-0.33106490148416634   -0.004078242457138642   0.0040458440694634105
-0.2822682285140221   -0.003983560281426303   -0.011638564316295686
-0.2822682285140221   -0.003983560281426303   -0.011638564316295686
-0.2822682285140221   -0.003983560281426303   -0.011638564316295686
-0.2822682285140221   -0.003983560281426303   -0.011638564316295686
-0.39671754580097907   -0.002542821657977201   0.016949388106205176
-0.39671754580097907   -0.002542821657977201   0.016949388106205176
-0.39671754580097907   -0.002542821657977201   0.016949388106205176
-0.39671754580097907   -0.002542821657977201   0.016949388106205176
-0.39408770322181474   -0.02449039848517845   -0.016533074083022674
-0.39408770322181474   -0.02449039848517845   -0.016533074083022674
-0.39408770322181474   -0.02449039848517845   -0.016533074083022674
-0.39408770322181474   -0.02449039848517845   -0.016533074083022674
-0.2631086561789206   0.026115127606598676   0.014647174858955777
-0.2631086561789206   0.026115127606598676   0.014647174858955777
-0.2631086561789206   0.026115127606598676   0.014647174858955777
-0.2631086561789206   0.026115127606598676   0.014647174858955777
-0.3240216821522253   0.0015914331541237309   0.0069875793623859934
-0.3240216821522253   0.0015914331541237309   0.0069875793623859934
-0.3240216821522253   0.0015914331541237309   0.0069875793623859934
-0.3240216821522253   0.0015914331541237309   0.0069875793623859934
-0.27387825899114604   0.0002008023820377347   -0.01328651397761052
-0.27387825899114604   0.0002008023820377347   -0.01328651397761052
-0.27387825899114604   0.0002008023820377347   -0.01328651397761052
-0.27387825899114604   0.0002008023820377347   -0.01328651397761052
-0.3830899599440485   0.0016520672049247787   0.012313176615698848
-0.3830899599440485   0.0016520672049247787   0.012313176615698848
-0.3830899599440485   0.0016520672049247787   0.012313176615698848
-0.3830899599440485   0.0016520672049247787   0.012313176615698848
-0.3784193969058446   -0.01835089643305289   -0.01888619151340925
-0.3784193969058446   -0.01835089643305289   -0.01888619151340925
-0.3784193969058446   -0.01835089643305289   -0.01888619151340925
-0.3784193969058446   -0.01835089643305289   -0.01888619151340925
-0.25633199685952784   0.02896259094917536   0.012463472580208638
-0.25633199685952784   0.02896259094917536   0.012463472580208638
-0.25633199685952784   0.02896259094917536   0.012463472580208638
-0.25633199685952784   0.02896259094917536   0.012463472580208638
-0.3080756815467724   0.006266802410180253   0.011522506172656898
-0.3080756815467724   0.006266802410180253   0.011522506172656898
-0.3080756815467724   0.006266802410180253   0.011522506172656898
-0.3080756815467724   0.006266802410180253   0.011522506172656898
0.35945493547379165   0.027001854439218327   0.018624658476964873
0.35945493547379165   0.027001854439218327   0.018624658476964873
0.35945493547379165   0.027001854439218327   0.018624658476964873
0.35945493547379165   0.027001854439218327   0.018624658476964873
0.15786439334544625   -0.041544079420919235   -0.008737902663987163
0.15786439334544625   -0.041544079420919235   -0.008737902663987163
0.15786439334544625   -0.041544079420919235   -0.008737902663987163
0.15786439334544625   -0.041544079420919235   -0.008737902663987163
0.17543394606633064   -0.007642184986147292   0.012724462025453688
0.17543394606633064   -0.007642184986147292   0.012724462025453688
0.17543394606633064   -0.007642184986147292   0.012724462025453688
0.17543394606633064   -0.007642184986147292   0.012724462025453688
0.3630829946188958   0.00012733231859740624   -0.013571451821004797
0.3630829946188958   0.00012733231859740624   -0.013571451821004797
0.3630829946188958   0.00012733231859740624   -0.013571451821004797
0.3630829946188958   0.00012733231859740624   -0.013571451821004797
0.24853443163484934   -0.007215763817160131   -0.019156202419032077
0.24853443163484934   -0.007215763817160131   -0.019156202419032077
0.24853443163484934   -0.007215763817160131   -0.019156202419032077
0.24853443163484934   -0.007215763817160131   -0.019156202419032077
0.3754729151664423   0.03293484422987413   0.015570639005449105
0.3754729151664423   0.03293484422987413   0.015570639005449105
0.3754729151664423   0.03293484422987413   0.015570639005449105
0.3754729151664423   0.03293484422987413   0.015570639005449105
0.16424110832928854   -0.0392526140869196   -0.011629297558982558
0.16424110832928854   -0.0392526140869196   -0.011629297558982558
0.16424110832928854   -0.0392526140869196   -0.011629297558982558
0.16424110832928854   -0.0392526140869196   -0.011629297558982558
0.1821740280269415   -0.0038386550539799696   0.01025840643863674
0.1821740280269415   -0.0038386550539799696   0.01025840643863674
0.1821740280269415   -0.0038386550539799696   0.01025840643863674
0.1821740280269415   -0.0038386550539799696   0.01025840643863674
0.3750567382977111   0.0043084002331902765   -0.01687355835495827
0.3750567382977111   0.0043084002331902765   -0.01687355835495827
0.3750567382977111   0.0043084002331902765   -0.01687355835495827
0.3750567382977111   0.0043084002331902765   -0.01687355835495827
0.26370215411546133   -0.0027759146644767765   -0.013079939033464976
0.26370215411546133   -0.0027759146644767765   -0.013079939033464976
0.26370215411546133   -0.0027759146644767765   -0.013079939033464976
0.26370215411546133   -0.0027759146644767765   -0.013079939033464976
0.38736259589839417   0.037450169340760606   0.011513960540886912
0.38736259589839417   0.037450169340760606   0.011513960540886912
0.38736259589839417   0.037450169340760606   0.011513960540886912
0.38736259589839417   0.037450169340760606   0.011513960540886912
0.1709084533855661   -0.03594014120224258   -0.013967980619977591
0.1709084533855661   -0.03594014120224258   -0.013967980619977591
0.1709084533855661   -0.03594014120224258   -0.013967980619977591
0.1709084533855661   -0.03594014120224258   -0.013967980619977591
0.18829735486094884   0.00637045833459652   0.008994233118155512
0.18829735486094884   0.00637045833459652   0.008994233118155512
0.18829735486094884   0.00637045833459652   0.008994233118155512
0.18829735486094884   0.00637045833459652   0.008994233118155512
0.3898513455451396   0.01656897279857826   -0.017640759031977548
0.3898513455451396   0.01656897279857826   -0.017640759031977548
0.3898513455451396   0.01656897279857826   -0.017640759031977548
0.3898513455451396   0.01656897279857826   -0.017640759031977548
0.26911505428652494   0.0032510079395922584   -0.008919465151684553
0.26911505428652494   0.0032510079395922584   -0.008919465151684553
0.26911505428652494   0.0032510079395922584   -0.008919465151684553
0.26911505428652494   0.0032510079395922584   -0.008919465151684553
0.174580256273051   0.016012642907573458   0.017284689645541907
0.174580256273051   0.016012642907573458   0.017284689645541907
0.174580256273051   0.016012642907573458   0.017284689645541907
0.174580256273051   0.016012642907573458   0.017284689645541907
-0.022971978310346766   -0.05086875040581461   -0.005023264806553747
-0.022971978310346766   -0.05086875040581461   -0.005023264806553747
-0.022971978310346766   -0.05086875040581461   -0.005023264806553747
-0.022971978310346766   -0.05086875040581461   -0.005023264806553747
-0.007981048658416506   -0.01834366436725796   0.004240051013645817
-0.007981048658416506   -0.01834366436725796   0.004240051013645817
-0.007981048658416506   -0.01834366436725796   0.004240051013645817
-0.007981048658416506   -0.01834366436725796   0.004240051013645817
0.1729728089305625   -0.008180004147295208   0.0009565955077608952
0.1729728089305625   -0.008180004147295208   0.0009565955077608952
0.1729728089305625   -0.008180004147295208   0.0009565955077608952
0.1729728089305625   -0.008180004147295208   0.0009565955077608952
0.07699794067820669   -0.013829229981729835   -0.008979574411771118
0.07699794067820669   -0.013829229981729835   -0.008979574411771118
0.07699794067820669   -0.013829229981729835   -0.008979574411771118
0.07699794067820669   -0.013829229981729835   -0.008979574411771118
0.18185161934433816   0.021840823097027312   0.015329820332317532
0.18185161934433816   0.021840823097027312   0.015329820332317532
0.18185161934433816   0.021840823097027312   0.015329820332317532
0.18185161934433816   0.021840823097027312   0.015329820332317532
-0.016214542581409756   -0.04771917512079793   -0.007551907847780461
-0.016214542581409756   -0.04771917512079793   -0.007551907847780461
-0.016214542581409756   -0.04771917512079793   -0.007551907847780461
-0.016214542581409756   -0.04771917512079793   -0.007551907847780461
-0.0011156358135031223   -0.011497093279537567   0.0025438956850030465
-0.0011156358135031223   -0.011497093279537567   0.0025438956850030465
-0.0011156358135031223   -0.011497093279537567   0.0025438956850030465
-0.0011156358135031223   -0.011497093279537567   0.0025438956850030465
0.18004344500729655   -0.0030123802563090177   -0.0012207834572588415
0.18004344500729655   -0.0030123802563090177   -0.0012207834572588415
0.18004344500729655   -0.0030123802563090177   -0.0012207834572588415
0.18004344500729655   -0.0030123802563090177   -0.0012207834572588415
0.08290870350240112   -0.009613278981357599   -0.005792661963449
0.08290870350240112   -0.009613278981357599   -0.005792661963449
0.08290870350240112   -0.009613278981357599   -0.005792661963449
0.08290870350240112   -0.009613278981357599   -0.005792661963449
0.18939951006257008   0.028838824226032903   0.013708337336766848
0.18939951006257008   0.028838824226032903   0.013708337336766848
0.18939951006257008   0.028838824226032903   0.013708337336766848
0.18939951006257008   0.028838824226032903   0.013708337336766848
-0.010075089036044432   -0.042951685929144716   -0.010798777778096354
-0.010075089036044432   -0.042951685929144716   -0.010798777778096354
-0.010075089036044432   -0.042951685929144716   -0.010798777778096354
-0.010075089036044432   -0.042951685929144716   -0.010798777778096354
0.0042819232922066625   -0.003418639255411979   0.0008351221355804904
0.0042819232922066625   -0.003418639255411979   0.0008351221355804904
0.0042819232922066625   -0.003418639255411979   0.0008351221355804904
0.0042819232922066625   -0.003418639255411979   0.0008351221355804904
0.18531301642822606   0.003618365883444552   -0.003175366594308171
0.18531301642822606   0.003618365883444552   -0.003175366594308171
0.18531301642822606   0.003618365883444552   -0.003175366594308171
0.18531301642822606   0.003618365883444552   -0.003175366594308171
0.09029850976851618   -0.0032832748093485874   -0.0023347985769078348
0.09029850976851618   -0.0032832748093485874   -0.0023347985769078348
0.09029850976851618   -0.0032832748093485874   -0.0023347985769078348
0.09029850976851618   -0.0032832748093485874   -0.0023347985769078348
-0.009110421616269257   0.004777382468743614   0.00863838578927558
-0.009110421616269257   0.004777382468743614   0.00863838578927558
-0.009110421616269257   0.004777382468743614   0.00863838578927558
-0.009110421616269257   0.004777382468743614   0.00863838578927558
-0.2023496868481424   -0.06350920896708509   -0.003949749696717038
-0.2023496868481424   -0.06350920896708509   -0.003949749696717038
-0.2023496868481424   -0.06350920896708509   -0.003949749696717038
-0.2023496868481424   -0.06350920896708509   -0.003949749696717038
-0.18735992267987286   -0.02807665328746698   -0.004292892809196978
-0.18735992267987286   -0.02807665328746698   -0.004292892809196978
-0.18735992267987286   -0.02807665328746698   -0.004292892809196978
-0.18735992267987286   -0.02807665328746698   -0.004292892809196978
-0.008441247177377294   -0.020384364541349127   0.003979758592933052
-0.008441247177377294   -0.020384364541349127   0.003979758592933052
-0.008441247177377294   -0.020384364541349127   0.003979758592933052
-0.008441247177377294   -0.020384364541349127   0.003979758592933052
-0.10224916371207987   -0.0253563514647268   -0.0079803010125204
-0.10224916371207987   -0.0253563514647268   -0.0079803010125204
-0.10224916371207987   -0.0253563514647268   -0.0079803010125204
-0.10224916371207987   -0.0253563514647268   -0.0079803010125204
-0.001478042399115297   0.011367154099254817   0.0070442638436390885
-0.001478042399115297   0.011367154099254817   0.0070442638436390885
-0.001478042399115297   0.011367154099254817   0.0070442638436390885
-0.001478042399115297   0.011367154099254817   0.0070442638436390885
-0.193851558889357   -0.05935660335929051   -0.005471123784794138
-0.193851558889357   -0.05935660335929051   -0.005471123784794138
-0.193851558889357   -0.05935660335929051   -0.005471123784794138
-0.193851558889357   -0.05935660335929051   -0.005471123784794138
-0.1788314753875178   -0.02048493012411164   -0.005803335545509883
-0.1788314753875178   -0.02048493012411164   -0.005803335545509883
-0.1788314753875178   -0.02048493012411164   -0.005803335545509883
-0.1788314753875178   -0.02048493012411164   -0.005803335545509883
-0.0020580942878951564   -0.015407255667980613   0.0017417657014859216
-0.0020580942878951564   -0.015407255667980613   0.0017417657014859216
-0.0020580942878951564   -0.015407255667980613   0.0017417657014859216
-0.0020580942878951564   -0.015407255667980613   0.0017417657014859216
-0.09396983440652523   -0.01987713269079672   -0.0043797679728247475
-0.09396983440652523   -0.01987713269079672   -0.0043797679728247475
-0.09396983440652523   -0.01987713269079672   -0.0043797679728247475
-0.09396983440652523   -0.01987713269079672   -0.0043797679728247475
0.00550125339231405   0.01864044368988915   0.005490804744662194
0.00550125339231405   0.01864044368988915   0.005490804744662194
0.00550125339231405   0.01864044368988915   0.005490804744662194
0.00550125339231405   0.01864044368988915   0.005490804744662194
-0.1863616920665998   -0.05450349848085652   -0.009435850584173601
-0.1863616920665998   -0.05450349848085652   -0.009435850584173601
-0.1863616920665998   -0.05450349848085652   -0.009435850584173601
-0.1863616920665998   -0.05450349848085652   -0.009435850584173601
-0.17279735967611537   -0.01322687064743152   -0.007481136953538402
-0.17279735967611537   -0.01322687064743152   -0.007481136953538402
-0.17279735967611537   -0.01322687064743152   -0.007481136953538402
-0.17279735967611537   -0.01322687064743152   -0.007481136953538402
0.0021141817391775917   -0.011376365373128994   -0.0020458595118488044
0.0021141817391775917   -0.011376365373128994   -0.0020458595118488044
0.0021141817391775917   -0.011376365373128994   -0.0020458595118488044
0.0021141817391775917   -0.011376365373128994   -0.0020458595118488044
-0.0879053363307071   -0.014738962439286261   -0.002086798505328058
-0.0879053363307071   -0.014738962439286261   -0.002086798505328058
-0.0879053363307071   -0.014738962439286261   -0.002086798505328058
-0.0879053363307071   -0.014738962439286261   -0.002086798505328058
-0.18987298870084313   -0.0049127438095083326   -0.00016272411779929934
-0.18987298870084313   -0.0049127438095083326   -0.00016272411779929934
-0.18987298870084313   -0.0049127438095083326   -0.00016272411779929934
-0.18987298870084313   -0.0049127438095083326   -0.00016272411779929934
-0.38286616426722625   -0.06827984555755716   -0.0030891260432770293
-0.38286616426722625   -0.06827984555755716   -0.0030891260432770293
-0.38286616426722625   -0.06827984555755716   -0.0030891260432770293
-0.38286616426722625   -0.06827984555755716   -0.0030891260432770293
-0.3669469990138926   -0.03602975414346233   -0.012568550440491886
-0.3669469990138926   -0.03602975414346233   -0.012568550440491886
-0.3669469990138926   -0.03602975414346233   -0.012568550440491886
-0.3669469990138926   -0.03602975414346233   -0.012568550440491886
-0.18347634987303085   -0.021232034628481528   0.008280352566025792
-0.18347634987303085   -0.021232034628481528   0.008280352566025792
-0.18347634987303085   -0.021232034628481528   0.008280352566025792
-0.18347634987303085   -0.021232034628481528   0.008280352566025792
-0.2783785467405201   -0.0306580523721305   -0.0056018611083556375
-0.2783785467405201   -0.0306580523721305   -0.0056018611083556375
-0.2783785467405201   -0.0306580523721305   -0.0056018611083556375
-0.2783785467405201   -0.0306580523721305   -0.0056018611083556375
-0.1804474312605356   0.0035187097460929392   -0.001325798746072528
-0.1804474312605356   0.0035187097460929392   -0.001325798746072528
-0.1804474312605356   0.0035187097460929392   -0.001325798746072528
-0.1804474312605356   0.0035187097460929392   -0.001325798746072528
-0.37007153625195804   -0.06087611714360645   -0.0033448736306716255
-0.37007153625195804   -0.06087611714360645   -0.0033448736306716255
-0.37007153625195804   -0.06087611714360645   -0.0033448736306716255
-0.37007153625195804   -0.06087611714360645   -0.0033448736306716255
-0.3547061454338569   -0.028143095820782317   -0.014523967677507686
-0.3547061454338569   -0.028143095820782317   -0.014523967677507686
-0.3547061454338569   -0.028143095820782317   -0.014523967677507686
-0.3547061454338569   -0.028143095820782317   -0.014523967677507686
-0.17523103354204192   -0.015341965332306386   0.007055908890065702
-0.17523103354204192   -0.015341965332306386   0.007055908890065702
-0.17523103354204192   -0.015341965332306386   0.007055908890065702
-0.17523103354204192   -0.015341965332306386   0.007055908890065702
-0.2657170502092404   -0.023087927264352187   -0.0017276503065690799
-0.2657170502092404   -0.023087927264352187   -0.0017276503065690799
-0.2657170502092404   -0.023087927264352187   -0.0017276503065690799
-0.2657170502092404   -0.023087927264352187   -0.0017276503065690799
-0.17190795919491997   0.010822665017650043   -0.0024933497242828253
-0.17190795919491997   0.010822665017650043   -0.0024933497242828253
-0.17190795919491997   0.010822665017650043   -0.0024933497242828253
-0.17190795919491997   0.010822665017650043   -0.0024933497242828253
-0.35857442614935353   -0.05485293253911322   -0.007155534536656834
-0.35857442614935353   -0.05485293253911322   -0.007155534536656834
-0.35857442614935353   -0.05485293253911322   -0.007155534536656834
-0.35857442614935353   -0.05485293253911322   -0.007155534536656834
-0.344860767355951   -0.019865726800303976   -0.015007945068972049
-0.344860767355951   -0.019865726800303976   -0.015007945068972049
-0.344860767355951   -0.019865726800303976   -0.015007945068972049
-0.344860767355951   -0.019865726800303976   -0.015007945068972049
-0.17051207853383557   -0.01159697809009997   0.002315376200530553
-0.17051207853383557   -0.01159697809009997   0.002315376200530553
-0.17051207853383557   -0.01159697809009997   0.002315376200530553
-0.17051207853383557   -0.01159697809009997   0.002315376200530553
-0.25895996884050804   -0.018489904191313022   -0.0004380008812887963
-0.25895996884050804   -0.018489904191313022   -0.0004380008812887963
-0.25895996884050804   -0.018489904191313022   -0.0004380008812887963
-0.25895996884050804   -0.018489904191313022   -0.0004380008812887963
-0.372763118624404   -0.011939933210685788   -0.008913810176036933
-0.372763118624404   -0.011939933210685788   -0.008913810176036933
-0.372763118624404   -0.011939933210685788   -0.008913810176036933
-0.372763118624404   -0.011939933210685788   -0.008913810176036933
-0.562273991660047   -0.046947940346596925   0.020395729579619718
-0.562273991660047   -0.046947940346596925   0.020395729579619718
-0.562273991660047   -0.046947940346596925   0.020395729579619718
-0.562273991660047   -0.046947940346596925   0.020395729579619718
-0.543988723098659   -0.037813720050756325   -0.012133926559995203
-0.543988723098659   -0.037813720050756325   -0.012133926559995203
-0.543988723098659   -0.037813720050756325   -0.012133926559995203
-0.543988723098659   -0.037813720050756325   -0.012133926559995203
-0.35135344109709804   0.010416747748129826   0.018952737251885624
-0.35135344109709804   0.010416747748129826   0.018952737251885624
-0.35135344109709804   0.010416747748129826   0.018952737251885624
-0.35135344109709804   0.010416747748129826   0.018952737251885624
-0.43702980862154633   -0.0145003466598599   0.002568497297474343
-0.43702980862154633   -0.0145003466598599   0.002568497297474343
-0.43702980862154633   -0.0145003466598599   0.002568497297474343
-0.43702980862154633   -0.0145003466598599   0.002568497297474343
-0.35929240609278024   -0.0004272827777138666   -0.009898057200676939
-0.35929240609278024   -0.0004272827777138666   -0.009898057200676939
-0.35929240609278024   -0.0004272827777138666   -0.009898057200676939
-0.35929240609278024   -0.0004272827777138666   -0.009898057200676939
-0.5347728404774139   -0.025692771899346475   0.021824538394820018
-0.5347728404774139   -0.025692771899346475   0.021824538394820018
-0.5347728404774139   -0.025692771899346475   0.021824538394820018
-0.5347728404774139   -0.025692771899346475   0.021824538394820018
-0.5243141046969877   -0.03194548847612813   -0.014450457036626355
-0.5243141046969877   -0.03194548847612813   -0.014450457036626355
-0.5243141046969877   -0.03194548847612813   -0.014450457036626355
-0.5243141046969877   -0.03194548847612813   -0.014450457036626355
-0.3392871072578414   0.01620074315409585   0.01822738422769198
-0.3392871072578414   0.01620074315409585   0.01822738422769198
-0.3392871072578414   0.01620074315409585   0.01822738422769198
-0.3392871072578414   0.01620074315409585   0.01822738422769198
-0.42583994404387376   -0.005842994492103945   0.008836392372572433
-0.42583994404387376   -0.005842994492103945   0.008836392372572433
-0.42583994404387376   -0.005842994492103945   0.008836392372572433
-0.42583994404387376   -0.005842994492103945   0.008836392372572433
-0.3474850425844229   0.004165087919572263   -0.01072663717068928
-0.3474850425844229   0.004165087919572263   -0.01072663717068928
-0.3474850425844229   0.004165087919572263   -0.01072663717068928
-0.3474850425844229   0.004165087919572263   -0.01072663717068928
-0.5158292900050614   -0.019622953876260035   0.015651081823132535
-0.5158292900050614   -0.019622953876260035   0.015651081823132535
-0.5158292900050614   -0.019622953876260035   0.015651081823132535
-0.5158292900050614   -0.019622953876260035   0.015651081823132535
-0.5039216480903514   -0.026546613233271274   -0.017492897101200954
-0.5039216480903514   -0.026546613233271274   -0.017492897101200954
-0.5039216480903514   -0.026546613233271274   -0.017492897101200954
-0.5039216480903514   -0.026546613233271274   -0.017492897101200954
-0.33050634551708846   0.022891474356181357   0.014006962968855088
-0.33050634551708846   0.022891474356181357   0.014006962968855088
-0.33050634551708846   0.022891474356181357   0.014006962968855088
-0.33050634551708846   0.022891474356181357   0.014006962968855088
-0.40367466433451427   0.0015046798198646294   0.015255366034457162
-0.40367466433451427   0.0015046798198646294   0.015255366034457162
-0.40367466433451427   0.0015046798198646294   0.015255366034457162
-0.40367466433451427   0.0015046798198646294   0.015255366034457162
0.48751935011479397   0.029575586488165398   0.01720547011208825
0.48751935011479397   0.029575586488165398   0.01720547011208825
0.48751935011479397   0.029575586488165398   0.01720547011208825
0.48751935011479397   0.029575586488165398   0.01720547011208825
0.23149338223973254   -0.04280526696622392   0.0033730070071452817
0.23149338223973254   -0.04280526696622392   0.0033730070071452817
0.23149338223973254   -0.04280526696622392   0.0033730070071452817
0.23149338223973254   -0.04280526696622392   0.0033730070071452817
0.24384514614286512   -0.018388056517154798   0.013089452476249507
0.24384514614286512   -0.018388056517154798   0.013089452476249507
0.24384514614286512   -0.018388056517154798   0.013089452476249507
0.24384514614286512   -0.018388056517154798   0.013089452476249507
0.48983105266947186   0.005092382172900353   -0.004230343119897884
0.48983105266947186   0.005092382172900353   -0.004230343119897884
0.48983105266947186   0.005092382172900353   -0.004230343119897884
0.48983105266947186   0.005092382172900353   -0.004230343119897884
0.3422265056033709   -0.008925155420675651   -0.022424934632871145
0.3422265056033709   -0.008925155420675651   -0.022424934632871145
0.3422265056033709   -0.008925155420675651   -0.022424934632871145
0.3422265056033709   -0.008925155420675651   -0.022424934632871145
0.49892028253704696   0.03272559828717274   0.013582590103705397
0.49892028253704696   0.03272559828717274   0.013582590103705397
0.49892028253704696   0.03272559828717274   0.013582590103705397
0.49892028253704696   0.03272559828717274   0.013582590103705397
0.23690509555232042   -0.04387209335439674   0.0038732363607679975
0.23690509555232042   -0.04387209335439674   0.0038732363607679975
0.23690509555232042   -0.04387209335439674   0.0038732363607679975
0.23690509555232042   -0.04387209335439674   0.0038732363607679975
0.24842052642639023   -0.01565907155678948   0.009925294566463797
0.24842052642639023   -0.01565907155678948   0.009925294566463797
0.24842052642639023   -0.01565907155678948   0.009925294566463797
0.24842052642639023   -0.01565907155678948   0.009925294566463797
0.4980852868855148   0.00815138659528035   -0.0016739950416231504
0.4980852868855148   0.00815138659528035   -0.0016739950416231504
0.4980852868855148   0.00815138659528035   -0.0016739950416231504
0.4980852868855148   0.00815138659528035   -0.0016739950416231504
0.356012216950208   -0.0069899718337300965   -0.015412232947459817
0.356012216950208   -0.0069899718337300965   -0.015412232947459817
0.356012216950208   -0.0069899718337300965   -0.015412232947459817
0.356012216950208   -0.0069899718337300965   -0.015412232947459817
0.5058072710675144   0.03570890079239471   0.009378411671260505
0.5058072710675144   0.03570890079239471   0.009378411671260505
0.5058072710675144   0.03570890079239471   0.009378411671260505
0.5058072710675144   0.03570890079239471   0.009378411671260505
0.2421926352046003   -0.04172249279369414   0.004849259694418972
0.2421926352046003   -0.04172249279369414   0.004849259694418972
0.2421926352046003   -0.04172249279369414   0.004849259694418972
0.2421926352046003   -0.04172249279369414   0.004849259694418972
0.2552023900782154   -0.005017603642306245   0.00907531423053953
0.2552023900782154   -0.005017603642306245   0.00907531423053953
0.2552023900782154   -0.005017603642306245   0.00907531423053953
0.2552023900782154   -0.005017603642306245   0.00907531423053953
0.5067441391220445   0.015333280954358278   -0.0006897427880201736
0.5067441391220445   0.015333280954358278   -0.0006897427880201736
0.5067441391220445   0.015333280954358278   -0.0006897427880201736
0.5067441391220445   0.015333280954358278   -0.0006897427880201736
0.35742599409439246   -0.0030281936108826207   -0.011647754545675962
0.35742599409439246   -0.0030281936108826207   -0.011647754545675962
0.35742599409439246   -0.0030281936108826207   -0.011647754545675962
0.35742599409439246   -0.0030281936108826207   -0.011647754545675962
0.2445132415819072   0.007305294903588243   0.01836174184820653
0.2445132415819072   0.007305294903588243   0.01836174184820653
0.2445132415819072   0.007305294903588243   0.01836174184820653
0.2445132415819072   0.007305294903588243   0.01836174184820653
0.01063894669068045   -0.08395365231897182   0.00817245227375957
0.01063894669068045   -0.08395365231897182   0.00817245227375957
0.01063894669068045   -0.08395365231897182   0.00817245227375957
0.01063894669068045   -0.08395365231897182   0.00817245227375957
0.026553811425470378   -0.036087493859904396   0.007838144449791723
0.026553811425470378   -0.036087493859904396   0.007838144449791723
0.026553811425470378   -0.036087493859904396   0.007838144449791723
0.026553811425470378   -0.036087493859904396   0.007838144449791723
0.23836519146443771   -0.03833899973198021   0.005640622298934868
0.23836519146443771   -0.03833899973198021   0.005640622298934868
0.23836519146443771   -0.03833899973198021   0.005640622298934868
0.23836519146443771   -0.03833899973198021   0.005640622298934868
0.12584820122271248   -0.03694608448658957   -0.014010417555494585
0.12584820122271248   -0.03694608448658957   -0.014010417555494585
0.12584820122271248   -0.03694608448658957   -0.014010417555494585
0.12584820122271248   -0.03694608448658957   -0.014010417555494585
0.2500073851004911   0.010115091778819474   0.015397498968405756
0.2500073851004911   0.010115091778819474   0.015397498968405756
0.2500073851004911   0.010115091778819474   0.015397498968405756
0.2500073851004911   0.010115091778819474   0.015397498968405756
0.01798998701665263   -0.08146321614347041   0.010394744689269007
0.01798998701665263   -0.08146321614347041   0.010394744689269007
0.01798998701665263   -0.08146321614347041   0.010394744689269007
0.01798998701665263   -0.08146321614347041   0.010394744689269007
0.032887775617418985   -0.031080082582917418   0.0055963742995613925
0.032887775617418985   -0.031080082582917418   0.0055963742995613925
0.032887775617418985   -0.031080082582917418   0.0055963742995613925
0.032887775617418985   -0.031080082582917418   0.0055963742995613925
0.24381521196451422   -0.035658356344826496   0.006898007045120998
0.24381521196451422   -0.035658356344826496   0.006898007045120998
0.24381521196451422   -0.035658356344826496   0.006898007045120998
0.24381521196451422   -0.035658356344826496   0.006898007045120998
0.13117045608845904   -0.0349838117463081   -0.007012447425261723
0.13117045608845904   -0.0349838117463081   -0.007012447425261723
0.13117045608845904   -0.0349838117463081   -0.007012447425261723
0.13117045608845904   -0.0349838117463081   -0.007012447425261723
0.25514738102079515   0.01486055236181856   0.013039943619880447
0.25514738102079515   0.01486055236181856   0.013039943619880447
0.25514738102079515   0.01486055236181856   0.013039943619880447
0.25514738102079515   0.01486055236181856   0.013039943619880447
0.024511458391888872   -0.0786431394588141   0.011277845047808394
0.024511458391888872   -0.0786431394588141   0.011277845047808394
0.024511458391888872   -0.0786431394588141   0.011277845047808394
0.024511458391888872   -0.0786431394588141   0.011277845047808394
0.04265303610927827   -0.023553249973045774   0.0036265344421879744
0.04265303610927827   -0.023553249973045774   0.0036265344421879744
0.04265303610927827   -0.023553249973045774   0.0036265344421879744
0.04265303610927827   -0.023553249973045774   0.0036265344421879744
0.24974533580573557   -0.03160988262295787   0.00838232184879328
0.24974533580573557   -0.03160988262295787   0.00838232184879328
0.24974533580573557   -0.03160988262295787   0.00838232184879328
0.24974533580573557   -0.03160988262295787   0.00838232184879328
0.14074548321416694   -0.030307218093963   0.0011584100257023763
0.14074548321416694   -0.030307218093963   0.0011584100257023763
0.14074548321416694   -0.030307218093963   0.0011584100257023763
0.14074548321416694   -0.030307218093963   0.0011584100257023763
0.025187862799293536   -0.014849227498903222   0.011812607996756399
0.025187862799293536   -0.014849227498903222   0.011812607996756399
0.025187862799293536   -0.014849227498903222   0.011812607996756399
0.025187862799293536   -0.014849227498903222   0.011812607996756399
-0.21168372191472973   -0.1432268864065975   0.012169796206155284
-0.21168372191472973   -0.1432268864065975   0.012169796206155284
-0.21168372191472973   -0.1432268864065975   0.012169796206155284
-0.21168372191472973   -0.1432268864065975   0.012169796206155284
-0.18669887234315363   -0.05672436488911614   0.0005373820198743091
-0.18669887234315363   -0.05672436488911614   0.0005373820198743091
-0.18669887234315363   -0.05672436488911614   0.0005373820198743091
-0.18669887234315363   -0.05672436488911614   0.0005373820198743091
0.012842631181712413   -0.10184097522055235   0.005035724591649856
0.012842631181712413   -0.10184097522055235   0.005035724591649856
0.012842631181712413   -0.10184097522055235   0.005035724591649856
0.012842631181712413   -0.10184097522055235   0.005035724591649856
-0.09270552821664857   -0.07970540276948901   -0.016792902314334914
-0.09270552821664857   -0.07970540276948901   -0.016792902314334914
-0.09270552821664857   -0.07970540276948901   -0.016792902314334914
-0.09270552821664857   -0.07970540276948901   -0.016792902314334914
0.03182152613838123   -0.011258263971579759   0.009347488126021371
0.03182152613838123   -0.011258263971579759   0.009347488126021371
0.03182152613838123   -0.011258263971579759   0.009347488126021371
0.03182152613838123   -0.011258263971579759   0.009347488126021371
-0.201168783337592   -0.14279809217585807   0.014261554334425785
-0.201168783337592   -0.14279809217585807   0.014261554334425785
-0.201168783337592   -0.14279809217585807   0.014261554334425785
-0.201168783337592   -0.14279809217585807   0.014261554334425785
-0.17705083151579287   -0.05083550810573442   -0.0004067592593700953
-0.17705083151579287   -0.05083550810573442   -0.0004067592593700953
-0.17705083151579287   -0.05083550810573442   -0.0004067592593700953
-0.17705083151579287   -0.05083550810573442   -0.0004067592593700953
0.01953783476786519   -0.09935864166610808   0.007125229134983983
0.01953783476786519   -0.09935864166610808   0.007125229134983983
0.01953783476786519   -0.09935864166610808   0.007125229134983983
0.01953783476786519   -0.09935864166610808   0.007125229134983983
-0.08288674239711483   -0.07675027475141358   -0.006121948414797986
-0.08288674239711483   -0.07675027475141358   -0.006121948414797986
-0.08288674239711483   -0.07675027475141358   -0.006121948414797986
-0.08288674239711483   -0.07675027475141358   -0.006121948414797986
0.03788907121127854   -0.00655135147604544   0.006074121161988095
0.03788907121127854   -0.00655135147604544   0.006074121161988095
0.03788907121127854   -0.00655135147604544   0.006074121161988095
0.03788907121127854   -0.00655135147604544   0.006074121161988095
-0.19138145743893506   -0.13962218777552288   0.01672679079471027
-0.19138145743893506   -0.13962218777552288   0.01672679079471027
-0.19138145743893506   -0.13962218777552288   0.01672679079471027
-0.19138145743893506   -0.13962218777552288   0.01672679079471027
-0.16111676700322003   -0.04407355874406673   -0.0023008776241398798
-0.16111676700322003   -0.04407355874406673   -0.0023008776241398798
-0.16111676700322003   -0.04407355874406673   -0.0023008776241398798
-0.16111676700322003   -0.04407355874406673   -0.0023008776241398798
0.02997485830525595   -0.0928472978943452   0.009529693343375781
0.02997485830525595   -0.0928472978943452   0.009529693343375781
0.02997485830525595   -0.0928472978943452   0.009529693343375781
0.02997485830525595   -0.0928472978943452   0.009529693343375781
-0.07019764726837657   -0.07048743569625893   0.004905537358468298
-0.07019764726837657   -0.07048743569625893   0.004905537358468298
-0.07019764726837657   -0.07048743569625893   0.004905537358468298
-0.07019764726837657   -0.07048743569625893   0.004905537358468298
-0.1899322148688033   -0.027945951219482956   0.005646396248671016
-0.1899322148688033   -0.027945951219482956   0.005646396248671016
-0.1899322148688033   -0.027945951219482956   0.005646396248671016
-0.1899322148688033   -0.027945951219482956   0.005646396248671016
-0.46636698592171955   -0.22155112456791382   -0.009408020662535009
-0.46636698592171955   -0.22155112456791382   -0.009408020662535009
-0.46636698592171955   -0.22155112456791382   -0.009408020662535009
-0.46636698592171955   -0.22155112456791382   -0.009408020662535009
-0.4253231409231504   -0.07379413937947986   -0.012683380138846389
-0.4253231409231504   -0.07379413937947986   -0.012683380138846389
-0.4253231409231504   -0.07379413937947986   -0.012683380138846389
-0.4253231409231504   -0.07379413937947986   -0.012683380138846389
-0.2113392599974641   -0.18356082250976824   0.004171901368974058
-0.2113392599974641   -0.18356082250976824   0.004171901368974058
-0.2113392599974641   -0.18356082250976824   0.004171901368974058
-0.2113392599974641   -0.18356082250976824   0.004171901368974058
-0.3229143605606622   -0.1311379930362438   -0.01774709582863562
-0.3229143605606622   -0.1311379930362438   -0.01774709582863562
-0.3229143605606622   -0.1311379930362438   -0.01774709582863562
-0.3229143605606622   -0.1311379930362438   -0.01774709582863562
-0.1785745082164906   -0.020850641047969944   0.005285478812043448
-0.1785745082164906   -0.020850641047969944   0.005285478812043448
-0.1785745082164906   -0.020850641047969944   0.005285478812043448
-0.1785745082164906   -0.020850641047969944   0.005285478812043448
-0.4568224622280131   -0.23523889036516737   -0.008735235677472517
-0.4568224622280131   -0.23523889036516737   -0.008735235677472517
-0.4568224622280131   -0.23523889036516737   -0.008735235677472517
-0.4568224622280131   -0.23523889036516737   -0.008735235677472517
-0.4123556754393722   -0.0667743448934118   -0.012981347018115713
-0.4123556754393722   -0.0667743448934118   -0.012981347018115713
-0.4123556754393722   -0.0667743448934118   -0.012981347018115713
-0.4123556754393722   -0.0667743448934118   -0.012981347018115713
-0.2018999678615778   -0.18180240413235638   0.006314455038328774
-0.2018999678615778   -0.18180240413235638   0.006314455038328774
-0.2018999678615778   -0.18180240413235638   0.006314455038328774
-0.2018999678615778   -0.18180240413235638   0.006314455038328774
-0.30911432799369376   -0.12721509954416854   -0.011924735759827408
-0.30911432799369376   -0.12721509954416854   -0.011924735759827408
-0.30911432799369376   -0.12721509954416854   -0.011924735759827408
-0.30911432799369376   -0.12721509954416854   -0.011924735759827408
-0.1694942402910236   -0.015248042256975403   0.0017887310157176668
-0.1694942402910236   -0.015248042256975403   0.0017887310157176668
-0.1694942402910236   -0.015248042256975403   0.0017887310157176668
-0.1694942402910236   -0.015248042256975403   0.0017887310157176668
-0.44455220869927736   -0.23311951245814339   -0.007618845752906674
-0.44455220869927736   -0.23311951245814339   -0.007618845752906674
-0.44455220869927736   -0.23311951245814339   -0.007618845752906674
-0.44455220869927736   -0.23311951245814339   -0.007618845752906674
-0.3920129978191858   -0.05930705172899929   -0.014734072708600502
-0.3920129978191858   -0.05930705172899929   -0.014734072708600502
-0.3920129978191858   -0.05930705172899929   -0.014734072708600502
-0.3920129978191858   -0.05930705172899929   -0.014734072708600502
-0.1814597256676146   -0.16227067032854625   0.014181440638369694
-0.1814597256676146   -0.16227067032854625   0.014181440638369694
-0.1814597256676146   -0.16227067032854625   0.014181440638369694
-0.1814597256676146   -0.16227067032854625   0.014181440638369694
-0.2938851445582269   -0.11462317003805914   -0.005983963412343014
-0.2938851445582269   -0.11462317003805914   -0.005983963412343014
-0.2938851445582269   -0.11462317003805914   -0.005983963412343014
-0.2938851445582269   -0.11462317003805914   -0.005983963412343014
-0.4255924554198189   -0.024256731298884365   -0.002829761422060987
-0.4255924554198189   -0.024256731298884365   -0.002829761422060987
-0.4255924554198189   -0.024256731298884365   -0.002829761422060987
-0.4255924554198189   -0.024256731298884365   -0.002829761422060987
-0.7460088765754478   -0.14766421328456025   0.007687810152646468
-0.7460088765754478   -0.14766421328456025   0.007687810152646468
-0.7460088765754478   -0.14766421328456025   0.007687810152646468
-0.7460088765754478   -0.14766421328456025   0.007687810152646468
-0.7173682027629389   -0.06960776765598257   -0.015155078102835586
-0.7173682027629389   -0.06960776765598257   -0.015155078102835586
-0.7173682027629389   -0.06960776765598257   -0.015155078102835586
-0.7173682027629389   -0.06960776765598257   -0.015155078102835586
-0.4177597074007073   -0.07773667655113692   0.029076324645022647
-0.4177597074007073   -0.07773667655113692   0.029076324645022647
-0.4177597074007073   -0.07773667655113692   0.029076324645022647
-0.4177597074007073   -0.07773667655113692   0.029076324645022647
-0.553437327312401   -0.0852323075823767   0.00726262197334352
-0.553437327312401   -0.0852323075823767   0.00726262197334352
-0.553437327312401   -0.0852323075823767   0.00726262197334352
-0.553437327312401   -0.0852323075823767   0.00726262197334352
-0.4089913895867562   -0.004887618306206085   6.885546984881571e-05
-0.4089913895867562   -0.004887618306206085   6.885546984881571e-05
-0.4089913895867562   -0.004887618306206085   6.885546984881571e-05
-0.4089913895867562   -0.004887618306206085   6.885546984881571e-05
-0.7287172870228366   -0.14503759234685815   0.0035293252885457704
-0.7287172870228366   -0.14503759234685815   0.0035293252885457704
-0.7287172870228366   -0.14503759234685815   0.0035293252885457704
-0.7287172870228366   -0.14503759234685815   0.0035293252885457704
-0.7020366842614175   -0.06384644196726763   -0.019258964375564534
-0.7020366842614175   -0.06384644196726763   -0.019258964375564534
-0.7020366842614175   -0.06384644196726763   -0.019258964375564534
-0.7020366842614175   -0.06384644196726763   -0.019258964375564534
-0.4044280870519738   -0.074090972837751   0.03397322286321881
-0.4044280870519738   -0.074090972837751   0.03397322286321881
-0.4044280870519738   -0.074090972837751   0.03397322286321881
-0.4044280870519738   -0.074090972837751   0.03397322286321881
-0.5457187914098385   -0.07035830521909406   0.007135750023805456
-0.5457187914098385   -0.07035830521909406   0.007135750023805456
-0.5457187914098385   -0.07035830521909406   0.007135750023805456
-0.5457187914098385   -0.07035830521909406   0.007135750023805456
-0.3971320897964187   0.00021559755124224422   -0.0038533612479987704
-0.3971320897964187   0.00021559755124224422   -0.0038533612479987704
-0.3971320897964187   0.00021559755124224422   -0.0038533612479987704
-0.3971320897964187   0.00021559755124224422   -0.0038533612479987704
-0.7101496679727717   -0.13896999881206332   0.01529967391245507
-0.7101496679727717   -0.13896999881206332   0.01529967391245507
-0.7101496679727717   -0.13896999881206332   0.01529967391245507
-0.7101496679727717   -0.13896999881206332   0.01529967391245507
-0.6701543143917134   -0.05218476923781644   -0.02172628612650897
-0.6701543143917134   -0.05218476923781644   -0.02172628612650897
-0.6701543143917134   -0.05218476923781644   -0.02172628612650897
-0.6701543143917134   -0.05218476923781644   -0.02172628612650897
-0.38358433145780235   -0.06924702068141358   0.0373492280507344
-0.38358433145780235   -0.06924702068141358   0.0373492280507344
-0.38358433145780235   -0.06924702068141358   0.0373492280507344
-0.38358433145780235   -0.06924702068141358   0.0373492280507344
-0.5141830607942878   -0.05390557376365408   0.015262866817564901
-0.5141830607942878   -0.05390557376365408   0.015262866817564901
-0.5141830607942878   -0.05390557376365408   0.015262866817564901
-0.5141830607942878   -0.05390557376365408   0.015262866817564901
0.5340893233767243   0.018499882059520717   0.0073028109988766896
0.5340893233767243   0.018499882059520717   0.0073028109988766896
0.5340893233767243   0.018499882059520717   0.0073028109988766896
0.5340893233767243   0.018499882059520717   0.0073028109988766896
0.2711961243462636   -0.014908027411792993   0.004967001937747118
0.2711961243462636   -0.014908027411792993   0.004967001937747118
0.2711961243462636   -0.014908027411792993   0.004967001937747118
0.2711961243462636   -0.014908027411792993   0.004967001937747118
0.2610743918177444   -0.037752946781528185   0.010299672959686802
0.2610743918177444   -0.037752946781528185   0.010299672959686802
0.2610743918177444   -0.037752946781528185   0.010299672959686802
0.2610743918177444   -0.037752946781528185   0.010299672959686802
0.5302732619536052   0.02980618444107136   0.003446304248824743
0.5302732619536052   0.02980618444107136   0.003446304248824743
0.5302732619536052   0.02980618444107136   0.003446304248824743
0.5302732619536052   0.02980618444107136   0.003446304248824743
0.3778944242419874   -0.005105692562751368   -0.014043184939558008
0.3778944242419874   -0.005105692562751368   -0.014043184939558008
0.3778944242419874   -0.005105692562751368   -0.014043184939558008
0.3778944242419874   -0.005105692562751368   -0.014043184939558008
0.5276505464965854   0.014608443202718355   0.0055304682020785555
0.5276505464965854   0.014608443202718355   0.0055304682020785555
0.5276505464965854   0.014608443202718355   0.0055304682020785555
0.5276505464965854   0.014608443202718355   0.0055304682020785555
0.26289562024078666   -0.02335669257715274   0.00500956087052274
0.26289562024078666   -0.02335669257715274   0.00500956087052274
0.26289562024078666   -0.02335669257715274   0.00500956087052274
0.26289562024078666   -0.02335669257715274   0.00500956087052274
0.2545414130028505   -0.03852875569643459   0.008469167382466444
0.2545414130028505   -0.03852875569643459   0.008469167382466444
0.2545414130028505   -0.03852875569643459   0.008469167382466444
0.2545414130028505   -0.03852875569643459   0.008469167382466444
0.524366290392346   0.028628487760777352   0.0062284483394513465
0.524366290392346   0.028628487760777352   0.0062284483394513465
0.524366290392346   0.028628487760777352   0.0062284483394513465
0.524366290392346   0.028628487760777352   0.0062284483394513465
0.37712377769214156   -0.007024247551655927   -0.016023701908467705
0.37712377769214156   -0.007024247551655927   -0.016023701908467705
0.37712377769214156   -0.007024247551655927   -0.016023701908467705
0.37712377769214156   -0.007024247551655927   -0.016023701908467705
0.520373198364557   0.013268385909724525   0.0016230900515555695
0.520373198364557   0.013268385909724525   0.0016230900515555695
0.520373198364557   0.013268385909724525   0.0016230900515555695
0.520373198364557   0.013268385909724525   0.0016230900515555695
0.2570614725453397   -0.02464168633068222   0.0071823957291597615
0.2570614725453397   -0.02464168633068222   0.0071823957291597615
0.2570614725453397   -0.02464168633068222   0.0071823957291597615
0.2570614725453397   -0.02464168633068222   0.0071823957291597615
0.24769494837743333   -0.034874754645223965   0.007319269958679809
0.24769494837743333   -0.034874754645223965   0.007319269958679809
0.24769494837743333   -0.034874754645223965   0.007319269958679809
0.24769494837743333   -0.034874754645223965   0.007319269958679809
0.5153163707164437   0.02927068553905375   0.009168380397563774
0.5153163707164437   0.02927068553905375   0.009168380397563774
0.5153163707164437   0.02927068553905375   0.009168380397563774
0.5153163707164437   0.02927068553905375   0.009168380397563774
0.363294271825378   -0.006953279492606046   -0.02142686794355146
0.363294271825378   -0.006953279492606046   -0.02142686794355146
0.363294271825378   -0.006953279492606046   -0.02142686794355146
0.363294271825378   -0.006953279492606046   -0.02142686794355146
0.26962688044579847   -0.031123337514978672   0.013336092538607323
0.26962688044579847   -0.031123337514978672   0.013336092538607323
0.26962688044579847   -0.031123337514978672   0.013336092538607323
0.26962688044579847   -0.031123337514978672   0.013336092538607323
0.04875129478628451   -0.032037547528298314   0.002409113347139941
0.04875129478628451   -0.032037547528298314   0.002409113347139941
0.04875129478628451   -0.032037547528298314   0.002409113347139941
0.04875129478628451   -0.032037547528298314   0.002409113347139941
0.03125612870545905   -0.07819959678693852   0.013446699783121949
0.03125612870545905   -0.07819959678693852   0.013446699783121949
0.03125612870545905   -0.07819959678693852   0.013446699783121949
0.03125612870545905   -0.07819959678693852   0.013446699783121949
0.2708926090635761   0.01145825670312383   0.01017955570419298
0.2708926090635761   0.01145825670312383   0.01017955570419298
0.2708926090635761   0.01145825670312383   0.01017955570419298
0.2708926090635761   0.01145825670312383   0.01017955570419298
0.152730235032541   -0.032613749951602974   -0.0006600427826537227
0.152730235032541   -0.032613749951602974   -0.0006600427826537227
0.152730235032541   -0.032613749951602974   -0.0006600427826537227
0.152730235032541   -0.032613749951602974   -0.0006600427826537227
0.26232962771249446   -0.03242471317647855   0.011247618828386437
0.26232962771249446   -0.03242471317647855   0.011247618828386437
0.26232962771249446   -0.03242471317647855   0.011247618828386437
0.26232962771249446   -0.03242471317647855   0.011247618828386437
0.0376479437271473   -0.036487793236729654   0.003693971341354277
0.0376479437271473   -0.036487793236729654   0.003693971341354277
0.0376479437271473   -0.036487793236729654   0.003693971341354277
0.0376479437271473   -0.036487793236729654   0.003693971341354277
0.023359593273238315   -0.07872585381067691   0.012016138407144845
0.023359593273238315   -0.07872585381067691   0.012016138407144845
0.023359593273238315   -0.07872585381067691   0.012016138407144845
0.023359593273238315   -0.07872585381067691   0.012016138407144845
0.26487507615012673   0.009609947378826283   0.011998780043586555
0.26487507615012673   0.009609947378826283   0.011998780043586555
0.26487507615012673   0.009609947378826283   0.011998780043586555
0.26487507615012673   0.009609947378826283   0.011998780043586555
0.14194893792037294   -0.034701039928830515   -0.007141859593441116
0.14194893792037294   -0.034701039928830515   -0.007141859593441116
0.14194893792037294   -0.034701039928830515   -0.007141859593441116
0.14194893792037294   -0.034701039928830515   -0.007141859593441116
0.255879876035573   -0.03274873297475883   0.009381459824400574
0.255879876035573   -0.03274873297475883   0.009381459824400574
0.255879876035573   -0.03274873297475883   0.009381459824400574
0.255879876035573   -0.03274873297475883   0.009381459824400574
0.029988036902752025   -0.03873392994213223   0.005166432686168707
0.029988036902752025   -0.03873392994213223   0.005166432686168707
0.029988036902752025   -0.03873392994213223   0.005166432686168707
0.029988036902752025   -0.03873392994213223   0.005166432686168707
0.014539883876705312   -0.07846354767834962   0.00931944850086477
0.014539883876705312   -0.07846354767834962   0.00931944850086477
0.014539883876705312   -0.07846354767834962   0.00931944850086477
0.014539883876705312   -0.07846354767834962   0.00931944850086477
0.2580451340909242   0.009906648813748913   0.014288795067162702
0.2580451340909242   0.009906648813748913   0.014288795067162702
0.2580451340909242   0.009906648813748913   0.014288795067162702
0.2580451340909242   0.009906648813748913   0.014288795067162702
0.13547761584182305   -0.034248950076243234   -0.012605867711706846
0.13547761584182305   -0.034248950076243234   -0.012605867711706846
0.13547761584182305   -0.034248950076243234   -0.012605867711706846
0.13547761584182305   -0.034248950076243234   -0.012605867711706846
0.03839422739572243   -0.09327334167711007   0.011859570543140317
0.03839422739572243   -0.09327334167711007   0.011859570543140317
0.03839422739572243   -0.09327334167711007   0.011859570543140317
0.03839422739572243   -0.09327334167711007   0.011859570543140317
-0.16535654438730274   -0.04918835784708468   -0.0002021673038215448
-0.16535654438730274   -0.04918835784708468   -0.0002021673038215448
-0.16535654438730274   -0.04918835784708468   -0.0002021673038215448
-0.16535654438730274   -0.04918835784708468   -0.0002021673038215448
-0.197003647788205   -0.14173660236490612   0.015403867839798507
-0.197003647788205   -0.14173660236490612   0.015403867839798507
-0.197003647788205   -0.14173660236490612   0.015403867839798507
-0.197003647788205   -0.14173660236490612   0.015403867839798507
0.044158641710694516   -0.006782020179433914   0.006541688201794632
0.044158641710694516   -0.006782020179433914   0.006541688201794632
0.044158641710694516   -0.006782020179433914   0.006541688201794632
0.044158641710694516   -0.006782020179433914   0.006541688201794632
-0.06908725649496367   -0.07170756545206684   0.002779360710465032
-0.06908725649496367   -0.07170756545206684   0.002779360710465032
-0.06908725649496367   -0.07170756545206684   0.002779360710465032
-0.06908725649496367   -0.07170756545206684   0.002779360710465032
0.026249882378971457   -0.09843624635556786   0.00865211771931328
0.026249882378971457   -0.09843624635556786   0.00865211771931328
0.026249882378971457   -0.09843624635556786   0.00865211771931328
0.026249882378971457   -0.09843624635556786   0.00865211771931328
-0.18216754851321545   -0.0531550362455059   0.0010027980953446394
-0.18216754851321545   -0.0531550362455059   0.0010027980953446394
-0.18216754851321545   -0.0531550362455059   0.0010027980953446394
-0.18216754851321545   -0.0531550362455059   0.0010027980953446394
-0.2079420112110526   -0.14373578255198685   0.012719370684507906
-0.2079420112110526   -0.14373578255198685   0.012719370684507906
-0.2079420112110526   -0.14373578255198685   0.012719370684507906
-0.2079420112110526   -0.14373578255198685   0.012719370684507906
0.03674562843596983   -0.008825505433615995   0.009045965843741517
0.03674562843596983   -0.008825505433615995   0.009045965843741517
0.03674562843596983   -0.008825505433615995   0.009045965843741517
0.03674562843596983   -0.008825505433615995   0.009045965843741517
-0.08278774479388792   -0.07590797299895963   -0.006331606560819252
-0.08278774479388792   -0.07590797299895963   -0.006331606560819252
-0.08278774479388792   -0.07590797299895963   -0.006331606560819252
-0.08278774479388792   -0.07590797299895963   -0.006331606560819252
0.017838631175080718   -0.09998869449210722   0.005674168597788142
0.017838631175080718   -0.09998869449210722   0.005674168597788142
0.017838631175080718   -0.09998869449210722   0.005674168597788142
0.017838631175080718   -0.09998869449210722   0.005674168597788142
-0.19274114578191914   -0.05627872532525381   0.0012666406034413866
-0.19274114578191914   -0.05627872532525381   0.0012666406034413866
-0.19274114578191914   -0.05627872532525381   0.0012666406034413866
-0.19274114578191914   -0.05627872532525381   0.0012666406034413866
-0.21986763228647768   -0.14263639167219355   0.010426715045867608
-0.21986763228647768   -0.14263639167219355   0.010426715045867608
-0.21986763228647768   -0.14263639167219355   0.010426715045867608
-0.21986763228647768   -0.14263639167219355   0.010426715045867608
0.028514393777940582   -0.009908366434117813   0.010636816762809302
0.028514393777940582   -0.009908366434117813   0.010636816762809302
0.028514393777940582   -0.009908366434117813   0.010636816762809302
0.028514393777940582   -0.009908366434117813   0.010636816762809302
-0.09395750179233892   -0.07743813820821956   -0.01554262829951991
-0.09395750179233892   -0.07743813820821956   -0.01554262829951991
-0.09395750179233892   -0.07743813820821956   -0.01554262829951991
-0.09395750179233892   -0.07743813820821956   -0.01554262829951991
-0.18476610078031358   -0.1605308373585979   0.014092530242638429
-0.18476610078031358   -0.1605308373585979   0.014092530242638429
-0.18476610078031358   -0.1605308373585979   0.014092530242638429
-0.18476610078031358   -0.1605308373585979   0.014092530242638429
-0.4069294896887748   -0.06107683457465146   -0.009154635304578603
-0.4069294896887748   -0.06107683457465146   -0.009154635304578603
-0.4069294896887748   -0.06107683457465146   -0.009154635304578603
-0.4069294896887748   -0.06107683457465146   -0.009154635304578603
-0.4623868162320232   -0.23694277749237236   -0.011690317309487455
-0.4623868162320232   -0.23694277749237236   -0.011690317309487455
-0.4623868162320232   -0.23694277749237236   -0.011690317309487455
-0.4623868162320232   -0.23694277749237236   -0.011690317309487455
-0.173050746819809   -0.012220744551852705   0.005652514868723602
-0.173050746819809   -0.012220744551852705   0.005652514868723602
-0.173050746819809   -0.012220744551852705   0.005652514868723602
-0.173050746819809   -0.012220744551852705   0.005652514868723602
-0.303748874249784   -0.11281522531634225   -0.008987422034549357
-0.303748874249784   -0.11281522531634225   -0.008987422034549357
-0.303748874249784   -0.11281522531634225   -0.008987422034549357
-0.303748874249784   -0.11281522531634225   -0.008987422034549357
-0.2072280069110246   -0.18255321516176357   0.005098685022557975
-0.2072280069110246   -0.18255321516176357   0.005098685022557975
-0.2072280069110246   -0.18255321516176357   0.005098685022557975
-0.2072280069110246   -0.18255321516176357   0.005098685022557975
-0.4274690201874016   -0.06586977092905529   -0.008174343649696696
-0.4274690201874016   -0.06586977092905529   -0.008174343649696696
-0.4274690201874016   -0.06586977092905529   -0.008174343649696696
-0.4274690201874016   -0.06586977092905529   -0.008174343649696696
-0.4754655035778697   -0.24048084943558606   -0.013512235761527581
-0.4754655035778697   -0.24048084943558606   -0.013512235761527581
-0.4754655035778697   -0.24048084943558606   -0.013512235761527581
-0.4754655035778697   -0.24048084943558606   -0.013512235761527581
-0.18321075137771406   -0.01565439789361091   0.008294285192823918
-0.18321075137771406   -0.01565439789361091   0.008294285192823918
-0.18321075137771406   -0.01565439789361091   0.008294285192823918
-0.18321075137771406   -0.01565439789361091   0.008294285192823918
-0.31980880166655035   -0.1253115625261204   -0.013365710243727031
-0.31980880166655035   -0.1253115625261204   -0.013365710243727031
-0.31980880166655035   -0.1253115625261204   -0.013365710243727031
-0.31980880166655035   -0.1253115625261204   -0.013365710243727031
-0.21853130474453625   -0.18598678201966146   0.002023902484761933
-0.21853130474453625   -0.18598678201966146   0.002023902484761933
-0.21853130474453625   -0.18598678201966146   0.002023902484761933
-0.21853130474453625   -0.18598678201966146   0.002023902484761933
-0.44042314679489836   -0.07042666189338732   -0.008354639388873809
-0.44042314679489836   -0.07042666189338732   -0.008354639388873809
-0.44042314679489836   -0.07042666189338732   -0.008354639388873809
-0.44042314679489836   -0.07042666189338732   -0.008354639388873809
-0.48653708531635576   -0.22916751469052826   -0.01522542152279932
-0.48653708531635576   -0.22916751469052826   -0.01522542152279932
-0.48653708531635576   -0.22916751469052826   -0.01522542152279932
-0.48653708531635576   -0.22916751469052826   -0.01522542152279932
-0.19598005448665645   -0.020538659628973173   0.007766872001750049
-0.19598005448665645   -0.020538659628973173   0.007766872001750049
-0.19598005448665645   -0.020538659628973173   0.007766872001750049
-0.19598005448665645   -0.020538659628973173   0.007766872001750049
-0.33476712257244284   -0.12945348536613932   -0.017686512843843052
-0.33476712257244284   -0.12945348536613932   -0.017686512843843052
-0.33476712257244284   -0.12945348536613932   -0.017686512843843052
-0.33476712257244284   -0.12945348536613932   -0.017686512843843052
-0.4009325503934217   -0.07352988729931556   0.03328311389684384
-0.4009325503934217   -0.07352988729931556   0.03328311389684384
-0.4009325503934217   -0.07352988729931556   0.03328311389684384
-0.4009325503934217   -0.07352988729931556   0.03328311389684384
-0.6989071722946861   -0.051472288161609356   -0.011640299398057236
-0.6989071722946861   -0.051472288161609356   -0.011640299398057236
-0.6989071722946861   -0.051472288161609356   -0.011640299398057236
-0.6989071722946861   -0.051472288161609356   -0.011640299398057236
-0.7405579951033257   -0.14630149291652972   0.009050530520677003
-0.7405579951033257   -0.14630149291652972   0.009050530520677003
-0.7405579951033257   -0.14630149291652972   0.009050530520677003
-0.7405579951033257   -0.14630149291652972   0.009050530520677003
-0.41060425655501925   0.006628271121711077   0.003651432461444823
-0.41060425655501925   0.006628271121711077   0.003651432461444823
-0.41060425655501925   0.006628271121711077   0.003651432461444823
-0.41060425655501925   0.006628271121711077   0.003651432461444823
-0.5359652581444985   -0.05133742067314389   0.010602494324956807
-0.5359652581444985   -0.05133742067314389   0.010602494324956807
-0.5359652581444985   -0.05133742067314389   0.010602494324956807
-0.5359652581444985   -0.05133742067314389   0.010602494324956807
-0.4224899317348435   -0.07860643400846846   0.02945776169250118
-0.4224899317348435   -0.07860643400846846   0.02945776169250118
-0.4224899317348435   -0.07860643400846846   0.02945776169250118
-0.4224899317348435   -0.07860643400846846   0.02945776169250118
-0.7269868761260031   -0.059381343988851115   -0.010014023520382304
-0.7269868761260031   -0.059381343988851115   -0.010014023520382304
-0.7269868761260031   -0.059381343988851115   -0.010014023520382304
-0.7269868761260031   -0.059381343988851115   -0.010014023520382304
-0.7577680400111331   -0.15230028059393227   -0.003733362958528358
-0.7577680400111331   -0.15230028059393227   -0.003733362958528358
-0.7577680400111331   -0.15230028059393227   -0.003733362958528358
-0.7577680400111331   -0.15230028059393227   -0.003733362958528358
-0.42283672850474213   0.0026872677465614864   0.006463522421958561
-0.42283672850474213   0.0026872677465614864   0.006463522421958561
-0.42283672850474213   0.0026872677465614864   0.006463522421958561
-0.42283672850474213   0.0026872677465614864   0.006463522421958561
-0.5669404094902979   -0.06753003988615404   0.0042027390486936884
-0.5669404094902979   -0.06753003988615404   0.0042027390486936884
-0.5669404094902979   -0.06753003988615404   0.0042027390486936884
-0.5669404094902979   -0.06753003988615404   0.0042027390486936884
-0.43632001324311315   -0.08243094112774135   0.024165307604406383
-0.43632001324311315   -0.08243094112774135   0.024165307604406383
-0.43632001324311315   -0.08243094112774135   0.024165307604406383
-0.43632001324311315   -0.08243094112774135   0.024165307604406383
-0.7407516541812135   -0.0636489706280788   -0.007302743774771404
-0.7407516541812135   -0.0636489706280788   -0.007302743774771404
-0.7407516541812135   -0.0636489706280788   -0.007302743774771404
-0.7407516541812135   -0.0636489706280788   -0.007302743774771404
-0.7722769307986568   -0.1545018145185346   -0.00023214179401620516
-0.7722769307986568   -0.1545018145185346   -0.00023214179401620516
-0.7722769307986568   -0.1545018145185346   -0.00023214179401620516
-0.7722769307986568   -0.1545018145185346   -0.00023214179401620516
-0.4401083304217744   -0.015035681670707915   0.0027865199302870743
-0.4401083304217744   -0.015035681670707915   0.0027865199302870743
-0.4401083304217744   -0.015035681670707915   0.0027865199302870743
-0.4401083304217744   -0.015035681670707915   0.0027865199302870743
-0.5730889794753006   -0.08130774164139812   0.006577066665436558
-0.5730889794753006   -0.08130774164139812   0.006577066665436558
-0.5730889794753006   -0.08130774164139812   0.006577066665436558
-0.5730889794753006   -0.08130774164139812   0.006577066665436558
0.47191791968974656   0.022297636511376964   -0.009726473789886069
0.47191791968974656   0.022297636511376964   -0.009726473789886069
0.47191791968974656   0.022297636511376964   -0.009726473789886069
0.47191791968974656   0.022297636511376964   -0.009726473789886069
0.2363460094641608   -0.005504573497970074   0.00457023168101426
0.2363460094641608   -0.005504573497970074   0.00457023168101426
0.2363460094641608   -0.005504573497970074   0.00457023168101426
0.2363460094641608   -0.005504573497970074   0.00457023168101426
0.2219198447322982   -0.034307384951551445   -0.008768125492997644
0.2219198447322982   -0.034307384951551445   -0.008768125492997644
0.2219198447322982   -0.034307384951551445   -0.008768125492997644
0.2219198447322982   -0.034307384951551445   -0.008768125492997644
0.46662263705545093   0.03375578046428093   0.005346991039699267
0.46662263705545093   0.03375578046428093   0.005346991039699267
0.46662263705545093   0.03375578046428093   0.005346991039699267
0.46662263705545093   0.03375578046428093   0.005346991039699267
0.33090262609885734   0.0008264312667994322   -0.01276315025965409
0.33090262609885734   0.0008264312667994322   -0.01276315025965409
0.33090262609885734   0.0008264312667994322   -0.01276315025965409
0.33090262609885734   0.0008264312667994322   -0.01276315025965409
0.4594166930355643   0.012966850073842948   -0.00989379866929177
0.4594166930355643   0.012966850073842948   -0.00989379866929177
0.4594166930355643   0.012966850073842948   -0.00989379866929177
0.4594166930355643   0.012966850073842948   -0.00989379866929177
0.2287431792083798   -0.013901064104918044   0.004942226040775433
0.2287431792083798   -0.013901064104918044   0.004942226040775433
0.2287431792083798   -0.013901064104918044   0.004942226040775433
0.2287431792083798   -0.013901064104918044   0.004942226040775433
0.214126491494517   -0.03612473641597796   -0.007297873646496242
0.214126491494517   -0.03612473641597796   -0.007297873646496242
0.214126491494517   -0.03612473641597796   -0.007297873646496242
0.214126491494517   -0.03612473641597796   -0.007297873646496242
0.4558484749247874   0.031139709953517503   0.007952662628539435
0.4558484749247874   0.031139709953517503   0.007952662628539435
0.4558484749247874   0.031139709953517503   0.007952662628539435
0.4558484749247874   0.031139709953517503   0.007952662628539435
0.3269299432022648   -0.0031152649220484024   -0.015034723255590094
0.3269299432022648   -0.0031152649220484024   -0.015034723255590094
0.3269299432022648   -0.0031152649220484024   -0.015034723255590094
0.3269299432022648   -0.0031152649220484024   -0.015034723255590094
0.4485779196651074   0.010644202670142253   -0.007904606386485581
0.4485779196651074   0.010644202670142253   -0.007904606386485581
0.4485779196651074   0.010644202670142253   -0.007904606386485581
0.4485779196651074   0.010644202670142253   -0.007904606386485581
0.22084551603590052   -0.016180759850899243   0.006353272495342649
0.22084551603590052   -0.016180759850899243   0.006353272495342649
0.22084551603590052   -0.016180759850899243   0.006353272495342649
0.22084551603590052   -0.016180759850899243   0.006353272495342649
0.2066186472480144   -0.03531052254893285   -0.005039936573955416
0.2066186472480144   -0.03531052254893285   -0.005039936573955416
0.2066186472480144   -0.03531052254893285   -0.005039936573955416
0.2066186472480144   -0.03531052254893285   -0.005039936573955416
0.4425454582714848   0.02959907308737436   0.010476761313825952
0.4425454582714848   0.02959907308737436   0.010476761313825952
0.4425454582714848   0.02959907308737436   0.010476761313825952
0.4425454582714848   0.02959907308737436   0.010476761313825952
0.31123888755221774   -0.0053804669361228324   -0.019618730081348335
0.31123888755221774   -0.0053804669361228324   -0.019618730081348335
0.31123888755221774   -0.0053804669361228324   -0.019618730081348335
0.31123888755221774   -0.0053804669361228324   -0.019618730081348335
0.23821424019613313   0.0058788177106868025   0.002527994132216894
0.23821424019613313   0.0058788177106868025   0.002527994132216894
0.23821424019613313   0.0058788177106868025   0.002527994132216894
0.23821424019613313   0.0058788177106868025   0.002527994132216894
0.02072865738142634   -0.014679500249932705   -0.000782978801607645
0.02072865738142634   -0.014679500249932705   -0.000782978801607645
0.02072865738142634   -0.014679500249932705   -0.000782978801607645
0.02072865738142634   -0.014679500249932705   -0.000782978801607645
0.007128511443642302   -0.045033396588382624   -0.008514613133405553
0.007128511443642302   -0.045033396588382624   -0.008514613133405553
0.007128511443642302   -0.045033396588382624   -0.008514613133405553
0.007128511443642302   -0.045033396588382624   -0.008514613133405553
0.2383854592061965   0.027644604663271195   0.011607957261669653
0.2383854592061965   0.027644604663271195   0.011607957261669653
0.2383854592061965   0.027644604663271195   0.011607957261669653
0.2383854592061965   0.027644604663271195   0.011607957261669653
0.12380419966274825   -0.005987481683359375   -0.004738895427167482
0.12380419966274825   -0.005987481683359375   -0.004738895427167482
0.12380419966274825   -0.005987481683359375   -0.004738895427167482
0.12380419966274825   -0.005987481683359375   -0.004738895427167482
0.23180149621449966   0.002392226988134523   0.0039405199783227925
0.23180149621449966   0.002392226988134523   0.0039405199783227925
0.23180149621449966   0.002392226988134523   0.0039405199783227925
0.23180149621449966   0.002392226988134523   0.0039405199783227925
0.013977327564254495   -0.019516165784330484   0.0002122366656032654
0.013977327564254495   -0.019516165784330484   0.0002122366656032654
0.013977327564254495   -0.019516165784330484   0.0002122366656032654
0.013977327564254495   -0.019516165784330484   0.0002122366656032654
-0.0003872017880148064   -0.047047254208735144   -0.006024949956079051
-0.0003872017880148064   -0.047047254208735144   -0.006024949956079051
-0.0003872017880148064   -0.047047254208735144   -0.006024949956079051
-0.0003872017880148064   -0.047047254208735144   -0.006024949956079051
0.2301431028653016   0.02388168599858786   0.012778760792860975
0.2301431028653016   0.02388168599858786   0.012778760792860975
0.2301431028653016   0.02388168599858786   0.012778760792860975
0.2301431028653016   0.02388168599858786   0.012778760792860975
0.11508039562887075   -0.009484628708569903   -0.006706350006937287
0.11508039562887075   -0.009484628708569903   -0.006706350006937287
0.11508039562887075   -0.009484628708569903   -0.006706350006937287
0.11508039562887075   -0.009484628708569903   -0.006706350006937287
0.22393824129287798   0.00012504348710736662   0.005511095442225344
0.22393824129287798   0.00012504348710736662   0.005511095442225344
0.22393824129287798   0.00012504348710736662   0.005511095442225344
0.22393824129287798   0.00012504348710736662   0.005511095442225344
0.005791089830426688   -0.023317181651233882   0.0011364355786271608
0.005791089830426688   -0.023317181651233882   0.0011364355786271608
0.005791089830426688   -0.023317181651233882   0.0011364355786271608
0.005791089830426688   -0.023317181651233882   0.0011364355786271608
-0.008431663578274653   -0.047083972935258865   -0.004187516008661954
-0.008431663578274653   -0.047083972935258865   -0.004187516008661954
-0.008431663578274653   -0.047083972935258865   -0.004187516008661954
-0.008431663578274653   -0.047083972935258865   -0.004187516008661954
0.22182377847860887   0.021575100063350706   0.014100096966734216
0.22182377847860887   0.021575100063350706   0.014100096966734216
0.22182377847860887   0.021575100063350706   0.014100096966734216
0.22182377847860887   0.021575100063350706   0.014100096966734216
0.1083902121206912   -0.01075976219305563   -0.008347239322639014
0.1083902121206912   -0.01075976219305563   -0.008347239322639014
0.1083902121206912   -0.01075976219305563   -0.008347239322639014
0.1083902121206912   -0.01075976219305563   -0.008347239322639014
0.021742878098227655   -0.011505262485600711   0.0011138870180678996
0.021742878098227655   -0.011505262485600711   0.0011138870180678996
0.021742878098227655   -0.011505262485600711   0.0011138870180678996
0.021742878098227655   -0.011505262485600711   0.0011138870180678996
-0.18794299772925654   -0.021574755513867432   -0.005871528156237856
-0.18794299772925654   -0.021574755513867432   -0.005871528156237856
-0.18794299772925654   -0.021574755513867432   -0.005871528156237856
-0.18794299772925654   -0.021574755513867432   -0.005871528156237856
-0.20306540174897664   -0.059496270784453076   -0.00980552136363
-0.20306540174897664   -0.059496270784453076   -0.00980552136363
-0.20306540174897664   -0.059496270784453076   -0.00980552136363
-0.20306540174897664   -0.059496270784453076   -0.00980552136363
0.02328250398940801   0.020465218697554292   0.00675673430948609
0.02328250398940801   0.020465218697554292   0.00675673430948609
0.02328250398940801   0.020465218697554292   0.00675673430948609
0.02328250398940801   0.020465218697554292   0.00675673430948609
-0.08672254837867234   -0.017172601439377842   -0.004651665528952086
-0.08672254837867234   -0.017172601439377842   -0.004651665528952086
-0.08672254837867234   -0.017172601439377842   -0.004651665528952086
-0.08672254837867234   -0.017172601439377842   -0.004651665528952086
0.01608119684259437   -0.012885636115682195   0.004101053388653374
0.01608119684259437   -0.012885636115682195   0.004101053388653374
0.01608119684259437   -0.012885636115682195   0.004101053388653374
0.01608119684259437   -0.012885636115682195   0.004101053388653374
-0.19529919495301937   -0.02558051632207056   -0.0048902418462261265
-0.19529919495301937   -0.02558051632207056   -0.0048902418462261265
-0.19529919495301937   -0.02558051632207056   -0.0048902418462261265
-0.19529919495301937   -0.02558051632207056   -0.0048902418462261265
-0.21186111845766026   -0.061684405947894726   -0.006641789834022083
-0.21186111845766026   -0.061684405947894726   -0.006641789834022083
-0.21186111845766026   -0.061684405947894726   -0.006641789834022083
-0.21186111845766026   -0.061684405947894726   -0.006641789834022083
0.015040284043243242   0.01644763656100744   0.0076175884304686
0.015040284043243242   0.01644763656100744   0.0076175884304686
0.015040284043243242   0.01644763656100744   0.0076175884304686
0.015040284043243242   0.01644763656100744   0.0076175884304686
-0.09401737031343635   -0.019519094531544306   -0.005563109165881568
-0.09401737031343635   -0.019519094531544306   -0.005563109165881568
-0.09401737031343635   -0.019519094531544306   -0.005563109165881568
-0.09401737031343635   -0.019519094531544306   -0.005563109165881568
0.008289095328966281   -0.015220124116455631   0.005529405536546879
0.008289095328966281   -0.015220124116455631   0.005529405536546879
0.008289095328966281   -0.015220124116455631   0.005529405536546879
0.008289095328966281   -0.015220124116455631   0.005529405536546879
-0.2049815278469307   -0.029888243373979412   -0.004039999354291725
-0.2049815278469307   -0.029888243373979412   -0.004039999354291725
-0.2049815278469307   -0.029888243373979412   -0.004039999354291725
-0.2049815278469307   -0.029888243373979412   -0.004039999354291725
-0.22160048416337902   -0.0632381268505245   -0.005897107377904544
-0.22160048416337902   -0.0632381268505245   -0.005897107377904544
-0.22160048416337902   -0.0632381268505245   -0.005897107377904544
-0.22160048416337902   -0.0632381268505245   -0.005897107377904544
0.006122253468665868   0.013026659711883342   0.008471436578898442
0.006122253468665868   0.013026659711883342   0.008471436578898442
0.006122253468665868   0.013026659711883342   0.008471436578898442
0.006122253468665868   0.013026659711883342   0.008471436578898442
-0.10347148033667267   -0.022326031258604884   -0.0077841951023271076
-0.10347148033667267   -0.022326031258604884   -0.0077841951023271076
-0.10347148033667267   -0.022326031258604884   -0.0077841951023271076
-0.10347148033667267   -0.022326031258604884   -0.0077841951023271076
-0.18471337789273998   -0.01421860171002837   0.0029204172225020765
-0.18471337789273998   -0.01421860171002837   0.0029204172225020765
-0.18471337789273998   -0.01421860171002837   0.0029204172225020765
-0.18471337789273998   -0.01421860171002837   0.0029204172225020765
-0.3923285224564508   -0.025289702317730887   -0.01019637480114626
-0.3923285224564508   -0.025289702317730887   -0.01019637480114626
-0.3923285224564508   -0.025289702317730887   -0.01019637480114626
-0.3923285224564508   -0.025289702317730887   -0.01019637480114626
-0.4094550349418755   -0.06262602149798377   -0.009969581739865212
-0.4094550349418755   -0.06262602149798377   -0.009969581739865212
-0.4094550349418755   -0.06262602149798377   -0.009969581739865212
-0.4094550349418755   -0.06262602149798377   -0.009969581739865212
-0.18562790847508112   0.015816027853349922   0.0020696463680407017
-0.18562790847508112   0.015816027853349922   0.0020696463680407017
-0.18562790847508112   0.015816027853349922   0.0020696463680407017
-0.18562790847508112   0.015816027853349922   0.0020696463680407017
-0.2906511884544196   -0.020587797565083117   -0.0038030240754172804
-0.2906511884544196   -0.020587797565083117   -0.0038030240754172804
-0.2906511884544196   -0.020587797565083117   -0.0038030240754172804
-0.2906511884544196   -0.020587797565083117   -0.0038030240754172804
-0.19097054344221814   -0.015583922477448112   0.006756421863155661
-0.19097054344221814   -0.015583922477448112   0.006756421863155661
-0.19097054344221814   -0.015583922477448112   0.006756421863155661
-0.19097054344221814   -0.015583922477448112   0.006756421863155661
-0.4030291141674495   -0.030142785359897027   -0.0103232140058257
-0.4030291141674495   -0.030142785359897027   -0.0103232140058257
-0.4030291141674495   -0.030142785359897027   -0.0103232140058257
-0.4030291141674495   -0.030142785359897027   -0.0103232140058257
-0.4215748857759513   -0.06640666075848155   -0.007102894733291887
-0.4215748857759513   -0.06640666075848155   -0.007102894733291887
-0.4215748857759513   -0.06640666075848155   -0.007102894733291887
-0.4215748857759513   -0.06640666075848155   -0.007102894733291887
-0.19541715157632827   0.011409473776012327   0.002484164848728671
-0.19541715157632827   0.011409473776012327   0.002484164848728671
-0.19541715157632827   0.011409473776012327   0.002484164848728671
-0.19541715157632827   0.011409473776012327   0.002484164848728671
-0.29818588060390727   -0.022602040998398763   -0.003762896738858478
-0.29818588060390727   -0.022602040998398763   -0.003762896738858478
-0.29818588060390727   -0.022602040998398763   -0.003762896738858478
-0.29818588060390727   -0.022602040998398763   -0.003762896738858478
-0.20066222417690616   -0.0193915786397033   0.007059854261554086
-0.20066222417690616   -0.0193915786397033   0.007059854261554086
-0.20066222417690616   -0.0193915786397033   0.007059854261554086
-0.20066222417690616   -0.0193915786397033   0.007059854261554086
-0.4155989970122096   -0.034874792179604756   -0.008755319493460057
-0.4155989970122096   -0.034874792179604756   -0.008755319493460057
-0.4155989970122096   -0.034874792179604756   -0.008755319493460057
-0.4155989970122096   -0.034874792179604756   -0.008755319493460057
-0.4352489519993431   -0.07145073660633076   -0.007524615372351235
-0.4352489519993431   -0.07145073660633076   -0.007524615372351235
-0.4352489519993431   -0.07145073660633076   -0.007524615372351235
-0.4352489519993431   -0.07145073660633076   -0.007524615372351235
-0.2060054057681462   0.00592273667622531   0.002917421071506025
-0.2060054057681462   0.00592273667622531   0.002917421071506025
-0.2060054057681462   0.00592273667622531   0.002917421071506025
-0.2060054057681462   0.00592273667622531   0.002917421071506025
-0.3119415828639669   -0.027867663547538737   -0.006251692607002365
-0.3119415828639669   -0.027867663547538737   -0.006251692607002365
-0.3119415828639669   -0.027867663547538737   -0.006251692607002365
-0.3119415828639669   -0.027867663547538737   -0.006251692607002365
-0.3794003867793488   0.01715670756199672   0.011997893704635842
-0.3794003867793488   0.01715670756199672   0.011997893704635842
-0.3794003867793488   0.01715670756199672   0.011997893704635842
-0.3794003867793488   0.01715670756199672   0.011997893704635842
-0.587628616619613   -0.029217363830150944   -0.007458654301509826
-0.587628616619613   -0.029217363830150944   -0.007458654301509826
-0.587628616619613   -0.029217363830150944   -0.007458654301509826
-0.587628616619613   -0.029217363830150944   -0.007458654301509826
-0.6013048725207286   -0.029799182214491224   0.012214781746157904
-0.6013048725207286   -0.029799182214491224   0.012214781746157904
-0.6013048725207286   -0.029799182214491224   0.012214781746157904
-0.6013048725207286   -0.029799182214491224   0.012214781746157904
-0.392961460440437   0.012614409336447502   -0.002742140067107622
-0.392961460440437   0.012614409336447502   -0.002742140067107622
-0.392961460440437   0.012614409336447502   -0.002742140067107622
-0.392961460440437   0.012614409336447502   -0.002742140067107622
-0.46742956227670635   0.00016845425645081735   0.011961217247659119
-0.46742956227670635   0.00016845425645081735   0.011961217247659119
-0.46742956227670635   0.00016845425645081735   0.011961217247659119
-0.46742956227670635   0.00016845425645081735   0.011961217247659119
-0.38923094629533284   0.01323134556694272   0.015293494427916665
-0.38923094629533284   0.01323134556694272   0.015293494427916665
-0.38923094629533284   0.01323134556694272   0.015293494427916665
-0.38923094629533284   0.01323134556694272   0.015293494427916665
-0.6047667782072638   -0.030147509986415133   -0.004746418914594021
-0.6047667782072638   -0.030147509986415133   -0.004746418914594021
-0.6047667782072638   -0.030147509986415133   -0.004746418914594021
-0.6047667782072638   -0.030147509986415133   -0.004746418914594021
-0.6184816094222171   -0.03439765958093678   0.016683766701957554
-0.6184816094222171   -0.03439765958093678   0.016683766701957554
-0.6184816094222171   -0.03439765958093678   0.016683766701957554
-0.6184816094222171   -0.03439765958093678   0.016683766701957554
-0.4055584337555065   0.009477687884921482   -0.002904983274473402
-0.4055584337555065   0.009477687884921482   -0.002904983274473402
-0.4055584337555065   0.009477687884921482   -0.002904983274473402
-0.4055584337555065   0.009477687884921482   -0.002904983274473402
-0.48998581802599295   -0.005169978368798761   0.006865774798173772
-0.48998581802599295   -0.005169978368798761   0.006865774798173772
-0.48998581802599295   -0.005169978368798761   0.006865774798173772
-0.48998581802599295   -0.005169978368798761   0.006865774798173772
-0.4021429631662452   0.00855277320101673   0.015097284355737841
-0.4021429631662452   0.00855277320101673   0.015097284355737841
-0.4021429631662452   0.00855277320101673   0.015097284355737841
-0.4021429631662452   0.00855277320101673   0.015097284355737841
-0.6225411683295284   -0.03411683321507952   -0.0038948542004564324
-0.6225411683295284   -0.03411683321507952   -0.0038948542004564324
-0.6225411683295284   -0.03411683321507952   -0.0038948542004564324
-0.6225411683295284   -0.03411683321507952   -0.0038948542004564324
-0.6430036345138567   -0.053309078769085236   0.014314838530498013
-0.6430036345138567   -0.053309078769085236   0.014314838530498013
-0.6430036345138567   -0.053309078769085236   0.014314838530498013
-0.6430036345138567   -0.053309078769085236   0.014314838530498013
-0.4200876038598875   -0.0004087740452810157   -0.002759837236131081
-0.4200876038598875   -0.0004087740452810157   -0.002759837236131081
-0.4200876038598875   -0.0004087740452810157   -0.002759837236131081
-0.4200876038598875   -0.0004087740452810157   -0.002759837236131081
-0.49896317423172093   -0.012001424660706264   0.002544655326154995
-0.49896317423172093   -0.012001424660706264   0.002544655326154995
-0.49896317423172093   -0.012001424660706264   0.002544655326154995
-0.49896317423172093   -0.012001424660706264   0.002544655326154995
0.38688117835478436   0.02106033602634763   -0.013140389588020787
0.38688117835478436   0.02106033602634763   -0.013140389588020787
0.38688117835478436   0.02106033602634763   -0.013140389588020787
0.38688117835478436   0.02106033602634763   -0.013140389588020787
0.19078306688033173   -0.0009003397654156892   0.004577852266542691
0.19078306688033173   -0.0009003397654156892   0.004577852266542691
0.19078306688033173   -0.0009003397654156892   0.004577852266542691
0.19078306688033173   -0.0009003397654156892   0.004577852266542691
0.17507350212252035   -0.02806262057061032   -0.01219587920184179
0.17507350212252035   -0.02806262057061032   -0.01219587920184179
0.17507350212252035   -0.02806262057061032   -0.01219587920184179
0.17507350212252035   -0.02806262057061032   -0.01219587920184179
0.37994343521559015   0.03095174511427269   0.005764713822735308
0.37994343521559015   0.03095174511427269   0.005764713822735308
0.37994343521559015   0.03095174511427269   0.005764713822735308
0.37994343521559015   0.03095174511427269   0.005764713822735308
0.2685303765000678   0.00233943630775979   -0.008855979699369704
0.2685303765000678   0.00233943630775979   -0.008855979699369704
0.2685303765000678   0.00233943630775979   -0.008855979699369704
0.2685303765000678   0.00233943630775979   -0.008855979699369704
0.3723104039474679   0.01127849679502288   -0.012727194198623306
0.3723104039474679   0.01127849679502288   -0.012727194198623306
0.3723104039474679   0.01127849679502288   -0.012727194198623306
0.3723104039474679   0.01127849679502288   -0.012727194198623306
0.1823930482629944   -0.008702857379008805   0.005042088308923616
0.1823930482629944   -0.008702857379008805   0.005042088308923616
0.1823930482629944   -0.008702857379008805   0.005042088308923616
0.1823930482629944   -0.008702857379008805   0.005042088308923616
0.167223150798601   -0.030304375793191604   -0.010642441978835036
0.167223150798601   -0.030304375793191604   -0.010642441978835036
0.167223150798601   -0.030304375793191604   -0.010642441978835036
0.167223150798601   -0.030304375793191604   -0.010642441978835036
0.3682231581153121   0.02783650758889493   0.00798166295318763
0.3682231581153121   0.02783650758889493   0.00798166295318763
0.3682231581153121   0.02783650758889493   0.00798166295318763
0.3682231581153121   0.02783650758889493   0.00798166295318763
0.26264450768560355   -0.0017759401553261098   -0.01142050198464664
0.26264450768560355   -0.0017759401553261098   -0.01142050198464664
0.26264450768560355   -0.0017759401553261098   -0.01142050198464664
0.26264450768560355   -0.0017759401553261098   -0.01142050198464664
0.3607403981979129   0.008507030227880338   -0.010102659272787223
0.3607403981979129   0.008507030227880338   -0.010102659272787223
0.3607403981979129   0.008507030227880338   -0.010102659272787223
0.3607403981979129   0.008507030227880338   -0.010102659272787223
0.1744125069815203   -0.011268302166656086   0.006268265309224311
0.1744125069815203   -0.011268302166656086   0.006268265309224311
0.1744125069815203   -0.011268302166656086   0.006268265309224311
0.1744125069815203   -0.011268302166656086   0.006268265309224311
0.16008770044460136   -0.03072943590761979   -0.00870802583426139
0.16008770044460136   -0.03072943590761979   -0.00870802583426139
0.16008770044460136   -0.03072943590761979   -0.00870802583426139
0.16008770044460136   -0.03072943590761979   -0.00870802583426139
0.3550112731311834   0.025287950553446244   0.010027272164903766
0.3550112731311834   0.025287950553446244   0.010027272164903766
0.3550112731311834   0.025287950553446244   0.010027272164903766
0.3550112731311834   0.025287950553446244   0.010027272164903766
0.24809706207893722   -0.0045324369507799694   -0.01540941718713262
0.24809706207893722   -0.0045324369507799694   -0.01540941718713262
0.24809706207893722   -0.0045324369507799694   -0.01540941718713262
0.24809706207893722   -0.0045324369507799694   -0.01540941718713262
0.19442321278953004   0.020493045834530266   0.0013851962125881728
0.19442321278953004   0.020493045834530266   0.0013851962125881728
0.19442321278953004   0.020493045834530266   0.0013851962125881728
0.19442321278953004   0.020493045834530266   0.0013851962125881728
0.005169114041765548   -0.006877392576398275   -0.0009818315620680662
0.005169114041765548   -0.006877392576398275   -0.0009818315620680662
0.005169114041765548   -0.006877392576398275   -0.0009818315620680662
0.005169114041765548   -0.006877392576398275   -0.0009818315620680662
-0.0066809065501376615   -0.025370894008246197   -0.008403170339583143
-0.0066809065501376615   -0.025370894008246197   -0.008403170339583143
-0.0066809065501376615   -0.025370894008246197   -0.008403170339583143
-0.0066809065501376615   -0.025370894008246197   -0.008403170339583143
0.19083963596153702   0.02816911282230095   0.010403056600327077
0.19083963596153702   0.02816911282230095   0.010403056600327077
0.19083963596153702   0.02816911282230095   0.010403056600327077
0.19083963596153702   0.02816911282230095   0.010403056600327077
0.09443606045284839   0.00402247717472989   -0.0010029770512359525
0.09443606045284839   0.00402247717472989   -0.0010029770512359525
0.09443606045284839   0.00402247717472989   -0.0010029770512359525
0.09443606045284839   0.00402247717472989   -0.0010029770512359525
0.18670014797161832   0.015467414048857268   0.002407315424178199
0.18670014797161832   0.015467414048857268   0.002407315424178199
0.18670014797161832   0.015467414048857268   0.002407315424178199
0.18670014797161832   0.015467414048857268   0.002407315424178199
-0.002462718794220755   -0.012590495468803994   -9.263009943985458e-05
-0.002462718794220755   -0.012590495468803994   -9.263009943985458e-05
-0.002462718794220755   -0.012590495468803994   -9.263009943985458e-05
-0.002462718794220755   -0.012590495468803994   -9.263009943985458e-05
-0.014114839618003583   -0.028985674353585268   -0.007300098484699499
-0.014114839618003583   -0.028985674353585268   -0.007300098484699499
-0.014114839618003583   -0.028985674353585268   -0.007300098484699499
-0.014114839618003583   -0.028985674353585268   -0.007300098484699499
0.18241337324680507   0.02351464140625392   0.0114896530627383
0.18241337324680507   0.02351464140625392   0.0114896530627383
0.18241337324680507   0.02351464140625392   0.0114896530627383
0.18241337324680507   0.02351464140625392   0.0114896530627383
0.08528682203889201   -0.0005909678369641173   -0.0036138541575685412
0.08528682203889201   -0.0005909678369641173   -0.0036138541575685412
0.08528682203889201   -0.0005909678369641173   -0.0036138541575685412
0.08528682203889201   -0.0005909678369641173   -0.0036138541575685412
0.17843546998258975   0.011672802410880586   0.003441975737036462
0.17843546998258975   0.011672802410880586   0.003441975737036462
0.17843546998258975   0.011672802410880586   0.003441975737036462
0.17843546998258975   0.011672802410880586   0.003441975737036462
-0.010131638601864303   -0.017138537606287745   0.0007687698486993728
-0.010131638601864303   -0.017138537606287745   0.0007687698486993728
-0.010131638601864303   -0.017138537606287745   0.0007687698486993728
-0.010131638601864303   -0.017138537606287745   0.0007687698486993728
-0.021462862497549626   -0.03107544920475941   -0.005866008397673207
-0.021462862497549626   -0.03107544920475941   -0.005866008397673207
-0.021462862497549626   -0.03107544920475941   -0.005866008397673207
-0.021462862497549626   -0.03107544920475941   -0.005866008397673207
0.17439652338589648   0.019656603284301192   0.012450049680291002
0.17439652338589648   0.019656603284301192   0.012450049680291002
0.17439652338589648   0.019656603284301192   0.012450049680291002
0.17439652338589648   0.019656603284301192   0.012450049680291002
0.07863170553743114   -0.003447749700831334   -0.005506697877170602
0.07863170553743114   -0.003447749700831334   -0.005506697877170602
0.07863170553743114   -0.003447749700831334   -0.005506697877170602
0.07863170553743114   -0.003447749700831334   -0.005506697877170602
0.011710881920322106   0.02041687424846613   0.004432741005851276
0.011710881920322106   0.02041687424846613   0.004432741005851276
0.011710881920322106   0.02041687424846613   0.004432741005851276
0.011710881920322106   0.02041687424846613   0.004432741005851276
-0.17489117716274744   -0.011671860034323658   -0.005970684142081759
-0.17489117716274744   -0.011671860034323658   -0.005970684142081759
-0.17489117716274744   -0.011671860034323658   -0.005970684142081759
-0.17489117716274744   -0.011671860034323658   -0.005970684142081759
-0.1841323692435663   -0.023466659460628182   -0.005487783248451955
-0.1841323692435663   -0.023466659460628182   -0.005487783248451955
-0.1841323692435663   -0.023466659460628182   -0.005487783248451955
-0.1841323692435663   -0.023466659460628182   -0.005487783248451955
0.005718984522832582   0.0231014749729982   0.0051239160440246356
0.005718984522832582   0.0231014749729982   0.0051239160440246356
0.005718984522832582   0.0231014749729982   0.0051239160440246356
0.005718984522832582   0.0231014749729982   0.0051239160440246356
-0.08528634142308754   0.0024478158308190757   0.0003711875414162064
-0.08528634142308754   0.0024478158308190757   0.0003711875414162064
-0.08528634142308754   0.0024478158308190757   0.0003711875414162064
-0.08528634142308754   0.0024478158308190757   0.0003711875414162064
0.004464722395862989   0.01645094299448571   0.0055031373876882035
0.004464722395862989   0.01645094299448571   0.0055031373876882035
0.004464722395862989   0.01645094299448571   0.0055031373876882035
0.004464722395862989   0.01645094299448571   0.0055031373876882035
-0.18267202110409006   -0.016610041469609184   -0.00504266054208965
-0.18267202110409006   -0.016610041469609184   -0.00504266054208965
-0.18267202110409006   -0.016610041469609184   -0.00504266054208965
-0.18267202110409006   -0.016610041469609184   -0.00504266054208965
-0.19210383062966987   -0.02742887208655971   -0.004620840134454055
-0.19210383062966987   -0.02742887208655971   -0.004620840134454055
-0.19210383062966987   -0.02742887208655971   -0.004620840134454055
-0.19210383062966987   -0.02742887208655971   -0.004620840134454055
-0.0019558554763428526   0.018318588510101968   0.006190559359916918
-0.0019558554763428526   0.018318588510101968   0.006190559359916918
-0.0019558554763428526   0.018318588510101968   0.006190559359916918
-0.0019558554763428526   0.018318588510101968   0.006190559359916918
-0.09293006161465754   -0.0014700428199278734   -0.0015701734045356613
-0.09293006161465754   -0.0014700428199278734   -0.0015701734045356613
-0.09293006161465754   -0.0014700428199278734   -0.0015701734045356613
-0.09293006161465754   -0.0014700428199278734   -0.0015701734045356613
-0.0030202844978702357   0.01262450476597285   0.006562497996409123
-0.0030202844978702357   0.01262450476597285   0.006562497996409123
-0.0030202844978702357   0.01262450476597285   0.006562497996409123
-0.0030202844978702357   0.01262450476597285   0.006562497996409123
-0.19086750168012817   -0.02156288841441595   -0.004305179058887351
-0.19086750168012817   -0.02156288841441595   -0.004305179058887351
-0.19086750168012817   -0.02156288841441595   -0.004305179058887351
-0.19086750168012817   -0.02156288841441595   -0.004305179058887351
-0.20001196913619324   -0.0305293332420186   -0.003174305585752168
-0.20001196913619324   -0.0305293332420186   -0.003174305585752168
-0.20001196913619324   -0.0305293332420186   -0.003174305585752168
-0.20001196913619324   -0.0305293332420186   -0.003174305585752168
-0.009911309797515686   0.01381313563909195   0.007003170258645132
-0.009911309797515686   0.01381313563909195   0.007003170258645132
-0.009911309797515686   0.01381313563909195   0.007003170258645132
-0.009911309797515686   0.01381313563909195   0.007003170258645132
-0.10115815404200106   -0.005451690088694935   -0.0037027014733312692
-0.10115815404200106   -0.005451690088694935   -0.0037027014733312692
-0.10115815404200106   -0.005451690088694935   -0.0037027014733312692
-0.10115815404200106   -0.005451690088694935   -0.0037027014733312692
-0.16505649268991512   0.023758461861128385   0.007772416326629793
-0.16505649268991512   0.023758461861128385   0.007772416326629793
-0.16505649268991512   0.023758461861128385   0.007772416326629793
-0.16505649268991512   0.023758461861128385   0.007772416326629793
-0.34964112287862875   -0.015939061862995735   -0.009701616761396845
-0.34964112287862875   -0.015939061862995735   -0.009701616761396845
-0.34964112287862875   -0.015939061862995735   -0.009701616761396845
-0.34964112287862875   -0.015939061862995735   -0.009701616761396845
-0.3568253324802336   -0.019213484885166658   -0.0018804933193897772
-0.3568253324802336   -0.019213484885166658   -0.0018804933193897772
-0.3568253324802336   -0.019213484885166658   -0.0018804933193897772
-0.3568253324802336   -0.019213484885166658   -0.0018804933193897772
-0.1748455884624056   0.017588879659894065   -0.00010941846316975604
-0.1748455884624056   0.017588879659894065   -0.00010941846316975604
-0.1748455884624056   0.017588879659894065   -0.00010941846316975604
-0.1748455884624056   0.017588879659894065   -0.00010941846316975604
-0.2596941844069897   0.0022965952580455834   0.0019297403754856262
-0.2596941844069897   0.0022965952580455834   0.0019297403754856262
-0.2596941844069897   0.0022965952580455834   0.0019297403754856262
-0.2596941844069897   0.0022965952580455834   0.0019297403754856262
-0.17265348392318114   0.019737483557242613   0.008702500335604156
-0.17265348392318114   0.019737483557242613   0.008702500335604156
-0.17265348392318114   0.019737483557242613   0.008702500335604156
-0.17265348392318114   0.019737483557242613   0.008702500335604156
-0.35875225727692056   -0.021096909039977976   -0.00963169314801508
-0.35875225727692056   -0.021096909039977976   -0.00963169314801508
-0.35875225727692056   -0.021096909039977976   -0.00963169314801508
-0.35875225727692056   -0.021096909039977976   -0.00963169314801508
-0.36663134635124345   -0.023680436273792217   -0.0017511906253635332
-0.36663134635124345   -0.023680436273792217   -0.0017511906253635332
-0.36663134635124345   -0.023680436273792217   -0.0017511906253635332
-0.36663134635124345   -0.023680436273792217   -0.0017511906253635332
-0.18292196747093792   0.013025204245154437   0.0008343993274935006
-0.18292196747093792   0.013025204245154437   0.0008343993274935006
-0.18292196747093792   0.013025204245154437   0.0008343993274935006
-0.18292196747093792   0.013025204245154437   0.0008343993274935006
-0.26646768940107685   -0.0012335461589839877   0.00034633462982927403
-0.26646768940107685   -0.0012335461589839877   0.00034633462982927403
-0.26646768940107685   -0.0012335461589839877   0.00034633462982927403
-0.26646768940107685   -0.0012335461589839877   0.00034633462982927403
-0.18051264631401384   0.015895653108483253   0.010010556248784183
-0.18051264631401384   0.015895653108483253   0.010010556248784183
-0.18051264631401384   0.015895653108483253   0.010010556248784183
-0.18051264631401384   0.015895653108483253   0.010010556248784183
-0.3684814464174527   -0.025991664046406807   -0.008690463183797948
-0.3684814464174527   -0.025991664046406807   -0.008690463183797948
-0.3684814464174527   -0.025991664046406807   -0.008690463183797948
-0.3684814464174527   -0.025991664046406807   -0.008690463183797948
-0.3756387636340596   -0.028484460403792107   0.0005147935373323777
-0.3756387636340596   -0.028484460403792107   0.0005147935373323777
-0.3756387636340596   -0.028484460403792107   0.0005147935373323777
-0.3756387636340596   -0.028484460403792107   0.0005147935373323777
-0.19148255701399244   0.0075491951883450426   0.0013942265948919935
-0.19148255701399244   0.0075491951883450426   0.0013942265948919935
-0.19148255701399244   0.0075491951883450426   0.0013942265948919935
-0.19148255701399244   0.0075491951883450426   0.0013942265948919935
-0.27729169923212765   -0.006311676438903076   -0.0018274954290793538
-0.27729169923212765   -0.006311676438903076   -0.0018274954290793538
-0.27729169923212765   -0.006311676438903076   -0.0018274954290793538
-0.27729169923212765   -0.006311676438903076   -0.0018274954290793538
-0.33747905225201036   0.02444851233783958   0.010721162170855718
-0.33747905225201036   0.02444851233783958   0.010721162170855718
-0.33747905225201036   0.02444851233783958   0.010721162170855718
-0.33747905225201036   0.02444851233783958   0.010721162170855718
-0.5167350362667882   -0.023996258123244893   -0.008673915448467469
-0.5167350362667882   -0.023996258123244893   -0.008673915448467469
-0.5167350362667882   -0.023996258123244893   -0.008673915448467469
-0.5167350362667882   -0.023996258123244893   -0.008673915448467469
-0.5233819873490906   -0.011119207466809083   0.009010302825263015
-0.5233819873490906   -0.011119207466809083   0.009010302825263015
-0.5233819873490906   -0.011119207466809083   0.009010302825263015
-0.5233819873490906   -0.011119207466809083   0.009010302825263015
-0.35135715285064384   0.010919941938827296   -0.004673021995435074
-0.35135715285064384   0.010919941938827296   -0.004673021995435074
-0.35135715285064384   0.010919941938827296   -0.004673021995435074
-0.35135715285064384   0.010919941938827296   -0.004673021995435074
-0.4130627047014202   0.00490509883734537   0.00966852626055711
-0.4130627047014202   0.00490509883734537   0.00966852626055711
-0.4130627047014202   0.00490509883734537   0.00966852626055711
-0.4130627047014202   0.00490509883734537   0.00966852626055711
-0.3450999588943573   0.025201429670041034   0.012331460054780356
-0.3450999588943573   0.025201429670041034   0.012331460054780356
-0.3450999588943573   0.025201429670041034   0.012331460054780356
-0.3450999588943573   0.025201429670041034   0.012331460054780356
-0.5292719151581973   -0.02503342905084195   -0.0065251146362279785
-0.5292719151581973   -0.02503342905084195   -0.0065251146362279785
-0.5292719151581973   -0.02503342905084195   -0.0065251146362279785
-0.5292719151581973   -0.02503342905084195   -0.0065251146362279785
-0.5355777657631544   -0.013459379945216898   0.01242900958246728
-0.5355777657631544   -0.013459379945216898   0.01242900958246728
-0.5355777657631544   -0.013459379945216898   0.01242900958246728
-0.5355777657631544   -0.013459379945216898   0.01242900958246728
-0.36071369069724085   0.008301041162450645   -0.00414438979159331
-0.36071369069724085   0.008301041162450645   -0.00414438979159331
-0.36071369069724085   0.008301041162450645   -0.00414438979159331
-0.36071369069724085   0.008301041162450645   -0.00414438979159331
-0.43021018431628505   0.002456690755035934   0.006410427786048202
-0.43021018431628505   0.002456690755035934   0.006410427786048202
-0.43021018431628505   0.002456690755035934   0.006410427786048202
-0.43021018431628505   0.002456690755035934   0.006410427786048202
-0.35379729840272944   0.02346552848254793   0.01527308436086642
-0.35379729840272944   0.02346552848254793   0.01527308436086642
-0.35379729840272944   0.02346552848254793   0.01527308436086642
-0.35379729840272944   0.02346552848254793   0.01527308436086642
-0.5421309016842623   -0.028260610891908997   -0.005535439076370156
-0.5421309016842623   -0.028260610891908997   -0.005535439076370156
-0.5421309016842623   -0.028260610891908997   -0.005535439076370156
-0.5421309016842623   -0.028260610891908997   -0.005535439076370156
-0.5521332502940248   -0.023816579869736634   0.012246780075712862
-0.5521332502940248   -0.023816579869736634   0.012246780075712862
-0.5521332502940248   -0.023816579869736634   0.012246780075712862
-0.5521332502940248   -0.023816579869736634   0.012246780075712862
-0.3707890974100884   0.00019360402203315308   -0.003914939768636921
-0.3707890974100884   0.00019360402203315308   -0.003914939768636921
-0.3707890974100884   0.00019360402203315308   -0.003914939768636921
-0.3707890974100884   0.00019360402203315308   -0.003914939768636921
-0.43470623974417577   -0.0011806998140924396   0.005437600058774361
-0.43470623974417577   -0.0011806998140924396   0.005437600058774361
-0.43470623974417577   -0.0011806998140924396   0.005437600058774361
-0.43470623974417577   -0.0011806998140924396   0.005437600058774361
0.29751034143700933   0.016819889480671077   -0.013548276059701082
0.29751034143700933   0.016819889480671077   -0.013548276059701082
0.29751034143700933   0.016819889480671077   -0.013548276059701082
0.29751034143700933   0.016819889480671077   -0.013548276059701082
0.14080787846086837   0.002210705760310308   0.005019197627857668
0.14080787846086837   0.002210705760310308   0.005019197627857668
0.14080787846086837   0.002210705760310308   0.005019197627857668
0.14080787846086837   0.002210705760310308   0.005019197627857668
0.12582806956477058   -0.023615506905349554   -0.012956180624556314
0.12582806956477058   -0.023615506905349554   -0.012956180624556314
0.12582806956477058   -0.023615506905349554   -0.012956180624556314
0.12582806956477058   -0.023615506905349554   -0.012956180624556314
0.29144097704530486   0.027014663445538836   0.006228161205705591
0.29144097704530486   0.027014663445538836   0.006228161205705591
0.29144097704530486   0.027014663445538836   0.006228161205705591
0.29144097704530486   0.027014663445538836   0.006228161205705591
0.2028497337267482   0.0027184980391120536   -0.006015050335502545
0.2028497337267482   0.0027184980391120536   -0.006015050335502545
0.2028497337267482   0.0027184980391120536   -0.006015050335502545
0.2028497337267482   0.0027184980391120536   -0.006015050335502545
0.2838193037719939   0.008000723098286866   -0.012866264813597532
0.2838193037719939   0.008000723098286866   -0.012866264813597532
0.2838193037719939   0.008000723098286866   -0.012866264813597532
0.2838193037719939   0.008000723098286866   -0.012866264813597532
0.13330439996799895   -0.0047469094281803875   0.005556873914415412
0.13330439996799895   -0.0047469094281803875   0.005556873914415412
0.13330439996799895   -0.0047469094281803875   0.005556873914415412
0.13330439996799895   -0.0047469094281803875   0.005556873914415412
0.11885911240111798   -0.025851520439699342   -0.011094431475589677
0.11885911240111798   -0.025851520439699342   -0.011094431475589677
0.11885911240111798   -0.025851520439699342   -0.011094431475589677
0.11885911240111798   -0.025851520439699342   -0.011094431475589677
0.2805970036396358   0.023797709747565114   0.008273624361331474
0.2805970036396358   0.023797709747565114   0.008273624361331474
0.2805970036396358   0.023797709747565114   0.008273624361331474
0.2805970036396358   0.023797709747565114   0.008273624361331474
0.1968151149032796   -0.0012134060131145583   -0.008269972076790639
0.1968151149032796   -0.0012134060131145583   -0.008269972076790639
0.1968151149032796   -0.0012134060131145583   -0.008269972076790639
0.1968151149032796   -0.0012134060131145583   -0.008269972076790639
0.27313719946516585   0.005147871596281661   -0.010375558359732483
0.27313719946516585   0.005147871596281661   -0.010375558359732483
0.27313719946516585   0.005147871596281661   -0.010375558359732483
0.27313719946516585   0.005147871596281661   -0.010375558359732483
0.1261232400377713   -0.007397358826232325   0.006772045094208761
0.1261232400377713   -0.007397358826232325   0.006772045094208761
0.1261232400377713   -0.007397358826232325   0.006772045094208761
0.1261232400377713   -0.007397358826232325   0.006772045094208761
0.11260657437262307   -0.027048224778220165   -0.009248905734867948
0.11260657437262307   -0.027048224778220165   -0.009248905734867948
0.11260657437262307   -0.027048224778220165   -0.009248905734867948
0.11260657437262307   -0.027048224778220165   -0.009248905734867948
0.26834308982648997   0.020445864378541907   0.009898408829121222
0.26834308982648997   0.020445864378541907   0.009898408829121222
0.26834308982648997   0.020445864378541907   0.009898408829121222
0.26834308982648997   0.020445864378541907   0.009898408829121222
0.184262377813738   -0.004121004404339254   -0.011714256941013301
0.184262377813738   -0.004121004404339254   -0.011714256941013301
0.184262377813738   -0.004121004404339254   -0.011714256941013301
0.184262377813738   -0.004121004404339254   -0.011714256941013301
0.14342612469559957   0.02086216898262294   -0.0005410344207960136
0.14342612469559957   0.02086216898262294   -0.0005410344207960136
0.14342612469559957   0.02086216898262294   -0.0005410344207960136
0.14342612469559957   0.02086216898262294   -0.0005410344207960136
-0.010032633468126098   -0.002477279038079282   -0.0002484464339266834
-0.010032633468126098   -0.002477279038079282   -0.0002484464339266834
-0.010032633468126098   -0.002477279038079282   -0.0002484464339266834
-0.010032633468126098   -0.002477279038079282   -0.0002484464339266834
-0.020589959326735376   -0.017863594895329862   -0.008330886699554568
-0.020589959326735376   -0.017863594895329862   -0.008330886699554568
-0.020589959326735376   -0.017863594895329862   -0.008330886699554568
-0.020589959326735376   -0.017863594895329862   -0.008330886699554568
0.13993757864715542   0.024644051140803598   0.009331806741213736
0.13993757864715542   0.024644051140803598   0.009331806741213736
0.13993757864715542   0.024644051140803598   0.009331806741213736
0.13993757864715542   0.024644051140803598   0.009331806741213736
0.0622024448187533   0.005999964476268535   0.0004897729042341731
0.0622024448187533   0.005999964476268535   0.0004897729042341731
0.0622024448187533   0.005999964476268535   0.0004897729042341731
0.0622024448187533   0.005999964476268535   0.0004897729042341731
0.13633173686807254   0.015313542900719648   0.0006331060858850339
0.13633173686807254   0.015313542900719648   0.0006331060858850339
0.13633173686807254   0.015313542900719648   0.0006331060858850339
0.13633173686807254   0.015313542900719648   0.0006331060858850339
-0.016925665406515498   -0.008474634514108615   0.0006016225203235716
-0.016925665406515498   -0.008474634514108615   0.0006016225203235716
-0.016925665406515498   -0.008474634514108615   0.0006016225203235716
-0.016925665406515498   -0.008474634514108615   0.0006016225203235716
-0.027147866445742814   -0.022081092970833348   -0.006927779130150137
-0.027147866445742814   -0.022081092970833348   -0.006927779130150137
-0.027147866445742814   -0.022081092970833348   -0.006927779130150137
-0.027147866445742814   -0.022081092970833348   -0.006927779130150137
0.1321952910791627   0.019542089543874236   0.010192851931059085
0.1321952910791627   0.019542089543874236   0.010192851931059085
0.1321952910791627   0.019542089543874236   0.010192851931059085
0.1321952910791627   0.019542089543874236   0.010192851931059085
0.05406037023839242   0.0009346701034050539   -0.002046487032363411
0.05406037023839242   0.0009346701034050539   -0.002046487032363411
0.05406037023839242   0.0009346701034050539   -0.002046487032363411
0.05406037023839242   0.0009346701034050539   -0.002046487032363411
0.12871296434091578   0.010784408807721104   0.0015388989759788493
0.12871296434091578   0.010784408807721104   0.0015388989759788493
0.12871296434091578   0.010784408807721104   0.0015388989759788493
0.12871296434091578   0.010784408807721104   0.0015388989759788493
-0.02372307382233778   -0.013380946349524444   0.0014960373655661407
-0.02372307382233778   -0.013380946349524444   0.0014960373655661407
-0.02372307382233778   -0.013380946349524444   0.0014960373655661407
-0.02372307382233778   -0.013380946349524444   0.0014960373655661407
-0.03361136009649846   -0.02555716326461454   -0.005610899581892722
-0.03361136009649846   -0.02555716326461454   -0.005610899581892722
-0.03361136009649846   -0.02555716326461454   -0.005610899581892722
-0.03361136009649846   -0.02555716326461454   -0.005610899581892722
0.1250459727900624   0.014886498470162228   0.011013363103945894
0.1250459727900624   0.014886498470162228   0.011013363103945894
0.1250459727900624   0.014886498470162228   0.011013363103945894
0.1250459727900624   0.014886498470162228   0.011013363103945894
0.047908114180988365   -0.0028229912290385125   -0.004132031917046305
0.047908114180988365   -0.0028229912290385125   -0.004132031917046305
0.047908114180988365   -0.0028229912290385125   -0.004132031917046305
0.047908114180988365   -0.0028229912290385125   -0.004132031917046305
-0.003913782534277697   0.024409551299361704   0.0034589778978752804
-0.003913782534277697   0.024409551299361704   0.0034589778978752804
-0.003913782534277697   0.024409551299361704   0.0034589778978752804
-0.003913782534277697   0.024409551299361704   0.0034589778978752804
-0.1577039481565162   -0.007257644237456777   -0.005225493796272419
-0.1577039481565162   -0.007257644237456777   -0.005225493796272419
-0.1577039481565162   -0.007257644237456777   -0.005225493796272419
-0.1577039481565162   -0.007257644237456777   -0.005225493796272419
-0.16450030001348226   -0.012790408837648433   -0.004116218472893675
-0.16450030001348226   -0.012790408837648433   -0.004116218472893675
-0.16450030001348226   -0.012790408837648433   -0.004116218472893675
-0.16450030001348226   -0.012790408837648433   -0.004116218472893675
-0.010548718706566457   0.019889940983298413   0.004121780522660783
-0.010548718706566457   0.019889940983298413   0.004121780522660783
-0.010548718706566457   0.019889940983298413   0.004121780522660783
-0.010548718706566457   0.019889940983298413   0.004121780522660783
-0.08396439599427619   0.006084502576529729   0.001638480232413809
-0.08396439599427619   0.006084502576529729   0.001638480232413809
-0.08396439599427619   0.006084502576529729   0.001638480232413809
-0.08396439599427619   0.006084502576529729   0.001638480232413809
-0.010431484560622593   0.019805146995531618   0.0047927452401469
-0.010431484560622593   0.019805146995531618   0.0047927452401469
-0.010431484560622593   0.019805146995531618   0.0047927452401469
-0.010431484560622593   0.019805146995531618   0.0047927452401469
-0.16449447972075756   -0.01258256041121308   -0.004294965435705555
-0.16449447972075756   -0.01258256041121308   -0.004294965435705555
-0.16449447972075756   -0.01258256041121308   -0.004294965435705555
-0.16449447972075756   -0.01258256041121308   -0.004294965435705555
-0.1712199143184842   -0.01735248052970731   -0.0029007269969881077
-0.1712199143184842   -0.01735248052970731   -0.0029007269969881077
-0.1712199143184842   -0.01735248052970731   -0.0029007269969881077
-0.1712199143184842   -0.01735248052970731   -0.0029007269969881077
-0.017392165835386844   0.014638651344521922   0.00513097960627541
-0.017392165835386844   0.014638651344521922   0.00513097960627541
-0.017392165835386844   0.014638651344521922   0.00513097960627541
-0.017392165835386844   0.014638651344521922   0.00513097960627541
-0.09075354906323775   0.0015500205097776429   -0.00040474880512551565
-0.09075354906323775   0.0015500205097776429   -0.00040474880512551565
-0.09075354906323775   0.0015500205097776429   -0.00040474880512551565
-0.09075354906323775   0.0015500205097776429   -0.00040474880512551565
-0.017136087577352306   0.015212028888425582   0.005837993352544439
-0.017136087577352306   0.015212028888425582   0.005837993352544439
-0.017136087577352306   0.015212028888425582   0.005837993352544439
-0.017136087577352306   0.015212028888425582   0.005837993352544439
-0.17144611711366065   -0.01789598261075288   -0.0034882388918247844
-0.17144611711366065   -0.01789598261075288   -0.0034882388918247844
-0.17144611711366065   -0.01789598261075288   -0.0034882388918247844
-0.17144611711366065   -0.01789598261075288   -0.0034882388918247844
-0.17785004061332738   -0.02151361084200858   -0.0016918313310458196
-0.17785004061332738   -0.02151361084200858   -0.0016918313310458196
-0.17785004061332738   -0.02151361084200858   -0.0016918313310458196
-0.17785004061332738   -0.02151361084200858   -0.0016918313310458196
-0.02427078143996957   0.009560121103493796   0.00597470933264343
-0.02427078143996957   0.009560121103493796   0.00597470933264343
-0.02427078143996957   0.009560121103493796   0.00597470933264343
-0.02427078143996957   0.009560121103493796   0.00597470933264343
-0.09786142531173468   -0.003018110818938397   -0.002686174487423502
-0.09786142531173468   -0.003018110818938397   -0.002686174487423502
-0.09786142531173468   -0.003018110818938397   -0.002686174487423502
-0.09786142531173468   -0.003018110818938397   -0.002686174487423502
-0.14821052023242726   0.02773681861322222   0.007247182973491452
-0.14821052023242726   0.02773681861322222   0.007247182973491452
-0.14821052023242726   0.02773681861322222   0.007247182973491452
-0.14821052023242726   0.02773681861322222   0.007247182973491452
-0.30247613464356093   -0.012174554267940528   -0.00932512143527336
-0.30247613464356093   -0.012174554267940528   -0.00932512143527336
-0.30247613464356093   -0.012174554267940528   -0.00932512143527336
-0.30247613464356093   -0.012174554267940528   -0.00932512143527336
-0.3061696353667482   -0.008560361880859166   0.0004684207374065809
-0.3061696353667482   -0.008560361880859166   0.0004684207374065809
-0.3061696353667482   -0.008560361880859166   0.0004684207374065809
-0.3061696353667482   -0.008560361880859166   0.0004684207374065809
-0.15845920391296922   0.01435322441008053   -0.0010543712180555633
-0.15845920391296922   0.01435322441008053   -0.0010543712180555633
-0.15845920391296922   0.01435322441008053   -0.0010543712180555633
-0.15845920391296922   0.01435322441008053   -0.0010543712180555633
-0.22731768359520246   0.0056017584240007495   0.002767330849284962
-0.22731768359520246   0.0056017584240007495   0.002767330849284962
-0.22731768359520246   0.0056017584240007495   0.002767330849284962
-0.22731768359520246   0.0056017584240007495   0.002767330849284962
-0.15474507366328866   0.02333730600036127   0.008532198440064627
-0.15474507366328866   0.02333730600036127   0.008532198440064627
-0.15474507366328866   0.02333730600036127   0.008532198440064627
-0.15474507366328866   0.02333730600036127   0.008532198440064627
-0.3098614612545054   -0.017522139109219466   -0.009028931473019362
-0.3098614612545054   -0.017522139109219466   -0.009028931473019362
-0.3098614612545054   -0.017522139109219466   -0.009028931473019362
-0.3098614612545054   -0.017522139109219466   -0.009028931473019362
-0.3140017392972992   -0.013177157848370341   0.0009023606862309068
-0.3140017392972992   -0.013177157848370341   0.0009023606862309068
-0.3140017392972992   -0.013177157848370341   0.0009023606862309068
-0.3140017392972992   -0.013177157848370341   0.0009023606862309068
-0.1652796188915206   0.009486458996450287   -3.818938832548385e-05
-0.1652796188915206   0.009486458996450287   -3.818938832548385e-05
-0.1652796188915206   0.009486458996450287   -3.818938832548385e-05
-0.1652796188915206   0.009486458996450287   -3.818938832548385e-05
-0.23297717796485415   0.0016028674904816145   0.0008758016401135393
-0.23297717796485415   0.0016028674904816145   0.0008758016401135393
-0.23297717796485415   0.0016028674904816145   0.0008758016401135393
-0.23297717796485415   0.0016028674904816145   0.0008758016401135393
-0.1614037428940871   0.019106249345072664   0.009721400250218485
-0.1614037428940871   0.019106249345072664   0.009721400250218485
-0.1614037428940871   0.019106249345072664   0.009721400250218485
-0.1614037428940871   0.019106249345072664   0.009721400250218485
-0.31768307922918215   -0.022602412131439792   -0.008079084690114355
-0.31768307922918215   -0.022602412131439792   -0.008079084690114355
-0.31768307922918215   -0.022602412131439792   -0.008079084690114355
-0.31768307922918215   -0.022602412131439792   -0.008079084690114355
-0.3210821014867472   -0.01817917844047854   0.0023519029235288934
-0.3210821014867472   -0.01817917844047854   0.0023519029235288934
-0.3210821014867472   -0.01817917844047854   0.0023519029235288934
-0.3210821014867472   -0.01817917844047854   0.0023519029235288934
-0.1722949823938664   0.0038738869583063926   0.0006959619659460247
-0.1722949823938664   0.0038738869583063926   0.0006959619659460247
-0.1722949823938664   0.0038738869583063926   0.0006959619659460247
-0.1722949823938664   0.0038738869583063926   0.0006959619659460247
-0.24181309915524646   -0.0035085318078168087   -0.0015634975396356006
-0.24181309915524646   -0.0035085318078168087   -0.0015634975396356006
-0.24181309915524646   -0.0035085318078168087   -0.0015634975396356006
-0.24181309915524646   -0.0035085318078168087   -0.0015634975396356006
-0.29116801266803843   0.024883430434231885   0.010157503740166739
-0.29116801266803843   0.024883430434231885   0.010157503740166739
-0.29116801266803843   0.024883430434231885   0.010157503740166739
-0.29116801266803843   0.024883430434231885   0.010157503740166739
-0.4411125620611648   -0.02047836191334447   -0.010008756248870352
-0.4411125620611648   -0.02047836191334447   -0.010008756248870352
-0.4411125620611648   -0.02047836191334447   -0.010008756248870352
-0.4411125620611648   -0.02047836191334447   -0.010008756248870352
-0.4456950957063072   -0.005152476432877945   0.009302829001702102
-0.4456950957063072   -0.005152476432877945   0.009302829001702102
-0.4456950957063072   -0.005152476432877945   0.009302829001702102
-0.4456950957063072   -0.005152476432877945   0.009302829001702102
-0.30417547249418725   0.007590792809302083   -0.0057119195899499944
-0.30417547249418725   0.007590792809302083   -0.0057119195899499944
-0.30417547249418725   0.007590792809302083   -0.0057119195899499944
-0.30417547249418725   0.007590792809302083   -0.0057119195899499944
-0.35408158293643255   0.0054019879688564365   0.008811814282042734
-0.35408158293643255   0.0054019879688564365   0.008811814282042734
-0.35408158293643255   0.0054019879688564365   0.008811814282042734
-0.35408158293643255   0.0054019879688564365   0.008811814282042734
-0.2971502420913392   0.025080777947077734   0.011924247286512514
-0.2971502420913392   0.025080777947077734   0.011924247286512514
-0.2971502420913392   0.025080777947077734   0.011924247286512514
-0.2971502420913392   0.025080777947077734   0.011924247286512514
-0.45261384158994494   -0.02253597705144296   -0.007907399797917464
-0.45261384158994494   -0.02253597705144296   -0.007907399797917464
-0.45261384158994494   -0.02253597705144296   -0.007907399797917464
-0.45261384158994494   -0.02253597705144296   -0.007907399797917464
-0.4559770426579581   -0.007598585558933904   0.011620828562201167
-0.4559770426579581   -0.007598585558933904   0.011620828562201167
-0.4559770426579581   -0.007598585558933904   0.011620828562201167
-0.4559770426579581   -0.007598585558933904   0.011620828562201167
-0.31153662195892606   0.004925271101488202   -0.004874481571761961
-0.31153662195892606   0.004925271101488202   -0.004874481571761961
-0.31153662195892606   0.004925271101488202   -0.004874481571761961
-0.31153662195892606   0.004925271101488202   -0.004874481571761961
-0.3687526389551723   0.002695621032276954   0.005528001825558213
-0.3687526389551723   0.002695621032276954   0.005528001825558213
-0.3687526389551723   0.002695621032276954   0.005528001825558213
-0.3687526389551723   0.002695621032276954   0.005528001825558213
-0.30408619535841575   0.023263335579155678   0.014039586953122022
-0.30408619535841575   0.023263335579155678   0.014039586953122022
-0.30408619535841575   0.023263335579155678   0.014039586953122022
-0.30408619535841575   0.023263335579155678   0.014039586953122022
-0.4632386235143457   -0.02574780429248065   -0.006537856986186561
-0.4632386235143457   -0.02574780429248065   -0.006537856986186561
-0.4632386235143457   -0.02574780429248065   -0.006537856986186561
-0.4632386235143457   -0.02574780429248065   -0.006537856986186561
-0.4695556178702237   -0.016510795982610182   0.011329580668297031
-0.4695556178702237   -0.016510795982610182   0.011329580668297031
-0.4695556178702237   -0.016510795982610182   0.011329580668297031
-0.4695556178702237   -0.016510795982610182   0.011329580668297031
-0.3193389948604828   -0.0026849641629506232   -0.004426778222676637
-0.3193389948604828   -0.0026849641629506232   -0.004426778222676637
-0.3193389948604828   -0.0026849641629506232   -0.004426778222676637
-0.3193389948604828   -0.0026849641629506232   -0.004426778222676637
-0.37213101289966494   -0.0007466740835320035   0.00450379035292163
-0.37213101289966494   -0.0007466740835320035   0.00450379035292163
-0.37213101289966494   -0.0007466740835320035   0.00450379035292163
-0.37213101289966494   -0.0007466740835320035   0.00450379035292163
0.20839652947697906   0.012049858581823489   -0.013373689280702457
0.20839652947697906   0.012049858581823489   -0.013373689280702457
0.20839652947697906   0.012049858581823489   -0.013373689280702457
0.20839652947697906   0.012049858581823489   -0.013373689280702457
0.08897962644074241   0.005075578492821952   0.005615796213582753
0.08897962644074241   0.005075578492821952   0.005615796213582753
0.08897962644074241   0.005075578492821952   0.005615796213582753
0.08897962644074241   0.005075578492821952   0.005615796213582753
0.07528967930646432   -0.01996515105665358   -0.012519613566415917
0.07528967930646432   -0.01996515105665358   -0.012519613566415917
0.07528967930646432   -0.01996515105665358   -0.012519613566415917
0.07528967930646432   -0.01996515105665358   -0.012519613566415917
0.20385225523950457   0.02325223825481369   0.006837905044333694
0.20385225523950457   0.02325223825481369   0.006837905044333694
0.20385225523950457   0.02325223825481369   0.006837905044333694
0.20385225523950457   0.02325223825481369   0.006837905044333694
0.13651078762280736   0.00299282476748116   -0.0037181524574324146
0.13651078762280736   0.00299282476748116   -0.0037181524574324146
0.13651078762280736   0.00299282476748116   -0.0037181524574324146
0.13651078762280736   0.00299282476748116   -0.0037181524574324146
0.19617011772164636   0.004208958734694852   -0.012529503024840469
0.19617011772164636   0.004208958734694852   -0.012529503024840469
0.19617011772164636   0.004208958734694852   -0.012529503024840469
0.19617011772164636   0.004208958734694852   -0.012529503024840469
0.08282646152793219   -0.0010672268329276896   0.00626637331719919
0.08282646152793219   -0.0010672268329276896   0.00626637331719919
0.08282646152793219   -0.0010672268329276896   0.00626637331719919
0.08282646152793219   -0.0010672268329276896   0.00626637331719919
0.06949267724698449   -0.02221781057506427   -0.010699650859164163
0.06949267724698449   -0.02221781057506427   -0.010699650859164163
0.06949267724698449   -0.02221781057506427   -0.010699650859164163
0.06949267724698449   -0.02221781057506427   -0.010699650859164163
0.19429250554346936   0.020048706677400153   0.008884831964454276
0.19429250554346936   0.020048706677400153   0.008884831964454276
0.19429250554346936   0.020048706677400153   0.008884831964454276
0.19429250554346936   0.020048706677400153   0.008884831964454276
0.13067230805653102   -0.0007620750235065345   -0.0058984678623864245
0.13067230805653102   -0.0007620750235065345   -0.0058984678623864245
0.13067230805653102   -0.0007620750235065345   -0.0058984678623864245
0.13067230805653102   -0.0007620750235065345   -0.0058984678623864245
0.18671872038774498   0.0013168756646389779   -0.010252262801408367
0.18671872038774498   0.0013168756646389779   -0.010252262801408367
0.18671872038774498   0.0013168756646389779   -0.010252262801408367
0.18671872038774498   0.0013168756646389779   -0.010252262801408367
0.076844369345488   -0.0037080726195242338   0.007549071677813736
0.076844369345488   -0.0037080726195242338   0.007549071677813736
0.076844369345488   -0.0037080726195242338   0.007549071677813736
0.076844369345488   -0.0037080726195242338   0.007549071677813736
0.06433262816411527   -0.02412211544042966   -0.008931028603361915
0.06433262816411527   -0.02412211544042966   -0.008931028603361915
0.06433262816411527   -0.02412211544042966   -0.008931028603361915
0.06433262816411527   -0.02412211544042966   -0.008931028603361915
0.18309406141722323   0.01593511631064314   0.01019832341490354
0.18309406141722323   0.01593511631064314   0.01019832341490354
0.18309406141722323   0.01593511631064314   0.01019832341490354
0.18309406141722323   0.01593511631064314   0.01019832341490354
0.12034131201779366   -0.0037873856697853113   -0.008969496702387749
0.12034131201779366   -0.0037873856697853113   -0.008969496702387749
0.12034131201779366   -0.0037873856697853113   -0.008969496702387749
0.12034131201779366   -0.0037873856697853113   -0.008969496702387749
0.08982217325661203   0.017103494459005848   -0.002199385673254491
0.08982217325661203   0.017103494459005848   -0.002199385673254491
0.08982217325661203   0.017103494459005848   -0.002199385673254491
0.08982217325661203   0.017103494459005848   -0.002199385673254491
-0.026818884737323516   0.0010937153997505151   0.0006328957654492097
-0.026818884737323516   0.0010937153997505151   0.0006328957654492097
-0.026818884737323516   0.0010937153997505151   0.0006328957654492097
-0.026818884737323516   0.0010937153997505151   0.0006328957654492097
-0.03618044462143711   -0.014002526492241934   -0.007783058155421416
-0.03618044462143711   -0.014002526492241934   -0.007783058155421416
-0.03618044462143711   -0.014002526492241934   -0.007783058155421416
-0.03618044462143711   -0.014002526492241934   -0.007783058155421416
0.08756646482213123   0.020484262303308864   0.008414900651957902
0.08756646482213123   0.020484262303308864   0.008414900651957902
0.08756646482213123   0.020484262303308864   0.008414900651957902
0.08756646482213123   0.020484262303308864   0.008414900651957902
0.027977079778689618   0.0058629514730679615   0.0010921979307900638
0.027977079778689618   0.0058629514730679615   0.0010921979307900638
0.027977079778689618   0.0058629514730679615   0.0010921979307900638
0.027977079778689618   0.0058629514730679615   0.0010921979307900638
0.0838283552205261   0.011331306747235809   -0.0011226917999959166
0.0838283552205261   0.011331306747235809   -0.0011226917999959166
0.0838283552205261   0.011331306747235809   -0.0011226917999959166
0.0838283552205261   0.011331306747235809   -0.0011226917999959166
-0.032504109282500505   -0.0049113451988374544   0.0015074372458580786
-0.032504109282500505   -0.0049113451988374544   0.0015074372458580786
-0.032504109282500505   -0.0049113451988374544   0.0015074372458580786
-0.032504109282500505   -0.0049113451988374544   0.0015074372458580786
-0.041564317536045774   -0.0185152487145119   -0.006334230745663142
-0.041564317536045774   -0.0185152487145119   -0.006334230745663142
-0.041564317536045774   -0.0185152487145119   -0.006334230745663142
-0.041564317536045774   -0.0185152487145119   -0.006334230745663142
0.08095195428174543   0.015228338754191068   0.009150584985385587
0.08095195428174543   0.015228338754191068   0.009150584985385587
0.08095195428174543   0.015228338754191068   0.009150584985385587
0.08095195428174543   0.015228338754191068   0.009150584985385587
0.021290871770159356   0.0006934094513203338   -0.001390145748068942
0.021290871770159356   0.0006934094513203338   -0.001390145748068942
0.021290871770159356   0.0006934094513203338   -0.001390145748068942
0.021290871770159356   0.0006934094513203338   -0.001390145748068942
0.07733222442473672   0.006489133931403034   -0.00020885947687098805
0.07733222442473672   0.006489133931403034   -0.00020885947687098805
0.07733222442473672   0.006489133931403034   -0.00020885947687098805
0.07733222442473672   0.006489133931403034   -0.00020885947687098805
-0.03809325523300604   -0.009924711445694283   0.002430543500717951
-0.03809325523300604   -0.009924711445694283   0.002430543500717951
-0.03809325523300604   -0.009924711445694283   0.002430543500717951
-0.03809325523300604   -0.009924711445694283   0.002430543500717951
-0.04687028020873839   -0.02269882049869678   -0.004996978741548355
-0.04687028020873839   -0.02269882049869678   -0.004996978741548355
-0.04687028020873839   -0.02269882049869678   -0.004996978741548355
-0.04687028020873839   -0.02269882049869678   -0.004996978741548355
0.07498350101499882   0.010235589729172514   0.009965630481455249
0.07498350101499882   0.010235589729172514   0.009965630481455249
0.07498350101499882   0.010235589729172514   0.009965630481455249
0.07498350101499882   0.010235589729172514   0.009965630481455249
0.01599447628877119   -0.0035252967366925965   -0.003560767679092966
0.01599447628877119   -0.0035252967366925965   -0.003560767679092966
0.01599447628877119   -0.0035252967366925965   -0.003560767679092966
0.01599447628877119   -0.0035252967366925965   -0.003560767679092966
-0.02252084657250963   0.021222862697046443   0.0019939392922217556
-0.02252084657250963   0.021222862697046443   0.0019939392922217556
-0.02252084657250963   0.021222862697046443   0.0019939392922217556
-0.02252084657250963   0.021222862697046443   0.0019939392922217556
-0.1408294913586984   -0.003947806451235904   -0.004324351134913434
-0.1408294913586984   -0.003947806451235904   -0.004324351134913434
-0.1408294913586984   -0.003947806451235904   -0.004324351134913434
-0.1408294913586984   -0.003947806451235904   -0.004324351134913434
-0.14616937752308098   -0.008699955259328606   -0.0032070418739597413
-0.14616937752308098   -0.008699955259328606   -0.0032070418739597413
-0.14616937752308098   -0.008699955259328606   -0.0032070418739597413
-0.14616937752308098   -0.008699955259328606   -0.0032070418739597413
-0.028045366389910786   0.015600791795822973   0.003289014714146247
-0.028045366389910786   0.015600791795822973   0.003289014714146247
-0.028045366389910786   0.015600791795822973   0.003289014714146247
-0.028045366389910786   0.015600791795822973   0.003289014714146247
-0.08417981650565388   0.005932349123745285   0.0016980349014544807
-0.08417981650565388   0.005932349123745285   0.0016980349014544807
-0.08417981650565388   0.005932349123745285   0.0016980349014544807
-0.08417981650565388   0.005932349123745285   0.0016980349014544807
-0.0278989721230805   0.01626657480357282   0.003355203040546857
-0.0278989721230805   0.01626657480357282   0.003355203040546857
-0.0278989721230805   0.01626657480357282   0.003355203040546857
-0.0278989721230805   0.01626657480357282   0.003355203040546857
-0.14633880238264918   -0.009388768859816508   -0.0033653525713127474
-0.14633880238264918   -0.009388768859816508   -0.0033653525713127474
-0.14633880238264918   -0.009388768859816508   -0.0033653525713127474
-0.14633880238264918   -0.009388768859816508   -0.0033653525713127474
-0.15161379232744318   -0.013617013593858775   -0.0019257185935717255
-0.15161379232744318   -0.013617013593858775   -0.0019257185935717255
-0.15161379232744318   -0.013617013593858775   -0.0019257185935717255
-0.15161379232744318   -0.013617013593858775   -0.0019257185935717255
-0.03369788641414098   0.010193104408376232   0.004289571740972721
-0.03369788641414098   0.010193104408376232   0.004289571740972721
-0.03369788641414098   0.010193104408376232   0.004289571740972721
-0.03369788641414098   0.010193104408376232   0.004289571740972721
-0.08977479643398886   0.0011222402826169021   -0.00042443791936684367
-0.08977479643398886   0.0011222402826169021   -0.00042443791936684367
-0.08977479643398886   0.0011222402826169021   -0.00042443791936684367
-0.08977479643398886   0.0011222402826169021   -0.00042443791936684367
-0.03343609905160008   0.01130165947702907   0.004489953485024382
-0.03343609905160008   0.01130165947702907   0.004489953485024382
-0.03343609905160008   0.01130165947702907   0.004489953485024382
-0.03343609905160008   0.01130165947702907   0.004489953485024382
-0.15197367690520072   -0.014823665877728251   -0.002518489198489935
-0.15197367690520072   -0.014823665877728251   -0.002518489198489935
-0.15197367690520072   -0.014823665877728251   -0.002518489198489935
-0.15197367690520072   -0.014823665877728251   -0.002518489198489935
-0.1569568173036335   -0.01830652543468897   -0.0006724874946064698
-0.1569568173036335   -0.01830652543468897   -0.0006724874946064698
-0.1569568173036335   -0.01830652543468897   -0.0006724874946064698
-0.1569568173036335   -0.01830652543468897   -0.0006724874946064698
-0.039310716181426286   0.004941689413451382   0.005160331482863034
-0.039310716181426286   0.004941689413451382   0.005160331482863034
-0.039310716181426286   0.004941689413451382   0.005160331482863034
-0.039310716181426286   0.004941689413451382   0.005160331482863034
-0.09560876355670891   -0.00368973507483613   -0.002730201402791361
-0.09560876355670891   -0.00368973507483613   -0.002730201402791361
-0.09560876355670891   -0.00368973507483613   -0.002730201402791361
-0.09560876355670891   -0.00368973507483613   -0.002730201402791361
-0.1329854771487571   0.024815153508988604   0.00613275995456848
-0.1329854771487571   0.024815153508988604   0.00613275995456848
-0.1329854771487571   0.024815153508988604   0.00613275995456848
-0.1329854771487571   0.024815153508988604   0.00613275995456848
-0.2531844746638482   -0.00900843511504186   -0.008684078673990299
-0.2531844746638482   -0.00900843511504186   -0.008684078673990299
-0.2531844746638482   -0.00900843511504186   -0.008684078673990299
-0.2531844746638482   -0.00900843511504186   -0.008684078673990299
-0.25516475612550893   -0.004440207046282542   0.001684023712668745
-0.25516475612550893   -0.004440207046282542   0.001684023712668745
-0.25516475612550893   -0.004440207046282542   0.001684023712668745
-0.25516475612550893   -0.004440207046282542   0.001684023712668745
-0.14209602938171806   0.010206534185662017   -0.0017467906121376893
-0.14209602938171806   0.010206534185662017   -0.0017467906121376893
-0.14209602938171806   0.010206534185662017   -0.0017467906121376893
-0.14209602938171806   0.010206534185662017   -0.0017467906121376893
-0.19466289103110118   0.005435577093710592   0.0024409881149869347
-0.19466289103110118   0.005435577093710592   0.0024409881149869347
-0.19466289103110118   0.005435577093710592   0.0024409881149869347
-0.19466289103110118   0.005435577093710592   0.0024409881149869347
-0.1382709806551998   0.020098950622057556   0.007486036584060123
-0.1382709806551998   0.020098950622057556   0.007486036584060123
-0.1382709806551998   0.020098950622057556   0.007486036584060123
-0.1382709806551998   0.020098950622057556   0.007486036584060123
-0.2591691293989216   -0.014511948029571245   -0.00826610167110815
-0.2591691293989216   -0.014511948029571245   -0.00826610167110815
-0.2591691293989216   -0.014511948029571245   -0.00826610167110815
-0.2591691293989216   -0.014511948029571245   -0.00826610167110815
-0.2615964767706311   -0.009316225054777957   0.002265248234643802
-0.2615964767706311   -0.009316225054777957   0.002265248234643802
-0.2615964767706311   -0.009316225054777957   0.002265248234643802
-0.2615964767706311   -0.009316225054777957   0.002265248234643802
-0.14760171679194106   0.005214855976071818   -0.0006972104859935529
-0.14760171679194106   0.005214855976071818   -0.0006972104859935529
-0.14760171679194106   0.005214855976071818   -0.0006972104859935529
-0.14760171679194106   0.005214855976071818   -0.0006972104859935529
-0.19931376592302472   0.0011076372382128052   0.00032244098109198566
-0.19931376592302472   0.0011076372382128052   0.00032244098109198566
-0.19931376592302472   0.0011076372382128052   0.00032244098109198566
-0.19931376592302472   0.0011076372382128052   0.00032244098109198566
-0.14363632829287504   0.01557639382577198   0.008768194159637414
-0.14363632829287504   0.01557639382577198   0.008768194159637414
-0.14363632829287504   0.01557639382577198   0.008768194159637414
-0.14363632829287504   0.01557639382577198   0.008768194159637414
-0.2655840034993942   -0.019699901134175364   -0.007288709329776292
-0.2655840034993942   -0.019699901134175364   -0.007288709329776292
-0.2655840034993942   -0.019699901134175364   -0.007288709329776292
-0.2655840034993942   -0.019699901134175364   -0.007288709329776292
-0.2672995143301523   -0.014544364248900085   0.003609237866199556
-0.2672995143301523   -0.014544364248900085   0.003609237866199556
-0.2672995143301523   -0.014544364248900085   0.003609237866199556
-0.2672995143301523   -0.014544364248900085   0.003609237866199556
-0.15320831429791074   -0.0003631786659984079   0.00012668076531403318
-0.15320831429791074   -0.0003631786659984079   0.00012668076531403318
-0.15320831429791074   -0.0003631786659984079   0.00012668076531403318
-0.15320831429791074   -0.0003631786659984079   0.00012668076531403318
-0.20646176950245515   -0.003993198198042162   -0.0021671756355003124
-0.20646176950245515   -0.003993198198042162   -0.0021671756355003124
-0.20646176950245515   -0.003993198198042162   -0.0021671756355003124
-0.20646176950245515   -0.003993198198042162   -0.0021671756355003124
-0.243120269313466   0.023039625398787608   0.009588887564091254
-0.243120269313466   0.023039625398787608   0.009588887564091254
-0.243120269313466   0.023039625398787608   0.009588887564091254
-0.243120269313466   0.023039625398787608   0.009588887564091254
-0.35979214584330926   -0.016720222030152457   -0.011013697701750178
-0.35979214584330926   -0.016720222030152457   -0.011013697701750178
-0.35979214584330926   -0.016720222030152457   -0.011013697701750178
-0.35979214584330926   -0.016720222030152457   -0.011013697701750178
-0.36303981249177797   -0.0011452063153030156   0.009472424784615213
-0.36303981249177797   -0.0011452063153030156   0.009472424784615213
-0.36303981249177797   -0.0011452063153030156   0.009472424784615213
-0.36303981249177797   -0.0011452063153030156   0.009472424784615213
-0.25515818953033637   0.0037948202221054703   -0.006518170579858458
-0.25515818953033637   0.0037948202221054703   -0.006518170579858458
-0.25515818953033637   0.0037948202221054703   -0.006518170579858458
-0.25515818953033637   0.0037948202221054703   -0.006518170579858458
-0.2917835727642216   0.005153187092440961   0.007512772331773904
-0.2917835727642216   0.005153187092440961   0.007512772331773904
-0.2917835727642216   0.005153187092440961   0.007512772331773904
-0.2917835727642216   0.005153187092440961   0.007512772331773904
-0.24789944944702486   0.02225204279040488   0.01131830726840162
-0.24789944944702486   0.02225204279040488   0.01131830726840162
-0.24789944944702486   0.02225204279040488   0.01131830726840162
-0.24789944944702486   0.02225204279040488   0.01131830726840162
-0.37045561259241083   -0.019759488900922502   -0.008992293132923853
-0.37045561259241083   -0.019759488900922502   -0.008992293132923853
-0.37045561259241083   -0.019759488900922502   -0.008992293132923853
-0.37045561259241083   -0.019759488900922502   -0.008992293132923853
-0.37216659682689635   -0.003841644421622173   0.01192091568065642
-0.37216659682689635   -0.003841644421622173   0.01192091568065642
-0.37216659682689635   -0.003841644421622173   0.01192091568065642
-0.37216659682689635   -0.003841644421622173   0.01192091568065642
-0.2610810430116526   0.0010602389687439998   -0.005534046993991291
-0.2610810430116526   0.0010602389687439998   -0.005534046993991291
-0.2610810430116526   0.0010602389687439998   -0.005534046993991291
-0.2610810430116526   0.0010602389687439998   -0.005534046993991291
-0.3043228485196999   0.002075887029622775   0.004106749136939168
-0.3043228485196999   0.002075887029622775   0.004106749136939168
-0.3043228485196999   0.002075887029622775   0.004106749136939168
-0.3043228485196999   0.002075887029622775   0.004106749136939168
-0.2534887833991059   0.020172694279419166   0.013314795758072689
-0.2534887833991059   0.020172694279419166   0.013314795758072689
-0.2534887833991059   0.020172694279419166   0.013314795758072689
-0.2534887833991059   0.020172694279419166   0.013314795758072689
-0.3798704959471709   -0.0230657392400243   -0.007374485102314426
-0.3798704959471709   -0.0230657392400243   -0.007374485102314426
-0.3798704959471709   -0.0230657392400243   -0.007374485102314426
-0.3798704959471709   -0.0230657392400243   -0.007374485102314426
-0.38437493033546377   -0.012426986574785762   0.011899045193128701
-0.38437493033546377   -0.012426986574785762   0.011899045193128701
-0.38437493033546377   -0.012426986574785762   0.011899045193128701
-0.38437493033546377   -0.012426986574785762   0.011899045193128701
-0.2672981277816633   -0.006030533067386677   -0.004897660572872454
-0.2672981277816633   -0.006030533067386677   -0.004897660572872454
-0.2672981277816633   -0.006030533067386677   -0.004897660572872454
-0.2672981277816633   -0.006030533067386677   -0.004897660572872454
-0.30755084531758725   -0.0014944604319426374   0.0025461291711405785
-0.30755084531758725   -0.0014944604319426374   0.0025461291711405785
-0.30755084531758725   -0.0014944604319426374   0.0025461291711405785
-0.30755084531758725   -0.0014944604319426374   0.0025461291711405785
0.1191191921348379   0.007321355566054193   -0.013294884114351535
0.1191191921348379   0.007321355566054193   -0.013294884114351535
0.1191191921348379   0.007321355566054193   -0.013294884114351535
0.1191191921348379   0.007321355566054193   -0.013294884114351535
0.035986737375940485   0.007775271294142882   0.006248687738831845
0.035986737375940485   0.007775271294142882   0.006248687738831845
0.035986737375940485   0.007775271294142882   0.006248687738831845
0.035986737375940485   0.007775271294142882   0.006248687738831845
0.023677583916990482   -0.01650231522552321   -0.011760191034836713
0.023677583916990482   -0.01650231522552321   -0.011760191034836713
0.023677583916990482   -0.01650231522552321   -0.011760191034836713
0.023677583916990482   -0.01650231522552321   -0.011760191034836713
0.11614436494536155   0.019498650765623557   0.007513217980035952
0.11614436494536155   0.019498650765623557   0.007513217980035952
0.11614436494536155   0.019498650765623557   0.007513217980035952
0.11614436494536155   0.019498650765623557   0.007513217980035952
0.06948323601083993   0.003280620634655597   -0.0015647187205014516
0.06948323601083993   0.003280620634655597   -0.0015647187205014516
0.06948323601083993   0.003280620634655597   -0.0015647187205014516
0.06948323601083993   0.003280620634655597   -0.0015647187205014516
0.10836076680645701   0.0003376126413039311   -0.012243734590167539
0.10836076680645701   0.0003376126413039311   -0.012243734590167539
0.10836076680645701   0.0003376126413039311   -0.012243734590167539
0.10836076680645701   0.0003376126413039311   -0.012243734590167539
0.031219049886343563   0.0024165907292449315   0.007028232857160809
0.031219049886343563   0.0024165907292449315   0.007028232857160809
0.031219049886343563   0.0024165907292449315   0.007028232857160809
0.031219049886343563   0.0024165907292449315   0.007028232857160809
0.01904645161369104   -0.018784069959644874   -0.010032997290992524
0.01904645161369104   -0.018784069959644874   -0.010032997290992524
0.01904645161369104   -0.018784069959644874   -0.010032997290992524
0.01904645161369104   -0.018784069959644874   -0.010032997290992524
0.10781588411798719   0.016356208196122976   0.00971500210737008
0.10781588411798719   0.016356208196122976   0.00971500210737008
0.10781588411798719   0.016356208196122976   0.00971500210737008
0.10781588411798719   0.016356208196122976   0.00971500210737008
0.0638012013152265   -0.0003096286961218279   -0.0038550134309722037
0.0638012013152265   -0.0003096286961218279   -0.0038550134309722037
0.0638012013152265   -0.0003096286961218279   -0.0038550134309722037
0.0638012013152265   -0.0003096286961218279   -0.0038550134309722037
0.10005897090952787   -0.0025980314916998377   -0.010115324247104169
0.10005897090952787   -0.0025980314916998377   -0.010115324247104169
0.10005897090952787   -0.0025980314916998377   -0.010115324247104169
0.10005897090952787   -0.0025980314916998377   -0.010115324247104169
0.02647388786859664   -0.00015930722537577883   0.008479421249266844
0.02647388786859664   -0.00015930722537577883   0.008479421249266844
0.02647388786859664   -0.00015930722537577883   0.008479421249266844
0.02647388786859664   -0.00015930722537577883   0.008479421249266844
0.014918715189159912   -0.02141511098318712   -0.008377466826184458
0.014918715189159912   -0.02141511098318712   -0.008377466826184458
0.014918715189159912   -0.02141511098318712   -0.008377466826184458
0.014918715189159912   -0.02141511098318712   -0.008377466826184458
0.09746758642405326   0.011411291742899378   0.01083787023979774
0.09746758642405326   0.011411291742899378   0.01083787023979774
0.09746758642405326   0.011411291742899378   0.01083787023979774
0.09746758642405326   0.011411291742899378   0.01083787023979774
0.0556269230030718   -0.003455125067627643   -0.00671202688410092
0.0556269230030718   -0.003455125067627643   -0.00671202688410092
0.0556269230030718   -0.003455125067627643   -0.00671202688410092
0.0556269230030718   -0.003455125067627643   -0.00671202688410092
0.034962069638438203   0.012586209325754702   -0.003685588980291586
0.034962069638438203   0.012586209325754702   -0.003685588980291586
0.034962069638438203   0.012586209325754702   -0.003685588980291586
0.034962069638438203   0.012586209325754702   -0.003685588980291586
-0.044882501715057324   0.0037051944849353542   0.0014268149201406405
-0.044882501715057324   0.0037051944849353542   0.0014268149201406405
-0.044882501715057324   0.0037051944849353542   0.0014268149201406405
-0.044882501715057324   0.0037051944849353542   0.0014268149201406405
-0.05282580901400459   -0.010661061487788843   -0.00691944446739478
-0.05282580901400459   -0.010661061487788843   -0.00691944446739478
-0.05282580901400459   -0.010661061487788843   -0.00691944446739478
-0.05282580901400459   -0.010661061487788843   -0.00691944446739478
0.03392353928797055   0.015571897276775997   0.0073953733177646724
0.03392353928797055   0.015571897276775997   0.0073953733177646724
0.03392353928797055   0.015571897276775997   0.0073953733177646724
0.03392353928797055   0.015571897276775997   0.0073953733177646724
-0.007500482955738462   0.005069749357677469   0.0013730551598827672
-0.007500482955738462   0.005069749357677469   0.0013730551598827672
-0.007500482955738462   0.005069749357677469   0.0013730551598827672
-0.007500482955738462   0.005069749357677469   0.0013730551598827672
0.030145237850816412   0.006776824550340238   -0.0027010611415703802
0.030145237850816412   0.006776824550340238   -0.0027010611415703802
0.030145237850816412   0.006776824550340238   -0.0027010611415703802
0.030145237850816412   0.006776824550340238   -0.0027010611415703802
-0.04925967241483247   -0.0020781535993351207   0.002328330640012101
-0.04925967241483247   -0.0020781535993351207   0.002328330640012101
-0.04925967241483247   -0.0020781535993351207   0.002328330640012101
-0.04925967241483247   -0.0020781535993351207   0.002328330640012101
-0.0569637614284172   -0.015276423139199646   -0.005457508771397698
-0.0569637614284172   -0.015276423139199646   -0.005457508771397698
-0.0569637614284172   -0.015276423139199646   -0.005457508771397698
-0.0569637614284172   -0.015276423139199646   -0.005457508771397698
0.028495885380777065   0.010358183145495392   0.008071918439297793
0.028495885380777065   0.010358183145495392   0.008071918439297793
0.028495885380777065   0.010358183145495392   0.008071918439297793
0.028495885380777065   0.010358183145495392   0.008071918439297793
-0.012640008140368085   4.074158788585497e-05   -0.001042548139369136
-0.012640008140368085   4.074158788585497e-05   -0.001042548139369136
-0.012640008140368085   4.074158788585497e-05   -0.001042548139369136
-0.012640008140368085   4.074158788585497e-05   -0.001042548139369136
0.02482475096907179   0.0018230558331924695   -0.0017486263069261161
0.02482475096907179   0.0018230558331924695   -0.0017486263069261161
0.02482475096907179   0.0018230558331924695   -0.0017486263069261161
0.02482475096907179   0.0018230558331924695   -0.0017486263069261161
-0.053568060989361586   -0.00701672979954646   0.0032613000842271903
-0.053568060989361586   -0.00701672979954646   0.0032613000842271903
-0.053568060989361586   -0.00701672979954646   0.0032613000842271903
-0.053568060989361586   -0.00701672979954646   0.0032613000842271903
-0.06106679327579737   -0.019795249571893814   -0.004138271733080222
-0.06106679327579737   -0.019795249571893814   -0.004138271733080222
-0.06106679327579737   -0.019795249571893814   -0.004138271733080222
-0.06106679327579737   -0.019795249571893814   -0.004138271733080222
0.023742431664226984   0.00530084426041312   0.009025160305550884
0.023742431664226984   0.00530084426041312   0.009025160305550884
0.023742431664226984   0.00530084426041312   0.009025160305550884
0.023742431664226984   0.00530084426041312   0.009025160305550884
-0.017037138585297044   -0.0043921557415068264   -0.003304334845003083
-0.017037138585297044   -0.0043921557415068264   -0.003304334845003083
-0.017037138585297044   -0.0043921557415068264   -0.003304334845003083
-0.017037138585297044   -0.0043921557415068264   -0.003304334845003083
-0.042437422973288834   0.016722465063010318   0.0006349380509081065
-0.042437422973288834   0.016722465063010318   0.0006349380509081065
-0.042437422973288834   0.016722465063010318   0.0006349380509081065
-0.042437422973288834   0.016722465063010318   0.0006349380509081065
-0.12453010423968468   -0.001806170162779834   -0.003501901486305869
-0.12453010423968468   -0.001806170162779834   -0.003501901486305869
-0.12453010423968468   -0.001806170162779834   -0.003501901486305869
-0.12453010423968468   -0.001806170162779834   -0.003501901486305869
-0.12827881812388928   -0.0055298255555638436   -0.0021306203088170056
-0.12827881812388928   -0.0055298255555638436   -0.0021306203088170056
-0.12827881812388928   -0.0055298255555638436   -0.0021306203088170056
-0.12827881812388928   -0.0055298255555638436   -0.0021306203088170056
-0.04678263764585669   0.010274668373801052   0.002360682511753907
-0.04678263764585669   0.010274668373801052   0.002360682511753907
-0.04678263764585669   0.010274668373801052   0.002360682511753907
-0.04678263764585669   0.010274668373801052   0.002360682511753907
-0.08529561673421446   0.004794884042658123   0.001399611374019994
-0.08529561673421446   0.004794884042658123   0.001399611374019994
-0.08529561673421446   0.004794884042658123   0.001399611374019994
-0.08529561673421446   0.004794884042658123   0.001399611374019994
-0.046582289171880106   0.011635852456407627   0.002001240799031175
-0.046582289171880106   0.011635852456407627   0.002001240799031175
-0.046582289171880106   0.011635852456407627   0.002001240799031175
-0.046582289171880106   0.011635852456407627   0.002001240799031175
-0.12866712148289425   -0.007078964523200105   -0.0025229981362066252
-0.12866712148289425   -0.007078964523200105   -0.0025229981362066252
-0.12866712148289425   -0.007078964523200105   -0.0025229981362066252
-0.12866712148289425   -0.007078964523200105   -0.0025229981362066252
-0.132403160643224   -0.010568707162424789   -0.0008142118839493673
-0.132403160643224   -0.010568707162424789   -0.0008142118839493673
-0.132403160643224   -0.010568707162424789   -0.0008142118839493673
-0.132403160643224   -0.010568707162424789   -0.0008142118839493673
-0.051146912400317476   0.004986499889265245   0.0033638133406351262
-0.051146912400317476   0.004986499889265245   0.0033638133406351262
-0.051146912400317476   0.004986499889265245   0.0033638133406351262
-0.051146912400317476   0.004986499889265245   0.0033638133406351262
-0.08959357983569867   -3.4379218607390183e-06   -0.0007579644322309393
-0.08959357983569867   -3.4379218607390183e-06   -0.0007579644322309393
-0.08959357983569867   -3.4379218607390183e-06   -0.0007579644322309393
-0.08959357983569867   -3.4379218607390183e-06   -0.0007579644322309393
-0.050877498890478615   0.006532286433944394   0.00316509434515117
-0.050877498890478615   0.006532286433944394   0.00316509434515117
-0.050877498890478615   0.006532286433944394   0.00316509434515117
-0.050877498890478615   0.006532286433944394   0.00316509434515117
-0.13293887924717196   -0.012380798801211776   -0.0016807132649031596
-0.13293887924717196   -0.012380798801211776   -0.0016807132649031596
-0.13293887924717196   -0.012380798801211776   -0.0016807132649031596
-0.13293887924717196   -0.012380798801211776   -0.0016807132649031596
-0.13644049550622886   -0.015422663225741373   0.00046834761170181597
-0.13644049550622886   -0.015422663225741373   0.00046834761170181597
-0.13644049550622886   -0.015422663225741373   0.00046834761170181597
-0.13644049550622886   -0.015422663225741373   0.00046834761170181597
-0.05544607522847667   -9.914522056996e-05   0.004269214152199426
-0.05544607522847667   -9.914522056996e-05   0.004269214152199426
-0.05544607522847667   -9.914522056996e-05   0.004269214152199426
-0.05544607522847667   -9.914522056996e-05   0.004269214152199426
-0.09412251506813162   -0.00480889835276483   -0.0031041927342955033
-0.09412251506813162   -0.00480889835276483   -0.0031041927342955033
-0.09412251506813162   -0.00480889835276483   -0.0031041927342955033
-0.09412251506813162   -0.00480889835276483   -0.0031041927342955033
-0.11829932657218636   0.02072881131314146   0.005117005375264445
-0.11829932657218636   0.02072881131314146   0.005117005375264445
-0.11829932657218636   0.02072881131314146   0.005117005375264445
-0.11829932657218636   0.02072881131314146   0.005117005375264445
-0.2027447225090946   -0.006425270233452927   -0.007865619129389528
-0.2027447225090946   -0.006425270233452927   -0.007865619129389528
-0.2027447225090946   -0.006425270233452927   -0.007865619129389528
-0.2027447225090946   -0.006425270233452927   -0.007865619129389528
-0.20310456830878953   -0.0010615599513737195   0.0029212776297550674
-0.20310456830878953   -0.0010615599513737195   0.0029212776297550674
-0.20310456830878953   -0.0010615599513737195   0.0029212776297550674
-0.20310456830878953   -0.0010615599513737195   0.0029212776297550674
-0.12616181983520763   0.005326296793233244   -0.0024017512142078916
-0.12616181983520763   0.005326296793233244   -0.0024017512142078916
-0.12616181983520763   0.005326296793233244   -0.0024017512142078916
-0.12616181983520763   0.005326296793233244   -0.0024017512142078916
-0.16171029794316563   0.004617878543998755   0.0017992814840465492
-0.16171029794316563   0.004617878543998755   0.0017992814840465492
-0.16171029794316563   0.004617878543998755   0.0017992814840465492
-0.16171029794316563   0.004617878543998755   0.0017992814840465492
-0.12228657109512191   0.015814951517749993   0.0064858377617060085
-0.12228657109512191   0.015814951517749993   0.0064858377617060085
-0.12228657109512191   0.015814951517749993   0.0064858377617060085
-0.12228657109512191   0.015814951517749993   0.0064858377617060085
-0.20733671005401158   -0.01190710768102552   -0.007393883366705451
-0.20733671005401158   -0.01190710768102552   -0.007393883366705451
-0.20733671005401158   -0.01190710768102552   -0.007393883366705451
-0.20733671005401158   -0.01190710768102552   -0.007393883366705451
-0.2081908620155695   -0.006038690301206538   0.0036242033512354065
-0.2081908620155695   -0.006038690301206538   0.0036242033512354065
-0.2081908620155695   -0.006038690301206538   0.0036242033512354065
-0.2081908620155695   -0.006038690301206538   0.0036242033512354065
-0.13030782534011248   0.00044091956015985395   -0.0013471620909782794
-0.13030782534011248   0.00044091956015985395   -0.0013471620909782794
-0.13030782534011248   0.00044091956015985395   -0.0013471620909782794
-0.13030782534011248   0.00044091956015985395   -0.0013471620909782794
-0.16532559988702256   0.00016707582641606322   -0.000456346857487612
-0.16532559988702256   0.00016707582641606322   -0.000456346857487612
-0.16532559988702256   0.00016707582641606322   -0.000456346857487612
-0.16532559988702256   0.00016707582641606322   -0.000456346857487612
-0.12633074626278906   0.011170268958552169   0.007808883897248485
-0.12633074626278906   0.011170268958552169   0.007808883897248485
-0.12633074626278906   0.011170268958552169   0.007808883897248485
-0.12633074626278906   0.011170268958552169   0.007808883897248485
-0.21239168220018673   -0.01699178080689296   -0.006426807066168126
-0.21239168220018673   -0.01699178080689296   -0.006426807066168126
-0.21239168220018673   -0.01699178080689296   -0.006426807066168126
-0.21239168220018673   -0.01699178080689296   -0.006426807066168126
-0.2125649271750177   -0.011259187668849764   0.0050032486281642325
-0.2125649271750177   -0.011259187668849764   0.0050032486281642325
-0.2125649271750177   -0.011259187668849764   0.0050032486281642325
-0.2125649271750177   -0.011259187668849764   0.0050032486281642325
-0.13451047221999057   -0.004821105903021233   -0.0004830932798288194
-0.13451047221999057   -0.004821105903021233   -0.0004830932798288194
-0.13451047221999057   -0.004821105903021233   -0.0004830932798288194
-0.13451047221999057   -0.004821105903021233   -0.0004830932798288194
-0.17081307517765168   -0.004745300786976998   -0.002939051231421552
-0.17081307517765168   -0.004745300786976998   -0.002939051231421552
-0.17081307517765168   -0.004745300786976998   -0.002939051231421552
-0.17081307517765168   -0.004745300786976998   -0.002939051231421552
-0.19398631349596118   0.02045326260019409   0.009047893102634392
-0.19398631349596118   0.02045326260019409   0.009047893102634392
-0.19398631349596118   0.02045326260019409   0.009047893102634392
-0.19398631349596118   0.02045326260019409   0.009047893102634392
-0.27474052607509547   -0.012832900413091507   -0.011671583636642238
-0.27474052607509547   -0.012832900413091507   -0.011671583636642238
-0.27474052607509547   -0.012832900413091507   -0.011671583636642238
-0.27474052607509547   -0.012832900413091507   -0.011671583636642238
-0.27664783891533523   0.0027003813323462633   0.00949928435634438
-0.27664783891533523   0.0027003813323462633   0.00949928435634438
-0.27664783891533523   0.0027003813323462633   0.00949928435634438
-0.27664783891533523   0.0027003813323462633   0.00949928435634438
-0.20495065103548948   -0.00029078763928851864   -0.007079908315835623
-0.20495065103548948   -0.00029078763928851864   -0.007079908315835623
-0.20495065103548948   -0.00029078763928851864   -0.007079908315835623
-0.20495065103548948   -0.00029078763928851864   -0.007079908315835623
-0.22730199426786843   0.004711965288303262   0.0056504749523899975
-0.22730199426786843   0.004711965288303262   0.0056504749523899975
-0.22730199426786843   0.004711965288303262   0.0056504749523899975
-0.22730199426786843   0.004711965288303262   0.0056504749523899975
-0.1975849559219792   0.01875388081852867   0.010703898793900412
-0.1975849559219792   0.01875388081852867   0.010703898793900412
-0.1975849559219792   0.01875388081852867   0.010703898793900412
-0.1975849559219792   0.01875388081852867   0.010703898793900412
-0.28439668188117356   -0.016727434977798085   -0.009817114162699347
-0.28439668188117356   -0.016727434977798085   -0.009817114162699347
-0.28439668188117356   -0.016727434977798085   -0.009817114162699347
-0.28439668188117356   -0.016727434977798085   -0.009817114162699347
-0.28460655139346347   -0.00011684367855200467   0.01210604815133961
-0.28460655139346347   -0.00011684367855200467   0.01210604815133961
-0.28460655139346347   -0.00011684367855200467   0.01210604815133961
-0.28460655139346347   -0.00011684367855200467   0.01210604815133961
-0.20952170204163895   -0.003016022376913681   -0.00605266470340865
-0.20952170204163895   -0.003016022376913681   -0.00605266470340865
-0.20952170204163895   -0.003016022376913681   -0.00605266470340865
-0.20952170204163895   -0.003016022376913681   -0.00605266470340865
-0.23762675303121314   0.0014025549597725812   0.002233974999826454
-0.23762675303121314   0.0014025549597725812   0.002233974999826454
-0.23762675303121314   0.0014025549597725812   0.002233974999826454
-0.23762675303121314   0.0014025549597725812   0.002233974999826454
-0.2018557027598581   0.016553648569681625   0.012707660758902341
-0.2018557027598581   0.016553648569681625   0.012707660758902341
-0.2018557027598581   0.016553648569681625   0.012707660758902341
-0.2018557027598581   0.016553648569681625   0.012707660758902341
-0.2926287169902949   -0.02004268094019658   -0.00807894257116721
-0.2926287169902949   -0.02004268094019658   -0.00807894257116721
-0.2926287169902949   -0.02004268094019658   -0.00807894257116721
-0.2926287169902949   -0.02004268094019658   -0.00807894257116721
-0.29558111075393756   -0.008216968323332942   0.012453146119670517
-0.29558111075393756   -0.008216968323332942   0.012453146119670517
-0.29558111075393756   -0.008216968323332942   0.012453146119670517
-0.29558111075393756   -0.008216968323332942   0.012453146119670517
-0.21424961229030223   -0.009399439745251127   -0.005279924871862865
-0.21424961229030223   -0.009399439745251127   -0.005279924871862865
-0.21424961229030223   -0.009399439745251127   -0.005279924871862865
-0.21424961229030223   -0.009399439745251127   -0.005279924871862865
-0.24076452454102615   -0.002165092250545772   0.000251791888712119
-0.24076452454102615   -0.002165092250545772   0.000251791888712119
-0.24076452454102615   -0.002165092250545772   0.000251791888712119
-0.24076452454102615   -0.002165092250545772   0.000251791888712119
0.02841936752667924   0.002318497338709118   -0.013467812189083399
0.02841936752667924   0.002318497338709118   -0.013467812189083399
0.02841936752667924   0.002318497338709118   -0.013467812189083399
0.02841936752667924   0.002318497338709118   -0.013467812189083399
-0.017823970241542537   0.009929916325216443   0.006785918159763417
-0.017823970241542537   0.009929916325216443   0.006785918159763417
-0.017823970241542537   0.009929916325216443   0.006785918159763417
-0.017823970241542537   0.009929916325216443   0.006785918159763417
-0.028810321676373884   -0.013175089396688613   -0.010900796209797137
-0.028810321676373884   -0.013175089396688613   -0.010900796209797137
-0.028810321676373884   -0.013175089396688613   -0.010900796209797137
-0.028810321676373884   -0.013175089396688613   -0.010900796209797137
0.026756038285447363   0.014882098551474042   0.00827536517379213
0.026756038285447363   0.014882098551474042   0.00827536517379213
0.026756038285447363   0.014882098551474042   0.00827536517379213
0.026756038285447363   0.014882098551474042   0.00827536517379213
0.0013864349795657347   0.0032765365676347656   0.0011299872498933433
0.0013864349795657347   0.0032765365676347656   0.0011299872498933433
0.0013864349795657347   0.0032765365676347656   0.0011299872498933433
0.0013864349795657347   0.0032765365676347656   0.0011299872498933433
0.018929416662963924   -0.003868426136909857   -0.012107218250241164
0.018929416662963924   -0.003868426136909857   -0.012107218250241164
0.018929416662963924   -0.003868426136909857   -0.012107218250241164
0.018929416662963924   -0.003868426136909857   -0.012107218250241164
-0.021431912076579265   0.005127223269006467   0.007688939123480885
-0.021431912076579265   0.005127223269006467   0.007688939123480885
-0.021431912076579265   0.005127223269006467   0.007688939123480885
-0.021431912076579265   0.005127223269006467   0.007688939123480885
-0.03246403405012286   -0.015501162785593024   -0.009291934633099875
-0.03246403405012286   -0.015501162785593024   -0.009291934633099875
-0.03246403405012286   -0.015501162785593024   -0.009291934633099875
-0.03246403405012286   -0.015501162785593024   -0.009291934633099875
0.019315370468267784   0.01174587257655119   0.011413768436609595
0.019315370468267784   0.01174587257655119   0.011413768436609595
0.019315370468267784   0.01174587257655119   0.011413768436609595
0.019315370468267784   0.01174587257655119   0.011413768436609595
-0.004370943380844508   -0.00021691466670030555   -0.0015269603098955957
-0.004370943380844508   -0.00021691466670030555   -0.0015269603098955957
-0.004370943380844508   -0.00021691466670030555   -0.0015269603098955957
-0.004370943380844508   -0.00021691466670030555   -0.0015269603098955957
0.011290526283333671   -0.0069039831454864135   -0.010060596766023359
0.011290526283333671   -0.0069039831454864135   -0.010060596766023359
0.011290526283333671   -0.0069039831454864135   -0.010060596766023359
0.011290526283333671   -0.0069039831454864135   -0.010060596766023359
-0.02506780823558758   0.002520074566045725   0.009667957087937641
-0.02506780823558758   0.002520074566045725   0.009667957087937641
-0.02506780823558758   0.002520074566045725   0.009667957087937641
-0.02506780823558758   0.002520074566045725   0.009667957087937641
-0.03580651541702437   -0.018958398193575095   -0.007736477601496981
-0.03580651541702437   -0.018958398193575095   -0.007736477601496981
-0.03580651541702437   -0.018958398193575095   -0.007736477601496981
-0.03580651541702437   -0.018958398193575095   -0.007736477601496981
0.008978196643497156   0.005251221772480304   0.013072248535540438
0.008978196643497156   0.005251221772480304   0.013072248535540438
0.008978196643497156   0.005251221772480304   0.013072248535540438
0.008978196643497156   0.005251221772480304   0.013072248535540438
-0.010810306014568448   -0.003684201133870392   -0.00463980319679236
-0.010810306014568448   -0.003684201133870392   -0.00463980319679236
-0.010810306014568448   -0.003684201133870392   -0.00463980319679236
-0.010810306014568448   -0.003684201133870392   -0.00463980319679236
-0.02077109186261666   0.007198465622764339   -0.0052182392431551015
-0.02077109186261666   0.007198465622764339   -0.0052182392431551015
-0.02077109186261666   0.007198465622764339   -0.0052182392431551015
-0.02077109186261666   0.007198465622764339   -0.0052182392431551015
-0.06351690483760578   0.0026969365599846945   0.0017149203046940096
-0.06351690483760578   0.0026969365599846945   0.0017149203046940096
-0.06351690483760578   0.0026969365599846945   0.0017149203046940096
-0.06351690483760578   0.0026969365599846945   0.0017149203046940096
-0.06924961224084285   -0.007686809280146171   -0.005725007938032772
-0.06924961224084285   -0.007686809280146171   -0.005725007938032772
-0.06924961224084285   -0.007686809280146171   -0.005725007938032772
-0.06924961224084285   -0.007686809280146171   -0.005725007938032772
-0.02146663972013997   0.007142602646402645   0.00549992152828117
-0.02146663972013997   0.007142602646402645   0.00549992152828117
-0.02146663972013997   0.007142602646402645   0.00549992152828117
-0.02146663972013997   0.007142602646402645   0.00549992152828117
-0.043685965520381446   0.0021922747618264692   0.0012120357043571184
-0.043685965520381446   0.0021922747618264692   0.0012120357043571184
-0.043685965520381446   0.0021922747618264692   0.0012120357043571184
-0.043685965520381446   0.0021922747618264692   0.0012120357043571184
-0.02454759964739855   0.001538449778189543   -0.004300725239798499
-0.02454759964739855   0.001538449778189543   -0.004300725239798499
-0.02454759964739855   0.001538449778189543   -0.004300725239798499
-0.02454759964739855   0.001538449778189543   -0.004300725239798499
-0.0665466594470299   -0.002460663545378817   0.0025636102962637796
-0.0665466594470299   -0.002460663545378817   0.0025636102962637796
-0.0665466594470299   -0.002460663545378817   0.0025636102962637796
-0.0665466594470299   -0.002460663545378817   0.0025636102962637796
-0.07210923458751892   -0.012231682032246395   -0.00427228748110749
-0.07210923458751892   -0.012231682032246395   -0.00427228748110749
-0.07210923458751892   -0.012231682032246395   -0.00427228748110749
-0.07210923458751892   -0.012231682032246395   -0.00427228748110749
-0.02584195627068788   0.0021131715396866795   0.006204119938795204
-0.02584195627068788   0.0021131715396866795   0.006204119938795204
-0.02584195627068788   0.0021131715396866795   0.006204119938795204
-0.02584195627068788   0.0021131715396866795   0.006204119938795204
-0.04729487300528121   -0.0024068009074334224   -0.0011099737666772345
-0.04729487300528121   -0.0024068009074334224   -0.0011099737666772345
-0.04729487300528121   -0.0024068009074334224   -0.0011099737666772345
-0.04729487300528121   -0.0024068009074334224   -0.0011099737666772345
-0.028822369656509826   -0.0033640055332905205   -0.003220769917337206
-0.028822369656509826   -0.0033640055332905205   -0.003220769917337206
-0.028822369656509826   -0.0033640055332905205   -0.003220769917337206
-0.028822369656509826   -0.0033640055332905205   -0.003220769917337206
-0.06953678036419422   -0.007162464121766427   0.003520765725036009
-0.06953678036419422   -0.007162464121766427   0.003520765725036009
-0.06953678036419422   -0.007162464121766427   0.003520765725036009
-0.06953678036419422   -0.007162464121766427   0.003520765725036009
-0.0749876189394446   -0.016847969823549372   -0.0029888595105899956
-0.0749876189394446   -0.016847969823549372   -0.0029888595105899956
-0.0749876189394446   -0.016847969823549372   -0.0029888595105899956
-0.0749876189394446   -0.016847969823549372   -0.0029888595105899956
-0.029510636627184846   -0.002909048618569775   0.007693566772695088
-0.029510636627184846   -0.002909048618569775   0.007693566772695088
-0.029510636627184846   -0.002909048618569775   0.007693566772695088
-0.029510636627184846   -0.002909048618569775   0.007693566772695088
-0.05085749501767536   -0.006881666590744083   -0.003451797798313167
-0.05085749501767536   -0.006881666590744083   -0.003451797798313167
-0.05085749501767536   -0.006881666590744083   -0.003451797798313167
-0.05085749501767536   -0.006881666590744083   -0.003451797798313167
-0.062259610414883884   0.011239978912582443   -0.0005416499342952557
-0.062259610414883884   0.011239978912582443   -0.0005416499342952557
-0.062259610414883884   0.011239978912582443   -0.0005416499342952557
-0.062259610414883884   0.011239978912582443   -0.0005416499342952557
-0.10853493693342198   -0.0038644549015520273   -0.0031555584730889206
-0.10853493693342198   -0.0038644549015520273   -0.0031555584730889206
-0.10853493693342198   -0.0038644549015520273   -0.0031555584730889206
-0.10853493693342198   -0.0038644549015520273   -0.0031555584730889206
-0.10973104362501242   -0.002940958740151562   -0.0007690470788457625
-0.10973104362501242   -0.002940958740151562   -0.0007690470788457625
-0.10973104362501242   -0.002940958740151562   -0.0007690470788457625
-0.10973104362501242   -0.002940958740151562   -0.0007690470788457625
-0.06617826186571685   0.0010847275586460536   0.0008602070988040656
-0.06617826186571685   0.0010847275586460536   0.0008602070988040656
-0.06617826186571685   0.0010847275586460536   0.0008602070988040656
-0.06617826186571685   0.0010847275586460536   0.0008602070988040656
-0.08648510040615057   0.0012800643006560253   0.0004923151036391486
-0.08648510040615057   0.0012800643006560253   0.0004923151036391486
-0.08648510040615057   0.0012800643006560253   0.0004923151036391486
-0.08648510040615057   0.0012800643006560253   0.0004923151036391486
-0.06514278887371161   0.006295801291144175   0.0008264983263321308
-0.06514278887371161   0.006295801291144175   0.0008264983263321308
-0.06514278887371161   0.006295801291144175   0.0008264983263321308
-0.06514278887371161   0.006295801291144175   0.0008264983263321308
-0.11113369110660902   -0.008519206962241056   -0.002204036264739315
-0.11113369110660902   -0.008519206962241056   -0.002204036264739315
-0.11113369110660902   -0.008519206962241056   -0.002204036264739315
-0.11113369110660902   -0.008519206962241056   -0.002204036264739315
-0.11242087154812236   -0.007825672559732978   0.000576910243441228
-0.11242087154812236   -0.007825672559732978   0.000576910243441228
-0.11242087154812236   -0.007825672559732978   0.000576910243441228
-0.11242087154812236   -0.007825672559732978   0.000576910243441228
-0.06919754086661588   -0.003725889691884216   0.0017803887830455012
-0.06919754086661588   -0.003725889691884216   0.0017803887830455012
-0.06919754086661588   -0.003725889691884216   0.0017803887830455012
-0.06919754086661588   -0.003725889691884216   0.0017803887830455012
-0.08938887022472548   -0.0031631906548779364   -0.0016380039324471298
-0.08938887022472548   -0.0031631906548779364   -0.0016380039324471298
-0.08938887022472548   -0.0031631906548779364   -0.0016380039324471298
-0.08938887022472548   -0.0031631906548779364   -0.0016380039324471298
-0.06814232911005057   0.0013173045449909777   0.0020132533289968814
-0.06814232911005057   0.0013173045449909777   0.0020132533289968814
-0.06814232911005057   0.0013173045449909777   0.0020132533289968814
-0.06814232911005057   0.0013173045449909777   0.0020132533289968814
-0.1139199848213116   -0.01331276831323371   -0.0014315603690062437
-0.1139199848213116   -0.01331276831323371   -0.0014315603690062437
-0.1139199848213116   -0.01331276831323371   -0.0014315603690062437
-0.1139199848213116   -0.01331276831323371   -0.0014315603690062437
-0.11503662845402574   -0.012495749338881212   0.0018767467861922444
-0.11503662845402574   -0.012495749338881212   0.0018767467861922444
-0.11503662845402574   -0.012495749338881212   0.0018767467861922444
-0.11503662845402574   -0.012495749338881212   0.0018767467861922444
-0.07211122035708276   -0.008244339144284737   0.002789502721954642
-0.07211122035708276   -0.008244339144284737   0.002789502721954642
-0.07211122035708276   -0.008244339144284737   0.002789502721954642
-0.07211122035708276   -0.008244339144284737   0.002789502721954642
-0.09251324604731456   -0.00762581278175114   -0.003954426252262673
-0.09251324604731456   -0.00762581278175114   -0.003954426252262673
-0.09251324604731456   -0.00762581278175114   -0.003954426252262673
-0.09251324604731456   -0.00762581278175114   -0.003954426252262673
-0.10307266265154047   0.015950447642407925   0.004340910392360623
-0.10307266265154047   0.015950447642407925   0.004340910392360623
-0.10307266265154047   0.015950447642407925   0.004340910392360623
-0.10307266265154047   0.015950447642407925   0.004340910392360623
-0.15204343568777573   -0.006567944325261019   -0.0070208462343808765
-0.15204343568777573   -0.006567944325261019   -0.0070208462343808765
-0.15204343568777573   -0.006567944325261019   -0.0070208462343808765
-0.15204343568777573   -0.006567944325261019   -0.0070208462343808765
-0.1501371334878416   0.0018747654686024767   0.004315905815272247
-0.1501371334878416   0.0018747654686024767   0.004315905815272247
-0.1501371334878416   0.0018747654686024767   0.004315905815272247
-0.1501371334878416   0.0018747654686024767   0.004315905815272247
-0.1099809557666697   -0.0019064127232130447   -0.003053153804070668
-0.1099809557666697   -0.0019064127232130447   -0.003053153804070668
-0.1099809557666697   -0.0019064127232130447   -0.003053153804070668
-0.1099809557666697   -0.0019064127232130447   -0.003053153804070668
-0.1283199694758737   0.00233925333255992   0.0007118700708715368
-0.1283199694758737   0.00233925333255992   0.0007118700708715368
-0.1283199694758737   0.00233925333255992   0.0007118700708715368
-0.1283199694758737   0.00233925333255992   0.0007118700708715368
-0.10563637216020046   0.011053672393408577   0.005709679111653921
-0.10563637216020046   0.011053672393408577   0.005709679111653921
-0.10563637216020046   0.011053672393408577   0.005709679111653921
-0.10563637216020046   0.011053672393408577   0.005709679111653921
-0.1550191506637713   -0.011622753217479926   -0.006596661378295781
-0.1550191506637713   -0.011622753217479926   -0.006596661378295781
-0.1550191506637713   -0.011622753217479926   -0.006596661378295781
-0.1550191506637713   -0.011622753217479926   -0.006596661378295781
-0.15372587963338952   -0.0029492896141423072   0.005119846330795607
-0.15372587963338952   -0.0029492896141423072   0.005119846330795607
-0.15372587963338952   -0.0029492896141423072   0.005119846330795607
-0.15372587963338952   -0.0029492896141423072   0.005119846330795607
-0.1126459789236624   -0.006309705631908486   -0.0020645935620835247
-0.1126459789236624   -0.006309705631908486   -0.0020645935620835247
-0.1126459789236624   -0.006309705631908486   -0.0020645935620835247
-0.1126459789236624   -0.006309705631908486   -0.0020645935620835247
-0.13074724287879114   -0.0019365069915533994   -0.0015961170995641323
-0.13074724287879114   -0.0019365069915533994   -0.0015961170995641323
-0.13074724287879114   -0.0019365069915533994   -0.0015961170995641323
-0.13074724287879114   -0.0019365069915533994   -0.0015961170995641323
-0.10825814915230636   0.006527714290395   0.007037135372391316
-0.10825814915230636   0.006527714290395   0.007037135372391316
-0.10825814915230636   0.006527714290395   0.007037135372391316
-0.10825814915230636   0.006527714290395   0.007037135372391316
-0.15853815285933595   -0.01621115299103555   -0.005679656422045295
-0.15853815285933595   -0.01621115299103555   -0.005679656422045295
-0.15853815285933595   -0.01621115299103555   -0.005679656422045295
-0.15853815285933595   -0.01621115299103555   -0.005679656422045295
-0.15663828410984912   -0.007839170710803704   0.006554394571117385
-0.15663828410984912   -0.007839170710803704   0.006554394571117385
-0.15663828410984912   -0.007839170710803704   0.006554394571117385
-0.15663828410984912   -0.007839170710803704   0.006554394571117385
-0.11532632679966301   -0.010847682649037967   -0.0012198116318373493
-0.11532632679966301   -0.010847682649037967   -0.0012198116318373493
-0.11532632679966301   -0.010847682649037967   -0.0012198116318373493
-0.11532632679966301   -0.010847682649037967   -0.0012198116318373493
-0.13443897708193941   -0.0063463111543662284   -0.003980422991021348
-0.13443897708193941   -0.0063463111543662284   -0.003980422991021348
-0.13443897708193941   -0.0063463111543662284   -0.003980422991021348
-0.13443897708193941   -0.0063463111543662284   -0.003980422991021348
-0.14413466926528148   0.017344663322304665   0.008610378230524657
-0.14413466926528148   0.017344663322304665   0.008610378230524657
-0.14413466926528148   0.017344663322304665   0.008610378230524657
-0.14413466926528148   0.017344663322304665   0.008610378230524657
-0.18790789557267445   -0.009587178037240872   -0.011504717818222251
-0.18790789557267445   -0.009587178037240872   -0.011504717818222251
-0.18790789557267445   -0.009587178037240872   -0.011504717818222251
-0.18790789557267445   -0.009587178037240872   -0.011504717818222251
-0.18813121810979283   0.006387971059192928   0.009494452250874983
-0.18813121810979283   0.006387971059192928   0.009494452250874983
-0.18813121810979283   0.006387971059192928   0.009494452250874983
-0.18813121810979283   0.006387971059192928   0.009494452250874983
-0.15375590802731096   -0.004877874646865156   -0.007025326766608844
-0.15375590802731096   -0.004877874646865156   -0.007025326766608844
-0.15375590802731096   -0.004877874646865156   -0.007025326766608844
-0.15375590802731096   -0.004877874646865156   -0.007025326766608844
-0.16158616619551697   0.00392713425284185   0.003307544444707813
-0.16158616619551697   0.00392713425284185   0.003307544444707813
-0.16158616619551697   0.00392713425284185   0.003307544444707813
-0.16158616619551697   0.00392713425284185   0.003307544444707813
-0.14636968515755217   0.014872474822107108   0.010155438113212865
-0.14636968515755217   0.014872474822107108   0.010155438113212865
-0.14636968515755217   0.014872474822107108   0.010155438113212865
-0.14636968515755217   0.014872474822107108   0.010155438113212865
-0.1960827627531731   -0.01392770018340048   -0.00994759972343099
-0.1960827627531731   -0.01392770018340048   -0.00994759972343099
-0.1960827627531731   -0.01392770018340048   -0.00994759972343099
-0.1960827627531731   -0.01392770018340048   -0.00994759972343099
-0.1946506095113953   0.003608590136645773   0.012199305334144941
-0.1946506095113953   0.003608590136645773   0.012199305334144941
-0.1946506095113953   0.003608590136645773   0.012199305334144941
-0.1946506095113953   0.003608590136645773   0.012199305334144941
-0.15686797950921386   -0.007415055132151693   -0.0061248875303186465
-0.15686797950921386   -0.007415055132151693   -0.0061248875303186465
-0.15686797950921386   -0.007415055132151693   -0.0061248875303186465
-0.15686797950921386   -0.007415055132151693   -0.0061248875303186465
-0.16942568907111727   0.0005704292603162658   5.07196785646466e-05
-0.16942568907111727   0.0005704292603162658   5.07196785646466e-05
-0.16942568907111727   0.0005704292603162658   5.07196785646466e-05
-0.16942568907111727   0.0005704292603162658   5.07196785646466e-05
-0.14919200761098206   0.01269036067969763   0.01214955614899102
-0.14919200761098206   0.01269036067969763   0.01214955614899102
-0.14919200761098206   0.01269036067969763   0.01214955614899102
-0.14919200761098206   0.01269036067969763   0.01214955614899102
-0.20289345901709102   -0.017063703282667163   -0.008342648775018845
-0.20289345901709102   -0.017063703282667163   -0.008342648775018845
-0.20289345901709102   -0.017063703282667163   -0.008342648775018845
-0.20289345901709102   -0.017063703282667163   -0.008342648775018845
-0.20419386554903893   -0.003759367335001318   0.01286469043812289
-0.20419386554903893   -0.003759367335001318   0.01286469043812289
-0.20419386554903893   -0.003759367335001318   0.01286469043812289
-0.20419386554903893   -0.003759367335001318   0.01286469043812289
-0.159998551725064   -0.012797173848982324   -0.005288940366780206
-0.159998551725064   -0.012797173848982324   -0.005288940366780206
-0.159998551725064   -0.012797173848982324   -0.005288940366780206
-0.159998551725064   -0.012797173848982324   -0.005288940366780206
-0.1723131934195654   -0.0027945202410022477   -0.002220150784822966
-0.1723131934195654   -0.0027945202410022477   -0.002220150784822966
-0.1723131934195654   -0.0027945202410022477   -0.002220150784822966
-0.1723131934195654   -0.0027945202410022477   -0.002220150784822966
-0.06782724009825158   -0.004324440959090153   -0.0144825984050605
-0.06782724009825158   -0.004324440959090153   -0.0144825984050605
-0.06782724009825158   -0.004324440959090153   -0.0144825984050605
-0.06782724009825158   -0.004324440959090153   -0.0144825984050605
-0.07147091898507794   0.01080431490095609   0.006444660871243211
-0.07147091898507794   0.01080431490095609   0.006444660871243211
-0.07147091898507794   0.01080431490095609   0.006444660871243211
-0.07147091898507794   0.01080431490095609   0.006444660871243211
-0.08114639260764436   -0.010339969351669559   -0.009932543448834149
-0.08114639260764436   -0.010339969351669559   -0.009932543448834149
-0.08114639260764436   -0.010339969351669559   -0.009932543448834149
-0.08114639260764436   -0.010339969351669559   -0.009932543448834149
-0.06954063995221962   0.006415662894656367   0.009492588593298375
-0.06954063995221962   0.006415662894656367   0.009492588593298375
-0.06954063995221962   0.006415662894656367   0.009492588593298375
-0.06954063995221962   0.006415662894656367   0.009492588593298375
-0.06883582568064005   0.0020034389673884347   0.006579608236162531
-0.06883582568064005   0.0020034389673884347   0.006579608236162531
-0.06883582568064005   0.0020034389673884347   0.006579608236162531
-0.06883582568064005   0.0020034389673884347   0.006579608236162531
-0.07716995091999229   -0.01000486082879623   -0.012233442522111896
-0.07716995091999229   -0.01000486082879623   -0.012233442522111896
-0.07716995091999229   -0.01000486082879623   -0.012233442522111896
-0.07716995091999229   -0.01000486082879623   -0.012233442522111896
-0.07441783290606864   0.005179803105584895   0.00819048260179003
-0.07441783290606864   0.005179803105584895   0.00819048260179003
-0.07441783290606864   0.005179803105584895   0.00819048260179003
-0.07441783290606864   0.005179803105584895   0.00819048260179003
-0.08418109990766988   -0.012930670630486984   -0.008472477222635928
-0.08418109990766988   -0.012930670630486984   -0.008472477222635928
-0.08418109990766988   -0.012930670630486984   -0.008472477222635928
-0.08418109990766988   -0.012930670630486984   -0.008472477222635928
-0.07703894080312737   0.0029366388984504704   0.017858279475393393
-0.07703894080312737   0.0029366388984504704   0.017858279475393393
-0.07703894080312737   0.0029366388984504704   0.017858279475393393
-0.07703894080312737   0.0029366388984504704   0.017858279475393393
-0.07562026151120371   -0.00242791740189407   0.0027150975170397835
-0.07562026151120371   -0.00242791740189407   0.0027150975170397835
-0.07562026151120371   -0.00242791740189407   0.0027150975170397835
-0.07562026151120371   -0.00242791740189407   0.0027150975170397835
-0.08582369118435171   -0.013492050123126289   -0.009636783409150633
-0.08582369118435171   -0.013492050123126289   -0.009636783409150633
-0.08582369118435171   -0.013492050123126289   -0.009636783409150633
-0.08582369118435171   -0.013492050123126289   -0.009636783409150633
-0.07759609236827789   0.001298275549257575   0.010223614294579447
-0.07759609236827789   0.001298275549257575   0.010223614294579447
-0.07759609236827789   0.001298275549257575   0.010223614294579447
-0.07759609236827789   0.001298275549257575   0.010223614294579447
-0.08669113944015563   -0.0178429582964535   -0.006729315725475813
-0.08669113944015563   -0.0178429582964535   -0.006729315725475813
-0.08669113944015563   -0.0178429582964535   -0.006729315725475813
-0.08669113944015563   -0.0178429582964535   -0.006729315725475813
-0.08863521979471549   -0.00856401034714254   0.016676972116743755
-0.08863521979471549   -0.00856401034714254   0.016676972116743755
-0.08863521979471549   -0.00856401034714254   0.016676972116743755
-0.08863521979471549   -0.00856401034714254   0.016676972116743755
-0.08176836251873576   -0.007640889757647457   -0.003516654270915215
-0.08176836251873576   -0.007640889757647457   -0.003516654270915215
-0.08176836251873576   -0.007640889757647457   -0.003516654270915215
-0.08176836251873576   -0.007640889757647457   -0.003516654270915215
-0.07673910948568709   -0.0017574031472818719   -0.00733457358356518
-0.07673910948568709   -0.0017574031472818719   -0.00733457358356518
-0.07673910948568709   -0.0017574031472818719   -0.00733457358356518
-0.07673910948568709   -0.0017574031472818719   -0.00733457358356518
-0.08102191195652166   -0.010085983164050013   -0.00044749496580486024
-0.08102191195652166   -0.010085983164050013   -0.00044749496580486024
-0.08102191195652166   -0.010085983164050013   -0.00044749496580486024
-0.08102191195652166   -0.010085983164050013   -0.00044749496580486024
-0.08184883235285476   -0.0068041569665282155   -0.0038516839036583446
-0.08184883235285476   -0.0068041569665282155   -0.0038516839036583446
-0.08184883235285476   -0.0068041569665282155   -0.0038516839036583446
-0.08184883235285476   -0.0068041569665282155   -0.0038516839036583446
-0.07970789343385412   -0.01309701661070773   1.699967915521055e-05
-0.07970789343385412   -0.01309701661070773   1.699967915521055e-05
-0.07970789343385412   -0.01309701661070773   1.699967915521055e-05
-0.07970789343385412   -0.01309701661070773   1.699967915521055e-05
-0.07916244627582215   -0.008287409227499456   -8.07902017272771e-05
-0.07916244627582215   -0.008287409227499456   -8.07902017272771e-05
-0.07916244627582215   -0.008287409227499456   -8.07902017272771e-05
-0.07916244627582215   -0.008287409227499456   -8.07902017272771e-05
-0.07974492695011272   -0.00688839667318239   -0.006376787839663577
-0.07974492695011272   -0.00688839667318239   -0.006376787839663577
-0.07974492695011272   -0.00688839667318239   -0.006376787839663577
-0.07974492695011272   -0.00688839667318239   -0.006376787839663577
-0.08233296148279717   -0.013533939550256082   0.0004574530303565012
-0.08233296148279717   -0.013533939550256082   0.0004574530303565012
-0.08233296148279717   -0.013533939550256082   0.0004574530303565012
-0.08233296148279717   -0.013533939550256082   0.0004574530303565012
-0.08342764182330029   -0.011155083596435154   -0.0025514701892015434
-0.08342764182330029   -0.011155083596435154   -0.0025514701892015434
-0.08342764182330029   -0.011155083596435154   -0.0025514701892015434
-0.08342764182330029   -0.011155083596435154   -0.0025514701892015434
-0.08291770771778331   -0.017117278268350127   0.0020310913646600917
-0.08291770771778331   -0.017117278268350127   0.0020310913646600917
-0.08291770771778331   -0.017117278268350127   0.0020310913646600917
-0.08291770771778331   -0.017117278268350127   0.0020310913646600917
-0.08124101321857069   -0.0118387223810889   -0.0021448589841565214
-0.08124101321857069   -0.0118387223810889   -0.0021448589841565214
-0.08124101321857069   -0.0118387223810889   -0.0021448589841565214
-0.08124101321857069   -0.0118387223810889   -0.0021448589841565214
-0.08316212186674164   -0.011544447580816228   -0.0047638100676655505
-0.08316212186674164   -0.011544447580816228   -0.0047638100676655505
-0.08316212186674164   -0.011544447580816228   -0.0047638100676655505
-0.08316212186674164   -0.011544447580816228   -0.0047638100676655505
-0.08384666813506102   -0.017391354744688448   0.0015896694002461948
-0.08384666813506102   -0.017391354744688448   0.0015896694002461948
-0.08384666813506102   -0.017391354744688448   0.0015896694002461948
-0.08384666813506102   -0.017391354744688448   0.0015896694002461948
-0.08487421654008308   -0.015774295513381387   -0.001269087788464753
-0.08487421654008308   -0.015774295513381387   -0.001269087788464753
-0.08487421654008308   -0.015774295513381387   -0.001269087788464753
-0.08487421654008308   -0.015774295513381387   -0.001269087788464753
-0.08540462020779696   -0.02211827623080035   0.003978598370664046
-0.08540462020779696   -0.02211827623080035   0.003978598370664046
-0.08540462020779696   -0.02211827623080035   0.003978598370664046
-0.08540462020779696   -0.02211827623080035   0.003978598370664046
-0.08398704907763434   -0.01602970582921038   -0.004726455674888593
-0.08398704907763434   -0.01602970582921038   -0.004726455674888593
-0.08398704907763434   -0.01602970582921038   -0.004726455674888593
-0.08398704907763434   -0.01602970582921038   -0.004726455674888593
-0.0786967519950655   0.002460631763518833   -0.001368310086091084
-0.0786967519950655   0.002460631763518833   -0.001368310086091084
-0.0786967519950655   0.002460631763518833   -0.001368310086091084
-0.0786967519950655   0.002460631763518833   -0.001368310086091084
-0.09176917430109226   -0.017456685918661785   -0.00447101805364403
-0.09176917430109226   -0.017456685918661785   -0.00447101805364403
-0.09176917430109226   -0.017456685918661785   -0.00447101805364403
-0.09176917430109226   -0.017456685918661785   -0.00447101805364403
-0.08823883591803337   -0.003295956384914811   0.0010173614333162436
-0.08823883591803337   -0.003295956384914811   0.0010173614333162436
-0.08823883591803337   -0.003295956384914811   0.0010173614333162436
-0.08823883591803337   -0.003295956384914811   0.0010173614333162436
-0.08390918213062311   -0.0182915311593451   -0.0026660585996841598
-0.08390918213062311   -0.0182915311593451   -0.0026660585996841598
-0.08390918213062311   -0.0182915311593451   -0.0026660585996841598
-0.08390918213062311   -0.0182915311593451   -0.0026660585996841598
-0.08559176044708174   -0.009443803957965796   -0.0018167413359856852
-0.08559176044708174   -0.009443803957965796   -0.0018167413359856852
-0.08559176044708174   -0.009443803957965796   -0.0018167413359856852
-0.08559176044708174   -0.009443803957965796   -0.0018167413359856852
-0.08009923425235925   -0.0018775653433197557   -3.028502439025773e-05
-0.08009923425235925   -0.0018775653433197557   -3.028502439025773e-05
-0.08009923425235925   -0.0018775653433197557   -3.028502439025773e-05
-0.08009923425235925   -0.0018775653433197557   -3.028502439025773e-05
-0.09252652114277105   -0.020187659547412706   -0.00352936152787424
-0.09252652114277105   -0.020187659547412706   -0.00352936152787424
-0.09252652114277105   -0.020187659547412706   -0.00352936152787424
-0.09252652114277105   -0.020187659547412706   -0.00352936152787424
-0.08943168495785267   -0.00766745312005066   0.002306715733450083
-0.08943168495785267   -0.00766745312005066   0.002306715733450083
-0.08943168495785267   -0.00766745312005066   0.002306715733450083
-0.08943168495785267   -0.00766745312005066   0.002306715733450083
-0.08538878488963234   -0.02172112114694874   -0.0017911479703490744
-0.08538878488963234   -0.02172112114694874   -0.0017911479703490744
-0.08538878488963234   -0.02172112114694874   -0.0017911479703490744
-0.08538878488963234   -0.02172112114694874   -0.0017911479703490744
-0.0868373373276119   -0.012756008895320019   -0.003588224923216219
-0.0868373373276119   -0.012756008895320019   -0.003588224923216219
-0.0868373373276119   -0.012756008895320019   -0.003588224923216219
-0.0868373373276119   -0.012756008895320019   -0.003588224923216219
-0.08170199136600981   -0.006332098206842076   0.0012537967076578097
-0.08170199136600981   -0.006332098206842076   0.0012537967076578097
-0.08170199136600981   -0.006332098206842076   0.0012537967076578097
-0.08170199136600981   -0.006332098206842076   0.0012537967076578097
-0.09365241793523847   -0.023590415513922682   -0.0028739867596087884
-0.09365241793523847   -0.023590415513922682   -0.0028739867596087884
-0.09365241793523847   -0.023590415513922682   -0.0028739867596087884
-0.09365241793523847   -0.023590415513922682   -0.0028739867596087884
-0.09043832697145196   -0.011752287540444797   0.003576867355523543
-0.09043832697145196   -0.011752287540444797   0.003576867355523543
-0.09043832697145196   -0.011752287540444797   0.003576867355523543
-0.09043832697145196   -0.011752287540444797   0.003576867355523543
-0.08655130701389897   -0.024963206870285796   -0.0004656288006408566
-0.08655130701389897   -0.024963206870285796   -0.0004656288006408566
-0.08655130701389897   -0.024963206870285796   -0.0004656288006408566
-0.08655130701389897   -0.024963206870285796   -0.0004656288006408566
-0.08829477580306966   -0.016210651124061663   -0.0055317320808292055
-0.08829477580306966   -0.016210651124061663   -0.0055317320808292055
-0.08829477580306966   -0.016210651124061663   -0.0055317320808292055
-0.08829477580306966   -0.016210651124061663   -0.0055317320808292055
-0.08471258390929116   0.009144537395543328   0.004210710591156314
-0.08471258390929116   0.009144537395543328   0.004210710591156314
-0.08471258390929116   0.009144537395543328   0.004210710591156314
-0.08471258390929116   0.009144537395543328   0.004210710591156314
-0.10250447696838755   -0.013347905995999401   -0.006336883343273128
-0.10250447696838755   -0.013347905995999401   -0.006336883343273128
-0.10250447696838755   -0.013347905995999401   -0.006336883343273128
-0.10250447696838755   -0.013347905995999401   -0.006336883343273128
-0.09730420566200758   0.0023830060267676714   0.005717189841178492
-0.09730420566200758   0.0023830060267676714   0.005717189841178492
-0.09730420566200758   0.0023830060267676714   0.005717189841178492
-0.09730420566200758   0.0023830060267676714   0.005717189841178492
-0.09139179927271629   -0.014282671550647177   -0.003760740174365962
-0.09139179927271629   -0.014282671550647177   -0.003760740174365962
-0.09139179927271629   -0.014282671550647177   -0.003760740174365962
-0.09139179927271629   -0.014282671550647177   -0.003760740174365962
-0.09393080105009477   -0.003938135737924748   -0.001082002966829202
-0.09393080105009477   -0.003938135737924748   -0.001082002966829202
-0.09393080105009477   -0.003938135737924748   -0.001082002966829202
-0.09393080105009477   -0.003938135737924748   -0.001082002966829202
-0.08575153199191402   0.004651406440291932   0.005506518238706236
-0.08575153199191402   0.004651406440291932   0.005506518238706236
-0.08575153199191402   0.004651406440291932   0.005506518238706236
-0.08575153199191402   0.004651406440291932   0.005506518238706236
-0.10358485829581529   -0.01719145731717688   -0.006111609983915478
-0.10358485829581529   -0.01719145731717688   -0.006111609983915478
-0.10358485829581529   -0.01719145731717688   -0.006111609983915478
-0.10358485829581529   -0.01719145731717688   -0.006111609983915478
-0.09923772997873573   -0.0019148983854843475   0.006501193725110496
-0.09923772997873573   -0.0019148983854843475   0.006501193725110496
-0.09923772997873573   -0.0019148983854843475   0.006501193725110496
-0.09923772997873573   -0.0019148983854843475   0.006501193725110496
-0.09245446459128157   -0.017497681038044298   -0.0029769545157026372
-0.09245446459128157   -0.017497681038044298   -0.0029769545157026372
-0.09245446459128157   -0.017497681038044298   -0.0029769545157026372
-0.09245446459128157   -0.017497681038044298   -0.0029769545157026372
-0.09497892752513282   -0.007545878925774347   -0.003165870534816505
-0.09497892752513282   -0.007545878925774347   -0.003165870534816505
-0.09497892752513282   -0.007545878925774347   -0.003165870534816505
-0.09497892752513282   -0.007545878925774347   -0.003165870534816505
-0.08688631966638477   0.0006069689550926329   0.006759120115644419
-0.08688631966638477   0.0006069689550926329   0.006759120115644419
-0.08688631966638477   0.0006069689550926329   0.006759120115644419
-0.08688631966638477   0.0006069689550926329   0.006759120115644419
-0.10535954595222095   -0.02057321942720906   -0.005449565100590902
-0.10535954595222095   -0.02057321942720906   -0.005449565100590902
-0.10535954595222095   -0.02057321942720906   -0.005449565100590902
-0.10535954595222095   -0.02057321942720906   -0.005449565100590902
-0.10056562036477683   -0.006062669688208389   0.007944546737432015
-0.10056562036477683   -0.006062669688208389   0.007944546737432015
-0.10056562036477683   -0.006062669688208389   0.007944546737432015
-0.10056562036477683   -0.006062669688208389   0.007944546737432015
-0.09340111417644048   -0.020736427754000943   -0.002252928455864857
-0.09340111417644048   -0.020736427754000943   -0.002252928455864857
-0.09340111417644048   -0.020736427754000943   -0.002252928455864857
-0.09340111417644048   -0.020736427754000943   -0.002252928455864857
-0.0967246823460443   -0.010984184189369636   -0.00519929043917735
-0.0967246823460443   -0.010984184189369636   -0.00519929043917735
-0.0967246823460443   -0.010984184189369636   -0.00519929043917735
-0.0967246823460443   -0.010984184189369636   -0.00519929043917735
-0.09424258388693578   0.013143135897622539   0.008481540170363826
-0.09424258388693578   0.013143135897622539   0.008481540170363826
-0.09424258388693578   0.013143135897622539   0.008481540170363826
-0.09424258388693578   0.013143135897622539   0.008481540170363826
-0.10358646945176424   -0.008330562122547083   -0.009090566261102908
-0.10358646945176424   -0.008330562122547083   -0.009090566261102908
-0.10358646945176424   -0.008330562122547083   -0.009090566261102908
-0.10358646945176424   -0.008330562122547083   -0.009090566261102908
-0.10160574875469955   0.008845679157858954   0.009442282984392644
-0.10160574875469955   0.008845679157858954   0.009442282984392644
-0.10160574875469955   0.008845679157858954   0.009442282984392644
-0.10160574875469955   0.008845679157858954   0.009442282984392644
-0.10202748257214993   -0.009953571181614993   -0.005562617501148722
-0.10202748257214993   -0.009953571181614993   -0.005562617501148722
-0.10202748257214993   -0.009953571181614993   -0.005562617501148722
-0.10202748257214993   -0.009953571181614993   -0.005562617501148722
-0.09685924724332493   0.002182481237996907   0.0006019825642282848
-0.09685924724332493   0.002182481237996907   0.0006019825642282848
-0.09685924724332493   0.002182481237996907   0.0006019825642282848
-0.09685924724332493   0.002182481237996907   0.0006019825642282848
-0.09491302434236457   0.010255823280564794   0.00980027918559451
-0.09491302434236457   0.010255823280564794   0.00980027918559451
-0.09491302434236457   0.010255823280564794   0.00980027918559451
-0.09491302434236457   0.010255823280564794   0.00980027918559451
-0.10925590668701839   -0.011899415006855587   -0.008063412512483228
-0.10925590668701839   -0.011899415006855587   -0.008063412512483228
-0.10925590668701839   -0.011899415006855587   -0.008063412512483228
-0.10925590668701839   -0.011899415006855587   -0.008063412512483228
-0.10607197201052583   0.00639285788125556   0.012118670038029581
-0.10607197201052583   0.00639285788125556   0.012118670038029581
-0.10607197201052583   0.00639285788125556   0.012118670038029581
-0.10607197201052583   0.00639285788125556   0.012118670038029581
-0.10353553842281125   -0.011866076945726743   -0.005036669935024694
-0.10353553842281125   -0.011866076945726743   -0.005036669935024694
-0.10353553842281125   -0.011866076945726743   -0.005036669935024694
-0.10353553842281125   -0.011866076945726743   -0.005036669935024694
-0.10170331385962683   -0.0007685973573677458   -0.0019213059426645765
-0.10170331385962683   -0.0007685973573677458   -0.0019213059426645765
-0.10170331385962683   -0.0007685973573677458   -0.0019213059426645765
-0.10170331385962683   -0.0007685973573677458   -0.0019213059426645765
-0.09615728698968334   0.008291469112328205   0.01169704117255798
-0.09615728698968334   0.008291469112328205   0.01169704117255798
-0.09615728698968334   0.008291469112328205   0.01169704117255798
-0.09615728698968334   0.008291469112328205   0.01169704117255798
-0.11413130894930765   -0.014445773682454251   -0.007339383092165842
-0.11413130894930765   -0.014445773682454251   -0.007339383092165842
-0.11413130894930765   -0.014445773682454251   -0.007339383092165842
-0.11413130894930765   -0.014445773682454251   -0.007339383092165842
-0.1137099998434538   0.00010383473327515991   0.012927550662897015
-0.1137099998434538   0.00010383473327515991   0.012927550662897015
-0.1137099998434538   0.00010383473327515991   0.012927550662897015
-0.1137099998434538   0.00010383473327515991   0.012927550662897015
-0.10493189138671453   -0.015583406465347623   -0.004366071595117331
-0.10493189138671453   -0.015583406465347623   -0.004366071595117331
-0.10493189138671453   -0.015583406465347623   -0.004366071595117331
-0.10493189138671453   -0.015583406465347623   -0.004366071595117331
-0.10398445076945989   -0.003522349006046307   -0.004154237564542394
-0.10398445076945989   -0.003522349006046307   -0.004154237564542394
-0.10398445076945989   -0.003522349006046307   -0.004154237564542394
-0.10398445076945989   -0.003522349006046307   -0.004154237564542394
-0.18653736340777138   -0.017224879055396523   -0.01863486448782257
-0.18653736340777138   -0.017224879055396523   -0.01863486448782257
-0.18653736340777138   -0.017224879055396523   -0.01863486448782257
-0.18653736340777138   -0.017224879055396523   -0.01863486448782257
-0.1205784027192521   0.00944272586536591   0.004322378480729201
-0.1205784027192521   0.00944272586536591   0.004322378480729201
-0.1205784027192521   0.00944272586536591   0.004322378480729201
-0.1205784027192521   0.00944272586536591   0.004322378480729201
-0.12686351465485277   -0.008652472930323469   -0.008525215828967661
-0.12686351465485277   -0.008652472930323469   -0.008525215828967661
-0.12686351465485277   -0.008652472930323469   -0.008525215828967661
-0.12686351465485277   -0.008652472930323469   -0.008525215828967661
-0.19948448482476672   -0.023687817505718373   0.02037470254013664
-0.19948448482476672   -0.023687817505718373   0.02037470254013664
-0.19948448482476672   -0.023687817505718373   0.02037470254013664
-0.19948448482476672   -0.023687817505718373   0.02037470254013664
-0.14531147113489792   -0.005941685952985668   0.020022473917232775
-0.14531147113489792   -0.005941685952985668   0.020022473917232775
-0.14531147113489792   -0.005941685952985668   0.020022473917232775
-0.14531147113489792   -0.005941685952985668   0.020022473917232775
-0.2067176206399536   -0.025678341474877586   -0.013800452566637436
-0.2067176206399536   -0.025678341474877586   -0.013800452566637436
-0.2067176206399536   -0.025678341474877586   -0.013800452566637436
-0.2067176206399536   -0.025678341474877586   -0.013800452566637436
-0.12475020168816771   -0.011781771809665876   0.005170647883800095
-0.12475020168816771   -0.011781771809665876   0.005170647883800095
-0.12475020168816771   -0.011781771809665876   0.005170647883800095
-0.12475020168816771   -0.011781771809665876   0.005170647883800095
-0.12922631402368837   -0.012327006759698524   -0.006272575594790562
-0.12922631402368837   -0.012327006759698524   -0.006272575594790562
-0.12922631402368837   -0.012327006759698524   -0.006272575594790562
-0.12922631402368837   -0.012327006759698524   -0.006272575594790562
-0.2064311151075945   -0.03293732770764735   0.00017929527928060894
-0.2064311151075945   -0.03293732770764735   0.00017929527928060894
-0.2064311151075945   -0.03293732770764735   0.00017929527928060894
-0.2064311151075945   -0.03293732770764735   0.00017929527928060894
-0.1617211560868463   -0.019861978004751646   0.004740797389187009
-0.1617211560868463   -0.019861978004751646   0.004740797389187009
-0.1617211560868463   -0.019861978004751646   0.004740797389187009
-0.1617211560868463   -0.019861978004751646   0.004740797389187009
-0.2079523458829371   -0.02907544606133809   -0.011288740243739659
-0.2079523458829371   -0.02907544606133809   -0.011288740243739659
-0.2079523458829371   -0.02907544606133809   -0.011288740243739659
-0.2079523458829371   -0.02907544606133809   -0.011288740243739659
-0.1292148321452883   -0.01769863730295019   -0.0008435356595397413
-0.1292148321452883   -0.01769863730295019   -0.0008435356595397413
-0.1292148321452883   -0.01769863730295019   -0.0008435356595397413
-0.1292148321452883   -0.01769863730295019   -0.0008435356595397413
-0.1296975644012774   -0.02104493826685214   -0.004665322875242348
-0.1296975644012774   -0.02104493826685214   -0.004665322875242348
-0.1296975644012774   -0.02104493826685214   -0.004665322875242348
-0.1296975644012774   -0.02104493826685214   -0.004665322875242348
-0.21210304213313827   -0.05002767484293578   0.002812748360464735
-0.21210304213313827   -0.05002767484293578   0.002812748360464735
-0.21210304213313827   -0.05002767484293578   0.002812748360464735
-0.21210304213313827   -0.05002767484293578   0.002812748360464735
-0.16201697803834517   -0.02720438036600281   0.0004956045121407569
-0.16201697803834517   -0.02720438036600281   0.0004956045121407569
-0.16201697803834517   -0.02720438036600281   0.0004956045121407569
-0.16201697803834517   -0.02720438036600281   0.0004956045121407569
-0.13014994845705627   -0.022200513616317384   -0.011892110726607109
-0.13014994845705627   -0.022200513616317384   -0.011892110726607109
-0.13014994845705627   -0.022200513616317384   -0.011892110726607109
-0.13014994845705627   -0.022200513616317384   -0.011892110726607109
-0.09121908326475396   -0.0610009900558509   -0.01133858642671913
-0.09121908326475396   -0.0610009900558509   -0.01133858642671913
-0.09121908326475396   -0.0610009900558509   -0.01133858642671913
-0.09121908326475396   -0.0610009900558509   -0.01133858642671913
-0.08000635446850636   -0.013339110542237062   -0.0008950089438392048
-0.08000635446850636   -0.013339110542237062   -0.0008950089438392048
-0.08000635446850636   -0.013339110542237062   -0.0008950089438392048
-0.08000635446850636   -0.013339110542237062   -0.0008950089438392048
-0.13907595184748214   -0.0641451651703733   -0.014094709552064648
-0.13907595184748214   -0.0641451651703733   -0.014094709552064648
-0.13907595184748214   -0.0641451651703733   -0.014094709552064648
-0.13907595184748214   -0.0641451651703733   -0.014094709552064648
-0.10887958671500261   -0.04251652463452081   -0.0032277575364388815
-0.10887958671500261   -0.04251652463452081   -0.0032277575364388815
-0.10887958671500261   -0.04251652463452081   -0.0032277575364388815
-0.10887958671500261   -0.04251652463452081   -0.0032277575364388815
-0.1302312935860722   -0.025007011050049908   -0.0090095723653376
-0.1302312935860722   -0.025007011050049908   -0.0090095723653376
-0.1302312935860722   -0.025007011050049908   -0.0090095723653376
-0.1302312935860722   -0.025007011050049908   -0.0090095723653376
-0.08936926042068213   -0.052995512353326314   -0.008053136893629728
-0.08936926042068213   -0.052995512353326314   -0.008053136893629728
-0.08936926042068213   -0.052995512353326314   -0.008053136893629728
-0.08936926042068213   -0.052995512353326314   -0.008053136893629728
-0.08127806886713297   -0.017208880081712466   -6.655655280194626e-05
-0.08127806886713297   -0.017208880081712466   -6.655655280194626e-05
-0.08127806886713297   -0.017208880081712466   -6.655655280194626e-05
-0.08127806886713297   -0.017208880081712466   -6.655655280194626e-05
-0.1399165908059556   -0.06378724224000162   -0.008263724025824629
-0.1399165908059556   -0.06378724224000162   -0.008263724025824629
-0.1399165908059556   -0.06378724224000162   -0.008263724025824629
-0.1399165908059556   -0.06378724224000162   -0.008263724025824629
-0.10791627406562604   -0.03984432488256538   -0.0034335008995510577
-0.10791627406562604   -0.03984432488256538   -0.0034335008995510577
-0.10791627406562604   -0.03984432488256538   -0.0034335008995510577
-0.10791627406562604   -0.03984432488256538   -0.0034335008995510577
-0.13263399098625114   -0.028828622190363595   -0.006809344976939393
-0.13263399098625114   -0.028828622190363595   -0.006809344976939393
-0.13263399098625114   -0.028828622190363595   -0.006809344976939393
-0.13263399098625114   -0.028828622190363595   -0.006809344976939393
-0.08966781072821853   -0.05327464217273161   -0.005949503767211562
-0.08966781072821853   -0.05327464217273161   -0.005949503767211562
-0.08966781072821853   -0.05327464217273161   -0.005949503767211562
-0.08966781072821853   -0.05327464217273161   -0.005949503767211562
-0.08166068720898505   -0.021941856248219746   0.0011167652847551368
-0.08166068720898505   -0.021941856248219746   0.0011167652847551368
-0.08166068720898505   -0.021941856248219746   0.0011167652847551368
-0.08166068720898505   -0.021941856248219746   0.0011167652847551368
-0.13994696644949245   -0.06458919693615094   -0.01236807444702072
-0.13994696644949245   -0.06458919693615094   -0.01236807444702072
-0.13994696644949245   -0.06458919693615094   -0.01236807444702072
-0.13994696644949245   -0.06458919693615094   -0.01236807444702072
-0.10994420024644962   -0.04277601112219741   -0.00641827905812815
-0.10994420024644962   -0.04277601112219741   -0.00641827905812815
-0.10994420024644962   -0.04277601112219741   -0.00641827905812815
-0.10994420024644962   -0.04277601112219741   -0.00641827905812815
-0.07984423201732335   -0.014392131583551529   -0.0010731886618654705
-0.07984423201732335   -0.014392131583551529   -0.0010731886618654705
-0.07984423201732335   -0.014392131583551529   -0.0010731886618654705
-0.07984423201732335   -0.014392131583551529   -0.0010731886618654705
-0.06879468487290064   -0.04705189412170923   -0.00811774988678807
-0.06879468487290064   -0.04705189412170923   -0.00811774988678807
-0.06879468487290064   -0.04705189412170923   -0.00811774988678807
-0.06879468487290064   -0.04705189412170923   -0.00811774988678807
-0.059371957099935084   -0.012240543665840334   0.003051653837151647
-0.059371957099935084   -0.012240543665840334   0.003051653837151647
-0.059371957099935084   -0.012240543665840334   0.003051653837151647
-0.059371957099935084   -0.012240543665840334   0.003051653837151647
-0.08906594602617432   -0.05068693025548658   -0.008845147018930386
-0.08906594602617432   -0.05068693025548658   -0.008845147018930386
-0.08906594602617432   -0.05068693025548658   -0.008845147018930386
-0.08906594602617432   -0.05068693025548658   -0.008845147018930386
-0.07396671618885534   -0.03146330972708397   -0.0037118907332630647
-0.07396671618885534   -0.03146330972708397   -0.0037118907332630647
-0.07396671618885534   -0.03146330972708397   -0.0037118907332630647
-0.07396671618885534   -0.03146330972708397   -0.0037118907332630647
-0.08055104779485563   -0.01706517482984955   0.00010758871202610625
-0.08055104779485563   -0.01706517482984955   0.00010758871202610625
-0.08055104779485563   -0.01706517482984955   0.00010758871202610625
-0.08055104779485563   -0.01706517482984955   0.00010758871202610625
-0.06835984934914574   -0.04633529310936932   -0.00779305796537268
-0.06835984934914574   -0.04633529310936932   -0.00779305796537268
-0.06835984934914574   -0.04633529310936932   -0.00779305796537268
-0.06835984934914574   -0.04633529310936932   -0.00779305796537268
-0.059728116779450245   -0.015434570499987513   0.003980937154274983
-0.059728116779450245   -0.015434570499987513   0.003980937154274983
-0.059728116779450245   -0.015434570499987513   0.003980937154274983
-0.059728116779450245   -0.015434570499987513   0.003980937154274983
-0.08968261068229852   -0.051484534362546144   -0.007813611347796989
-0.08968261068229852   -0.051484534362546144   -0.007813611347796989
-0.08968261068229852   -0.051484534362546144   -0.007813611347796989
-0.08968261068229852   -0.051484534362546144   -0.007813611347796989
-0.07412109578990668   -0.032619042058722486   -0.004825302352006582
-0.07412109578990668   -0.032619042058722486   -0.004825302352006582
-0.07412109578990668   -0.032619042058722486   -0.004825302352006582
-0.07412109578990668   -0.032619042058722486   -0.004825302352006582
-0.0815943852110213   -0.02031284607329075   0.0014558277193336925
-0.0815943852110213   -0.02031284607329075   0.0014558277193336925
-0.0815943852110213   -0.02031284607329075   0.0014558277193336925
-0.0815943852110213   -0.02031284607329075   0.0014558277193336925
-0.06808154781944462   -0.046871464357960385   -0.00634932418772402
-0.06808154781944462   -0.046871464357960385   -0.00634932418772402
-0.06808154781944462   -0.046871464357960385   -0.00634932418772402
-0.06808154781944462   -0.046871464357960385   -0.00634932418772402
-0.059404370016677324   -0.01843953388055882   0.005005799150776213
-0.059404370016677324   -0.01843953388055882   0.005005799150776213
-0.059404370016677324   -0.01843953388055882   0.005005799150776213
-0.059404370016677324   -0.01843953388055882   0.005005799150776213
-0.08901759745187188   -0.05203759125041904   -0.005572050927479744
-0.08901759745187188   -0.05203759125041904   -0.005572050927479744
-0.08901759745187188   -0.05203759125041904   -0.005572050927479744
-0.08901759745187188   -0.05203759125041904   -0.005572050927479744
-0.07427352325646407   -0.03419829407319669   -0.005649008271903624
-0.07427352325646407   -0.03419829407319669   -0.005649008271903624
-0.07427352325646407   -0.03419829407319669   -0.005649008271903624
-0.07427352325646407   -0.03419829407319669   -0.005649008271903624
-0.05701347339671215   -0.0018625382821008604   0.005598951654544175
-0.05701347339671215   -0.0018625382821008604   0.005598951654544175
-0.05701347339671215   -0.0018625382821008604   0.005598951654544175
-0.05701347339671215   -0.0018625382821008604   0.005598951654544175
-0.05574248719423692   -0.02527983277547497   -0.005027997733357503
-0.05574248719423692   -0.02527983277547497   -0.005027997733357503
-0.05574248719423692   -0.02527983277547497   -0.005027997733357503
-0.05574248719423692   -0.02527983277547497   -0.005027997733357503
-0.04839082088472376   -0.003645043774628727   0.006426420317733766
-0.04839082088472376   -0.003645043774628727   0.006426420317733766
-0.04839082088472376   -0.003645043774628727   0.006426420317733766
-0.04839082088472376   -0.003645043774628727   0.006426420317733766
-0.06397992418032067   -0.028736921922238624   -0.003491803308378015
-0.06397992418032067   -0.028736921922238624   -0.003491803308378015
-0.06397992418032067   -0.028736921922238624   -0.003491803308378015
-0.06397992418032067   -0.028736921922238624   -0.003491803308378015
-0.056454766039744565   -0.014713405208847037   -0.002033517853408715
-0.056454766039744565   -0.014713405208847037   -0.002033517853408715
-0.056454766039744565   -0.014713405208847037   -0.002033517853408715
-0.056454766039744565   -0.014713405208847037   -0.002033517853408715
-0.05732650155218267   -0.005424821991377153   0.006463209901450546
-0.05732650155218267   -0.005424821991377153   0.006463209901450546
-0.05732650155218267   -0.005424821991377153   0.006463209901450546
-0.05732650155218267   -0.005424821991377153   0.006463209901450546
-0.05556706338866236   -0.027479963581290793   -0.005619872395297169
-0.05556706338866236   -0.027479963581290793   -0.005619872395297169
-0.05556706338866236   -0.027479963581290793   -0.005619872395297169
-0.05556706338866236   -0.027479963581290793   -0.005619872395297169
-0.048779879686364144   -0.006781080951705732   0.006931461011068929
-0.048779879686364144   -0.006781080951705732   0.006931461011068929
-0.048779879686364144   -0.006781080951705732   0.006931461011068929
-0.048779879686364144   -0.006781080951705732   0.006931461011068929
-0.06430310024865997   -0.03051158430696783   -0.003816966384795252
-0.06430310024865997   -0.03051158430696783   -0.003816966384795252
-0.06430310024865997   -0.03051158430696783   -0.003816966384795252
-0.06430310024865997   -0.03051158430696783   -0.003816966384795252
-0.05650352266255109   -0.017201816620232197   -0.0034820272366881443
-0.05650352266255109   -0.017201816620232197   -0.0034820272366881443
-0.05650352266255109   -0.017201816620232197   -0.0034820272366881443
-0.05650352266255109   -0.017201816620232197   -0.0034820272366881443
-0.05766288270212617   -0.008474555290741958   0.0073470923316498165
-0.05766288270212617   -0.008474555290741958   0.0073470923316498165
-0.05766288270212617   -0.008474555290741958   0.0073470923316498165
-0.05766288270212617   -0.008474555290741958   0.0073470923316498165
-0.05573823612790942   -0.029136248862942755   -0.005505153285420421
-0.05573823612790942   -0.029136248862942755   -0.005505153285420421
-0.05573823612790942   -0.029136248862942755   -0.005505153285420421
-0.05573823612790942   -0.029136248862942755   -0.005505153285420421
-0.048710040563668816   -0.009738157674750631   0.008047348327611212
-0.048710040563668816   -0.009738157674750631   0.008047348327611212
-0.048710040563668816   -0.009738157674750631   0.008047348327611212
-0.048710040563668816   -0.009738157674750631   0.008047348327611212
-0.063678755054628   -0.03225932263030608   -0.0025463372892298866
-0.063678755054628   -0.03225932263030608   -0.0025463372892298866
-0.063678755054628   -0.03225932263030608   -0.0025463372892298866
-0.063678755054628   -0.03225932263030608   -0.0025463372892298866
-0.05670047676222053   -0.019400958256068003   -0.00453389639480912
-0.05670047676222053   -0.019400958256068003   -0.00453389639480912
-0.05670047676222053   -0.019400958256068003   -0.00453389639480912
-0.05670047676222053   -0.019400958256068003   -0.00453389639480912
-0.04657923502784752   0.006658903399233118   0.008849526923881381
-0.04657923502784752   0.006658903399233118   0.008849526923881381
-0.04657923502784752   0.006658903399233118   0.008849526923881381
-0.04657923502784752   0.006658903399233118   0.008849526923881381
-0.03345087425421273   -0.008590396363718186   -0.003215498239381597
-0.03345087425421273   -0.008590396363718186   -0.003215498239381597
-0.03345087425421273   -0.008590396363718186   -0.003215498239381597
-0.03345087425421273   -0.008590396363718186   -0.003215498239381597
-0.02989212058411066   0.007342612399593803   0.008782938416855983
-0.02989212058411066   0.007342612399593803   0.008782938416855983
-0.02989212058411066   0.007342612399593803   0.008782938416855983
-0.02989212058411066   0.007342612399593803   0.008782938416855983
-0.0517925791474837   -0.01253780433481897   -0.0016896104358756839
-0.0517925791474837   -0.01253780433481897   -0.0016896104358756839
-0.0517925791474837   -0.01253780433481897   -0.0016896104358756839
-0.0517925791474837   -0.01253780433481897   -0.0016896104358756839
-0.03977102116403536   -0.0008902609851125561   -0.0014549867431154842
-0.03977102116403536   -0.0008902609851125561   -0.0014549867431154842
-0.03977102116403536   -0.0008902609851125561   -0.0014549867431154842
-0.03977102116403536   -0.0008902609851125561   -0.0014549867431154842
-0.04616118966712539   0.004265097854865859   0.009664434776230997
-0.04616118966712539   0.004265097854865859   0.009664434776230997
-0.04616118966712539   0.004265097854865859   0.009664434776230997
-0.04616118966712539   0.004265097854865859   0.009664434776230997
-0.03560109816519563   -0.009537877890817056   -0.002881459198154173
-0.03560109816519563   -0.009537877890817056   -0.002881459198154173
-0.03560109816519563   -0.009537877890817056   -0.002881459198154173
-0.03560109816519563   -0.009537877890817056   -0.002881459198154173
-0.03146717087122439   0.005760181335421779   0.011026253919131047
-0.03146717087122439   0.005760181335421779   0.011026253919131047
-0.03146717087122439   0.005760181335421779   0.011026253919131047
-0.03146717087122439   0.005760181335421779   0.011026253919131047
-0.05190364729908602   -0.013397717952601949   -0.00207074005164418
-0.05190364729908602   -0.013397717952601949   -0.00207074005164418
-0.05190364729908602   -0.013397717952601949   -0.00207074005164418
-0.05190364729908602   -0.013397717952601949   -0.00207074005164418
-0.04131307919692391   -0.0026088879486418828   -0.0022467823237055148
-0.04131307919692391   -0.0026088879486418828   -0.0022467823237055148
-0.04131307919692391   -0.0026088879486418828   -0.0022467823237055148
-0.04131307919692391   -0.0026088879486418828   -0.0022467823237055148
-0.04601513058105878   0.00286680310567225   0.011107322480217795
-0.04601513058105878   0.00286680310567225   0.011107322480217795
-0.04601513058105878   0.00286680310567225   0.011107322480217795
-0.04601513058105878   0.00286680310567225   0.011107322480217795
-0.037759229688226946   -0.010907881821827739   -0.0037659770086322063
-0.037759229688226946   -0.010907881821827739   -0.0037659770086322063
-0.037759229688226946   -0.010907881821827739   -0.0037659770086322063
-0.037759229688226946   -0.010907881821827739   -0.0037659770086322063
-0.03587911333884575   0.0013962558505552919   0.011479461936528447
-0.03587911333884575   0.0013962558505552919   0.011479461936528447
-0.03587911333884575   0.0013962558505552919   0.011479461936528447
-0.03587911333884575   0.0013962558505552919   0.011479461936528447
-0.05156792488595113   -0.014280324745092292   -0.00169990621345873
-0.05156792488595113   -0.014280324745092292   -0.00169990621345873
-0.05156792488595113   -0.014280324745092292   -0.00169990621345873
-0.05156792488595113   -0.014280324745092292   -0.00169990621345873
-0.0421882951015401   -0.003916280395163871   -0.0034096797720887494
-0.0421882951015401   -0.003916280395163871   -0.0034096797720887494
-0.0421882951015401   -0.003916280395163871   -0.0034096797720887494
-0.0421882951015401   -0.003916280395163871   -0.0034096797720887494
-0.45355674696621084   -0.0657894332891389   -0.03886007304483608
-0.45355674696621084   -0.0657894332891389   -0.03886007304483608
-0.45355674696621084   -0.0657894332891389   -0.03886007304483608
-0.45355674696621084   -0.0657894332891389   -0.03886007304483608
-0.15948627580558733   -0.2672037827442877   -0.030099270037868955
-0.15948627580558733   -0.2672037827442877   -0.030099270037868955
-0.15948627580558733   -0.2672037827442877   -0.030099270037868955
-0.15948627580558733   -0.2672037827442877   -0.030099270037868955
-0.12098139959013818   -0.012074473104296074   -6.16606873803981e-05
-0.12098139959013818   -0.012074473104296074   -6.16606873803981e-05
-0.12098139959013818   -0.012074473104296074   -6.16606873803981e-05
-0.12098139959013818   -0.012074473104296074   -6.16606873803981e-05
-0.4886760459683917   -0.31062095056039374   -0.15985939930575707
-0.4886760459683917   -0.31062095056039374   -0.15985939930575707
-0.4886760459683917   -0.31062095056039374   -0.15985939930575707
-0.4886760459683917   -0.31062095056039374   -0.15985939930575707
-0.29795116362065344   -0.15403989001745028   -0.022508451669339707
-0.29795116362065344   -0.15403989001745028   -0.022508451669339707
-0.29795116362065344   -0.15403989001745028   -0.022508451669339707
-0.29795116362065344   -0.15403989001745028   -0.022508451669339707
-0.4217035503297519   -0.08277512120777812   -0.05284275046517695
-0.4217035503297519   -0.08277512120777812   -0.05284275046517695
-0.4217035503297519   -0.08277512120777812   -0.05284275046517695
-0.4217035503297519   -0.08277512120777812   -0.05284275046517695
-0.17289657999895333   -0.2248629872270875   -0.046849048608664394
-0.17289657999895333   -0.2248629872270875   -0.046849048608664394
-0.17289657999895333   -0.2248629872270875   -0.046849048608664394
-0.17289657999895333   -0.2248629872270875   -0.046849048608664394
-0.12401334893160633   -0.015577873925934098   0.004558798011858746
-0.12401334893160633   -0.015577873925934098   0.004558798011858746
-0.12401334893160633   -0.015577873925934098   0.004558798011858746
-0.12401334893160633   -0.015577873925934098   0.004558798011858746
-0.45768352393634193   -0.27896823886822053   -0.14733035256091248
-0.45768352393634193   -0.27896823886822053   -0.14733035256091248
-0.45768352393634193   -0.27896823886822053   -0.14733035256091248
-0.45768352393634193   -0.27896823886822053   -0.14733035256091248
-0.2809615628363743   -0.13951563976692016   0.010897485951305297
-0.2809615628363743   -0.13951563976692016   0.010897485951305297
-0.2809615628363743   -0.13951563976692016   0.010897485951305297
-0.2809615628363743   -0.13951563976692016   0.010897485951305297
-0.39615091516343426   -0.07887021357299256   -0.03976533399160568
-0.39615091516343426   -0.07887021357299256   -0.03976533399160568
-0.39615091516343426   -0.07887021357299256   -0.03976533399160568
-0.39615091516343426   -0.07887021357299256   -0.03976533399160568
-0.16875270907800197   -0.19888265059465043   -0.03583322605140201
-0.16875270907800197   -0.19888265059465043   -0.03583322605140201
-0.16875270907800197   -0.19888265059465043   -0.03583322605140201
-0.16875270907800197   -0.19888265059465043   -0.03583322605140201
-0.14389885867578   -0.03853907346309028   -0.007948428197666075
-0.14389885867578   -0.03853907346309028   -0.007948428197666075
-0.14389885867578   -0.03853907346309028   -0.007948428197666075
-0.14389885867578   -0.03853907346309028   -0.007948428197666075
-0.41738402290590126   -0.23690754088086424   -0.1308583127573531
-0.41738402290590126   -0.23690754088086424   -0.1308583127573531
-0.41738402290590126   -0.23690754088086424   -0.1308583127573531
-0.41738402290590126   -0.23690754088086424   -0.1308583127573531
-0.26062550434017584   -0.12141692206907866   0.04881228871783394
-0.26062550434017584   -0.12141692206907866   0.04881228871783394
-0.26062550434017584   -0.12141692206907866   0.04881228871783394
-0.26062550434017584   -0.12141692206907866   0.04881228871783394
-0.11501183423963147   -0.06539832662996514   -0.009532518322412871
-0.11501183423963147   -0.06539832662996514   -0.009532518322412871
-0.11501183423963147   -0.06539832662996514   -0.009532518322412871
-0.11501183423963147   -0.06539832662996514   -0.009532518322412871
-0.055042085880308594   -0.08976436609238109   -0.013688463145575097
-0.055042085880308594   -0.08976436609238109   -0.013688463145575097
-0.055042085880308594   -0.08976436609238109   -0.013688463145575097
-0.055042085880308594   -0.08976436609238109   -0.013688463145575097
-0.04739046719998372   -0.04277464517810382   0.0010724057617842973
-0.04739046719998372   -0.04277464517810382   0.0010724057617842973
-0.04739046719998372   -0.04277464517810382   0.0010724057617842973
-0.04739046719998372   -0.04277464517810382   0.0010724057617842973
-0.14380576371279558   -0.12727961944542493   0.0010216650404619512
-0.14380576371279558   -0.12727961944542493   0.0010216650404619512
-0.14380576371279558   -0.12727961944542493   0.0010216650404619512
-0.14380576371279558   -0.12727961944542493   0.0010216650404619512
-0.07639712934785178   -0.0612294855423382   0.02513883944373512
-0.07639712934785178   -0.0612294855423382   0.02513883944373512
-0.07639712934785178   -0.0612294855423382   0.02513883944373512
-0.07639712934785178   -0.0612294855423382   0.02513883944373512
-0.13201407823175224   -0.06114479494730324   -0.00615473205244426
-0.13201407823175224   -0.06114479494730324   -0.00615473205244426
-0.13201407823175224   -0.06114479494730324   -0.00615473205244426
-0.13201407823175224   -0.06114479494730324   -0.00615473205244426
-0.06344699913399333   -0.113174316129192   -0.00881058295717558
-0.06344699913399333   -0.113174316129192   -0.00881058295717558
-0.06344699913399333   -0.113174316129192   -0.00881058295717558
-0.06344699913399333   -0.113174316129192   -0.00881058295717558
-0.05173355806804489   -0.04425340591431496   0.0012224248646999902
-0.05173355806804489   -0.04425340591431496   0.0012224248646999902
-0.05173355806804489   -0.04425340591431496   0.0012224248646999902
-0.05173355806804489   -0.04425340591431496   0.0012224248646999902
-0.15165799810779823   -0.12634465584168164   -0.02289766595335216
-0.15165799810779823   -0.12634465584168164   -0.02289766595335216
-0.15165799810779823   -0.12634465584168164   -0.02289766595335216
-0.15165799810779823   -0.12634465584168164   -0.02289766595335216
-0.09215591658004275   -0.0779110645250143   0.01097404258542201
-0.09215591658004275   -0.0779110645250143   0.01097404258542201
-0.09215591658004275   -0.0779110645250143   0.01097404258542201
-0.09215591658004275   -0.0779110645250143   0.01097404258542201
-0.13690282112186195   -0.06385419239257423   -0.01161224447277926
-0.13690282112186195   -0.06385419239257423   -0.01161224447277926
-0.13690282112186195   -0.06385419239257423   -0.01161224447277926
-0.13690282112186195   -0.06385419239257423   -0.01161224447277926
-0.06611921939825827   -0.10637435370769967   -0.008584933992982182
-0.06611921939825827   -0.10637435370769967   -0.008584933992982182
-0.06611921939825827   -0.10637435370769967   -0.008584933992982182
-0.06611921939825827   -0.10637435370769967   -0.008584933992982182
-0.05860523952942042   -0.045482967584701564   0.001821345390154102
-0.05860523952942042   -0.045482967584701564   0.001821345390154102
-0.05860523952942042   -0.045482967584701564   0.001821345390154102
-0.05860523952942042   -0.045482967584701564   0.001821345390154102
-0.16317390830327347   -0.12326817835058101   -0.019594571447642362
-0.16317390830327347   -0.12326817835058101   -0.019594571447642362
-0.16317390830327347   -0.12326817835058101   -0.019594571447642362
-0.16317390830327347   -0.12326817835058101   -0.019594571447642362
-0.0971656339056327   -0.07355084238859534   0.01150927172788865
-0.0971656339056327   -0.07355084238859534   0.01150927172788865
-0.0971656339056327   -0.07355084238859534   0.01150927172788865
-0.0971656339056327   -0.07355084238859534   0.01150927172788865
-0.04165834973978852   -0.039423255687333306   0.002889107151977476
-0.04165834973978852   -0.039423255687333306   0.002889107151977476
-0.04165834973978852   -0.039423255687333306   0.002889107151977476
-0.04165834973978852   -0.039423255687333306   0.002889107151977476
-0.026993433332994032   -0.030795029274615332   -0.006823646464279806
-0.026993433332994032   -0.030795029274615332   -0.006823646464279806
-0.026993433332994032   -0.030795029274615332   -0.006823646464279806
-0.026993433332994032   -0.030795029274615332   -0.006823646464279806
-0.025643038940690234   -0.03567575813521344   0.00278780649695313
-0.025643038940690234   -0.03567575813521344   0.00278780649695313
-0.025643038940690234   -0.03567575813521344   0.00278780649695313
-0.025643038940690234   -0.03567575813521344   0.00278780649695313
-0.04762950880135611   -0.0405369774265609   -0.002360469996620533
-0.04762950880135611   -0.0405369774265609   -0.002360469996620533
-0.04762950880135611   -0.0405369774265609   -0.002360469996620533
-0.04762950880135611   -0.0405369774265609   -0.002360469996620533
-0.029779626181882003   -0.030727426425741316   0.012729381008419919
-0.029779626181882003   -0.030727426425741316   0.012729381008419919
-0.029779626181882003   -0.030727426425741316   0.012729381008419919
-0.029779626181882003   -0.030727426425741316   0.012729381008419919
-0.046356936458936925   -0.039735846733725114   0.003201261022639554
-0.046356936458936925   -0.039735846733725114   0.003201261022639554
-0.046356936458936925   -0.039735846733725114   0.003201261022639554
-0.046356936458936925   -0.039735846733725114   0.003201261022639554
-0.027439293709063978   -0.037000571254003474   -0.004868654226125532
-0.027439293709063978   -0.037000571254003474   -0.004868654226125532
-0.027439293709063978   -0.037000571254003474   -0.004868654226125532
-0.027439293709063978   -0.037000571254003474   -0.004868654226125532
-0.02629971997704164   -0.036737529839323525   0.0025385205630573116
-0.02629971997704164   -0.036737529839323525   0.0025385205630573116
-0.02629971997704164   -0.036737529839323525   0.0025385205630573116
-0.02629971997704164   -0.036737529839323525   0.0025385205630573116
-0.05114101379806833   -0.04696144752965007   0.0068931878299178535
-0.05114101379806833   -0.04696144752965007   0.0068931878299178535
-0.05114101379806833   -0.04696144752965007   0.0068931878299178535
-0.05114101379806833   -0.04696144752965007   0.0068931878299178535
-0.03299785978361365   -0.03436234472963866   0.010416122260575733
-0.03299785978361365   -0.03436234472963866   0.010416122260575733
-0.03299785978361365   -0.03436234472963866   0.010416122260575733
-0.03299785978361365   -0.03436234472963866   0.010416122260575733
-0.05051548627112104   -0.041230426353125016   0.004289804288129254
-0.05051548627112104   -0.041230426353125016   0.004289804288129254
-0.05051548627112104   -0.041230426353125016   0.004289804288129254
-0.05051548627112104   -0.041230426353125016   0.004289804288129254
-0.029260397564524337   -0.044803701076383984   -0.004198696137295707
-0.029260397564524337   -0.044803701076383984   -0.004198696137295707
-0.029260397564524337   -0.044803701076383984   -0.004198696137295707
-0.029260397564524337   -0.044803701076383984   -0.004198696137295707
-0.027254972254697994   -0.03784645756888004   0.003620992283041363
-0.027254972254697994   -0.03784645756888004   0.003620992283041363
-0.027254972254697994   -0.03784645756888004   0.003620992283041363
-0.027254972254697994   -0.03784645756888004   0.003620992283041363
-0.06078671880709992   -0.05693787954144454   0.0023688609585005554
-0.06078671880709992   -0.05693787954144454   0.0023688609585005554
-0.06078671880709992   -0.05693787954144454   0.0023688609585005554
-0.06078671880709992   -0.05693787954144454   0.0023688609585005554
-0.037499787493788975   -0.0388775868871661   0.004409418178071504
-0.037499787493788975   -0.0388775868871661   0.004409418178071504
-0.037499787493788975   -0.0388775868871661   0.004409418178071504
-0.037499787493788975   -0.0388775868871661   0.004409418178071504
-0.021098045171856178   -0.015811409842473746   0.007669674909267896
-0.021098045171856178   -0.015811409842473746   0.007669674909267896
-0.021098045171856178   -0.015811409842473746   0.007669674909267896
-0.021098045171856178   -0.015811409842473746   0.007669674909267896
-0.01598260027285122   -0.002572681708466195   -0.0016081886837325259
-0.01598260027285122   -0.002572681708466195   -0.0016081886837325259
-0.01598260027285122   -0.002572681708466195   -0.0016081886837325259
-0.01598260027285122   -0.002572681708466195   -0.0016081886837325259
-0.01508282789622397   -0.017319960278620483   0.004695908625615984
-0.01508282789622397   -0.017319960278620483   0.004695908625615984
-0.01508282789622397   -0.017319960278620483   0.004695908625615984
-0.01508282789622397   -0.017319960278620483   0.004695908625615984
-0.020323160632288253   -0.005798311689195675   -0.0004902484070547179
-0.020323160632288253   -0.005798311689195675   -0.0004902484070547179
-0.020323160632288253   -0.005798311689195675   -0.0004902484070547179
-0.020323160632288253   -0.005798311689195675   -0.0004902484070547179
-0.016693906654268453   -0.009709080451350773   0.003797993126902328
-0.016693906654268453   -0.009709080451350773   0.003797993126902328
-0.016693906654268453   -0.009709080451350773   0.003797993126902328
-0.016693906654268453   -0.009709080451350773   0.003797993126902328
-0.021210666763978127   -0.018024939940195387   0.00729884918549563
-0.021210666763978127   -0.018024939940195387   0.00729884918549563
-0.021210666763978127   -0.018024939940195387   0.00729884918549563
-0.021210666763978127   -0.018024939940195387   0.00729884918549563
-0.013883328099759635   -0.004781338362846312   -0.0018452143078365197
-0.013883328099759635   -0.004781338362846312   -0.0018452143078365197
-0.013883328099759635   -0.004781338362846312   -0.0018452143078365197
-0.013883328099759635   -0.004781338362846312   -0.0018452143078365197
-0.014157849201959201   -0.01884119603021739   0.004389723952258118
-0.014157849201959201   -0.01884119603021739   0.004389723952258118
-0.014157849201959201   -0.01884119603021739   0.004389723952258118
-0.014157849201959201   -0.01884119603021739   0.004389723952258118
-0.020904523438295748   -0.009217867217804631   0.001994840635267889
-0.020904523438295748   -0.009217867217804631   0.001994840635267889
-0.020904523438295748   -0.009217867217804631   0.001994840635267889
-0.020904523438295748   -0.009217867217804631   0.001994840635267889
-0.015735273768246565   -0.011220359197488403   0.004249052551473231
-0.015735273768246565   -0.011220359197488403   0.004249052551473231
-0.015735273768246565   -0.011220359197488403   0.004249052551473231
-0.015735273768246565   -0.011220359197488403   0.004249052551473231
-0.02169054589435384   -0.019546923276427815   0.008393784413600619
-0.02169054589435384   -0.019546923276427815   0.008393784413600619
-0.02169054589435384   -0.019546923276427815   0.008393784413600619
-0.02169054589435384   -0.019546923276427815   0.008393784413600619
-0.013578776515181227   -0.00871908974087432   -0.0028370189031950745
-0.013578776515181227   -0.00871908974087432   -0.0028370189031950745
-0.013578776515181227   -0.00871908974087432   -0.0028370189031950745
-0.013578776515181227   -0.00871908974087432   -0.0028370189031950745
-0.012436681415473981   -0.020526207248644426   0.004877165979926287
-0.012436681415473981   -0.020526207248644426   0.004877165979926287
-0.012436681415473981   -0.020526207248644426   0.004877165979926287
-0.012436681415473981   -0.020526207248644426   0.004877165979926287
-0.02330604890424361   -0.017028135286336673   0.0025472867527699086
-0.02330604890424361   -0.017028135286336673   0.0025472867527699086
-0.02330604890424361   -0.017028135286336673   0.0025472867527699086
-0.02330604890424361   -0.017028135286336673   0.0025472867527699086
-0.015664026884523178   -0.013991198465833195   0.0033366244898447514
-0.015664026884523178   -0.013991198465833195   0.0033366244898447514
-0.015664026884523178   -0.013991198465833195   0.0033366244898447514
-0.015664026884523178   -0.013991198465833195   0.0033366244898447514
-0.014073988995016764   -0.002499568720506635   0.007861754717480195
-0.014073988995016764   -0.002499568720506635   0.007861754717480195
-0.014073988995016764   -0.002499568720506635   0.007861754717480195
-0.014073988995016764   -0.002499568720506635   0.007861754717480195
-0.0033415851719509875   0.0011760178674943785   -0.00015954438496790864
-0.0033415851719509875   0.0011760178674943785   -0.00015954438496790864
-0.0033415851719509875   0.0011760178674943785   -0.00015954438496790864
-0.0033415851719509875   0.0011760178674943785   -0.00015954438496790864
-0.00021341365482626176   -0.0008896192900671668   0.004972149295225901
-0.00021341365482626176   -0.0008896192900671668   0.004972149295225901
-0.00021341365482626176   -0.0008896192900671668   0.004972149295225901
-0.00021341365482626176   -0.0008896192900671668   0.004972149295225901
-0.012499675984802542   0.0005739794904434845   -0.0002822715863408544
-0.012499675984802542   0.0005739794904434845   -0.0002822715863408544
-0.012499675984802542   0.0005739794904434845   -0.0002822715863408544
-0.012499675984802542   0.0005739794904434845   -0.0002822715863408544
-0.007608331029949493   -0.0006691437175831145   -0.0005137675318818792
-0.007608331029949493   -0.0006691437175831145   -0.0005137675318818792
-0.007608331029949493   -0.0006691437175831145   -0.0005137675318818792
-0.007608331029949493   -0.0006691437175831145   -0.0005137675318818792
-0.011412195467207203   -0.0024816528443105585   0.008210763336389884
-0.011412195467207203   -0.0024816528443105585   0.008210763336389884
-0.011412195467207203   -0.0024816528443105585   0.008210763336389884
-0.011412195467207203   -0.0024816528443105585   0.008210763336389884
-0.000901936105502449   0.002564971111606028   -0.0019250533598282305
-0.000901936105502449   0.002564971111606028   -0.0019250533598282305
-0.000901936105502449   0.002564971111606028   -0.0019250533598282305
-0.000901936105502449   0.002564971111606028   -0.0019250533598282305
0.0011526086252738306   -0.0011426533435213784   0.00614832706939883
0.0011526086252738306   -0.0011426533435213784   0.00614832706939883
0.0011526086252738306   -0.0011426533435213784   0.00614832706939883
0.0011526086252738306   -0.0011426533435213784   0.00614832706939883
-0.011339603390822328   1.6632226004069123e-05   -0.00037687524827897
-0.011339603390822328   1.6632226004069123e-05   -0.00037687524827897
-0.011339603390822328   1.6632226004069123e-05   -0.00037687524827897
-0.011339603390822328   1.6632226004069123e-05   -0.00037687524827897
-0.005519132463057395   -0.00036964079063677585   0.0006820972873402817
-0.005519132463057395   -0.00036964079063677585   0.0006820972873402817
-0.005519132463057395   -0.00036964079063677585   0.0006820972873402817
-0.005519132463057395   -0.00036964079063677585   0.0006820972873402817
-0.010056476643104252   -0.0028358813898447218   0.008891272106160196
-0.010056476643104252   -0.0028358813898447218   0.008891272106160196
-0.010056476643104252   -0.0028358813898447218   0.008891272106160196
-0.010056476643104252   -0.0028358813898447218   0.008891272106160196
0.0001897440123128268   0.002030122407084484   -0.001838771746012051
0.0001897440123128268   0.002030122407084484   -0.001838771746012051
0.0001897440123128268   0.002030122407084484   -0.001838771746012051
0.0001897440123128268   0.002030122407084484   -0.001838771746012051
0.0023523182069729604   -0.0019465761425636122   0.006048593706260576
0.0023523182069729604   -0.0019465761425636122   0.006048593706260576
0.0023523182069729604   -0.0019465761425636122   0.006048593706260576
0.0023523182069729604   -0.0019465761425636122   0.006048593706260576
-0.009498349061931893   -0.0005668866971977843   -0.0003904928038099128
-0.009498349061931893   -0.0005668866971977843   -0.0003904928038099128
-0.009498349061931893   -0.0005668866971977843   -0.0003904928038099128
-0.009498349061931893   -0.0005668866971977843   -0.0003904928038099128
-0.003730909840004362   -0.00031743081901679666   0.001626655648837594
-0.003730909840004362   -0.00031743081901679666   0.001626655648837594
-0.003730909840004362   -0.00031743081901679666   0.001626655648837594
-0.003730909840004362   -0.00031743081901679666   0.001626655648837594
              </DataArray>   
             <DataArray type="Float64" NumberOfComponents="3" Name="Displacements" format="ascii">   
0.0   0.0   0.0
-0.0012764379319285522   -0.0008472885273222386   -0.00042820432395450565
0.0   0.0   0.0
0.0   0.0   0.0
-0.0012764379319285522   -0.0008472885273222386   -0.00042820432395450565
-0.0008112765137483082   -0.0007632067323966373   -0.00031471834524170525
0.0   0.0   0.0
-0.0007945801714610811   -0.0008009323085241696   -0.0002638752789495225
0.0   0.0   0.0
0.0   0.0   0.0
-0.0007945801714610811   -0.0008009323085241696   -0.0002638752789495225
0.0   0.0   0.0
0.0   0.0   0.0
-0.0007945801714610811   -0.0008009323085241696   -0.0002638752789495225
-0.0013350465400415298   -0.0009021978842275426   -0.00034410226122319395
-0.0012764379319285522   -0.0008472885273222386   -0.00042820432395450565
0.0   0.0   0.0
-0.0007945801714610811   -0.0008009323085241696   -0.0002638752789495225
-0.0012764379319285522   -0.0008472885273222386   -0.00042820432395450565
0.0   0.0   0.0
0.0   0.0   0.0
-0.0013350465400415298   -0.0009021978842275426   -0.00034410226122319395
0.0   0.0   0.0
0.0   0.0   0.0
-0.0013350465400415298   -0.0009021978842275426   -0.00034410226122319395
-0.0007945801714610811   -0.0008009323085241696   -0.0002638752789495225
0.0   0.0   0.0
-0.0007961160905698212   -0.0008203465751508997   -0.00021318582121914012
0.0   0.0   0.0
0.0   0.0   0.0
-0.0007961160905698212   -0.0008203465751508997   -0.00021318582121914012
0.0   0.0   0.0
0.0   0.0   0.0
-0.0007961160905698212   -0.0008203465751508997   -0.00021318582121914012
-0.0013758831684198788   -0.0009289362856759462   -0.00026367195005790094
-0.0013350465400415298   -0.0009021978842275426   -0.00034410226122319395
0.0   0.0   0.0
-0.0007961160905698212   -0.0008203465751508997   -0.00021318582121914012
-0.0013350465400415298   -0.0009021978842275426   -0.00034410226122319395
0.0   0.0   0.0
0.0   0.0   0.0
-0.0013758831684198788   -0.0009289362856759462   -0.00026367195005790094
0.0   0.0   0.0
0.0   0.0   0.0
-0.0013758831684198788   -0.0009289362856759462   -0.00026367195005790094
-0.0007961160905698212   -0.0008203465751508997   -0.00021318582121914012
0.0   0.0   0.0
-0.0007949029728295468   -0.000825446428645102   -0.00016087246840001856
0.0   0.0   0.0
0.0   0.0   0.0
-0.0007949029728295468   -0.000825446428645102   -0.00016087246840001856
0.0   0.0   0.0
0.0   0.0   0.0
-0.0007949029728295468   -0.000825446428645102   -0.00016087246840001856
-0.0014645560896721541   -0.0009494612270775489   -0.0001704605945069009
-0.0013758831684198788   -0.0009289362856759462   -0.00026367195005790094
0.0   0.0   0.0
-0.0007949029728295468   -0.000825446428645102   -0.00016087246840001856
-0.0013758831684198788   -0.0009289362856759462   -0.00026367195005790094
0.0   0.0   0.0
0.0   0.0   0.0
-0.0008112765137483082   -0.0007632067323966373   -0.00031471834524170525
0.0   0.0   0.0
0.0   0.0   0.0
-0.0008112765137483082   -0.0007632067323966373   -0.00031471834524170525
-0.0003702749203270504   -0.0007325156876433799   -0.00023968362633721915
0.0   0.0   0.0
-0.0003554381208044357   -0.0007569870372858397   -0.0002155962195978612
0.0   0.0   0.0
0.0   0.0   0.0
-0.0003554381208044357   -0.0007569870372858397   -0.0002155962195978612
0.0   0.0   0.0
0.0   0.0   0.0
-0.0003554381208044357   -0.0007569870372858397   -0.0002155962195978612
-0.0007945801714610811   -0.0008009323085241696   -0.0002638752789495225
-0.0008112765137483082   -0.0007632067323966373   -0.00031471834524170525
0.0   0.0   0.0
-0.0003554381208044357   -0.0007569870372858397   -0.0002155962195978612
-0.0008112765137483082   -0.0007632067323966373   -0.00031471834524170525
0.0   0.0   0.0
0.0   0.0   0.0
-0.0007945801714610811   -0.0008009323085241696   -0.0002638752789495225
0.0   0.0   0.0
0.0   0.0   0.0
-0.0007945801714610811   -0.0008009323085241696   -0.0002638752789495225
-0.0003554381208044357   -0.0007569870372858397   -0.0002155962195978612
0.0   0.0   0.0
-0.0003468171566193895   -0.000766343484658541   -0.0001922170147552015
0.0   0.0   0.0
0.0   0.0   0.0
-0.0003468171566193895   -0.000766343484658541   -0.0001922170147552015
0.0   0.0   0.0
0.0   0.0   0.0
-0.0003468171566193895   -0.000766343484658541   -0.0001922170147552015
-0.0007961160905698212   -0.0008203465751508997   -0.00021318582121914012
-0.0007945801714610811   -0.0008009323085241696   -0.0002638752789495225
0.0   0.0   0.0
-0.0003468171566193895   -0.000766343484658541   -0.0001922170147552015
-0.0007945801714610811   -0.0008009323085241696   -0.0002638752789495225
0.0   0.0   0.0
0.0   0.0   0.0
-0.0007961160905698212   -0.0008203465751508997   -0.00021318582121914012
0.0   0.0   0.0
0.0   0.0   0.0
-0.0007961160905698212   -0.0008203465751508997   -0.00021318582121914012
-0.0003468171566193895   -0.000766343484658541   -0.0001922170147552015
0.0   0.0   0.0
-0.00033885064174034665   -0.000762507203930977   -0.00016812973519707343
0.0   0.0   0.0
0.0   0.0   0.0
-0.00033885064174034665   -0.000762507203930977   -0.00016812973519707343
0.0   0.0   0.0
0.0   0.0   0.0
-0.00033885064174034665   -0.000762507203930977   -0.00016812973519707343
-0.0007949029728295468   -0.000825446428645102   -0.00016087246840001856
-0.0007961160905698212   -0.0008203465751508997   -0.00021318582121914012
0.0   0.0   0.0
-0.00033885064174034665   -0.000762507203930977   -0.00016812973519707343
-0.0007961160905698212   -0.0008203465751508997   -0.00021318582121914012
0.0   0.0   0.0
0.0   0.0   0.0
-0.0003702749203270504   -0.0007325156876433799   -0.00023968362633721915
0.0   0.0   0.0
0.0   0.0   0.0
-0.0003702749203270504   -0.0007325156876433799   -0.00023968362633721915
4.578627773137409e-05   -0.0007365581891370964   -0.0001920754071242006
0.0   0.0   0.0
5.558336039185728e-05   -0.0007491476518938314   -0.00019520501151185475
0.0   0.0   0.0
0.0   0.0   0.0
5.558336039185728e-05   -0.0007491476518938314   -0.00019520501151185475
0.0   0.0   0.0
0.0   0.0   0.0
5.558336039185728e-05   -0.0007491476518938314   -0.00019520501151185475
-0.0003554381208044357   -0.0007569870372858397   -0.0002155962195978612
-0.0003702749203270504   -0.0007325156876433799   -0.00023968362633721915
0.0   0.0   0.0
5.558336039185728e-05   -0.0007491476518938314   -0.00019520501151185475
-0.0003702749203270504   -0.0007325156876433799   -0.00023968362633721915
0.0   0.0   0.0
0.0   0.0   0.0
-0.0003554381208044357   -0.0007569870372858397   -0.0002155962195978612
0.0   0.0   0.0
0.0   0.0   0.0
-0.0003554381208044357   -0.0007569870372858397   -0.0002155962195978612
5.558336039185728e-05   -0.0007491476518938314   -0.00019520501151185475
0.0   0.0   0.0
6.340901371598664e-05   -0.0007480217486929674   -0.00019810023203462122
0.0   0.0   0.0
0.0   0.0   0.0
6.340901371598664e-05   -0.0007480217486929674   -0.00019810023203462122
0.0   0.0   0.0
0.0   0.0   0.0
6.340901371598664e-05   -0.0007480217486929674   -0.00019810023203462122
-0.0003468171566193895   -0.000766343484658541   -0.0001922170147552015
-0.0003554381208044357   -0.0007569870372858397   -0.0002155962195978612
0.0   0.0   0.0
6.340901371598664e-05   -0.0007480217486929674   -0.00019810023203462122
-0.0003554381208044357   -0.0007569870372858397   -0.0002155962195978612
0.0   0.0   0.0
0.0   0.0   0.0
-0.0003468171566193895   -0.000766343484658541   -0.0001922170147552015
0.0   0.0   0.0
0.0   0.0   0.0
-0.0003468171566193895   -0.000766343484658541   -0.0001922170147552015
6.340901371598664e-05   -0.0007480217486929674   -0.00019810023203462122
0.0   0.0   0.0
7.370445931889455e-05   -0.0007320693823026346   -0.00020115841081029572
0.0   0.0   0.0
0.0   0.0   0.0
7.370445931889455e-05   -0.0007320693823026346   -0.00020115841081029572
0.0   0.0   0.0
0.0   0.0   0.0
7.370445931889455e-05   -0.0007320693823026346   -0.00020115841081029572
-0.00033885064174034665   -0.000762507203930977   -0.00016812973519707343
-0.0003468171566193895   -0.000766343484658541   -0.0001922170147552015
0.0   0.0   0.0
7.370445931889455e-05   -0.0007320693823026346   -0.00020115841081029572
-0.0003468171566193895   -0.000766343484658541   -0.0001922170147552015
0.0   0.0   0.0
0.0   0.0   0.0
4.578627773137409e-05   -0.0007365581891370964   -0.0001920754071242006
0.0   0.0   0.0
0.0   0.0   0.0
4.578627773137409e-05   -0.0007365581891370964   -0.0001920754071242006
0.0004980141563257506   -0.0007716076019920884   -0.00016880155743751195
0.0   0.0   0.0
0.000499777634532886   -0.0007754510501500165   -0.00020057596913505217
0.0   0.0   0.0
0.0   0.0   0.0
0.000499777634532886   -0.0007754510501500165   -0.00020057596913505217
0.0   0.0   0.0
0.0   0.0   0.0
0.000499777634532886   -0.0007754510501500165   -0.00020057596913505217
5.558336039185728e-05   -0.0007491476518938314   -0.00019520501151185475
4.578627773137409e-05   -0.0007365581891370964   -0.0001920754071242006
0.0   0.0   0.0
0.000499777634532886   -0.0007754510501500165   -0.00020057596913505217
4.578627773137409e-05   -0.0007365581891370964   -0.0001920754071242006
0.0   0.0   0.0
0.0   0.0   0.0
5.558336039185728e-05   -0.0007491476518938314   -0.00019520501151185475
0.0   0.0   0.0
0.0   0.0   0.0
5.558336039185728e-05   -0.0007491476518938314   -0.00019520501151185475
0.000499777634532886   -0.0007754510501500165   -0.00020057596913505217
0.0   0.0   0.0
0.0004983937387066348   -0.0007643841915157074   -0.00023115676665086632
0.0   0.0   0.0
0.0   0.0   0.0
0.0004983937387066348   -0.0007643841915157074   -0.00023115676665086632
0.0   0.0   0.0
0.0   0.0   0.0
0.0004983937387066348   -0.0007643841915157074   -0.00023115676665086632
6.340901371598664e-05   -0.0007480217486929674   -0.00019810023203462122
5.558336039185728e-05   -0.0007491476518938314   -0.00019520501151185475
0.0   0.0   0.0
0.0004983937387066348   -0.0007643841915157074   -0.00023115676665086632
5.558336039185728e-05   -0.0007491476518938314   -0.00019520501151185475
0.0   0.0   0.0
0.0   0.0   0.0
6.340901371598664e-05   -0.0007480217486929674   -0.00019810023203462122
0.0   0.0   0.0
0.0   0.0   0.0
6.340901371598664e-05   -0.0007480217486929674   -0.00019810023203462122
0.0004983937387066348   -0.0007643841915157074   -0.00023115676665086632
0.0   0.0   0.0
0.0005087730979834586   -0.0007351010634997192   -0.0002612336421225662
0.0   0.0   0.0
0.0   0.0   0.0
0.0005087730979834586   -0.0007351010634997192   -0.0002612336421225662
0.0   0.0   0.0
0.0   0.0   0.0
0.0005087730979834586   -0.0007351010634997192   -0.0002612336421225662
7.370445931889455e-05   -0.0007320693823026346   -0.00020115841081029572
6.340901371598664e-05   -0.0007480217486929674   -0.00019810023203462122
0.0   0.0   0.0
0.0005087730979834586   -0.0007351010634997192   -0.0002612336421225662
6.340901371598664e-05   -0.0007480217486929674   -0.00019810023203462122
0.0   0.0   0.0
0.0   0.0   0.0
0.0004980141563257506   -0.0007716076019920884   -0.00016880155743751195
0.0   0.0   0.0
0.0   0.0   0.0
0.0004980141563257506   -0.0007716076019920884   -0.00016880155743751195
0.001128980004777157   -0.000860812070188154   -0.00015995672974734176
0.0   0.0   0.0
0.0010614347787784007   -0.0008510716393990228   -0.0002322751056497365
0.0   0.0   0.0
0.0   0.0   0.0
0.0010614347787784007   -0.0008510716393990228   -0.0002322751056497365
0.0   0.0   0.0
0.0   0.0   0.0
0.0010614347787784007   -0.0008510716393990228   -0.0002322751056497365
0.000499777634532886   -0.0007754510501500165   -0.00020057596913505217
0.0004980141563257506   -0.0007716076019920884   -0.00016880155743751195
0.0   0.0   0.0
0.0010614347787784007   -0.0008510716393990228   -0.0002322751056497365
0.0004980141563257506   -0.0007716076019920884   -0.00016880155743751195
0.0   0.0   0.0
0.0   0.0   0.0
0.000499777634532886   -0.0007754510501500165   -0.00020057596913505217
0.0   0.0   0.0
0.0   0.0   0.0
0.000499777634532886   -0.0007754510501500165   -0.00020057596913505217
0.0010614347787784007   -0.0008510716393990228   -0.0002322751056497365
0.0   0.0   0.0
0.0010306287135292526   -0.0008333856878841566   -0.00029350792395002574
0.0   0.0   0.0
0.0   0.0   0.0
0.0010306287135292526   -0.0008333856878841566   -0.00029350792395002574
0.0   0.0   0.0
0.0   0.0   0.0
0.0010306287135292526   -0.0008333856878841566   -0.00029350792395002574
0.0004983937387066348   -0.0007643841915157074   -0.00023115676665086632
0.000499777634532886   -0.0007754510501500165   -0.00020057596913505217
0.0   0.0   0.0
0.0010306287135292526   -0.0008333856878841566   -0.00029350792395002574
0.000499777634532886   -0.0007754510501500165   -0.00020057596913505217
0.0   0.0   0.0
0.0   0.0   0.0
0.0004983937387066348   -0.0007643841915157074   -0.00023115676665086632
0.0   0.0   0.0
0.0   0.0   0.0
0.0004983937387066348   -0.0007643841915157074   -0.00023115676665086632
0.0010306287135292526   -0.0008333856878841566   -0.00029350792395002574
0.0   0.0   0.0
0.000984238341304933   -0.0007884036717046703   -0.0003584786898289467
0.0   0.0   0.0
0.0   0.0   0.0
0.000984238341304933   -0.0007884036717046703   -0.0003584786898289467
0.0   0.0   0.0
0.0   0.0   0.0
0.000984238341304933   -0.0007884036717046703   -0.0003584786898289467
0.0005087730979834586   -0.0007351010634997192   -0.0002612336421225662
0.0004983937387066348   -0.0007643841915157074   -0.00023115676665086632
0.0   0.0   0.0
0.000984238341304933   -0.0007884036717046703   -0.0003584786898289467
0.0004983937387066348   -0.0007643841915157074   -0.00023115676665086632
0.0   0.0   0.0
-0.0012764379319285522   -0.0008472885273222386   -0.00042820432395450565
-0.0023768518861437752   -0.002350929114066972   -0.0005772577030829019
-0.0008112765137483082   -0.0007632067323966373   -0.00031471834524170525
-0.0013350465400415298   -0.0009021978842275426   -0.00034410226122319395
-0.0023768518861437752   -0.002350929114066972   -0.0005772577030829019
-0.00151671905914542   -0.0022755728951999307   -0.0004758965260930409
-0.0008112765137483082   -0.0007632067323966373   -0.00031471834524170525
-0.0015173936094019739   -0.0023140281205004808   -0.00042906451493550314
-0.0013350465400415298   -0.0009021978842275426   -0.00034410226122319395
-0.0007945801714610811   -0.0008009323085241696   -0.0002638752789495225
-0.0015173936094019739   -0.0023140281205004808   -0.00042906451493550314
-0.0008112765137483082   -0.0007632067323966373   -0.00031471834524170525
-0.0013350465400415298   -0.0009021978842275426   -0.00034410226122319395
-0.0015173936094019739   -0.0023140281205004808   -0.00042906451493550314
-0.0024465802356701196   -0.0024047066552050815   -0.0005013781245285109
-0.0023768518861437752   -0.002350929114066972   -0.0005772577030829019
-0.0013350465400415298   -0.0009021978842275426   -0.00034410226122319395
-0.0015173936094019739   -0.0023140281205004808   -0.00042906451493550314
-0.0023768518861437752   -0.002350929114066972   -0.0005772577030829019
-0.0008112765137483082   -0.0007632067323966373   -0.00031471834524170525
-0.0013350465400415298   -0.0009021978842275426   -0.00034410226122319395
-0.0024465802356701196   -0.0024047066552050815   -0.0005013781245285109
-0.0007945801714610811   -0.0008009323085241696   -0.0002638752789495225
-0.0013758831684198788   -0.0009289362856759462   -0.00026367195005790094
-0.0024465802356701196   -0.0024047066552050815   -0.0005013781245285109
-0.0015173936094019739   -0.0023140281205004808   -0.00042906451493550314
-0.0007945801714610811   -0.0008009323085241696   -0.0002638752789495225
-0.0015221689291057435   -0.0023375733421953267   -0.0003841336592295742
-0.0013758831684198788   -0.0009289362856759462   -0.00026367195005790094
-0.0007961160905698212   -0.0008203465751508997   -0.00021318582121914012
-0.0015221689291057435   -0.0023375733421953267   -0.0003841336592295742
-0.0007945801714610811   -0.0008009323085241696   -0.0002638752789495225
-0.0013758831684198788   -0.0009289362856759462   -0.00026367195005790094
-0.0015221689291057435   -0.0023375733421953267   -0.0003841336592295742
-0.002494555472172784   -0.002435176308428669   -0.00042717959338006917
-0.0024465802356701196   -0.0024047066552050815   -0.0005013781245285109
-0.0013758831684198788   -0.0009289362856759462   -0.00026367195005790094
-0.0015221689291057435   -0.0023375733421953267   -0.0003841336592295742
-0.0024465802356701196   -0.0024047066552050815   -0.0005013781245285109
-0.0007945801714610811   -0.0008009323085241696   -0.0002638752789495225
-0.0013758831684198788   -0.0009289362856759462   -0.00026367195005790094
-0.002494555472172784   -0.002435176308428669   -0.00042717959338006917
-0.0007961160905698212   -0.0008203465751508997   -0.00021318582121914012
-0.0014645560896721541   -0.0009494612270775489   -0.0001704605945069009
-0.002494555472172784   -0.002435176308428669   -0.00042717959338006917
-0.0015221689291057435   -0.0023375733421953267   -0.0003841336592295742
-0.0007961160905698212   -0.0008203465751508997   -0.00021318582121914012
-0.001516388350307751   -0.0023499622202766677   -0.0003421495401658937
-0.0014645560896721541   -0.0009494612270775489   -0.0001704605945069009
-0.0007949029728295468   -0.000825446428645102   -0.00016087246840001856
-0.001516388350307751   -0.0023499622202766677   -0.0003421495401658937
-0.0007961160905698212   -0.0008203465751508997   -0.00021318582121914012
-0.0014645560896721541   -0.0009494612270775489   -0.0001704605945069009
-0.001516388350307751   -0.0023499622202766677   -0.0003421495401658937
-0.0025512090957060794   -0.0024531968397699176   -0.00035983416775884605
-0.002494555472172784   -0.002435176308428669   -0.00042717959338006917
-0.0014645560896721541   -0.0009494612270775489   -0.0001704605945069009
-0.001516388350307751   -0.0023499622202766677   -0.0003421495401658937
-0.002494555472172784   -0.002435176308428669   -0.00042717959338006917
-0.0007961160905698212   -0.0008203465751508997   -0.00021318582121914012
-0.0008112765137483082   -0.0007632067323966373   -0.00031471834524170525
-0.00151671905914542   -0.0022755728951999307   -0.0004758965260930409
-0.0003702749203270504   -0.0007325156876433799   -0.00023968362633721915
-0.0007945801714610811   -0.0008009323085241696   -0.0002638752789495225
-0.00151671905914542   -0.0022755728951999307   -0.0004758965260930409
-0.0007056892782566206   -0.002240500417671152   -0.0004068101850031336
-0.0003702749203270504   -0.0007325156876433799   -0.00023968362633721915
-0.0006984631543167239   -0.0022648712817804513   -0.00038270622503687874
-0.0007945801714610811   -0.0008009323085241696   -0.0002638752789495225
-0.0003554381208044357   -0.0007569870372858397   -0.0002155962195978612
-0.0006984631543167239   -0.0022648712817804513   -0.00038270622503687874
-0.0003702749203270504   -0.0007325156876433799   -0.00023968362633721915
-0.0007945801714610811   -0.0008009323085241696   -0.0002638752789495225
-0.0006984631543167239   -0.0022648712817804513   -0.00038270622503687874
-0.0015173936094019739   -0.0023140281205004808   -0.00042906451493550314
-0.00151671905914542   -0.0022755728951999307   -0.0004758965260930409
-0.0007945801714610811   -0.0008009323085241696   -0.0002638752789495225
-0.0006984631543167239   -0.0022648712817804513   -0.00038270622503687874
-0.00151671905914542   -0.0022755728951999307   -0.0004758965260930409
-0.0003702749203270504   -0.0007325156876433799   -0.00023968362633721915
-0.0007945801714610811   -0.0008009323085241696   -0.0002638752789495225
-0.0015173936094019739   -0.0023140281205004808   -0.00042906451493550314
-0.0003554381208044357   -0.0007569870372858397   -0.0002155962195978612
-0.0007961160905698212   -0.0008203465751508997   -0.00021318582121914012
-0.0015173936094019739   -0.0023140281205004808   -0.00042906451493550314
-0.0006984631543167239   -0.0022648712817804513   -0.00038270622503687874
-0.0003554381208044357   -0.0007569870372858397   -0.0002155962195978612
-0.0006919314684824564   -0.0022767298827091375   -0.00036090422374324973
-0.0007961160905698212   -0.0008203465751508997   -0.00021318582121914012
-0.0003468171566193895   -0.000766343484658541   -0.0001922170147552015
-0.0006919314684824564   -0.0022767298827091375   -0.00036090422374324973
-0.0003554381208044357   -0.0007569870372858397   -0.0002155962195978612
-0.0007961160905698212   -0.0008203465751508997   -0.00021318582121914012
-0.0006919314684824564   -0.0022767298827091375   -0.00036090422374324973
-0.0015221689291057435   -0.0023375733421953267   -0.0003841336592295742
-0.0015173936094019739   -0.0023140281205004808   -0.00042906451493550314
-0.0007961160905698212   -0.0008203465751508997   -0.00021318582121914012
-0.0006919314684824564   -0.0022767298827091375   -0.00036090422374324973
-0.0015173936094019739   -0.0023140281205004808   -0.00042906451493550314
-0.0003554381208044357   -0.0007569870372858397   -0.0002155962195978612
-0.0007961160905698212   -0.0008203465751508997   -0.00021318582121914012
-0.0015221689291057435   -0.0023375733421953267   -0.0003841336592295742
-0.0003468171566193895   -0.000766343484658541   -0.0001922170147552015
-0.0007949029728295468   -0.000825446428645102   -0.00016087246840001856
-0.0015221689291057435   -0.0023375733421953267   -0.0003841336592295742
-0.0006919314684824564   -0.0022767298827091375   -0.00036090422374324973
-0.0003468171566193895   -0.000766343484658541   -0.0001922170147552015
-0.0006827150921753126   -0.0022765203372424143   -0.000341980744163866
-0.0007949029728295468   -0.000825446428645102   -0.00016087246840001856
-0.00033885064174034665   -0.000762507203930977   -0.00016812973519707343
-0.0006827150921753126   -0.0022765203372424143   -0.000341980744163866
-0.0003468171566193895   -0.000766343484658541   -0.0001922170147552015
-0.0007949029728295468   -0.000825446428645102   -0.00016087246840001856
-0.0006827150921753126   -0.0022765203372424143   -0.000341980744163866
-0.001516388350307751   -0.0023499622202766677   -0.0003421495401658937
-0.0015221689291057435   -0.0023375733421953267   -0.0003841336592295742
-0.0007949029728295468   -0.000825446428645102   -0.00016087246840001856
-0.0006827150921753126   -0.0022765203372424143   -0.000341980744163866
-0.0015221689291057435   -0.0023375733421953267   -0.0003841336592295742
-0.0003468171566193895   -0.000766343484658541   -0.0001922170147552015
-0.0003702749203270504   -0.0007325156876433799   -0.00023968362633721915
-0.0007056892782566206   -0.002240500417671152   -0.0004068101850031336
4.578627773137409e-05   -0.0007365581891370964   -0.0001920754071242006
-0.0003554381208044357   -0.0007569870372858397   -0.0002155962195978612
-0.0007056892782566206   -0.002240500417671152   -0.0004068101850031336
7.566341683754172e-05   -0.002241612922108534   -0.00036338785561298715
4.578627773137409e-05   -0.0007365581891370964   -0.0001920754071242006
8.434744254229103e-05   -0.002252994007103127   -0.0003615813297345923
-0.0003554381208044357   -0.0007569870372858397   -0.0002155962195978612
5.558336039185728e-05   -0.0007491476518938314   -0.00019520501151185475
8.434744254229103e-05   -0.002252994007103127   -0.0003615813297345923
4.578627773137409e-05   -0.0007365581891370964   -0.0001920754071242006
-0.0003554381208044357   -0.0007569870372858397   -0.0002155962195978612
8.434744254229103e-05   -0.002252994007103127   -0.0003615813297345923
-0.0006984631543167239   -0.0022648712817804513   -0.00038270622503687874
-0.0007056892782566206   -0.002240500417671152   -0.0004068101850031336
-0.0003554381208044357   -0.0007569870372858397   -0.0002155962195978612
8.434744254229103e-05   -0.002252994007103127   -0.0003615813297345923
-0.0007056892782566206   -0.002240500417671152   -0.0004068101850031336
4.578627773137409e-05   -0.0007365581891370964   -0.0001920754071242006
-0.0003554381208044357   -0.0007569870372858397   -0.0002155962195978612
-0.0006984631543167239   -0.0022648712817804513   -0.00038270622503687874
5.558336039185728e-05   -0.0007491476518938314   -0.00019520501151185475
-0.0003468171566193895   -0.000766343484658541   -0.0001922170147552015
-0.0006984631543167239   -0.0022648712817804513   -0.00038270622503687874
8.434744254229103e-05   -0.002252994007103127   -0.0003615813297345923
5.558336039185728e-05   -0.0007491476518938314   -0.00019520501151185475
9.055182328364194e-05   -0.0022521521843185508   -0.0003623831567948239
-0.0003468171566193895   -0.000766343484658541   -0.0001922170147552015
6.340901371598664e-05   -0.0007480217486929674   -0.00019810023203462122
9.055182328364194e-05   -0.0022521521843185508   -0.0003623831567948239
5.558336039185728e-05   -0.0007491476518938314   -0.00019520501151185475
-0.0003468171566193895   -0.000766343484658541   -0.0001922170147552015
9.055182328364194e-05   -0.0022521521843185508   -0.0003623831567948239
-0.0006919314684824564   -0.0022767298827091375   -0.00036090422374324973
-0.0006984631543167239   -0.0022648712817804513   -0.00038270622503687874
-0.0003468171566193895   -0.000766343484658541   -0.0001922170147552015
9.055182328364194e-05   -0.0022521521843185508   -0.0003623831567948239
-0.0006984631543167239   -0.0022648712817804513   -0.00038270622503687874
5.558336039185728e-05   -0.0007491476518938314   -0.00019520501151185475
-0.0003468171566193895   -0.000766343484658541   -0.0001922170147552015
-0.0006919314684824564   -0.0022767298827091375   -0.00036090422374324973
6.340901371598664e-05   -0.0007480217486929674   -0.00019810023203462122
-0.00033885064174034665   -0.000762507203930977   -0.00016812973519707343
-0.0006919314684824564   -0.0022767298827091375   -0.00036090422374324973
9.055182328364194e-05   -0.0022521521843185508   -0.0003623831567948239
6.340901371598664e-05   -0.0007480217486929674   -0.00019810023203462122
9.712340305284301e-05   -0.0022387200204729302   -0.0003658331465554715
-0.00033885064174034665   -0.000762507203930977   -0.00016812973519707343
7.370445931889455e-05   -0.0007320693823026346   -0.00020115841081029572
9.712340305284301e-05   -0.0022387200204729302   -0.0003658331465554715
6.340901371598664e-05   -0.0007480217486929674   -0.00019810023203462122
-0.00033885064174034665   -0.000762507203930977   -0.00016812973519707343
9.712340305284301e-05   -0.0022387200204729302   -0.0003658331465554715
-0.0006827150921753126   -0.0022765203372424143   -0.000341980744163866
-0.0006919314684824564   -0.0022767298827091375   -0.00036090422374324973
-0.00033885064174034665   -0.000762507203930977   -0.00016812973519707343
9.712340305284301e-05   -0.0022387200204729302   -0.0003658331465554715
-0.0006919314684824564   -0.0022767298827091375   -0.00036090422374324973
6.340901371598664e-05   -0.0007480217486929674   -0.00019810023203462122
4.578627773137409e-05   -0.0007365581891370964   -0.0001920754071242006
7.566341683754172e-05   -0.002241612922108534   -0.00036338785561298715
0.0004980141563257506   -0.0007716076019920884   -0.00016880155743751195
5.558336039185728e-05   -0.0007491476518938314   -0.00019520501151185475
7.566341683754172e-05   -0.002241612922108534   -0.00036338785561298715
0.0009043104987575028   -0.0022776265061089118   -0.00034353923840285076
0.0004980141563257506   -0.0007716076019920884   -0.00016880155743751195
0.0009098755173169172   -0.002277157754356504   -0.00036474529634271185
5.558336039185728e-05   -0.0007491476518938314   -0.00019520501151185475
0.000499777634532886   -0.0007754510501500165   -0.00020057596913505217
0.0009098755173169172   -0.002277157754356504   -0.00036474529634271185
0.0004980141563257506   -0.0007716076019920884   -0.00016880155743751195
5.558336039185728e-05   -0.0007491476518938314   -0.00019520501151185475
0.0009098755173169172   -0.002277157754356504   -0.00036474529634271185
8.434744254229103e-05   -0.002252994007103127   -0.0003615813297345923
7.566341683754172e-05   -0.002241612922108534   -0.00036338785561298715
5.558336039185728e-05   -0.0007491476518938314   -0.00019520501151185475
0.0009098755173169172   -0.002277157754356504   -0.00036474529634271185
7.566341683754172e-05   -0.002241612922108534   -0.00036338785561298715
0.0004980141563257506   -0.0007716076019920884   -0.00016880155743751195
5.558336039185728e-05   -0.0007491476518938314   -0.00019520501151185475
8.434744254229103e-05   -0.002252994007103127   -0.0003615813297345923
0.000499777634532886   -0.0007754510501500165   -0.00020057596913505217
6.340901371598664e-05   -0.0007480217486929674   -0.00019810023203462122
8.434744254229103e-05   -0.002252994007103127   -0.0003615813297345923
0.0009098755173169172   -0.002277157754356504   -0.00036474529634271185
0.000499777634532886   -0.0007754510501500165   -0.00020057596913505217
0.0009069590460262837   -0.002264738026407283   -0.00038890145559683574
6.340901371598664e-05   -0.0007480217486929674   -0.00019810023203462122
0.0004983937387066348   -0.0007643841915157074   -0.00023115676665086632
0.0009069590460262837   -0.002264738026407283   -0.00038890145559683574
0.000499777634532886   -0.0007754510501500165   -0.00020057596913505217
6.340901371598664e-05   -0.0007480217486929674   -0.00019810023203462122
0.0009069590460262837   -0.002264738026407283   -0.00038890145559683574
9.055182328364194e-05   -0.0022521521843185508   -0.0003623831567948239
8.434744254229103e-05   -0.002252994007103127   -0.0003615813297345923
6.340901371598664e-05   -0.0007480217486929674   -0.00019810023203462122
0.0009069590460262837   -0.002264738026407283   -0.00038890145559683574
8.434744254229103e-05   -0.002252994007103127   -0.0003615813297345923
0.000499777634532886   -0.0007754510501500165   -0.00020057596913505217
6.340901371598664e-05   -0.0007480217486929674   -0.00019810023203462122
9.055182328364194e-05   -0.0022521521843185508   -0.0003623831567948239
0.0004983937387066348   -0.0007643841915157074   -0.00023115676665086632
7.370445931889455e-05   -0.0007320693823026346   -0.00020115841081029572
9.055182328364194e-05   -0.0022521521843185508   -0.0003623831567948239
0.0009069590460262837   -0.002264738026407283   -0.00038890145559683574
0.0004983937387066348   -0.0007643841915157074   -0.00023115676665086632
0.0009057549225619398   -0.002237022374322686   -0.0004151095704433982
7.370445931889455e-05   -0.0007320693823026346   -0.00020115841081029572
0.0005087730979834586   -0.0007351010634997192   -0.0002612336421225662
0.0009057549225619398   -0.002237022374322686   -0.0004151095704433982
0.0004983937387066348   -0.0007643841915157074   -0.00023115676665086632
7.370445931889455e-05   -0.0007320693823026346   -0.00020115841081029572
0.0009057549225619398   -0.002237022374322686   -0.0004151095704433982
9.712340305284301e-05   -0.0022387200204729302   -0.0003658331465554715
9.055182328364194e-05   -0.0022521521843185508   -0.0003623831567948239
7.370445931889455e-05   -0.0007320693823026346   -0.00020115841081029572
0.0009057549225619398   -0.002237022374322686   -0.0004151095704433982
9.055182328364194e-05   -0.0022521521843185508   -0.0003623831567948239
0.0004983937387066348   -0.0007643841915157074   -0.00023115676665086632
0.0004980141563257506   -0.0007716076019920884   -0.00016880155743751195
0.0009043104987575028   -0.0022776265061089118   -0.00034353923840285076
0.001128980004777157   -0.000860812070188154   -0.00015995672974734176
0.000499777634532886   -0.0007754510501500165   -0.00020057596913505217
0.0009043104987575028   -0.0022776265061089118   -0.00034353923840285076
0.001905922520994575   -0.0023443389253429907   -0.00033901693023566344
0.001128980004777157   -0.000860812070188154   -0.00015995672974734176
0.0018690517772755229   -0.002337455861311705   -0.00038689878525925155
0.000499777634532886   -0.0007754510501500165   -0.00020057596913505217
0.0010614347787784007   -0.0008510716393990228   -0.0002322751056497365
0.0018690517772755229   -0.002337455861311705   -0.00038689878525925155
0.001128980004777157   -0.000860812070188154   -0.00015995672974734176
0.000499777634532886   -0.0007754510501500165   -0.00020057596913505217
0.0018690517772755229   -0.002337455861311705   -0.00038689878525925155
0.0009098755173169172   -0.002277157754356504   -0.00036474529634271185
0.0009043104987575028   -0.0022776265061089118   -0.00034353923840285076
0.000499777634532886   -0.0007754510501500165   -0.00020057596913505217
0.0018690517772755229   -0.002337455861311705   -0.00038689878525925155
0.0009043104987575028   -0.0022776265061089118   -0.00034353923840285076
0.001128980004777157   -0.000860812070188154   -0.00015995672974734176
0.000499777634532886   -0.0007754510501500165   -0.00020057596913505217
0.0009098755173169172   -0.002277157754356504   -0.00036474529634271185
0.0010614347787784007   -0.0008510716393990228   -0.0002322751056497365
0.0004983937387066348   -0.0007643841915157074   -0.00023115676665086632
0.0009098755173169172   -0.002277157754356504   -0.00036474529634271185
0.0018690517772755229   -0.002337455861311705   -0.00038689878525925155
0.0010614347787784007   -0.0008510716393990228   -0.0002322751056497365
0.001835938510941618   -0.0023183794680959593   -0.0004409725436168404
0.0004983937387066348   -0.0007643841915157074   -0.00023115676665086632
0.0010306287135292526   -0.0008333856878841566   -0.00029350792395002574
0.001835938510941618   -0.0023183794680959593   -0.0004409725436168404
0.0010614347787784007   -0.0008510716393990228   -0.0002322751056497365
0.0004983937387066348   -0.0007643841915157074   -0.00023115676665086632
0.001835938510941618   -0.0023183794680959593   -0.0004409725436168404
0.0009069590460262837   -0.002264738026407283   -0.00038890145559683574
0.0009098755173169172   -0.002277157754356504   -0.00036474529634271185
0.0004983937387066348   -0.0007643841915157074   -0.00023115676665086632
0.001835938510941618   -0.0023183794680959593   -0.0004409725436168404
0.0009098755173169172   -0.002277157754356504   -0.00036474529634271185
0.0010614347787784007   -0.0008510716393990228   -0.0002322751056497365
0.0004983937387066348   -0.0007643841915157074   -0.00023115676665086632
0.0009069590460262837   -0.002264738026407283   -0.00038890145559683574
0.0010306287135292526   -0.0008333856878841566   -0.00029350792395002574
0.0005087730979834586   -0.0007351010634997192   -0.0002612336421225662
0.0009069590460262837   -0.002264738026407283   -0.00038890145559683574
0.001835938510941618   -0.0023183794680959593   -0.0004409725436168404
0.0010306287135292526   -0.0008333856878841566   -0.00029350792395002574
0.0017855092294316458   -0.0022763592549907776   -0.0004973877088331699
0.0005087730979834586   -0.0007351010634997192   -0.0002612336421225662
0.000984238341304933   -0.0007884036717046703   -0.0003584786898289467
0.0017855092294316458   -0.0022763592549907776   -0.0004973877088331699
0.0010306287135292526   -0.0008333856878841566   -0.00029350792395002574
0.0005087730979834586   -0.0007351010634997192   -0.0002612336421225662
0.0017855092294316458   -0.0022763592549907776   -0.0004973877088331699
0.0009057549225619398   -0.002237022374322686   -0.0004151095704433982
0.0009069590460262837   -0.002264738026407283   -0.00038890145559683574
0.0005087730979834586   -0.0007351010634997192   -0.0002612336421225662
0.0017855092294316458   -0.0022763592549907776   -0.0004973877088331699
0.0009069590460262837   -0.002264738026407283   -0.00038890145559683574
0.0010306287135292526   -0.0008333856878841566   -0.00029350792395002574
-0.0023768518861437752   -0.002350929114066972   -0.0005772577030829019
-0.003247609588507407   -0.004389870092703847   -0.0006585621301058947
-0.00151671905914542   -0.0022755728951999307   -0.0004758965260930409
-0.0024465802356701196   -0.0024047066552050815   -0.0005013781245285109
-0.003247609588507407   -0.004389870092703847   -0.0006585621301058947
-0.00208898624861009   -0.0043325933970665845   -0.0005769117810881853
-0.00151671905914542   -0.0022755728951999307   -0.0004758965260930409
-0.0020922023746422517   -0.004365587298295963   -0.0005407640291498953
-0.0024465802356701196   -0.0024047066552050815   -0.0005013781245285109
-0.0015173936094019739   -0.0023140281205004808   -0.00042906451493550314
-0.0020922023746422517   -0.004365587298295963   -0.0005407640291498953
-0.00151671905914542   -0.0022755728951999307   -0.0004758965260930409
-0.0024465802356701196   -0.0024047066552050815   -0.0005013781245285109
-0.0020922023746422517   -0.004365587298295963   -0.0005407640291498953
-0.0033034851587934928   -0.004435039818017222   -0.0006023966921619866
-0.003247609588507407   -0.004389870092703847   -0.0006585621301058947
-0.0024465802356701196   -0.0024047066552050815   -0.0005013781245285109
-0.0020922023746422517   -0.004365587298295963   -0.0005407640291498953
-0.003247609588507407   -0.004389870092703847   -0.0006585621301058947
-0.00151671905914542   -0.0022755728951999307   -0.0004758965260930409
-0.0024465802356701196   -0.0024047066552050815   -0.0005013781245285109
-0.0033034851587934928   -0.004435039818017222   -0.0006023966921619866
-0.0015173936094019739   -0.0023140281205004808   -0.00042906451493550314
-0.002494555472172784   -0.002435176308428669   -0.00042717959338006917
-0.0033034851587934928   -0.004435039818017222   -0.0006023966921619866
-0.0020922023746422517   -0.004365587298295963   -0.0005407640291498953
-0.0015173936094019739   -0.0023140281205004808   -0.00042906451493550314
-0.0020961559847620056   -0.004388659679501777   -0.0005072818538622459
-0.002494555472172784   -0.002435176308428669   -0.00042717959338006917
-0.0015221689291057435   -0.0023375733421953267   -0.0003841336592295742
-0.0020961559847620056   -0.004388659679501777   -0.0005072818538622459
-0.0015173936094019739   -0.0023140281205004808   -0.00042906451493550314
-0.002494555472172784   -0.002435176308428669   -0.00042717959338006917
-0.0020961559847620056   -0.004388659679501777   -0.0005072818538622459
-0.003338083916263614   -0.0044634903600019255   -0.0005501337910581718
-0.0033034851587934928   -0.004435039818017222   -0.0006023966921619866
-0.002494555472172784   -0.002435176308428669   -0.00042717959338006917
-0.0020961559847620056   -0.004388659679501777   -0.0005072818538622459
-0.0033034851587934928   -0.004435039818017222   -0.0006023966921619866
-0.0015173936094019739   -0.0023140281205004808   -0.00042906451493550314
-0.002494555472172784   -0.002435176308428669   -0.00042717959338006917
-0.003338083916263614   -0.0044634903600019255   -0.0005501337910581718
-0.0015221689291057435   -0.0023375733421953267   -0.0003841336592295742
-0.0025512090957060794   -0.0024531968397699176   -0.00035983416775884605
-0.003338083916263614   -0.0044634903600019255   -0.0005501337910581718
-0.0020961559847620056   -0.004388659679501777   -0.0005072818538622459
-0.0015221689291057435   -0.0023375733421953267   -0.0003841336592295742
-0.002090783732424785   -0.004404010113247783   -0.0004758940023877044
-0.0025512090957060794   -0.0024531968397699176   -0.00035983416775884605
-0.001516388350307751   -0.0023499622202766677   -0.0003421495401658937
-0.002090783732424785   -0.004404010113247783   -0.0004758940023877044
-0.0015221689291057435   -0.0023375733421953267   -0.0003841336592295742
-0.0025512090957060794   -0.0024531968397699176   -0.00035983416775884605
-0.002090783732424785   -0.004404010113247783   -0.0004758940023877044
-0.0033774492047274883   -0.004484228587468461   -0.0005021396092876339
-0.003338083916263614   -0.0044634903600019255   -0.0005501337910581718
-0.0025512090957060794   -0.0024531968397699176   -0.00035983416775884605
-0.002090783732424785   -0.004404010113247783   -0.0004758940023877044
-0.003338083916263614   -0.0044634903600019255   -0.0005501337910581718
-0.0015221689291057435   -0.0023375733421953267   -0.0003841336592295742
-0.00151671905914542   -0.0022755728951999307   -0.0004758965260930409
-0.00208898624861009   -0.0043325933970665845   -0.0005769117810881853
-0.0007056892782566206   -0.002240500417671152   -0.0004068101850031336
-0.0015173936094019739   -0.0023140281205004808   -0.00042906451493550314
-0.00208898624861009   -0.0043325933970665845   -0.0005769117810881853
-0.000998480852851994   -0.004303918890082062   -0.0005202450031372058
-0.0007056892782566206   -0.002240500417671152   -0.0004068101850031336
-0.0009946259296897038   -0.004324913551309646   -0.000499683534763177
-0.0015173936094019739   -0.0023140281205004808   -0.00042906451493550314
-0.0006984631543167239   -0.0022648712817804513   -0.00038270622503687874
-0.0009946259296897038   -0.004324913551309646   -0.000499683534763177
-0.0007056892782566206   -0.002240500417671152   -0.0004068101850031336
-0.0015173936094019739   -0.0023140281205004808   -0.00042906451493550314
-0.0009946259296897038   -0.004324913551309646   -0.000499683534763177
-0.0020922023746422517   -0.004365587298295963   -0.0005407640291498953
-0.00208898624861009   -0.0043325933970665845   -0.0005769117810881853
-0.0015173936094019739   -0.0023140281205004808   -0.00042906451493550314
-0.0009946259296897038   -0.004324913551309646   -0.000499683534763177
-0.00208898624861009   -0.0043325933970665845   -0.0005769117810881853
-0.0007056892782566206   -0.002240500417671152   -0.0004068101850031336
-0.0015173936094019739   -0.0023140281205004808   -0.00042906451493550314
-0.0020922023746422517   -0.004365587298295963   -0.0005407640291498953
-0.0006984631543167239   -0.0022648712817804513   -0.00038270622503687874
-0.0015221689291057435   -0.0023375733421953267   -0.0003841336592295742
-0.0020922023746422517   -0.004365587298295963   -0.0005407640291498953
-0.0009946259296897038   -0.004324913551309646   -0.000499683534763177
-0.0006984631543167239   -0.0022648712817804513   -0.00038270622503687874
-0.000990216608231203   -0.00433728934187073   -0.0004816518669375334
-0.0015221689291057435   -0.0023375733421953267   -0.0003841336592295742
-0.0006919314684824564   -0.0022767298827091375   -0.00036090422374324973
-0.000990216608231203   -0.00433728934187073   -0.0004816518669375334
-0.0006984631543167239   -0.0022648712817804513   -0.00038270622503687874
-0.0015221689291057435   -0.0023375733421953267   -0.0003841336592295742
-0.000990216608231203   -0.00433728934187073   -0.0004816518669375334
-0.0020961559847620056   -0.004388659679501777   -0.0005072818538622459
-0.0020922023746422517   -0.004365587298295963   -0.0005407640291498953
-0.0015221689291057435   -0.0023375733421953267   -0.0003841336592295742
-0.000990216608231203   -0.00433728934187073   -0.0004816518669375334
-0.0020922023746422517   -0.004365587298295963   -0.0005407640291498953
-0.0006984631543167239   -0.0022648712817804513   -0.00038270622503687874
-0.0015221689291057435   -0.0023375733421953267   -0.0003841336592295742
-0.0020961559847620056   -0.004388659679501777   -0.0005072818538622459
-0.0006919314684824564   -0.0022767298827091375   -0.00036090422374324973
-0.001516388350307751   -0.0023499622202766677   -0.0003421495401658937
-0.0020961559847620056   -0.004388659679501777   -0.0005072818538622459
-0.000990216608231203   -0.00433728934187073   -0.0004816518669375334
-0.0006919314684824564   -0.0022767298827091375   -0.00036090422374324973
-0.0009838151691917568   -0.004341222894868227   -0.00046614639632722816
-0.001516388350307751   -0.0023499622202766677   -0.0003421495401658937
-0.0006827150921753126   -0.0022765203372424143   -0.000341980744163866
-0.0009838151691917568   -0.004341222894868227   -0.00046614639632722816
-0.0006919314684824564   -0.0022767298827091375   -0.00036090422374324973
-0.001516388350307751   -0.0023499622202766677   -0.0003421495401658937
-0.0009838151691917568   -0.004341222894868227   -0.00046614639632722816
-0.002090783732424785   -0.004404010113247783   -0.0004758940023877044
-0.0020961559847620056   -0.004388659679501777   -0.0005072818538622459
-0.001516388350307751   -0.0023499622202766677   -0.0003421495401658937
-0.0009838151691917568   -0.004341222894868227   -0.00046614639632722816
-0.0020961559847620056   -0.004388659679501777   -0.0005072818538622459
-0.0006919314684824564   -0.0022767298827091375   -0.00036090422374324973
-0.0007056892782566206   -0.002240500417671152   -0.0004068101850031336
-0.000998480852851994   -0.004303918890082062   -0.0005202450031372058
7.566341683754172e-05   -0.002241612922108534   -0.00036338785561298715
-0.0006984631543167239   -0.0022648712817804513   -0.00038270622503687874
-0.000998480852851994   -0.004303918890082062   -0.0005202450031372058
5.9419277044263454e-05   -0.004302369781258143   -0.00048538384056327104
7.566341683754172e-05   -0.002241612922108534   -0.00036338785561298715
6.542173880936157e-05   -0.004311519688732765   -0.0004803338822364562
-0.0006984631543167239   -0.0022648712817804513   -0.00038270622503687874
8.434744254229103e-05   -0.002252994007103127   -0.0003615813297345923
6.542173880936157e-05   -0.004311519688732765   -0.0004803338822364562
7.566341683754172e-05   -0.002241612922108534   -0.00036338785561298715
-0.0006984631543167239   -0.0022648712817804513   -0.00038270622503687874
6.542173880936157e-05   -0.004311519688732765   -0.0004803338822364562
-0.0009946259296897038   -0.004324913551309646   -0.000499683534763177
-0.000998480852851994   -0.004303918890082062   -0.0005202450031372058
-0.0006984631543167239   -0.0022648712817804513   -0.00038270622503687874
6.542173880936157e-05   -0.004311519688732765   -0.0004803338822364562
-0.000998480852851994   -0.004303918890082062   -0.0005202450031372058
7.566341683754172e-05   -0.002241612922108534   -0.00036338785561298715
-0.0006984631543167239   -0.0022648712817804513   -0.00038270622503687874
-0.0009946259296897038   -0.004324913551309646   -0.000499683534763177
8.434744254229103e-05   -0.002252994007103127   -0.0003615813297345923
-0.0006919314684824564   -0.0022767298827091375   -0.00036090422374324973
-0.0009946259296897038   -0.004324913551309646   -0.000499683534763177
6.542173880936157e-05   -0.004311519688732765   -0.0004803338822364562
8.434744254229103e-05   -0.002252994007103127   -0.0003615813297345923
6.975282513338495e-05   -0.004312082616991955   -0.0004777522429374011
-0.0006919314684824564   -0.0022767298827091375   -0.00036090422374324973
9.055182328364194e-05   -0.0022521521843185508   -0.0003623831567948239
6.975282513338495e-05   -0.004312082616991955   -0.0004777522429374011
8.434744254229103e-05   -0.002252994007103127   -0.0003615813297345923
-0.0006919314684824564   -0.0022767298827091375   -0.00036090422374324973
6.975282513338495e-05   -0.004312082616991955   -0.0004777522429374011
-0.000990216608231203   -0.00433728934187073   -0.0004816518669375334
-0.0009946259296897038   -0.004324913551309646   -0.000499683534763177
-0.0006919314684824564   -0.0022767298827091375   -0.00036090422374324973
6.975282513338495e-05   -0.004312082616991955   -0.0004777522429374011
-0.0009946259296897038   -0.004324913551309646   -0.000499683534763177
8.434744254229103e-05   -0.002252994007103127   -0.0003615813297345923
-0.0006919314684824564   -0.0022767298827091375   -0.00036090422374324973
-0.000990216608231203   -0.00433728934187073   -0.0004816518669375334
9.055182328364194e-05   -0.0022521521843185508   -0.0003623831567948239
-0.0006827150921753126   -0.0022765203372424143   -0.000341980744163866
-0.000990216608231203   -0.00433728934187073   -0.0004816518669375334
6.975282513338495e-05   -0.004312082616991955   -0.0004777522429374011
9.055182328364194e-05   -0.0022521521843185508   -0.0003623831567948239
7.327566345220037e-05   -0.00430393237837148   -0.0004777837720904451
-0.0006827150921753126   -0.0022765203372424143   -0.000341980744163866
9.712340305284301e-05   -0.0022387200204729302   -0.0003658331465554715
7.327566345220037e-05   -0.00430393237837148   -0.0004777837720904451
9.055182328364194e-05   -0.0022521521843185508   -0.0003623831567948239
-0.0006827150921753126   -0.0022765203372424143   -0.000341980744163866
7.327566345220037e-05   -0.00430393237837148   -0.0004777837720904451
-0.0009838151691917568   -0.004341222894868227   -0.00046614639632722816
-0.000990216608231203   -0.00433728934187073   -0.0004816518669375334
-0.0006827150921753126   -0.0022765203372424143   -0.000341980744163866
7.327566345220037e-05   -0.00430393237837148   -0.0004777837720904451
-0.000990216608231203   -0.00433728934187073   -0.0004816518669375334
9.055182328364194e-05   -0.0022521521843185508   -0.0003623831567948239
7.566341683754172e-05   -0.002241612922108534   -0.00036338785561298715
5.9419277044263454e-05   -0.004302369781258143   -0.00048538384056327104
0.0009043104987575028   -0.0022776265061089118   -0.00034353923840285076
8.434744254229103e-05   -0.002252994007103127   -0.0003615813297345923
5.9419277044263454e-05   -0.004302369781258143   -0.00048538384056327104
0.0011628544557608185   -0.00432632148752171   -0.0004717723364953188
0.0009043104987575028   -0.0022776265061089118   -0.00034353923840285076
0.0011684050455504106   -0.004324566926397513   -0.0004825450323186034
8.434744254229103e-05   -0.002252994007103127   -0.0003615813297345923
0.0009098755173169172   -0.002277157754356504   -0.00036474529634271185
0.0011684050455504106   -0.004324566926397513   -0.0004825450323186034
0.0009043104987575028   -0.0022776265061089118   -0.00034353923840285076
8.434744254229103e-05   -0.002252994007103127   -0.0003615813297345923
0.0011684050455504106   -0.004324566926397513   -0.0004825450323186034
6.542173880936157e-05   -0.004311519688732765   -0.0004803338822364562
5.9419277044263454e-05   -0.004302369781258143   -0.00048538384056327104
8.434744254229103e-05   -0.002252994007103127   -0.0003615813297345923
0.0011684050455504106   -0.004324566926397513   -0.0004825450323186034
5.9419277044263454e-05   -0.004302369781258143   -0.00048538384056327104
0.0009043104987575028   -0.0022776265061089118   -0.00034353923840285076
8.434744254229103e-05   -0.002252994007103127   -0.0003615813297345923
6.542173880936157e-05   -0.004311519688732765   -0.0004803338822364562
0.0009098755173169172   -0.002277157754356504   -0.00036474529634271185
9.055182328364194e-05   -0.0022521521843185508   -0.0003623831567948239
6.542173880936157e-05   -0.004311519688732765   -0.0004803338822364562
0.0011684050455504106   -0.004324566926397513   -0.0004825450323186034
0.0009098755173169172   -0.002277157754356504   -0.00036474529634271185
0.0011669858383645702   -0.004314455212075957   -0.0004956046962426708
9.055182328364194e-05   -0.0022521521843185508   -0.0003623831567948239
0.0009069590460262837   -0.002264738026407283   -0.00038890145559683574
0.0011669858383645702   -0.004314455212075957   -0.0004956046962426708
0.0009098755173169172   -0.002277157754356504   -0.00036474529634271185
9.055182328364194e-05   -0.0022521521843185508   -0.0003623831567948239
0.0011669858383645702   -0.004314455212075957   -0.0004956046962426708
6.975282513338495e-05   -0.004312082616991955   -0.0004777522429374011
6.542173880936157e-05   -0.004311519688732765   -0.0004803338822364562
9.055182328364194e-05   -0.0022521521843185508   -0.0003623831567948239
0.0011669858383645702   -0.004314455212075957   -0.0004956046962426708
6.542173880936157e-05   -0.004311519688732765   -0.0004803338822364562
0.0009098755173169172   -0.002277157754356504   -0.00036474529634271185
9.055182328364194e-05   -0.0022521521843185508   -0.0003623831567948239
6.975282513338495e-05   -0.004312082616991955   -0.0004777522429374011
0.0009069590460262837   -0.002264738026407283   -0.00038890145559683574
9.712340305284301e-05   -0.0022387200204729302   -0.0003658331465554715
6.975282513338495e-05   -0.004312082616991955   -0.0004777522429374011
0.0011669858383645702   -0.004314455212075957   -0.0004956046962426708
0.0009069590460262837   -0.002264738026407283   -0.00038890145559683574
0.001163995864805583   -0.004293866223747906   -0.0005112264251927262
9.712340305284301e-05   -0.0022387200204729302   -0.0003658331465554715
0.0009057549225619398   -0.002237022374322686   -0.0004151095704433982
0.001163995864805583   -0.004293866223747906   -0.0005112264251927262
0.0009069590460262837   -0.002264738026407283   -0.00038890145559683574
9.712340305284301e-05   -0.0022387200204729302   -0.0003658331465554715
0.001163995864805583   -0.004293866223747906   -0.0005112264251927262
7.327566345220037e-05   -0.00430393237837148   -0.0004777837720904451
6.975282513338495e-05   -0.004312082616991955   -0.0004777522429374011
9.712340305284301e-05   -0.0022387200204729302   -0.0003658331465554715
0.001163995864805583   -0.004293866223747906   -0.0005112264251927262
6.975282513338495e-05   -0.004312082616991955   -0.0004777522429374011
0.0009069590460262837   -0.002264738026407283   -0.00038890145559683574
0.0009043104987575028   -0.0022776265061089118   -0.00034353923840285076
0.0011628544557608185   -0.00432632148752171   -0.0004717723364953188
0.001905922520994575   -0.0023443389253429907   -0.00033901693023566344
0.0009098755173169172   -0.002277157754356504   -0.00036474529634271185
0.0011628544557608185   -0.00432632148752171   -0.0004717723364953188
0.002420300857742184   -0.0043694604962487265   -0.0004731424483729288
0.001905922520994575   -0.0023443389253429907   -0.00033901693023566344
0.0024014999086387034   -0.004361347677758858   -0.0005016253701629477
0.0009098755173169172   -0.002277157754356504   -0.00036474529634271185
0.0018690517772755229   -0.002337455861311705   -0.00038689878525925155
0.0024014999086387034   -0.004361347677758858   -0.0005016253701629477
0.001905922520994575   -0.0023443389253429907   -0.00033901693023566344
0.0009098755173169172   -0.002277157754356504   -0.00036474529634271185
0.0024014999086387034   -0.004361347677758858   -0.0005016253701629477
0.0011684050455504106   -0.004324566926397513   -0.0004825450323186034
0.0011628544557608185   -0.00432632148752171   -0.0004717723364953188
0.0009098755173169172   -0.002277157754356504   -0.00036474529634271185
0.0024014999086387034   -0.004361347677758858   -0.0005016253701629477
0.0011628544557608185   -0.00432632148752171   -0.0004717723364953188
0.001905922520994575   -0.0023443389253429907   -0.00033901693023566344
0.0009098755173169172   -0.002277157754356504   -0.00036474529634271185
0.0011684050455504106   -0.004324566926397513   -0.0004825450323186034
0.0018690517772755229   -0.002337455861311705   -0.00038689878525925155
0.0009069590460262837   -0.002264738026407283   -0.00038890145559683574
0.0011684050455504106   -0.004324566926397513   -0.0004825450323186034
0.0024014999086387034   -0.004361347677758858   -0.0005016253701629477
0.0018690517772755229   -0.002337455861311705   -0.00038689878525925155
0.002382415773554357   -0.004345868438099368   -0.00053423344721837
0.0009069590460262837   -0.002264738026407283   -0.00038890145559683574
0.001835938510941618   -0.0023183794680959593   -0.0004409725436168404
0.002382415773554357   -0.004345868438099368   -0.00053423344721837
0.0018690517772755229   -0.002337455861311705   -0.00038689878525925155
0.0009069590460262837   -0.002264738026407283   -0.00038890145559683574
0.002382415773554357   -0.004345868438099368   -0.00053423344721837
0.0011669858383645702   -0.004314455212075957   -0.0004956046962426708
0.0011684050455504106   -0.004324566926397513   -0.0004825450323186034
0.0009069590460262837   -0.002264738026407283   -0.00038890145559683574
0.002382415773554357   -0.004345868438099368   -0.00053423344721837
0.0011684050455504106   -0.004324566926397513   -0.0004825450323186034
0.0018690517772755229   -0.002337455861311705   -0.00038689878525925155
0.0009069590460262837   -0.002264738026407283   -0.00038890145559683574
0.0011669858383645702   -0.004314455212075957   -0.0004956046962426708
0.001835938510941618   -0.0023183794680959593   -0.0004409725436168404
0.0009057549225619398   -0.002237022374322686   -0.0004151095704433982
0.0011669858383645702   -0.004314455212075957   -0.0004956046962426708
0.002382415773554357   -0.004345868438099368   -0.00053423344721837
0.001835938510941618   -0.0023183794680959593   -0.0004409725436168404
0.0023470560905962026   -0.004313882720852029   -0.0005709716128884444
0.0009057549225619398   -0.002237022374322686   -0.0004151095704433982
0.0017855092294316458   -0.0022763592549907776   -0.0004973877088331699
0.0023470560905962026   -0.004313882720852029   -0.0005709716128884444
0.001835938510941618   -0.0023183794680959593   -0.0004409725436168404
0.0009057549225619398   -0.002237022374322686   -0.0004151095704433982
0.0023470560905962026   -0.004313882720852029   -0.0005709716128884444
0.001163995864805583   -0.004293866223747906   -0.0005112264251927262
0.0011669858383645702   -0.004314455212075957   -0.0004956046962426708
0.0009057549225619398   -0.002237022374322686   -0.0004151095704433982
0.0023470560905962026   -0.004313882720852029   -0.0005709716128884444
0.0011669858383645702   -0.004314455212075957   -0.0004956046962426708
0.001835938510941618   -0.0023183794680959593   -0.0004409725436168404
-0.003247609588507407   -0.004389870092703847   -0.0006585621301058947
-0.003868374863811872   -0.006796414252914375   -0.0007038096406166345
-0.00208898624861009   -0.0043325933970665845   -0.0005769117810881853
-0.0033034851587934928   -0.004435039818017222   -0.0006023966921619866
-0.003868374863811872   -0.006796414252914375   -0.0007038096406166345
-0.002513601022570595   -0.006760263837919488   -0.0006377383661850935
-0.00208898624861009   -0.0043325933970665845   -0.0005769117810881853
-0.0025152333834698166   -0.006788446795916322   -0.0006120116155793918
-0.0033034851587934928   -0.004435039818017222   -0.0006023966921619866
-0.0020922023746422517   -0.004365587298295963   -0.0005407640291498953
-0.0025152333834698166   -0.006788446795916322   -0.0006120116155793918
-0.00208898624861009   -0.0043325933970665845   -0.0005769117810881853
-0.0033034851587934928   -0.004435039818017222   -0.0006023966921619866
-0.0025152333834698166   -0.006788446795916322   -0.0006120116155793918
-0.003905220953731918   -0.006834610837559905   -0.0006668684349870848
-0.003868374863811872   -0.006796414252914375   -0.0007038096406166345
-0.0033034851587934928   -0.004435039818017222   -0.0006023966921619866
-0.0025152333834698166   -0.006788446795916322   -0.0006120116155793918
-0.003868374863811872   -0.006796414252914375   -0.0007038096406166345
-0.00208898624861009   -0.0043325933970665845   -0.0005769117810881853
-0.0033034851587934928   -0.004435039818017222   -0.0006023966921619866
-0.003905220953731918   -0.006834610837559905   -0.0006668684349870848
-0.0020922023746422517   -0.004365587298295963   -0.0005407640291498953
-0.003338083916263614   -0.0044634903600019255   -0.0005501337910581718
-0.003905220953731918   -0.006834610837559905   -0.0006668684349870848
-0.0025152333834698166   -0.006788446795916322   -0.0006120116155793918
-0.0020922023746422517   -0.004365587298295963   -0.0005407640291498953
-0.002515953058751829   -0.00681090837231222   -0.0005888729786823509
-0.003338083916263614   -0.0044634903600019255   -0.0005501337910581718
-0.0020961559847620056   -0.004388659679501777   -0.0005072818538622459
-0.002515953058751829   -0.00681090837231222   -0.0005888729786823509
-0.0020922023746422517   -0.004365587298295963   -0.0005407640291498953
-0.003338083916263614   -0.0044634903600019255   -0.0005501337910581718
-0.002515953058751829   -0.00681090837231222   -0.0005888729786823509
-0.003925676221930606   -0.006861778194083859   -0.000633531399578719
-0.003905220953731918   -0.006834610837559905   -0.0006668684349870848
-0.003338083916263614   -0.0044634903600019255   -0.0005501337910581718
-0.002515953058751829   -0.00681090837231222   -0.0005888729786823509
-0.003905220953731918   -0.006834610837559905   -0.0006668684349870848
-0.0020922023746422517   -0.004365587298295963   -0.0005407640291498953
-0.003338083916263614   -0.0044634903600019255   -0.0005501337910581718
-0.003925676221930606   -0.006861778194083859   -0.000633531399578719
-0.0020961559847620056   -0.004388659679501777   -0.0005072818538622459
-0.0033774492047274883   -0.004484228587468461   -0.0005021396092876339
-0.003925676221930606   -0.006861778194083859   -0.000633531399578719
-0.002515953058751829   -0.00681090837231222   -0.0005888729786823509
-0.0020961559847620056   -0.004388659679501777   -0.0005072818538622459
-0.002509339512857728   -0.00682952424311909   -0.0005679696371299952
-0.0033774492047274883   -0.004484228587468461   -0.0005021396092876339
-0.002090783732424785   -0.004404010113247783   -0.0004758940023877044
-0.002509339512857728   -0.00682952424311909   -0.0005679696371299952
-0.0020961559847620056   -0.004388659679501777   -0.0005072818538622459
-0.0033774492047274883   -0.004484228587468461   -0.0005021396092876339
-0.002509339512857728   -0.00682952424311909   -0.0005679696371299952
-0.0039466307306690925   -0.006886373239270823   -0.0006042350140305707
-0.003925676221930606   -0.006861778194083859   -0.000633531399578719
-0.0033774492047274883   -0.004484228587468461   -0.0005021396092876339
-0.002509339512857728   -0.00682952424311909   -0.0005679696371299952
-0.003925676221930606   -0.006861778194083859   -0.000633531399578719
-0.0020961559847620056   -0.004388659679501777   -0.0005072818538622459
-0.00208898624861009   -0.0043325933970665845   -0.0005769117810881853
-0.002513601022570595   -0.006760263837919488   -0.0006377383661850935
-0.000998480852851994   -0.004303918890082062   -0.0005202450031372058
-0.0020922023746422517   -0.004365587298295963   -0.0005407640291498953
-0.002513601022570595   -0.006760263837919488   -0.0006377383661850935
-0.0012447005701524247   -0.0067413830640150425   -0.0005920315834165337
-0.000998480852851994   -0.004303918890082062   -0.0005202450031372058
-0.0012409839537688317   -0.006758966763478265   -0.0005748866814485033
-0.0020922023746422517   -0.004365587298295963   -0.0005407640291498953
-0.0009946259296897038   -0.004324913551309646   -0.000499683534763177
-0.0012409839537688317   -0.006758966763478265   -0.0005748866814485033
-0.000998480852851994   -0.004303918890082062   -0.0005202450031372058
-0.0020922023746422517   -0.004365587298295963   -0.0005407640291498953
-0.0012409839537688317   -0.006758966763478265   -0.0005748866814485033
-0.0025152333834698166   -0.006788446795916322   -0.0006120116155793918
-0.002513601022570595   -0.006760263837919488   -0.0006377383661850935
-0.0020922023746422517   -0.004365587298295963   -0.0005407640291498953
-0.0012409839537688317   -0.006758966763478265   -0.0005748866814485033
-0.002513601022570595   -0.006760263837919488   -0.0006377383661850935
-0.000998480852851994   -0.004303918890082062   -0.0005202450031372058
-0.0020922023746422517   -0.004365587298295963   -0.0005407640291498953
-0.0025152333834698166   -0.006788446795916322   -0.0006120116155793918
-0.0009946259296897038   -0.004324913551309646   -0.000499683534763177
-0.0020961559847620056   -0.004388659679501777   -0.0005072818538622459
-0.0025152333834698166   -0.006788446795916322   -0.0006120116155793918
-0.0012409839537688317   -0.006758966763478265   -0.0005748866814485033
-0.0009946259296897038   -0.004324913551309646   -0.000499683534763177
-0.001236419991952162   -0.006771743579778808   -0.0005602839777537865
-0.0020961559847620056   -0.004388659679501777   -0.0005072818538622459
-0.000990216608231203   -0.00433728934187073   -0.0004816518669375334
-0.001236419991952162   -0.006771743579778808   -0.0005602839777537865
-0.0009946259296897038   -0.004324913551309646   -0.000499683534763177
-0.0020961559847620056   -0.004388659679501777   -0.0005072818538622459
-0.001236419991952162   -0.006771743579778808   -0.0005602839777537865
-0.002515953058751829   -0.00681090837231222   -0.0005888729786823509
-0.0025152333834698166   -0.006788446795916322   -0.0006120116155793918
-0.0020961559847620056   -0.004388659679501777   -0.0005072818538622459
-0.001236419991952162   -0.006771743579778808   -0.0005602839777537865
-0.0025152333834698166   -0.006788446795916322   -0.0006120116155793918
-0.0009946259296897038   -0.004324913551309646   -0.000499683534763177
-0.0020961559847620056   -0.004388659679501777   -0.0005072818538622459
-0.002515953058751829   -0.00681090837231222   -0.0005888729786823509
-0.000990216608231203   -0.00433728934187073   -0.0004816518669375334
-0.002090783732424785   -0.004404010113247783   -0.0004758940023877044
-0.002515953058751829   -0.00681090837231222   -0.0005888729786823509
-0.001236419991952162   -0.006771743579778808   -0.0005602839777537865
-0.000990216608231203   -0.00433728934187073   -0.0004816518669375334
-0.0012302562537216512   -0.006779798738110759   -0.0005482706873466938
-0.002090783732424785   -0.004404010113247783   -0.0004758940023877044
-0.0009838151691917568   -0.004341222894868227   -0.00046614639632722816
-0.0012302562537216512   -0.006779798738110759   -0.0005482706873466938
-0.000990216608231203   -0.00433728934187073   -0.0004816518669375334
-0.002090783732424785   -0.004404010113247783   -0.0004758940023877044
-0.0012302562537216512   -0.006779798738110759   -0.0005482706873466938
-0.002509339512857728   -0.00682952424311909   -0.0005679696371299952
-0.002515953058751829   -0.00681090837231222   -0.0005888729786823509
-0.002090783732424785   -0.004404010113247783   -0.0004758940023877044
-0.0012302562537216512   -0.006779798738110759   -0.0005482706873466938
-0.002515953058751829   -0.00681090837231222   -0.0005888729786823509
-0.000990216608231203   -0.00433728934187073   -0.0004816518669375334
-0.000998480852851994   -0.004303918890082062   -0.0005202450031372058
-0.0012447005701524247   -0.0067413830640150425   -0.0005920315834165337
5.9419277044263454e-05   -0.004302369781258143   -0.00048538384056327104
-0.0009946259296897038   -0.004324913551309646   -0.000499683534763177
-0.0012447005701524247   -0.0067413830640150425   -0.0005920315834165337
-1.0591554194753608e-05   -0.00673801349263578   -0.0005657015338191753
5.9419277044263454e-05   -0.004302369781258143   -0.00048538384056327104
-4.753581568491012e-06   -0.006744898446817298   -0.0005572217790210046
-0.0009946259296897038   -0.004324913551309646   -0.000499683534763177
6.542173880936157e-05   -0.004311519688732765   -0.0004803338822364562
-4.753581568491012e-06   -0.006744898446817298   -0.0005572217790210046
5.9419277044263454e-05   -0.004302369781258143   -0.00048538384056327104
-0.0009946259296897038   -0.004324913551309646   -0.000499683534763177
-4.753581568491012e-06   -0.006744898446817298   -0.0005572217790210046
-0.0012409839537688317   -0.006758966763478265   -0.0005748866814485033
-0.0012447005701524247   -0.0067413830640150425   -0.0005920315834165337
-0.0009946259296897038   -0.004324913551309646   -0.000499683534763177
-4.753581568491012e-06   -0.006744898446817298   -0.0005572217790210046
-0.0012447005701524247   -0.0067413830640150425   -0.0005920315834165337
5.9419277044263454e-05   -0.004302369781258143   -0.00048538384056327104
-0.0009946259296897038   -0.004324913551309646   -0.000499683534763177
-0.0012409839537688317   -0.006758966763478265   -0.0005748866814485033
6.542173880936157e-05   -0.004311519688732765   -0.0004803338822364562
-0.000990216608231203   -0.00433728934187073   -0.0004816518669375334
-0.0012409839537688317   -0.006758966763478265   -0.0005748866814485033
-4.753581568491012e-06   -0.006744898446817298   -0.0005572217790210046
6.542173880936157e-05   -0.004311519688732765   -0.0004803338822364562
-2.1062244216408633e-07   -0.006746941654565742   -0.0005512568847653912
-0.000990216608231203   -0.00433728934187073   -0.0004816518669375334
6.975282513338495e-05   -0.004312082616991955   -0.0004777522429374011
-2.1062244216408633e-07   -0.006746941654565742   -0.0005512568847653912
6.542173880936157e-05   -0.004311519688732765   -0.0004803338822364562
-0.000990216608231203   -0.00433728934187073   -0.0004816518669375334
-2.1062244216408633e-07   -0.006746941654565742   -0.0005512568847653912
-0.001236419991952162   -0.006771743579778808   -0.0005602839777537865
-0.0012409839537688317   -0.006758966763478265   -0.0005748866814485033
-0.000990216608231203   -0.00433728934187073   -0.0004816518669375334
-2.1062244216408633e-07   -0.006746941654565742   -0.0005512568847653912
-0.0012409839537688317   -0.006758966763478265   -0.0005748866814485033
6.542173880936157e-05   -0.004311519688732765   -0.0004803338822364562
-0.000990216608231203   -0.00433728934187073   -0.0004816518669375334
-0.001236419991952162   -0.006771743579778808   -0.0005602839777537865
6.975282513338495e-05   -0.004312082616991955   -0.0004777522429374011
-0.0009838151691917568   -0.004341222894868227   -0.00046614639632722816
-0.001236419991952162   -0.006771743579778808   -0.0005602839777537865
-2.1062244216408633e-07   -0.006746941654565742   -0.0005512568847653912
6.975282513338495e-05   -0.004312082616991955   -0.0004777522429374011
3.1915519865869817e-06   -0.006744075561748379   -0.0005479140152263759
-0.0009838151691917568   -0.004341222894868227   -0.00046614639632722816
7.327566345220037e-05   -0.00430393237837148   -0.0004777837720904451
3.1915519865869817e-06   -0.006744075561748379   -0.0005479140152263759
6.975282513338495e-05   -0.004312082616991955   -0.0004777522429374011
-0.0009838151691917568   -0.004341222894868227   -0.00046614639632722816
3.1915519865869817e-06   -0.006744075561748379   -0.0005479140152263759
-0.0012302562537216512   -0.006779798738110759   -0.0005482706873466938
-0.001236419991952162   -0.006771743579778808   -0.0005602839777537865
-0.0009838151691917568   -0.004341222894868227   -0.00046614639632722816
3.1915519865869817e-06   -0.006744075561748379   -0.0005479140152263759
-0.001236419991952162   -0.006771743579778808   -0.0005602839777537865
6.975282513338495e-05   -0.004312082616991955   -0.0004777522429374011
5.9419277044263454e-05   -0.004302369781258143   -0.00048538384056327104
-1.0591554194753608e-05   -0.00673801349263578   -0.0005657015338191753
0.0011628544557608185   -0.00432632148752171   -0.0004717723364953188
6.542173880936157e-05   -0.004311519688732765   -0.0004803338822364562
-1.0591554194753608e-05   -0.00673801349263578   -0.0005657015338191753
0.001266035183798097   -0.006748796236277046   -0.0005586929214070471
0.0011628544557608185   -0.00432632148752171   -0.0004717723364953188
0.0012729836119718758   -0.006745561627288927   -0.0005590501423855998
6.542173880936157e-05   -0.004311519688732765   -0.0004803338822364562
0.0011684050455504106   -0.004324566926397513   -0.0004825450323186034
0.0012729836119718758   -0.006745561627288927   -0.0005590501423855998
0.0011628544557608185   -0.00432632148752171   -0.0004717723364953188
6.542173880936157e-05   -0.004311519688732765   -0.0004803338822364562
0.0012729836119718758   -0.006745561627288927   -0.0005590501423855998
-4.753581568491012e-06   -0.006744898446817298   -0.0005572217790210046
-1.0591554194753608e-05   -0.00673801349263578   -0.0005657015338191753
6.542173880936157e-05   -0.004311519688732765   -0.0004803338822364562
0.0012729836119718758   -0.006745561627288927   -0.0005590501423855998
-1.0591554194753608e-05   -0.00673801349263578   -0.0005657015338191753
0.0011628544557608185   -0.00432632148752171   -0.0004717723364953188
6.542173880936157e-05   -0.004311519688732765   -0.0004803338822364562
-4.753581568491012e-06   -0.006744898446817298   -0.0005572217790210046
0.0011684050455504106   -0.004324566926397513   -0.0004825450323186034
6.975282513338495e-05   -0.004312082616991955   -0.0004777522429374011
-4.753581568491012e-06   -0.006744898446817298   -0.0005572217790210046
0.0012729836119718758   -0.006745561627288927   -0.0005590501423855998
0.0011684050455504106   -0.004324566926397513   -0.0004825450323186034
0.0012749728477589423   -0.0067379087099095555   -0.0005617831946225446
6.975282513338495e-05   -0.004312082616991955   -0.0004777522429374011
0.0011669858383645702   -0.004314455212075957   -0.0004956046962426708
0.0012749728477589423   -0.0067379087099095555   -0.0005617831946225446
0.0011684050455504106   -0.004324566926397513   -0.0004825450323186034
6.975282513338495e-05   -0.004312082616991955   -0.0004777522429374011
0.0012749728477589423   -0.0067379087099095555   -0.0005617831946225446
-2.1062244216408633e-07   -0.006746941654565742   -0.0005512568847653912
-4.753581568491012e-06   -0.006744898446817298   -0.0005572217790210046
6.975282513338495e-05   -0.004312082616991955   -0.0004777522429374011
0.0012749728477589423   -0.0067379087099095555   -0.0005617831946225446
-4.753581568491012e-06   -0.006744898446817298   -0.0005572217790210046
0.0011684050455504106   -0.004324566926397513   -0.0004825450323186034
6.975282513338495e-05   -0.004312082616991955   -0.0004777522429374011
-2.1062244216408633e-07   -0.006746941654565742   -0.0005512568847653912
0.0011669858383645702   -0.004314455212075957   -0.0004956046962426708
7.327566345220037e-05   -0.00430393237837148   -0.0004777837720904451
-2.1062244216408633e-07   -0.006746941654565742   -0.0005512568847653912
0.0012749728477589423   -0.0067379087099095555   -0.0005617831946225446
0.0011669858383645702   -0.004314455212075957   -0.0004956046962426708
0.0012736800212358574   -0.006723973416555587   -0.0005669873814778037
7.327566345220037e-05   -0.00430393237837148   -0.0004777837720904451
0.001163995864805583   -0.004293866223747906   -0.0005112264251927262
0.0012736800212358574   -0.006723973416555587   -0.0005669873814778037
0.0011669858383645702   -0.004314455212075957   -0.0004956046962426708
7.327566345220037e-05   -0.00430393237837148   -0.0004777837720904451
0.0012736800212358574   -0.006723973416555587   -0.0005669873814778037
3.1915519865869817e-06   -0.006744075561748379   -0.0005479140152263759
-2.1062244216408633e-07   -0.006746941654565742   -0.0005512568847653912
7.327566345220037e-05   -0.00430393237837148   -0.0004777837720904451
0.0012736800212358574   -0.006723973416555587   -0.0005669873814778037
-2.1062244216408633e-07   -0.006746941654565742   -0.0005512568847653912
0.0011669858383645702   -0.004314455212075957   -0.0004956046962426708
0.0011628544557608185   -0.00432632148752171   -0.0004717723364953188
0.001266035183798097   -0.006748796236277046   -0.0005586929214070471
0.002420300857742184   -0.0043694604962487265   -0.0004731424483729288
0.0011684050455504106   -0.004324566926397513   -0.0004825450323186034
0.001266035183798097   -0.006748796236277046   -0.0005586929214070471
0.0026756014575985056   -0.006768367587519565   -0.0005670349515567948
0.002420300857742184   -0.0043694604962487265   -0.0004731424483729288
0.0026754739372668542   -0.00675822392078444   -0.0005767677636076703
0.0011684050455504106   -0.004324566926397513   -0.0004825450323186034
0.0024014999086387034   -0.004361347677758858   -0.0005016253701629477
0.0026754739372668542   -0.00675822392078444   -0.0005767677636076703
0.002420300857742184   -0.0043694604962487265   -0.0004731424483729288
0.0011684050455504106   -0.004324566926397513   -0.0004825450323186034
0.0026754739372668542   -0.00675822392078444   -0.0005767677636076703
0.0012729836119718758   -0.006745561627288927   -0.0005590501423855998
0.001266035183798097   -0.006748796236277046   -0.0005586929214070471
0.0011684050455504106   -0.004324566926397513   -0.0004825450323186034
0.0026754739372668542   -0.00675822392078444   -0.0005767677636076703
0.001266035183798097   -0.006748796236277046   -0.0005586929214070471
0.002420300857742184   -0.0043694604962487265   -0.0004731424483729288
0.0011684050455504106   -0.004324566926397513   -0.0004825450323186034
0.0012729836119718758   -0.006745561627288927   -0.0005590501423855998
0.0024014999086387034   -0.004361347677758858   -0.0005016253701629477
0.0011669858383645702   -0.004314455212075957   -0.0004956046962426708
0.0012729836119718758   -0.006745561627288927   -0.0005590501423855998
0.0026754739372668542   -0.00675822392078444   -0.0005767677636076703
0.0024014999086387034   -0.004361347677758858   -0.0005016253701629477
0.0026708368040116413   -0.006745850101338301   -0.0005903650871864057
0.0011669858383645702   -0.004314455212075957   -0.0004956046962426708
0.002382415773554357   -0.004345868438099368   -0.00053423344721837
0.0026708368040116413   -0.006745850101338301   -0.0005903650871864057
0.0024014999086387034   -0.004361347677758858   -0.0005016253701629477
0.0011669858383645702   -0.004314455212075957   -0.0004956046962426708
0.0026708368040116413   -0.006745850101338301   -0.0005903650871864057
0.0012749728477589423   -0.0067379087099095555   -0.0005617831946225446
0.0012729836119718758   -0.006745561627288927   -0.0005590501423855998
0.0011669858383645702   -0.004314455212075957   -0.0004956046962426708
0.0026708368040116413   -0.006745850101338301   -0.0005903650871864057
0.0012729836119718758   -0.006745561627288927   -0.0005590501423855998
0.0024014999086387034   -0.004361347677758858   -0.0005016253701629477
0.0011669858383645702   -0.004314455212075957   -0.0004956046962426708
0.0012749728477589423   -0.0067379087099095555   -0.0005617831946225446
0.002382415773554357   -0.004345868438099368   -0.00053423344721837
0.001163995864805583   -0.004293866223747906   -0.0005112264251927262
0.0012749728477589423   -0.0067379087099095555   -0.0005617831946225446
0.0026708368040116413   -0.006745850101338301   -0.0005903650871864057
0.002382415773554357   -0.004345868438099368   -0.00053423344721837
0.002654780930938933   -0.006722726862975866   -0.0006077986897381381
0.001163995864805583   -0.004293866223747906   -0.0005112264251927262
0.0023470560905962026   -0.004313882720852029   -0.0005709716128884444
0.002654780930938933   -0.006722726862975866   -0.0006077986897381381
0.002382415773554357   -0.004345868438099368   -0.00053423344721837
0.001163995864805583   -0.004293866223747906   -0.0005112264251927262
0.002654780930938933   -0.006722726862975866   -0.0006077986897381381
0.0012736800212358574   -0.006723973416555587   -0.0005669873814778037
0.0012749728477589423   -0.0067379087099095555   -0.0005617831946225446
0.001163995864805583   -0.004293866223747906   -0.0005112264251927262
0.002654780930938933   -0.006722726862975866   -0.0006077986897381381
0.0012749728477589423   -0.0067379087099095555   -0.0005617831946225446
0.002382415773554357   -0.004345868438099368   -0.00053423344721837
-0.003868374863811872   -0.006796414252914375   -0.0007038096406166345
-0.004239732197614072   -0.009405335601814375   -0.0007183154003819286
-0.002513601022570595   -0.006760263837919488   -0.0006377383661850935
-0.003905220953731918   -0.006834610837559905   -0.0006668684349870848
-0.004239732197614072   -0.009405335601814375   -0.0007183154003819286
-0.0027904013944782184   -0.00939086717282066   -0.0006661297180564312
-0.002513601022570595   -0.006760263837919488   -0.0006377383661850935
-0.002788106739684794   -0.009414724025368432   -0.0006504526082301658
-0.003905220953731918   -0.006834610837559905   -0.0006668684349870848
-0.0025152333834698166   -0.006788446795916322   -0.0006120116155793918
-0.002788106739684794   -0.009414724025368432   -0.0006504526082301658
-0.002513601022570595   -0.006760263837919488   -0.0006377383661850935
-0.003905220953731918   -0.006834610837559905   -0.0006668684349870848
-0.002788106739684794   -0.009414724025368432   -0.0006504526082301658
-0.004256079295131176   -0.009437469065980727   -0.0006995871944735213
-0.004239732197614072   -0.009405335601814375   -0.0007183154003819286
-0.003905220953731918   -0.006834610837559905   -0.0006668684349870848
-0.002788106739684794   -0.009414724025368432   -0.0006504526082301658
-0.004239732197614072   -0.009405335601814375   -0.0007183154003819286
-0.002513601022570595   -0.006760263837919488   -0.0006377383661850935
-0.003905220953731918   -0.006834610837559905   -0.0006668684349870848
-0.004256079295131176   -0.009437469065980727   -0.0006995871944735213
-0.0025152333834698166   -0.006788446795916322   -0.0006120116155793918
-0.003925676221930606   -0.006861778194083859   -0.000633531399578719
-0.004256079295131176   -0.009437469065980727   -0.0006995871944735213
-0.002788106739684794   -0.009414724025368432   -0.0006504526082301658
-0.0025152333834698166   -0.006788446795916322   -0.0006120116155793918
-0.0027831773548483573   -0.009436870119088586   -0.0006373829757281085
-0.003925676221930606   -0.006861778194083859   -0.000633531399578719
-0.002515953058751829   -0.00681090837231222   -0.0005888729786823509
-0.0027831773548483573   -0.009436870119088586   -0.0006373829757281085
-0.0025152333834698166   -0.006788446795916322   -0.0006120116155793918
-0.003925676221930606   -0.006861778194083859   -0.000633531399578719
-0.0027831773548483573   -0.009436870119088586   -0.0006373829757281085
-0.004260312500692971   -0.009463845632179422   -0.0006846078233469791
-0.004256079295131176   -0.009437469065980727   -0.0006995871944735213
-0.003925676221930606   -0.006861778194083859   -0.000633531399578719
-0.0027831773548483573   -0.009436870119088586   -0.0006373829757281085
-0.004256079295131176   -0.009437469065980727   -0.0006995871944735213
-0.0025152333834698166   -0.006788446795916322   -0.0006120116155793918
-0.003925676221930606   -0.006861778194083859   -0.000633531399578719
-0.004260312500692971   -0.009463845632179422   -0.0006846078233469791
-0.002515953058751829   -0.00681090837231222   -0.0005888729786823509
-0.0039466307306690925   -0.006886373239270823   -0.0006042350140305707
-0.004260312500692971   -0.009463845632179422   -0.0006846078233469791
-0.0027831773548483573   -0.009436870119088586   -0.0006373829757281085
-0.002515953058751829   -0.00681090837231222   -0.0005888729786823509
-0.002772831307166416   -0.009459006547535238   -0.0006267263037094905
-0.0039466307306690925   -0.006886373239270823   -0.0006042350140305707
-0.002509339512857728   -0.00682952424311909   -0.0005679696371299952
-0.002772831307166416   -0.009459006547535238   -0.0006267263037094905
-0.002515953058751829   -0.00681090837231222   -0.0005888729786823509
-0.0039466307306690925   -0.006886373239270823   -0.0006042350140305707
-0.002772831307166416   -0.009459006547535238   -0.0006267263037094905
-0.004260642081234445   -0.009492707278754963   -0.0006737125229830049
-0.004260312500692971   -0.009463845632179422   -0.0006846078233469791
-0.0039466307306690925   -0.006886373239270823   -0.0006042350140305707
-0.002772831307166416   -0.009459006547535238   -0.0006267263037094905
-0.004260312500692971   -0.009463845632179422   -0.0006846078233469791
-0.002515953058751829   -0.00681090837231222   -0.0005888729786823509
-0.002513601022570595   -0.006760263837919488   -0.0006377383661850935
-0.0027904013944782184   -0.00939086717282066   -0.0006661297180564312
-0.0012447005701524247   -0.0067413830640150425   -0.0005920315834165337
-0.0025152333834698166   -0.006788446795916322   -0.0006120116155793918
-0.0027904013944782184   -0.00939086717282066   -0.0006661297180564312
-0.0014443534977002796   -0.009382297774800017   -0.0006306432310706198
-0.0012447005701524247   -0.0067413830640150425   -0.0005920315834165337
-0.0014381649560277138   -0.009396637589909716   -0.0006167834725391535
-0.0025152333834698166   -0.006788446795916322   -0.0006120116155793918
-0.0012409839537688317   -0.006758966763478265   -0.0005748866814485033
-0.0014381649560277138   -0.009396637589909716   -0.0006167834725391535
-0.0012447005701524247   -0.0067413830640150425   -0.0005920315834165337
-0.0025152333834698166   -0.006788446795916322   -0.0006120116155793918
-0.0014381649560277138   -0.009396637589909716   -0.0006167834725391535
-0.002788106739684794   -0.009414724025368432   -0.0006504526082301658
-0.0027904013944782184   -0.00939086717282066   -0.0006661297180564312
-0.0025152333834698166   -0.006788446795916322   -0.0006120116155793918
-0.0014381649560277138   -0.009396637589909716   -0.0006167834725391535
-0.0027904013944782184   -0.00939086717282066   -0.0006661297180564312
-0.0012447005701524247   -0.0067413830640150425   -0.0005920315834165337
-0.0025152333834698166   -0.006788446795916322   -0.0006120116155793918
-0.002788106739684794   -0.009414724025368432   -0.0006504526082301658
-0.0012409839537688317   -0.006758966763478265   -0.0005748866814485033
-0.002515953058751829   -0.00681090837231222   -0.0005888729786823509
-0.002788106739684794   -0.009414724025368432   -0.0006504526082301658
-0.0014381649560277138   -0.009396637589909716   -0.0006167834725391535
-0.0012409839537688317   -0.006758966763478265   -0.0005748866814485033
-0.0014308573969852288   -0.009409893422774407   -0.0006055270382957168
-0.002515953058751829   -0.00681090837231222   -0.0005888729786823509
-0.001236419991952162   -0.006771743579778808   -0.0005602839777537865
-0.0014308573969852288   -0.009409893422774407   -0.0006055270382957168
-0.0012409839537688317   -0.006758966763478265   -0.0005748866814485033
-0.002515953058751829   -0.00681090837231222   -0.0005888729786823509
-0.0014308573969852288   -0.009409893422774407   -0.0006055270382957168
-0.0027831773548483573   -0.009436870119088586   -0.0006373829757281085
-0.002788106739684794   -0.009414724025368432   -0.0006504526082301658
-0.002515953058751829   -0.00681090837231222   -0.0005888729786823509
-0.0014308573969852288   -0.009409893422774407   -0.0006055270382957168
-0.002788106739684794   -0.009414724025368432   -0.0006504526082301658
-0.0012409839537688317   -0.006758966763478265   -0.0005748866814485033
-0.002515953058751829   -0.00681090837231222   -0.0005888729786823509
-0.0027831773548483573   -0.009436870119088586   -0.0006373829757281085
-0.001236419991952162   -0.006771743579778808   -0.0005602839777537865
-0.002509339512857728   -0.00682952424311909   -0.0005679696371299952
-0.0027831773548483573   -0.009436870119088586   -0.0006373829757281085
-0.0014308573969852288   -0.009409893422774407   -0.0006055270382957168
-0.001236419991952162   -0.006771743579778808   -0.0005602839777537865
-0.0014222924373241755   -0.009422111198180472   -0.0005969425404493674
-0.002509339512857728   -0.00682952424311909   -0.0005679696371299952
-0.0012302562537216512   -0.006779798738110759   -0.0005482706873466938
-0.0014222924373241755   -0.009422111198180472   -0.0005969425404493674
-0.001236419991952162   -0.006771743579778808   -0.0005602839777537865
-0.002509339512857728   -0.00682952424311909   -0.0005679696371299952
-0.0014222924373241755   -0.009422111198180472   -0.0005969425404493674
-0.002772831307166416   -0.009459006547535238   -0.0006267263037094905
-0.0027831773548483573   -0.009436870119088586   -0.0006373829757281085
-0.002509339512857728   -0.00682952424311909   -0.0005679696371299952
-0.0014222924373241755   -0.009422111198180472   -0.0005969425404493674
-0.0027831773548483573   -0.009436870119088586   -0.0006373829757281085
-0.001236419991952162   -0.006771743579778808   -0.0005602839777537865
-0.0012447005701524247   -0.0067413830640150425   -0.0005920315834165337
-0.0014443534977002796   -0.009382297774800017   -0.0006306432310706198
-1.0591554194753608e-05   -0.00673801349263578   -0.0005657015338191753
-0.0012409839537688317   -0.006758966763478265   -0.0005748866814485033
-0.0014443534977002796   -0.009382297774800017   -0.0006306432310706198
-0.00013479690001573687   -0.009377212216847527   -0.0006126049687701918
-1.0591554194753608e-05   -0.00673801349263578   -0.0005657015338191753
-0.0001265736289269053   -0.009381812835452787   -0.0006007152511786633
-0.0012409839537688317   -0.006758966763478265   -0.0005748866814485033
-4.753581568491012e-06   -0.006744898446817298   -0.0005572217790210046
-0.0001265736289269053   -0.009381812835452787   -0.0006007152511786633
-1.0591554194753608e-05   -0.00673801349263578   -0.0005657015338191753
-0.0012409839537688317   -0.006758966763478265   -0.0005748866814485033
-0.0001265736289269053   -0.009381812835452787   -0.0006007152511786633
-0.0014381649560277138   -0.009396637589909716   -0.0006167834725391535
-0.0014443534977002796   -0.009382297774800017   -0.0006306432310706198
-0.0012409839537688317   -0.006758966763478265   -0.0005748866814485033
-0.0001265736289269053   -0.009381812835452787   -0.0006007152511786633
-0.0014443534977002796   -0.009382297774800017   -0.0006306432310706198
-1.0591554194753608e-05   -0.00673801349263578   -0.0005657015338191753
-0.0012409839537688317   -0.006758966763478265   -0.0005748866814485033
-0.0014381649560277138   -0.009396637589909716   -0.0006167834725391535
-4.753581568491012e-06   -0.006744898446817298   -0.0005572217790210046
-0.001236419991952162   -0.006771743579778808   -0.0005602839777537865
-0.0014381649560277138   -0.009396637589909716   -0.0006167834725391535
-0.0001265736289269053   -0.009381812835452787   -0.0006007152511786633
-4.753581568491012e-06   -0.006744898446817298   -0.0005572217790210046
-0.00011930384918321189   -0.009385246253691743   -0.0005914115700143375
-0.001236419991952162   -0.006771743579778808   -0.0005602839777537865
-2.1062244216408633e-07   -0.006746941654565742   -0.0005512568847653912
-0.00011930384918321189   -0.009385246253691743   -0.0005914115700143375
-4.753581568491012e-06   -0.006744898446817298   -0.0005572217790210046
-0.001236419991952162   -0.006771743579778808   -0.0005602839777537865
-0.00011930384918321189   -0.009385246253691743   -0.0005914115700143375
-0.0014308573969852288   -0.009409893422774407   -0.0006055270382957168
-0.0014381649560277138   -0.009396637589909716   -0.0006167834725391535
-0.001236419991952162   -0.006771743579778808   -0.0005602839777537865
-0.00011930384918321189   -0.009385246253691743   -0.0005914115700143375
-0.0014381649560277138   -0.009396637589909716   -0.0006167834725391535
-4.753581568491012e-06   -0.006744898446817298   -0.0005572217790210046
-0.001236419991952162   -0.006771743579778808   -0.0005602839777537865
-0.0014308573969852288   -0.009409893422774407   -0.0006055270382957168
-2.1062244216408633e-07   -0.006746941654565742   -0.0005512568847653912
-0.0012302562537216512   -0.006779798738110759   -0.0005482706873466938
-0.0014308573969852288   -0.009409893422774407   -0.0006055270382957168
-0.00011930384918321189   -0.009385246253691743   -0.0005914115700143375
-2.1062244216408633e-07   -0.006746941654565742   -0.0005512568847653912
-0.00011346428051856985   -0.009387490940974916   -0.0005847849260537163
-0.0012302562537216512   -0.006779798738110759   -0.0005482706873466938
3.1915519865869817e-06   -0.006744075561748379   -0.0005479140152263759
-0.00011346428051856985   -0.009387490940974916   -0.0005847849260537163
-2.1062244216408633e-07   -0.006746941654565742   -0.0005512568847653912
-0.0012302562537216512   -0.006779798738110759   -0.0005482706873466938
-0.00011346428051856985   -0.009387490940974916   -0.0005847849260537163
-0.0014222924373241755   -0.009422111198180472   -0.0005969425404493674
-0.0014308573969852288   -0.009409893422774407   -0.0006055270382957168
-0.0012302562537216512   -0.006779798738110759   -0.0005482706873466938
-0.00011346428051856985   -0.009387490940974916   -0.0005847849260537163
-0.0014308573969852288   -0.009409893422774407   -0.0006055270382957168
-2.1062244216408633e-07   -0.006746941654565742   -0.0005512568847653912
-1.0591554194753608e-05   -0.00673801349263578   -0.0005657015338191753
-0.00013479690001573687   -0.009377212216847527   -0.0006126049687701918
0.001266035183798097   -0.006748796236277046   -0.0005586929214070471
-4.753581568491012e-06   -0.006744898446817298   -0.0005572217790210046
-0.00013479690001573687   -0.009377212216847527   -0.0006126049687701918
0.0012144704061296608   -0.009374725074112399   -0.000612225488911287
0.001266035183798097   -0.006748796236277046   -0.0005586929214070471
0.001225086362595612   -0.009369856182263856   -0.0006023985693361275
-4.753581568491012e-06   -0.006744898446817298   -0.0005572217790210046
0.0012729836119718758   -0.006745561627288927   -0.0005590501423855998
0.001225086362595612   -0.009369856182263856   -0.0006023985693361275
0.001266035183798097   -0.006748796236277046   -0.0005586929214070471
-4.753581568491012e-06   -0.006744898446817298   -0.0005572217790210046
0.001225086362595612   -0.009369856182263856   -0.0006023985693361275
-0.0001265736289269053   -0.009381812835452787   -0.0006007152511786633
-0.00013479690001573687   -0.009377212216847527   -0.0006126049687701918
-4.753581568491012e-06   -0.006744898446817298   -0.0005572217790210046
0.001225086362595612   -0.009369856182263856   -0.0006023985693361275
-0.00013479690001573687   -0.009377212216847527   -0.0006126049687701918
0.001266035183798097   -0.006748796236277046   -0.0005586929214070471
-4.753581568491012e-06   -0.006744898446817298   -0.0005572217790210046
-0.0001265736289269053   -0.009381812835452787   -0.0006007152511786633
0.0012729836119718758   -0.006745561627288927   -0.0005590501423855998
-2.1062244216408633e-07   -0.006746941654565742   -0.0005512568847653912
-0.0001265736289269053   -0.009381812835452787   -0.0006007152511786633
0.001225086362595612   -0.009369856182263856   -0.0006023985693361275
0.0012729836119718758   -0.006745561627288927   -0.0005590501423855998
0.001232688993988926   -0.009364401186791224   -0.0005950795048751324
-2.1062244216408633e-07   -0.006746941654565742   -0.0005512568847653912
0.0012749728477589423   -0.0067379087099095555   -0.0005617831946225446
0.001232688993988926   -0.009364401186791224   -0.0005950795048751324
0.0012729836119718758   -0.006745561627288927   -0.0005590501423855998
-2.1062244216408633e-07   -0.006746941654565742   -0.0005512568847653912
0.001232688993988926   -0.009364401186791224   -0.0005950795048751324
-0.00011930384918321189   -0.009385246253691743   -0.0005914115700143375
-0.0001265736289269053   -0.009381812835452787   -0.0006007152511786633
-2.1062244216408633e-07   -0.006746941654565742   -0.0005512568847653912
0.001232688993988926   -0.009364401186791224   -0.0005950795048751324
-0.0001265736289269053   -0.009381812835452787   -0.0006007152511786633
0.0012729836119718758   -0.006745561627288927   -0.0005590501423855998
-2.1062244216408633e-07   -0.006746941654565742   -0.0005512568847653912
-0.00011930384918321189   -0.009385246253691743   -0.0005914115700143375
0.0012749728477589423   -0.0067379087099095555   -0.0005617831946225446
3.1915519865869817e-06   -0.006744075561748379   -0.0005479140152263759
-0.00011930384918321189   -0.009385246253691743   -0.0005914115700143375
0.001232688993988926   -0.009364401186791224   -0.0005950795048751324
0.0012749728477589423   -0.0067379087099095555   -0.0005617831946225446
0.0012352868881474808   -0.009356640263505566   -0.0005902198809201433
3.1915519865869817e-06   -0.006744075561748379   -0.0005479140152263759
0.0012736800212358574   -0.006723973416555587   -0.0005669873814778037
0.0012352868881474808   -0.009356640263505566   -0.0005902198809201433
0.0012749728477589423   -0.0067379087099095555   -0.0005617831946225446
3.1915519865869817e-06   -0.006744075561748379   -0.0005479140152263759
0.0012352868881474808   -0.009356640263505566   -0.0005902198809201433
-0.00011346428051856985   -0.009387490940974916   -0.0005847849260537163
-0.00011930384918321189   -0.009385246253691743   -0.0005914115700143375
3.1915519865869817e-06   -0.006744075561748379   -0.0005479140152263759
0.0012352868881474808   -0.009356640263505566   -0.0005902198809201433
-0.00011930384918321189   -0.009385246253691743   -0.0005914115700143375
0.0012749728477589423   -0.0067379087099095555   -0.0005617831946225446
0.001266035183798097   -0.006748796236277046   -0.0005586929214070471
0.0012144704061296608   -0.009374725074112399   -0.000612225488911287
0.0026756014575985056   -0.006768367587519565   -0.0005670349515567948
0.0012729836119718758   -0.006745561627288927   -0.0005590501423855998
0.0012144704061296608   -0.009374725074112399   -0.000612225488911287
0.0026756143004987177   -0.009370926079296541   -0.0006279390884945929
0.0026756014575985056   -0.006768367587519565   -0.0005670349515567948
0.0026959291362146504   -0.009358528338459711   -0.0006194199332770137
0.0012729836119718758   -0.006745561627288927   -0.0005590501423855998
0.0026754739372668542   -0.00675822392078444   -0.0005767677636076703
0.0026959291362146504   -0.009358528338459711   -0.0006194199332770137
0.0026756014575985056   -0.006768367587519565   -0.0005670349515567948
0.0012729836119718758   -0.006745561627288927   -0.0005590501423855998
0.0026959291362146504   -0.009358528338459711   -0.0006194199332770137
0.001225086362595612   -0.009369856182263856   -0.0006023985693361275
0.0012144704061296608   -0.009374725074112399   -0.000612225488911287
0.0012729836119718758   -0.006745561627288927   -0.0005590501423855998
0.0026959291362146504   -0.009358528338459711   -0.0006194199332770137
0.0012144704061296608   -0.009374725074112399   -0.000612225488911287
0.0026756014575985056   -0.006768367587519565   -0.0005670349515567948
0.0012729836119718758   -0.006745561627288927   -0.0005590501423855998
0.001225086362595612   -0.009369856182263856   -0.0006023985693361275
0.0026754739372668542   -0.00675822392078444   -0.0005767677636076703
0.0012749728477589423   -0.0067379087099095555   -0.0005617831946225446
0.001225086362595612   -0.009369856182263856   -0.0006023985693361275
0.0026959291362146504   -0.009358528338459711   -0.0006194199332770137
0.0026754739372668542   -0.00675822392078444   -0.0005767677636076703
0.0027074584509462806   -0.009348862026385558   -0.0006147256110184035
0.0012749728477589423   -0.0067379087099095555   -0.0005617831946225446
0.0026708368040116413   -0.006745850101338301   -0.0005903650871864057
0.0027074584509462806   -0.009348862026385558   -0.0006147256110184035
0.0026754739372668542   -0.00675822392078444   -0.0005767677636076703
0.0012749728477589423   -0.0067379087099095555   -0.0005617831946225446
0.0027074584509462806   -0.009348862026385558   -0.0006147256110184035
0.001232688993988926   -0.009364401186791224   -0.0005950795048751324
0.001225086362595612   -0.009369856182263856   -0.0006023985693361275
0.0012749728477589423   -0.0067379087099095555   -0.0005617831946225446
0.0027074584509462806   -0.009348862026385558   -0.0006147256110184035
0.001225086362595612   -0.009369856182263856   -0.0006023985693361275
0.0026754739372668542   -0.00675822392078444   -0.0005767677636076703
0.0012749728477589423   -0.0067379087099095555   -0.0005617831946225446
0.001232688993988926   -0.009364401186791224   -0.0005950795048751324
0.0026708368040116413   -0.006745850101338301   -0.0005903650871864057
0.0012736800212358574   -0.006723973416555587   -0.0005669873814778037
0.001232688993988926   -0.009364401186791224   -0.0005950795048751324
0.0027074584509462806   -0.009348862026385558   -0.0006147256110184035
0.0026708368040116413   -0.006745850101338301   -0.0005903650871864057
0.0027119554819240088   -0.00933373975024721   -0.0006139219277860307
0.0012736800212358574   -0.006723973416555587   -0.0005669873814778037
0.002654780930938933   -0.006722726862975866   -0.0006077986897381381
0.0027119554819240088   -0.00933373975024721   -0.0006139219277860307
0.0026708368040116413   -0.006745850101338301   -0.0005903650871864057
0.0012736800212358574   -0.006723973416555587   -0.0005669873814778037
0.0027119554819240088   -0.00933373975024721   -0.0006139219277860307
0.0012352868881474808   -0.009356640263505566   -0.0005902198809201433
0.001232688993988926   -0.009364401186791224   -0.0005950795048751324
0.0012736800212358574   -0.006723973416555587   -0.0005669873814778037
0.0027119554819240088   -0.00933373975024721   -0.0006139219277860307
0.001232688993988926   -0.009364401186791224   -0.0005950795048751324
0.0026708368040116413   -0.006745850101338301   -0.0005903650871864057
-0.004239732197614072   -0.009405335601814375   -0.0007183154003819286
-0.004364397535220326   -0.012051222655743356   -0.000707724510568688
-0.0027904013944782184   -0.00939086717282066   -0.0006661297180564312
-0.004256079295131176   -0.009437469065980727   -0.0006995871944735213
-0.004364397535220326   -0.012051222655743356   -0.000707724510568688
-0.0029212775576612513   -0.012058365958071538   -0.0006695168245699301
-0.0027904013944782184   -0.00939086717282066   -0.0006661297180564312
-0.0029126915240620887   -0.01207787361656354   -0.0006636377868704533
-0.004256079295131176   -0.009437469065980727   -0.0006995871944735213
-0.002788106739684794   -0.009414724025368432   -0.0006504526082301658
-0.0029126915240620887   -0.01207787361656354   -0.0006636377868704533
-0.0027904013944782184   -0.00939086717282066   -0.0006661297180564312
-0.004256079295131176   -0.009437469065980727   -0.0006995871944735213
-0.0029126915240620887   -0.01207787361656354   -0.0006636377868704533
-0.00435816768380451   -0.012077372266572744   -0.0007069410765612894
-0.004364397535220326   -0.012051222655743356   -0.000707724510568688
-0.004256079295131176   -0.009437469065980727   -0.0006995871944735213
-0.0029126915240620887   -0.01207787361656354   -0.0006636377868704533
-0.004364397535220326   -0.012051222655743356   -0.000707724510568688
-0.0027904013944782184   -0.00939086717282066   -0.0006661297180564312
-0.004256079295131176   -0.009437469065980727   -0.0006995871944735213
-0.00435816768380451   -0.012077372266572744   -0.0007069410765612894
-0.002788106739684794   -0.009414724025368432   -0.0006504526082301658
-0.004260312500692971   -0.009463845632179422   -0.0006846078233469791
-0.00435816768380451   -0.012077372266572744   -0.0007069410765612894
-0.0029126915240620887   -0.01207787361656354   -0.0006636377868704533
-0.002788106739684794   -0.009414724025368432   -0.0006504526082301658
-0.0028997711405618527   -0.01209966067839541   -0.0006604104875322644
-0.004260312500692971   -0.009463845632179422   -0.0006846078233469791
-0.0027831773548483573   -0.009436870119088586   -0.0006373829757281085
-0.0028997711405618527   -0.01209966067839541   -0.0006604104875322644
-0.002788106739684794   -0.009414724025368432   -0.0006504526082301658
-0.004260312500692971   -0.009463845632179422   -0.0006846078233469791
-0.0028997711405618527   -0.01209966067839541   -0.0006604104875322644
-0.004343884445789676   -0.012102972743668585   -0.0007101161316992558
-0.00435816768380451   -0.012077372266572744   -0.0007069410765612894
-0.004260312500692971   -0.009463845632179422   -0.0006846078233469791
-0.0028997711405618527   -0.01209966067839541   -0.0006604104875322644
-0.00435816768380451   -0.012077372266572744   -0.0007069410765612894
-0.002788106739684794   -0.009414724025368432   -0.0006504526082301658
-0.004260312500692971   -0.009463845632179422   -0.0006846078233469791
-0.004343884445789676   -0.012102972743668585   -0.0007101161316992558
-0.0027831773548483573   -0.009436870119088586   -0.0006373829757281085
-0.004260642081234445   -0.009492707278754963   -0.0006737125229830049
-0.004343884445789676   -0.012102972743668585   -0.0007101161316992558
-0.0028997711405618527   -0.01209966067839541   -0.0006604104875322644
-0.0027831773548483573   -0.009436870119088586   -0.0006373829757281085
-0.0028833195975094573   -0.012125239499724499   -0.0006597793356285275
-0.004260642081234445   -0.009492707278754963   -0.0006737125229830049
-0.002772831307166416   -0.009459006547535238   -0.0006267263037094905
-0.0028833195975094573   -0.012125239499724499   -0.0006597793356285275
-0.0027831773548483573   -0.009436870119088586   -0.0006373829757281085
-0.004260642081234445   -0.009492707278754963   -0.0006737125229830049
-0.0028833195975094573   -0.012125239499724499   -0.0006597793356285275
-0.004321351958916198   -0.012136137698875074   -0.0007174657159953181
-0.004343884445789676   -0.012102972743668585   -0.0007101161316992558
-0.004260642081234445   -0.009492707278754963   -0.0006737125229830049
-0.0028833195975094573   -0.012125239499724499   -0.0006597793356285275
-0.004343884445789676   -0.012102972743668585   -0.0007101161316992558
-0.0027831773548483573   -0.009436870119088586   -0.0006373829757281085
-0.0027904013944782184   -0.00939086717282066   -0.0006661297180564312
-0.0029212775576612513   -0.012058365958071538   -0.0006695168245699301
-0.0014443534977002796   -0.009382297774800017   -0.0006306432310706198
-0.002788106739684794   -0.009414724025368432   -0.0006504526082301658
-0.0029212775576612513   -0.012058365958071538   -0.0006695168245699301
-0.001598662189805358   -0.012059730003470406   -0.0006441693498419202
-0.0014443534977002796   -0.009382297774800017   -0.0006306432310706198
-0.0015874916364356777   -0.012070820648357116   -0.0006334701738738645
-0.002788106739684794   -0.009414724025368432   -0.0006504526082301658
-0.0014381649560277138   -0.009396637589909716   -0.0006167834725391535
-0.0015874916364356777   -0.012070820648357116   -0.0006334701738738645
-0.0014443534977002796   -0.009382297774800017   -0.0006306432310706198
-0.002788106739684794   -0.009414724025368432   -0.0006504526082301658
-0.0015874916364356777   -0.012070820648357116   -0.0006334701738738645
-0.0029126915240620887   -0.01207787361656354   -0.0006636377868704533
-0.0029212775576612513   -0.012058365958071538   -0.0006695168245699301
-0.002788106739684794   -0.009414724025368432   -0.0006504526082301658
-0.0015874916364356777   -0.012070820648357116   -0.0006334701738738645
-0.0029212775576612513   -0.012058365958071538   -0.0006695168245699301
-0.0014443534977002796   -0.009382297774800017   -0.0006306432310706198
-0.002788106739684794   -0.009414724025368432   -0.0006504526082301658
-0.0029126915240620887   -0.01207787361656354   -0.0006636377868704533
-0.0014381649560277138   -0.009396637589909716   -0.0006167834725391535
-0.0027831773548483573   -0.009436870119088586   -0.0006373829757281085
-0.0029126915240620887   -0.01207787361656354   -0.0006636377868704533
-0.0015874916364356777   -0.012070820648357116   -0.0006334701738738645
-0.0014381649560277138   -0.009396637589909716   -0.0006167834725391535
-0.0015749936212080078   -0.01208446697341212   -0.000625427965541915
-0.0027831773548483573   -0.009436870119088586   -0.0006373829757281085
-0.0014308573969852288   -0.009409893422774407   -0.0006055270382957168
-0.0015749936212080078   -0.01208446697341212   -0.000625427965541915
-0.0014381649560277138   -0.009396637589909716   -0.0006167834725391535
-0.0027831773548483573   -0.009436870119088586   -0.0006373829757281085
-0.0015749936212080078   -0.01208446697341212   -0.000625427965541915
-0.0028997711405618527   -0.01209966067839541   -0.0006604104875322644
-0.0029126915240620887   -0.01207787361656354   -0.0006636377868704533
-0.0027831773548483573   -0.009436870119088586   -0.0006373829757281085
-0.0015749936212080078   -0.01208446697341212   -0.000625427965541915
-0.0029126915240620887   -0.01207787361656354   -0.0006636377868704533
-0.0014381649560277138   -0.009396637589909716   -0.0006167834725391535
-0.0027831773548483573   -0.009436870119088586   -0.0006373829757281085
-0.0028997711405618527   -0.01209966067839541   -0.0006604104875322644
-0.0014308573969852288   -0.009409893422774407   -0.0006055270382957168
-0.002772831307166416   -0.009459006547535238   -0.0006267263037094905
-0.0028997711405618527   -0.01209966067839541   -0.0006604104875322644
-0.0015749936212080078   -0.01208446697341212   -0.000625427965541915
-0.0014308573969852288   -0.009409893422774407   -0.0006055270382957168
-0.0015615755868916136   -0.012100711892183303   -0.0006201354986677969
-0.002772831307166416   -0.009459006547535238   -0.0006267263037094905
-0.0014222924373241755   -0.009422111198180472   -0.0005969425404493674
-0.0015615755868916136   -0.012100711892183303   -0.0006201354986677969
-0.0014308573969852288   -0.009409893422774407   -0.0006055270382957168
-0.002772831307166416   -0.009459006547535238   -0.0006267263037094905
-0.0015615755868916136   -0.012100711892183303   -0.0006201354986677969
-0.0028833195975094573   -0.012125239499724499   -0.0006597793356285275
-0.0028997711405618527   -0.01209966067839541   -0.0006604104875322644
-0.002772831307166416   -0.009459006547535238   -0.0006267263037094905
-0.0015615755868916136   -0.012100711892183303   -0.0006201354986677969
-0.0028997711405618527   -0.01209966067839541   -0.0006604104875322644
-0.0014308573969852288   -0.009409893422774407   -0.0006055270382957168
-0.0014443534977002796   -0.009382297774800017   -0.0006306432310706198
-0.001598662189805358   -0.012059730003470406   -0.0006441693498419202
-0.00013479690001573687   -0.009377212216847527   -0.0006126049687701918
-0.0014381649560277138   -0.009396637589909716   -0.0006167834725391535
-0.001598662189805358   -0.012059730003470406   -0.0006441693498419202
-0.00031330150686895814   -0.012052495220815616   -0.0006341760143452057
-0.00013479690001573687   -0.009377212216847527   -0.0006126049687701918
-0.000300206033334992   -0.012054838397959098   -0.0006188989455904114
-0.0014381649560277138   -0.009396637589909716   -0.0006167834725391535
-0.0001265736289269053   -0.009381812835452787   -0.0006007152511786633
-0.000300206033334992   -0.012054838397959098   -0.0006188989455904114
-0.00013479690001573687   -0.009377212216847527   -0.0006126049687701918
-0.0014381649560277138   -0.009396637589909716   -0.0006167834725391535
-0.000300206033334992   -0.012054838397959098   -0.0006188989455904114
-0.0015874916364356777   -0.012070820648357116   -0.0006334701738738645
-0.001598662189805358   -0.012059730003470406   -0.0006441693498419202
-0.0014381649560277138   -0.009396637589909716   -0.0006167834725391535
-0.000300206033334992   -0.012054838397959098   -0.0006188989455904114
-0.001598662189805358   -0.012059730003470406   -0.0006441693498419202
-0.00013479690001573687   -0.009377212216847527   -0.0006126049687701918
-0.0014381649560277138   -0.009396637589909716   -0.0006167834725391535
-0.0015874916364356777   -0.012070820648357116   -0.0006334701738738645
-0.0001265736289269053   -0.009381812835452787   -0.0006007152511786633
-0.0014308573969852288   -0.009409893422774407   -0.0006055270382957168
-0.0015874916364356777   -0.012070820648357116   -0.0006334701738738645
-0.000300206033334992   -0.012054838397959098   -0.0006188989455904114
-0.0001265736289269053   -0.009381812835452787   -0.0006007152511786633
-0.0002877756593492685   -0.012059552535322616   -0.0006062655075738075
-0.0014308573969852288   -0.009409893422774407   -0.0006055270382957168
-0.00011930384918321189   -0.009385246253691743   -0.0005914115700143375
-0.0002877756593492685   -0.012059552535322616   -0.0006062655075738075
-0.0001265736289269053   -0.009381812835452787   -0.0006007152511786633
-0.0014308573969852288   -0.009409893422774407   -0.0006055270382957168
-0.0002877756593492685   -0.012059552535322616   -0.0006062655075738075
-0.0015749936212080078   -0.01208446697341212   -0.000625427965541915
-0.0015874916364356777   -0.012070820648357116   -0.0006334701738738645
-0.0014308573969852288   -0.009409893422774407   -0.0006055270382957168
-0.0002877756593492685   -0.012059552535322616   -0.0006062655075738075
-0.0015874916364356777   -0.012070820648357116   -0.0006334701738738645
-0.0001265736289269053   -0.009381812835452787   -0.0006007152511786633
-0.0014308573969852288   -0.009409893422774407   -0.0006055270382957168
-0.0015749936212080078   -0.01208446697341212   -0.000625427965541915
-0.00011930384918321189   -0.009385246253691743   -0.0005914115700143375
-0.0014222924373241755   -0.009422111198180472   -0.0005969425404493674
-0.0015749936212080078   -0.01208446697341212   -0.000625427965541915
-0.0002877756593492685   -0.012059552535322616   -0.0006062655075738075
-0.00011930384918321189   -0.009385246253691743   -0.0005914115700143375
-0.00027707838235095574   -0.012066737973782351   -0.0005963650661265125
-0.0014222924373241755   -0.009422111198180472   -0.0005969425404493674
-0.00011346428051856985   -0.009387490940974916   -0.0005847849260537163
-0.00027707838235095574   -0.012066737973782351   -0.0005963650661265125
-0.00011930384918321189   -0.009385246253691743   -0.0005914115700143375
-0.0014222924373241755   -0.009422111198180472   -0.0005969425404493674
-0.00027707838235095574   -0.012066737973782351   -0.0005963650661265125
-0.0015615755868916136   -0.012100711892183303   -0.0006201354986677969
-0.0015749936212080078   -0.01208446697341212   -0.000625427965541915
-0.0014222924373241755   -0.009422111198180472   -0.0005969425404493674
-0.00027707838235095574   -0.012066737973782351   -0.0005963650661265125
-0.0015749936212080078   -0.01208446697341212   -0.000625427965541915
-0.00011930384918321189   -0.009385246253691743   -0.0005914115700143375
-0.00013479690001573687   -0.009377212216847527   -0.0006126049687701918
-0.00031330150686895814   -0.012052495220815616   -0.0006341760143452057
0.0012144704061296608   -0.009374725074112399   -0.000612225488911287
-0.0001265736289269053   -0.009381812835452787   -0.0006007152511786633
-0.00031330150686895814   -0.012052495220815616   -0.0006341760143452057
0.0010100784920602974   -0.012036517195062038   -0.0006400716303855592
0.0012144704061296608   -0.009374725074112399   -0.000612225488911287
0.0010266605059405976   -0.012030058099011327   -0.0006202761630100076
-0.0001265736289269053   -0.009381812835452787   -0.0006007152511786633
0.001225086362595612   -0.009369856182263856   -0.0006023985693361275
0.0010266605059405976   -0.012030058099011327   -0.0006202761630100076
0.0012144704061296608   -0.009374725074112399   -0.000612225488911287
-0.0001265736289269053   -0.009381812835452787   -0.0006007152511786633
0.0010266605059405976   -0.012030058099011327   -0.0006202761630100076
-0.000300206033334992   -0.012054838397959098   -0.0006188989455904114
-0.00031330150686895814   -0.012052495220815616   -0.0006341760143452057
-0.0001265736289269053   -0.009381812835452787   -0.0006007152511786633
0.0010266605059405976   -0.012030058099011327   -0.0006202761630100076
-0.00031330150686895814   -0.012052495220815616   -0.0006341760143452057
0.0012144704061296608   -0.009374725074112399   -0.000612225488911287
-0.0001265736289269053   -0.009381812835452787   -0.0006007152511786633
-0.000300206033334992   -0.012054838397959098   -0.0006188989455904114
0.001225086362595612   -0.009369856182263856   -0.0006023985693361275
-0.00011930384918321189   -0.009385246253691743   -0.0005914115700143375
-0.000300206033334992   -0.012054838397959098   -0.0006188989455904114
0.0010266605059405976   -0.012030058099011327   -0.0006202761630100076
0.001225086362595612   -0.009369856182263856   -0.0006023985693361275
0.0010421357086075715   -0.012026682620712964   -0.0006031129427943347
-0.00011930384918321189   -0.009385246253691743   -0.0005914115700143375
0.001232688993988926   -0.009364401186791224   -0.0005950795048751324
0.0010421357086075715   -0.012026682620712964   -0.0006031129427943347
0.001225086362595612   -0.009369856182263856   -0.0006023985693361275
-0.00011930384918321189   -0.009385246253691743   -0.0005914115700143375
0.0010421357086075715   -0.012026682620712964   -0.0006031129427943347
-0.0002877756593492685   -0.012059552535322616   -0.0006062655075738075
-0.000300206033334992   -0.012054838397959098   -0.0006188989455904114
-0.00011930384918321189   -0.009385246253691743   -0.0005914115700143375
0.0010421357086075715   -0.012026682620712964   -0.0006031129427943347
-0.000300206033334992   -0.012054838397959098   -0.0006188989455904114
0.001225086362595612   -0.009369856182263856   -0.0006023985693361275
-0.00011930384918321189   -0.009385246253691743   -0.0005914115700143375
-0.0002877756593492685   -0.012059552535322616   -0.0006062655075738075
0.001232688993988926   -0.009364401186791224   -0.0005950795048751324
-0.00011346428051856985   -0.009387490940974916   -0.0005847849260537163
-0.0002877756593492685   -0.012059552535322616   -0.0006062655075738075
0.0010421357086075715   -0.012026682620712964   -0.0006031129427943347
0.001232688993988926   -0.009364401186791224   -0.0005950795048751324
0.001050877035031343   -0.01202485023741978   -0.0005884100516064631
-0.00011346428051856985   -0.009387490940974916   -0.0005847849260537163
0.0012352868881474808   -0.009356640263505566   -0.0005902198809201433
0.001050877035031343   -0.01202485023741978   -0.0005884100516064631
0.001232688993988926   -0.009364401186791224   -0.0005950795048751324
-0.00011346428051856985   -0.009387490940974916   -0.0005847849260537163
0.001050877035031343   -0.01202485023741978   -0.0005884100516064631
-0.00027707838235095574   -0.012066737973782351   -0.0005963650661265125
-0.0002877756593492685   -0.012059552535322616   -0.0006062655075738075
-0.00011346428051856985   -0.009387490940974916   -0.0005847849260537163
0.001050877035031343   -0.01202485023741978   -0.0005884100516064631
-0.0002877756593492685   -0.012059552535322616   -0.0006062655075738075
0.001232688993988926   -0.009364401186791224   -0.0005950795048751324
0.0012144704061296608   -0.009374725074112399   -0.000612225488911287
0.0010100784920602974   -0.012036517195062038   -0.0006400716303855592
0.0026756143004987177   -0.009370926079296541   -0.0006279390884945929
0.001225086362595612   -0.009369856182263856   -0.0006023985693361275
0.0010100784920602974   -0.012036517195062038   -0.0006400716303855592
0.002425042193075705   -0.012009478370109676   -0.0006628333289503017
0.0026756143004987177   -0.009370926079296541   -0.0006279390884945929
0.0024675915928621373   -0.011994996794638163   -0.0006366351014861886
0.001225086362595612   -0.009369856182263856   -0.0006023985693361275
0.0026959291362146504   -0.009358528338459711   -0.0006194199332770137
0.0024675915928621373   -0.011994996794638163   -0.0006366351014861886
0.0026756143004987177   -0.009370926079296541   -0.0006279390884945929
0.001225086362595612   -0.009369856182263856   -0.0006023985693361275
0.0024675915928621373   -0.011994996794638163   -0.0006366351014861886
0.0010266605059405976   -0.012030058099011327   -0.0006202761630100076
0.0010100784920602974   -0.012036517195062038   -0.0006400716303855592
0.001225086362595612   -0.009369856182263856   -0.0006023985693361275
0.0024675915928621373   -0.011994996794638163   -0.0006366351014861886
0.0010100784920602974   -0.012036517195062038   -0.0006400716303855592
0.0026756143004987177   -0.009370926079296541   -0.0006279390884945929
0.001225086362595612   -0.009369856182263856   -0.0006023985693361275
0.0010266605059405976   -0.012030058099011327   -0.0006202761630100076
0.0026959291362146504   -0.009358528338459711   -0.0006194199332770137
0.001232688993988926   -0.009364401186791224   -0.0005950795048751324
0.0010266605059405976   -0.012030058099011327   -0.0006202761630100076
0.0024675915928621373   -0.011994996794638163   -0.0006366351014861886
0.0026959291362146504   -0.009358528338459711   -0.0006194199332770137
0.0024972055011800763   -0.01198795192084147   -0.0006142011504845839
0.001232688993988926   -0.009364401186791224   -0.0005950795048751324
0.0027074584509462806   -0.009348862026385558   -0.0006147256110184035
0.0024972055011800763   -0.01198795192084147   -0.0006142011504845839
0.0026959291362146504   -0.009358528338459711   -0.0006194199332770137
0.001232688993988926   -0.009364401186791224   -0.0005950795048751324
0.0024972055011800763   -0.01198795192084147   -0.0006142011504845839
0.0010421357086075715   -0.012026682620712964   -0.0006031129427943347
0.0010266605059405976   -0.012030058099011327   -0.0006202761630100076
0.001232688993988926   -0.009364401186791224   -0.0005950795048751324
0.0024972055011800763   -0.01198795192084147   -0.0006142011504845839
0.0010266605059405976   -0.012030058099011327   -0.0006202761630100076
0.0026959291362146504   -0.009358528338459711   -0.0006194199332770137
0.001232688993988926   -0.009364401186791224   -0.0005950795048751324
0.0010421357086075715   -0.012026682620712964   -0.0006031129427943347
0.0027074584509462806   -0.009348862026385558   -0.0006147256110184035
0.0012352868881474808   -0.009356640263505566   -0.0005902198809201433
0.0010421357086075715   -0.012026682620712964   -0.0006031129427943347
0.0024972055011800763   -0.01198795192084147   -0.0006142011504845839
0.0027074584509462806   -0.009348862026385558   -0.0006147256110184035
0.002523997168788613   -0.011980551353634825   -0.0005956916020063181
0.0012352868881474808   -0.009356640263505566   -0.0005902198809201433
0.0027119554819240088   -0.00933373975024721   -0.0006139219277860307
0.002523997168788613   -0.011980551353634825   -0.0005956916020063181
0.0027074584509462806   -0.009348862026385558   -0.0006147256110184035
0.0012352868881474808   -0.009356640263505566   -0.0005902198809201433
0.002523997168788613   -0.011980551353634825   -0.0005956916020063181
0.001050877035031343   -0.01202485023741978   -0.0005884100516064631
0.0010421357086075715   -0.012026682620712964   -0.0006031129427943347
0.0012352868881474808   -0.009356640263505566   -0.0005902198809201433
0.002523997168788613   -0.011980551353634825   -0.0005956916020063181
0.0010421357086075715   -0.012026682620712964   -0.0006031129427943347
0.0027074584509462806   -0.009348862026385558   -0.0006147256110184035
-0.004364397535220326   -0.012051222655743356   -0.000707724510568688
-0.004243096512062548   -0.014568824259457453   -0.0006779337913744676
-0.0029212775576612513   -0.012058365958071538   -0.0006695168245699301
-0.00435816768380451   -0.012077372266572744   -0.0007069410765612894
-0.004243096512062548   -0.014568824259457453   -0.0006779337913744676
-0.002907995485771631   -0.014597713185727055   -0.0006552110590168781
-0.0029212775576612513   -0.012058365958071538   -0.0006695168245699301
-0.0028908470173737294   -0.014612174779363036   -0.000658779777317996
-0.00435816768380451   -0.012077372266572744   -0.0007069410765612894
-0.0029126915240620887   -0.01207787361656354   -0.0006636377868704533
-0.0028908470173737294   -0.014612174779363036   -0.000658779777317996
-0.0029212775576612513   -0.012058365958071538   -0.0006695168245699301
-0.00435816768380451   -0.012077372266572744   -0.0007069410765612894
-0.0028908470173737294   -0.014612174779363036   -0.000658779777317996
-0.004212083328525561   -0.014588367239607204   -0.0006949379619402236
-0.004243096512062548   -0.014568824259457453   -0.0006779337913744676
-0.00435816768380451   -0.012077372266572744   -0.0007069410765612894
-0.0028908470173737294   -0.014612174779363036   -0.000658779777317996
-0.004243096512062548   -0.014568824259457453   -0.0006779337913744676
-0.0029212775576612513   -0.012058365958071538   -0.0006695168245699301
-0.00435816768380451   -0.012077372266572744   -0.0007069410765612894
-0.004212083328525561   -0.014588367239607204   -0.0006949379619402236
-0.0029126915240620887   -0.01207787361656354   -0.0006636377868704533
-0.004343884445789676   -0.012102972743668585   -0.0007101161316992558
-0.004212083328525561   -0.014588367239607204   -0.0006949379619402236
-0.0028908470173737294   -0.014612174779363036   -0.000658779777317996
-0.0029126915240620887   -0.01207787361656354   -0.0006636377868704533
-0.002867784428555716   -0.01463298090281471   -0.0006650342996517788
-0.004343884445789676   -0.012102972743668585   -0.0007101161316992558
-0.0028997711405618527   -0.01209966067839541   -0.0006604104875322644
-0.002867784428555716   -0.01463298090281471   -0.0006650342996517788
-0.0029126915240620887   -0.01207787361656354   -0.0006636377868704533
-0.004343884445789676   -0.012102972743668585   -0.0007101161316992558
-0.002867784428555716   -0.01463298090281471   -0.0006650342996517788
-0.004177013507552102   -0.0146126261987675   -0.0007161603588578023
-0.004212083328525561   -0.014588367239607204   -0.0006949379619402236
-0.004343884445789676   -0.012102972743668585   -0.0007101161316992558
-0.002867784428555716   -0.01463298090281471   -0.0006650342996517788
-0.004212083328525561   -0.014588367239607204   -0.0006949379619402236
-0.0029126915240620887   -0.01207787361656354   -0.0006636377868704533
-0.004343884445789676   -0.012102972743668585   -0.0007101161316992558
-0.004177013507552102   -0.0146126261987675   -0.0007161603588578023
-0.0028997711405618527   -0.01209966067839541   -0.0006604104875322644
-0.004321351958916198   -0.012136137698875074   -0.0007174657159953181
-0.004177013507552102   -0.0146126261987675   -0.0007161603588578023
-0.002867784428555716   -0.01463298090281471   -0.0006650342996517788
-0.0028997711405618527   -0.01209966067839541   -0.0006604104875322644
-0.0028431085270739466   -0.01466141131273958   -0.0006740429693911959
-0.004321351958916198   -0.012136137698875074   -0.0007174657159953181
-0.0028833195975094573   -0.012125239499724499   -0.0006597793356285275
-0.0028431085270739466   -0.01466141131273958   -0.0006740429693911959
-0.0028997711405618527   -0.01209966067839541   -0.0006604104875322644
-0.004321351958916198   -0.012136137698875074   -0.0007174657159953181
-0.0028431085270739466   -0.01466141131273958   -0.0006740429693911959
-0.004129497124162965   -0.014649693286537873   -0.0007416955679030996
-0.004177013507552102   -0.0146126261987675   -0.0007161603588578023
-0.004321351958916198   -0.012136137698875074   -0.0007174657159953181
-0.0028431085270739466   -0.01466141131273958   -0.0006740429693911959
-0.004177013507552102   -0.0146126261987675   -0.0007161603588578023
-0.0028997711405618527   -0.01209966067839541   -0.0006604104875322644
-0.0029212775576612513   -0.012058365958071538   -0.0006695168245699301
-0.002907995485771631   -0.014597713185727055   -0.0006552110590168781
-0.001598662189805358   -0.012059730003470406   -0.0006441693498419202
-0.0029126915240620887   -0.01207787361656354   -0.0006636377868704533
-0.002907995485771631   -0.014597713185727055   -0.0006552110590168781
-0.001709426382138026   -0.014608872222006911   -0.0006407346989982661
-0.001598662189805358   -0.012059730003470406   -0.0006441693498419202
-0.001690838760634078   -0.014616296005742768   -0.0006329312766058334
-0.0029126915240620887   -0.01207787361656354   -0.0006636377868704533
-0.0015874916364356777   -0.012070820648357116   -0.0006334701738738645
-0.001690838760634078   -0.014616296005742768   -0.0006329312766058334
-0.001598662189805358   -0.012059730003470406   -0.0006441693498419202
-0.0029126915240620887   -0.01207787361656354   -0.0006636377868704533
-0.001690838760634078   -0.014616296005742768   -0.0006329312766058334
-0.0028908470173737294   -0.014612174779363036   -0.000658779777317996
-0.002907995485771631   -0.014597713185727055   -0.0006552110590168781
-0.0029126915240620887   -0.01207787361656354   -0.0006636377868704533
-0.001690838760634078   -0.014616296005742768   -0.0006329312766058334
-0.002907995485771631   -0.014597713185727055   -0.0006552110590168781
-0.001598662189805358   -0.012059730003470406   -0.0006441693498419202
-0.0029126915240620887   -0.01207787361656354   -0.0006636377868704533
-0.0028908470173737294   -0.014612174779363036   -0.000658779777317996
-0.0015874916364356777   -0.012070820648357116   -0.0006334701738738645
-0.0028997711405618527   -0.01209966067839541   -0.0006604104875322644
-0.0028908470173737294   -0.014612174779363036   -0.000658779777317996
-0.001690838760634078   -0.014616296005742768   -0.0006329312766058334
-0.0015874916364356777   -0.012070820648357116   -0.0006334701738738645
-0.0016708774355940826   -0.014629801976687068   -0.0006277788835133925
-0.0028997711405618527   -0.01209966067839541   -0.0006604104875322644
-0.0015749936212080078   -0.01208446697341212   -0.000625427965541915
-0.0016708774355940826   -0.014629801976687068   -0.0006277788835133925
-0.0015874916364356777   -0.012070820648357116   -0.0006334701738738645
-0.0028997711405618527   -0.01209966067839541   -0.0006604104875322644
-0.0016708774355940826   -0.014629801976687068   -0.0006277788835133925
-0.002867784428555716   -0.01463298090281471   -0.0006650342996517788
-0.0028908470173737294   -0.014612174779363036   -0.000658779777317996
-0.0028997711405618527   -0.01209966067839541   -0.0006604104875322644
-0.0016708774355940826   -0.014629801976687068   -0.0006277788835133925
-0.0028908470173737294   -0.014612174779363036   -0.000658779777317996
-0.0015874916364356777   -0.012070820648357116   -0.0006334701738738645
-0.0028997711405618527   -0.01209966067839541   -0.0006604104875322644
-0.002867784428555716   -0.01463298090281471   -0.0006650342996517788
-0.0015749936212080078   -0.01208446697341212   -0.000625427965541915
-0.0028833195975094573   -0.012125239499724499   -0.0006597793356285275
-0.002867784428555716   -0.01463298090281471   -0.0006650342996517788
-0.0016708774355940826   -0.014629801976687068   -0.0006277788835133925
-0.0015749936212080078   -0.01208446697341212   -0.000625427965541915
-0.0016503613372243736   -0.01464955194180084   -0.0006254140833248589
-0.0028833195975094573   -0.012125239499724499   -0.0006597793356285275
-0.0015615755868916136   -0.012100711892183303   -0.0006201354986677969
-0.0016503613372243736   -0.01464955194180084   -0.0006254140833248589
-0.0015749936212080078   -0.01208446697341212   -0.000625427965541915
-0.0028833195975094573   -0.012125239499724499   -0.0006597793356285275
-0.0016503613372243736   -0.01464955194180084   -0.0006254140833248589
-0.0028431085270739466   -0.01466141131273958   -0.0006740429693911959
-0.002867784428555716   -0.01463298090281471   -0.0006650342996517788
-0.0028833195975094573   -0.012125239499724499   -0.0006597793356285275
-0.0016503613372243736   -0.01464955194180084   -0.0006254140833248589
-0.002867784428555716   -0.01463298090281471   -0.0006650342996517788
-0.0015749936212080078   -0.01208446697341212   -0.000625427965541915
-0.001598662189805358   -0.012059730003470406   -0.0006441693498419202
-0.001709426382138026   -0.014608872222006911   -0.0006407346989982661
-0.00031330150686895814   -0.012052495220815616   -0.0006341760143452057
-0.0015874916364356777   -0.012070820648357116   -0.0006334701738738645
-0.001709426382138026   -0.014608872222006911   -0.0006407346989982661
-0.0005468621166442888   -0.014599768672314762   -0.0006388098882173016
-0.00031330150686895814   -0.012052495220815616   -0.0006341760143452057
-0.0005263179131923453   -0.014599700508421102   -0.0006200243668919722
-0.0015874916364356777   -0.012070820648357116   -0.0006334701738738645
-0.000300206033334992   -0.012054838397959098   -0.0006188989455904114
-0.0005263179131923453   -0.014599700508421102   -0.0006200243668919722
-0.00031330150686895814   -0.012052495220815616   -0.0006341760143452057
-0.0015874916364356777   -0.012070820648357116   -0.0006334701738738645
-0.0005263179131923453   -0.014599700508421102   -0.0006200243668919722
-0.001690838760634078   -0.014616296005742768   -0.0006329312766058334
-0.001709426382138026   -0.014608872222006911   -0.0006407346989982661
-0.0015874916364356777   -0.012070820648357116   -0.0006334701738738645
-0.0005263179131923453   -0.014599700508421102   -0.0006200243668919722
-0.001709426382138026   -0.014608872222006911   -0.0006407346989982661
-0.00031330150686895814   -0.012052495220815616   -0.0006341760143452057
-0.0015874916364356777   -0.012070820648357116   -0.0006334701738738645
-0.001690838760634078   -0.014616296005742768   -0.0006329312766058334
-0.000300206033334992   -0.012054838397959098   -0.0006188989455904114
-0.0015749936212080078   -0.01208446697341212   -0.000625427965541915
-0.001690838760634078   -0.014616296005742768   -0.0006329312766058334
-0.0005263179131923453   -0.014599700508421102   -0.0006200243668919722
-0.000300206033334992   -0.012054838397959098   -0.0006188989455904114
-0.0005062892162782204   -0.014605295446119397   -0.0006039011019216682
-0.0015749936212080078   -0.01208446697341212   -0.000625427965541915
-0.0002877756593492685   -0.012059552535322616   -0.0006062655075738075
-0.0005062892162782204   -0.014605295446119397   -0.0006039011019216682
-0.000300206033334992   -0.012054838397959098   -0.0006188989455904114
-0.0015749936212080078   -0.01208446697341212   -0.000625427965541915
-0.0005062892162782204   -0.014605295446119397   -0.0006039011019216682
-0.0016708774355940826   -0.014629801976687068   -0.0006277788835133925
-0.001690838760634078   -0.014616296005742768   -0.0006329312766058334
-0.0015749936212080078   -0.01208446697341212   -0.000625427965541915
-0.0005062892162782204   -0.014605295446119397   -0.0006039011019216682
-0.001690838760634078   -0.014616296005742768   -0.0006329312766058334
-0.000300206033334992   -0.012054838397959098   -0.0006188989455904114
-0.0015749936212080078   -0.01208446697341212   -0.000625427965541915
-0.0016708774355940826   -0.014629801976687068   -0.0006277788835133925
-0.0002877756593492685   -0.012059552535322616   -0.0006062655075738075
-0.0015615755868916136   -0.012100711892183303   -0.0006201354986677969
-0.0016708774355940826   -0.014629801976687068   -0.0006277788835133925
-0.0005062892162782204   -0.014605295446119397   -0.0006039011019216682
-0.0002877756593492685   -0.012059552535322616   -0.0006062655075738075
-0.0004883521856454271   -0.014616995298986933   -0.0005905305273024504
-0.0015615755868916136   -0.012100711892183303   -0.0006201354986677969
-0.00027707838235095574   -0.012066737973782351   -0.0005963650661265125
-0.0004883521856454271   -0.014616995298986933   -0.0005905305273024504
-0.0002877756593492685   -0.012059552535322616   -0.0006062655075738075
-0.0015615755868916136   -0.012100711892183303   -0.0006201354986677969
-0.0004883521856454271   -0.014616995298986933   -0.0005905305273024504
-0.0016503613372243736   -0.01464955194180084   -0.0006254140833248589
-0.0016708774355940826   -0.014629801976687068   -0.0006277788835133925
-0.0015615755868916136   -0.012100711892183303   -0.0006201354986677969
-0.0004883521856454271   -0.014616995298986933   -0.0005905305273024504
-0.0016708774355940826   -0.014629801976687068   -0.0006277788835133925
-0.0002877756593492685   -0.012059552535322616   -0.0006062655075738075
-0.00031330150686895814   -0.012052495220815616   -0.0006341760143452057
-0.0005468621166442888   -0.014599768672314762   -0.0006388098882173016
0.0010100784920602974   -0.012036517195062038   -0.0006400716303855592
-0.000300206033334992   -0.012054838397959098   -0.0006188989455904114
-0.0005468621166442888   -0.014599768672314762   -0.0006388098882173016
0.0006545140164916759   -0.01457088218503381   -0.0006504130147343157
0.0010100784920602974   -0.012036517195062038   -0.0006400716303855592
0.0006796595150799487   -0.014562813437228764   -0.000620724608334968
-0.000300206033334992   -0.012054838397959098   -0.0006188989455904114
0.0010266605059405976   -0.012030058099011327   -0.0006202761630100076
0.0006796595150799487   -0.014562813437228764   -0.000620724608334968
0.0010100784920602974   -0.012036517195062038   -0.0006400716303855592
-0.000300206033334992   -0.012054838397959098   -0.0006188989455904114
0.0006796595150799487   -0.014562813437228764   -0.000620724608334968
-0.0005263179131923453   -0.014599700508421102   -0.0006200243668919722
-0.0005468621166442888   -0.014599768672314762   -0.0006388098882173016
-0.000300206033334992   -0.012054838397959098   -0.0006188989455904114
0.0006796595150799487   -0.014562813437228764   -0.000620724608334968
-0.0005468621166442888   -0.014599768672314762   -0.0006388098882173016
0.0010100784920602974   -0.012036517195062038   -0.0006400716303855592
-0.000300206033334992   -0.012054838397959098   -0.0006188989455904114
-0.0005263179131923453   -0.014599700508421102   -0.0006200243668919722
0.0010266605059405976   -0.012030058099011327   -0.0006202761630100076
-0.0002877756593492685   -0.012059552535322616   -0.0006062655075738075
-0.0005263179131923453   -0.014599700508421102   -0.0006200243668919722
0.0006796595150799487   -0.014562813437228764   -0.000620724608334968
0.0010266605059405976   -0.012030058099011327   -0.0006202761630100076
0.0007055351102688407   -0.014561226444555141   -0.000593862539169601
-0.0002877756593492685   -0.012059552535322616   -0.0006062655075738075
0.0010421357086075715   -0.012026682620712964   -0.0006031129427943347
0.0007055351102688407   -0.014561226444555141   -0.000593862539169601
0.0010266605059405976   -0.012030058099011327   -0.0006202761630100076
-0.0002877756593492685   -0.012059552535322616   -0.0006062655075738075
0.0007055351102688407   -0.014561226444555141   -0.000593862539169601
-0.0005062892162782204   -0.014605295446119397   -0.0006039011019216682
-0.0005263179131923453   -0.014599700508421102   -0.0006200243668919722
-0.0002877756593492685   -0.012059552535322616   -0.0006062655075738075
0.0007055351102688407   -0.014561226444555141   -0.000593862539169601
-0.0005263179131923453   -0.014599700508421102   -0.0006200243668919722
0.0010266605059405976   -0.012030058099011327   -0.0006202761630100076
-0.0002877756593492685   -0.012059552535322616   -0.0006062655075738075
-0.0005062892162782204   -0.014605295446119397   -0.0006039011019216682
0.0010421357086075715   -0.012026682620712964   -0.0006031129427943347
-0.00027707838235095574   -0.012066737973782351   -0.0005963650661265125
-0.0005062892162782204   -0.014605295446119397   -0.0006039011019216682
0.0007055351102688407   -0.014561226444555141   -0.000593862539169601
0.0010421357086075715   -0.012026682620712964   -0.0006031129427943347
0.0007229033760521673   -0.01456494450326446   -0.0005694520695911497
-0.00027707838235095574   -0.012066737973782351   -0.0005963650661265125
0.001050877035031343   -0.01202485023741978   -0.0005884100516064631
0.0007229033760521673   -0.01456494450326446   -0.0005694520695911497
0.0010421357086075715   -0.012026682620712964   -0.0006031129427943347
-0.00027707838235095574   -0.012066737973782351   -0.0005963650661265125
0.0007229033760521673   -0.01456494450326446   -0.0005694520695911497
-0.0004883521856454271   -0.014616995298986933   -0.0005905305273024504
-0.0005062892162782204   -0.014605295446119397   -0.0006039011019216682
-0.00027707838235095574   -0.012066737973782351   -0.0005963650661265125
0.0007229033760521673   -0.01456494450326446   -0.0005694520695911497
-0.0005062892162782204   -0.014605295446119397   -0.0006039011019216682
0.0010421357086075715   -0.012026682620712964   -0.0006031129427943347
0.0010100784920602974   -0.012036517195062038   -0.0006400716303855592
0.0006545140164916759   -0.01457088218503381   -0.0006504130147343157
0.002425042193075705   -0.012009478370109676   -0.0006628333289503017
0.0010266605059405976   -0.012030058099011327   -0.0006202761630100076
0.0006545140164916759   -0.01457088218503381   -0.0006504130147343157
0.0019297008850810964   -0.01452114272357293   -0.000679504838787398
0.002425042193075705   -0.012009478370109676   -0.0006628333289503017
0.0019967037007404226   -0.014504723898411127   -0.0006361667102589838
0.0010266605059405976   -0.012030058099011327   -0.0006202761630100076
0.0024675915928621373   -0.011994996794638163   -0.0006366351014861886
0.0019967037007404226   -0.014504723898411127   -0.0006361667102589838
0.002425042193075705   -0.012009478370109676   -0.0006628333289503017
0.0010266605059405976   -0.012030058099011327   -0.0006202761630100076
0.0019967037007404226   -0.014504723898411127   -0.0006361667102589838
0.0006796595150799487   -0.014562813437228764   -0.000620724608334968
0.0006545140164916759   -0.01457088218503381   -0.0006504130147343157
0.0010266605059405976   -0.012030058099011327   -0.0006202761630100076
0.0019967037007404226   -0.014504723898411127   -0.0006361667102589838
0.0006545140164916759   -0.01457088218503381   -0.0006504130147343157
0.002425042193075705   -0.012009478370109676   -0.0006628333289503017
0.0010266605059405976   -0.012030058099011327   -0.0006202761630100076
0.0006796595150799487   -0.014562813437228764   -0.000620724608334968
0.0024675915928621373   -0.011994996794638163   -0.0006366351014861886
0.0010421357086075715   -0.012026682620712964   -0.0006031129427943347
0.0006796595150799487   -0.014562813437228764   -0.000620724608334968
0.0019967037007404226   -0.014504723898411127   -0.0006361667102589838
0.0024675915928621373   -0.011994996794638163   -0.0006366351014861886
0.0020465224814268388   -0.014500130589103774   -0.0005966010175273137
0.0010421357086075715   -0.012026682620712964   -0.0006031129427943347
0.0024972055011800763   -0.01198795192084147   -0.0006142011504845839
0.0020465224814268388   -0.014500130589103774   -0.0005966010175273137
0.0024675915928621373   -0.011994996794638163   -0.0006366351014861886
0.0010421357086075715   -0.012026682620712964   -0.0006031129427943347
0.0020465224814268388   -0.014500130589103774   -0.0005966010175273137
0.0007055351102688407   -0.014561226444555141   -0.000593862539169601
0.0006796595150799487   -0.014562813437228764   -0.000620724608334968
0.0010421357086075715   -0.012026682620712964   -0.0006031129427943347
0.0020465224814268388   -0.014500130589103774   -0.0005966010175273137
0.0006796595150799487   -0.014562813437228764   -0.000620724608334968
0.0024675915928621373   -0.011994996794638163   -0.0006366351014861886
0.0010421357086075715   -0.012026682620712964   -0.0006031129427943347
0.0007055351102688407   -0.014561226444555141   -0.000593862539169601
0.0024972055011800763   -0.01198795192084147   -0.0006142011504845839
0.001050877035031343   -0.01202485023741978   -0.0005884100516064631
0.0007055351102688407   -0.014561226444555141   -0.000593862539169601
0.0020465224814268388   -0.014500130589103774   -0.0005966010175273137
0.0024972055011800763   -0.01198795192084147   -0.0006142011504845839
0.0020973995978495717   -0.014500163349995062   -0.00056098978834335
0.001050877035031343   -0.01202485023741978   -0.0005884100516064631
0.002523997168788613   -0.011980551353634825   -0.0005956916020063181
0.0020973995978495717   -0.014500163349995062   -0.00056098978834335
0.0024972055011800763   -0.01198795192084147   -0.0006142011504845839
0.001050877035031343   -0.01202485023741978   -0.0005884100516064631
0.0020973995978495717   -0.014500163349995062   -0.00056098978834335
0.0007229033760521673   -0.01456494450326446   -0.0005694520695911497
0.0007055351102688407   -0.014561226444555141   -0.000593862539169601
0.001050877035031343   -0.01202485023741978   -0.0005884100516064631
0.0020973995978495717   -0.014500163349995062   -0.00056098978834335
0.0007055351102688407   -0.014561226444555141   -0.000593862539169601
0.0024972055011800763   -0.01198795192084147   -0.0006142011504845839
-0.004243096512062548   -0.014568824259457453   -0.0006779337913744676
-0.0038737540331267983   -0.01678953083094834   -0.0006331690022718882
-0.002907995485771631   -0.014597713185727055   -0.0006552110590168781
-0.004212083328525561   -0.014588367239607204   -0.0006949379619402236
-0.0038737540331267983   -0.01678953083094834   -0.0006331690022718882
-0.0027518526299005856   -0.01684106517478325   -0.000629710180500911
-0.002907995485771631   -0.014597713185727055   -0.0006552110590168781
-0.0027243070330216653   -0.016848480373000865   -0.0006419798449241047
-0.004212083328525561   -0.014588367239607204   -0.0006949379619402236
-0.0028908470173737294   -0.014612174779363036   -0.000658779777317996
-0.0027243070330216653   -0.016848480373000865   -0.0006419798449241047
-0.002907995485771631   -0.014597713185727055   -0.0006552110590168781
-0.004212083328525561   -0.014588367239607204   -0.0006949379619402236
-0.0027243070330216653   -0.016848480373000865   -0.0006419798449241047
-0.0038159443482887827   -0.016800486874833546   -0.0006677194731232646
-0.0038737540331267983   -0.01678953083094834   -0.0006331690022718882
-0.004212083328525561   -0.014588367239607204   -0.0006949379619402236
-0.0027243070330216653   -0.016848480373000865   -0.0006419798449241047
-0.0038737540331267983   -0.01678953083094834   -0.0006331690022718882
-0.002907995485771631   -0.014597713185727055   -0.0006552110590168781
-0.004212083328525561   -0.014588367239607204   -0.0006949379619402236
-0.0038159443482887827   -0.016800486874833546   -0.0006677194731232646
-0.0028908470173737294   -0.014612174779363036   -0.000658779777317996
-0.004177013507552102   -0.0146126261987675   -0.0007161603588578023
-0.0038159443482887827   -0.016800486874833546   -0.0006677194731232646
-0.0027243070330216653   -0.016848480373000865   -0.0006419798449241047
-0.0028908470173737294   -0.014612174779363036   -0.000658779777317996
-0.002689690657964782   -0.01686644015872484   -0.0006569437248746086
-0.004177013507552102   -0.0146126261987675   -0.0007161603588578023
-0.002867784428555716   -0.01463298090281471   -0.0006650342996517788
-0.002689690657964782   -0.01686644015872484   -0.0006569437248746086
-0.0028908470173737294   -0.014612174779363036   -0.000658779777317996
-0.004177013507552102   -0.0146126261987675   -0.0007161603588578023
-0.002689690657964782   -0.01686644015872484   -0.0006569437248746086
-0.003758509516413369   -0.01682157251708481   -0.0007066540507874661
-0.0038159443482887827   -0.016800486874833546   -0.0006677194731232646
-0.004177013507552102   -0.0146126261987675   -0.0007161603588578023
-0.002689690657964782   -0.01686644015872484   -0.0006569437248746086
-0.0038159443482887827   -0.016800486874833546   -0.0006677194731232646
-0.0028908470173737294   -0.014612174779363036   -0.000658779777317996
-0.004177013507552102   -0.0146126261987675   -0.0007161603588578023
-0.003758509516413369   -0.01682157251708481   -0.0007066540507874661
-0.002867784428555716   -0.01463298090281471   -0.0006650342996517788
-0.004129497124162965   -0.014649693286537873   -0.0007416955679030996
-0.003758509516413369   -0.01682157251708481   -0.0007066540507874661
-0.002689690657964782   -0.01686644015872484   -0.0006569437248746086
-0.002867784428555716   -0.01463298090281471   -0.0006650342996517788
-0.00265557875802843   -0.016895968563960164   -0.000674575838844546
-0.004129497124162965   -0.014649693286537873   -0.0007416955679030996
-0.0028431085270739466   -0.01466141131273958   -0.0006740429693911959
-0.00265557875802843   -0.016895968563960164   -0.000674575838844546
-0.002867784428555716   -0.01463298090281471   -0.0006650342996517788
-0.004129497124162965   -0.014649693286537873   -0.0007416955679030996
-0.00265557875802843   -0.016895968563960164   -0.000674575838844546
-0.0036850041623523234   -0.016860893094778655   -0.0007499099945489172
-0.003758509516413369   -0.01682157251708481   -0.0007066540507874661
-0.004129497124162965   -0.014649693286537873   -0.0007416955679030996
-0.00265557875802843   -0.016895968563960164   -0.000674575838844546
-0.003758509516413369   -0.01682157251708481   -0.0007066540507874661
-0.002867784428555716   -0.01463298090281471   -0.0006650342996517788
-0.002907995485771631   -0.014597713185727055   -0.0006552110590168781
-0.0027518526299005856   -0.01684106517478325   -0.000629710180500911
-0.001709426382138026   -0.014608872222006911   -0.0006407346989982661
-0.0028908470173737294   -0.014612174779363036   -0.000658779777317996
-0.0027518526299005856   -0.01684106517478325   -0.000629710180500911
-0.0017776140282196695   -0.01686476872207245   -0.0006284709256289778
-0.001709426382138026   -0.014608872222006911   -0.0006407346989982661
-0.001749434262897145   -0.016867132809225215   -0.0006228731673140304
-0.0028908470173737294   -0.014612174779363036   -0.000658779777317996
-0.001690838760634078   -0.014616296005742768   -0.0006329312766058334
-0.001749434262897145   -0.016867132809225215   -0.0006228731673140304
-0.001709426382138026   -0.014608872222006911   -0.0006407346989982661
-0.0028908470173737294   -0.014612174779363036   -0.000658779777317996
-0.001749434262897145   -0.016867132809225215   -0.0006228731673140304
-0.0027243070330216653   -0.016848480373000865   -0.0006419798449241047
-0.0027518526299005856   -0.01684106517478325   -0.000629710180500911
-0.0028908470173737294   -0.014612174779363036   -0.000658779777317996
-0.001749434262897145   -0.016867132809225215   -0.0006228731673140304
-0.0027518526299005856   -0.01684106517478325   -0.000629710180500911
-0.001709426382138026   -0.014608872222006911   -0.0006407346989982661
-0.0028908470173737294   -0.014612174779363036   -0.000658779777317996
-0.0027243070330216653   -0.016848480373000865   -0.0006419798449241047
-0.001690838760634078   -0.014616296005742768   -0.0006329312766058334
-0.002867784428555716   -0.01463298090281471   -0.0006650342996517788
-0.0027243070330216653   -0.016848480373000865   -0.0006419798449241047
-0.001749434262897145   -0.016867132809225215   -0.0006228731673140304
-0.001690838760634078   -0.014616296005742768   -0.0006329312766058334
-0.0017203173772062487   -0.01687893070139675   -0.0006198893972883465
-0.002867784428555716   -0.01463298090281471   -0.0006650342996517788
-0.0016708774355940826   -0.014629801976687068   -0.0006277788835133925
-0.0017203173772062487   -0.01687893070139675   -0.0006198893972883465
-0.001690838760634078   -0.014616296005742768   -0.0006329312766058334
-0.002867784428555716   -0.01463298090281471   -0.0006650342996517788
-0.0017203173772062487   -0.01687893070139675   -0.0006198893972883465
-0.002689690657964782   -0.01686644015872484   -0.0006569437248746086
-0.0027243070330216653   -0.016848480373000865   -0.0006419798449241047
-0.002867784428555716   -0.01463298090281471   -0.0006650342996517788
-0.0017203173772062487   -0.01687893070139675   -0.0006198893972883465
-0.0027243070330216653   -0.016848480373000865   -0.0006419798449241047
-0.001690838760634078   -0.014616296005742768   -0.0006329312766058334
-0.002867784428555716   -0.01463298090281471   -0.0006650342996517788
-0.002689690657964782   -0.01686644015872484   -0.0006569437248746086
-0.0016708774355940826   -0.014629801976687068   -0.0006277788835133925
-0.0028431085270739466   -0.01466141131273958   -0.0006740429693911959
-0.002689690657964782   -0.01686644015872484   -0.0006569437248746086
-0.0017203173772062487   -0.01687893070139675   -0.0006198893972883465
-0.0016708774355940826   -0.014629801976687068   -0.0006277788835133925
-0.0016912310171544346   -0.01690067744912727   -0.0006194992528076507
-0.0028431085270739466   -0.01466141131273958   -0.0006740429693911959
-0.0016503613372243736   -0.01464955194180084   -0.0006254140833248589
-0.0016912310171544346   -0.01690067744912727   -0.0006194992528076507
-0.0016708774355940826   -0.014629801976687068   -0.0006277788835133925
-0.0028431085270739466   -0.01466141131273958   -0.0006740429693911959
-0.0016912310171544346   -0.01690067744912727   -0.0006194992528076507
-0.00265557875802843   -0.016895968563960164   -0.000674575838844546
-0.002689690657964782   -0.01686644015872484   -0.0006569437248746086
-0.0028431085270739466   -0.01466141131273958   -0.0006740429693911959
-0.0016912310171544346   -0.01690067744912727   -0.0006194992528076507
-0.002689690657964782   -0.01686644015872484   -0.0006569437248746086
-0.0016708774355940826   -0.014629801976687068   -0.0006277788835133925
-0.001709426382138026   -0.014608872222006911   -0.0006407346989982661
-0.0017776140282196695   -0.01686476872207245   -0.0006284709256289778
-0.0005468621166442888   -0.014599768672314762   -0.0006388098882173016
-0.001690838760634078   -0.014616296005742768   -0.0006329312766058334
-0.0017776140282196695   -0.01686476872207245   -0.0006284709256289778
-0.0008354234260190426   -0.01685960428076417   -0.0006358035151698771
-0.0005468621166442888   -0.014599768672314762   -0.0006388098882173016
-0.0008045653527545535   -0.016856262940168308   -0.0006129563877350885
-0.001690838760634078   -0.014616296005742768   -0.0006329312766058334
-0.0005263179131923453   -0.014599700508421102   -0.0006200243668919722
-0.0008045653527545535   -0.016856262940168308   -0.0006129563877350885
-0.0005468621166442888   -0.014599768672314762   -0.0006388098882173016
-0.001690838760634078   -0.014616296005742768   -0.0006329312766058334
-0.0008045653527545535   -0.016856262940168308   -0.0006129563877350885
-0.001749434262897145   -0.016867132809225215   -0.0006228731673140304
-0.0017776140282196695   -0.01686476872207245   -0.0006284709256289778
-0.001690838760634078   -0.014616296005742768   -0.0006329312766058334
-0.0008045653527545535   -0.016856262940168308   -0.0006129563877350885
-0.0017776140282196695   -0.01686476872207245   -0.0006284709256289778
-0.0005468621166442888   -0.014599768672314762   -0.0006388098882173016
-0.001690838760634078   -0.014616296005742768   -0.0006329312766058334
-0.001749434262897145   -0.016867132809225215   -0.0006228731673140304
-0.0005263179131923453   -0.014599700508421102   -0.0006200243668919722
-0.0016708774355940826   -0.014629801976687068   -0.0006277788835133925
-0.001749434262897145   -0.016867132809225215   -0.0006228731673140304
-0.0008045653527545535   -0.016856262940168308   -0.0006129563877350885
-0.0005263179131923453   -0.014599700508421102   -0.0006200243668919722
-0.0007745699517037885   -0.01686150098542944   -0.0005928975269831356
-0.0016708774355940826   -0.014629801976687068   -0.0006277788835133925
-0.0005062892162782204   -0.014605295446119397   -0.0006039011019216682
-0.0007745699517037885   -0.01686150098542944   -0.0005928975269831356
-0.0005263179131923453   -0.014599700508421102   -0.0006200243668919722
-0.0016708774355940826   -0.014629801976687068   -0.0006277788835133925
-0.0007745699517037885   -0.01686150098542944   -0.0005928975269831356
-0.0017203173772062487   -0.01687893070139675   -0.0006198893972883465
-0.001749434262897145   -0.016867132809225215   -0.0006228731673140304
-0.0016708774355940826   -0.014629801976687068   -0.0006277788835133925
-0.0007745699517037885   -0.01686150098542944   -0.0005928975269831356
-0.001749434262897145   -0.016867132809225215   -0.0006228731673140304
-0.0005263179131923453   -0.014599700508421102   -0.0006200243668919722
-0.0016708774355940826   -0.014629801976687068   -0.0006277788835133925
-0.0017203173772062487   -0.01687893070139675   -0.0006198893972883465
-0.0005062892162782204   -0.014605295446119397   -0.0006039011019216682
-0.0016503613372243736   -0.01464955194180084   -0.0006254140833248589
-0.0017203173772062487   -0.01687893070139675   -0.0006198893972883465
-0.0007745699517037885   -0.01686150098542944   -0.0005928975269831356
-0.0005062892162782204   -0.014605295446119397   -0.0006039011019216682
-0.000747426372275739   -0.016876477277383277   -0.0005753923979423989
-0.0016503613372243736   -0.01464955194180084   -0.0006254140833248589
-0.0004883521856454271   -0.014616995298986933   -0.0005905305273024504
-0.000747426372275739   -0.016876477277383277   -0.0005753923979423989
-0.0005062892162782204   -0.014605295446119397   -0.0006039011019216682
-0.0016503613372243736   -0.01464955194180084   -0.0006254140833248589
-0.000747426372275739   -0.016876477277383277   -0.0005753923979423989
-0.0016912310171544346   -0.01690067744912727   -0.0006194992528076507
-0.0017203173772062487   -0.01687893070139675   -0.0006198893972883465
-0.0016503613372243736   -0.01464955194180084   -0.0006254140833248589
-0.000747426372275739   -0.016876477277383277   -0.0005753923979423989
-0.0017203173772062487   -0.01687893070139675   -0.0006198893972883465
-0.0005062892162782204   -0.014605295446119397   -0.0006039011019216682
-0.0005468621166442888   -0.014599768672314762   -0.0006388098882173016
-0.0008354234260190426   -0.01685960428076417   -0.0006358035151698771
0.0006545140164916759   -0.01457088218503381   -0.0006504130147343157
-0.0005263179131923453   -0.014599700508421102   -0.0006200243668919722
-0.0008354234260190426   -0.01685960428076417   -0.0006358035151698771
0.0001488440059177299   -0.01682452187925793   -0.0006531832466482677
0.0006545140164916759   -0.01457088218503381   -0.0006504130147343157
0.00018647258293422875   -0.01681399436517105   -0.0006131203490092929
-0.0005263179131923453   -0.014599700508421102   -0.0006200243668919722
0.0006796595150799487   -0.014562813437228764   -0.000620724608334968
0.00018647258293422875   -0.01681399436517105   -0.0006131203490092929
0.0006545140164916759   -0.01457088218503381   -0.0006504130147343157
-0.0005263179131923453   -0.014599700508421102   -0.0006200243668919722
0.00018647258293422875   -0.01681399436517105   -0.0006131203490092929
-0.0008045653527545535   -0.016856262940168308   -0.0006129563877350885
-0.0008354234260190426   -0.01685960428076417   -0.0006358035151698771
-0.0005263179131923453   -0.014599700508421102   -0.0006200243668919722
0.00018647258293422875   -0.01681399436517105   -0.0006131203490092929
-0.0008354234260190426   -0.01685960428076417   -0.0006358035151698771
0.0006545140164916759   -0.01457088218503381   -0.0006504130147343157
-0.0005263179131923453   -0.014599700508421102   -0.0006200243668919722
-0.0008045653527545535   -0.016856262940168308   -0.0006129563877350885
0.0006796595150799487   -0.014562813437228764   -0.000620724608334968
-0.0005062892162782204   -0.014605295446119397   -0.0006039011019216682
-0.0008045653527545535   -0.016856262940168308   -0.0006129563877350885
0.00018647258293422875   -0.01681399436517105   -0.0006131203490092929
0.0006796595150799487   -0.014562813437228764   -0.000620724608334968
0.00022627518682002246   -0.01681305265313104   -0.000576579783300565
-0.0005062892162782204   -0.014605295446119397   -0.0006039011019216682
0.0007055351102688407   -0.014561226444555141   -0.000593862539169601
0.00022627518682002246   -0.01681305265313104   -0.000576579783300565
0.0006796595150799487   -0.014562813437228764   -0.000620724608334968
-0.0005062892162782204   -0.014605295446119397   -0.0006039011019216682
0.00022627518682002246   -0.01681305265313104   -0.000576579783300565
-0.0007745699517037885   -0.01686150098542944   -0.0005928975269831356
-0.0008045653527545535   -0.016856262940168308   -0.0006129563877350885
-0.0005062892162782204   -0.014605295446119397   -0.0006039011019216682
0.00022627518682002246   -0.01681305265313104   -0.000576579783300565
-0.0008045653527545535   -0.016856262940168308   -0.0006129563877350885
0.0006796595150799487   -0.014562813437228764   -0.000620724608334968
-0.0005062892162782204   -0.014605295446119397   -0.0006039011019216682
-0.0007745699517037885   -0.01686150098542944   -0.0005928975269831356
0.0007055351102688407   -0.014561226444555141   -0.000593862539169601
-0.0004883521856454271   -0.014616995298986933   -0.0005905305273024504
-0.0007745699517037885   -0.01686150098542944   -0.0005928975269831356
0.00022627518682002246   -0.01681305265313104   -0.000576579783300565
0.0007055351102688407   -0.014561226444555141   -0.000593862539169601
0.00025538180438184173   -0.01682123909821224   -0.0005424588446890932
-0.0004883521856454271   -0.014616995298986933   -0.0005905305273024504
0.0007229033760521673   -0.01456494450326446   -0.0005694520695911497
0.00025538180438184173   -0.01682123909821224   -0.0005424588446890932
0.0007055351102688407   -0.014561226444555141   -0.000593862539169601
-0.0004883521856454271   -0.014616995298986933   -0.0005905305273024504
0.00025538180438184173   -0.01682123909821224   -0.0005424588446890932
-0.000747426372275739   -0.016876477277383277   -0.0005753923979423989
-0.0007745699517037885   -0.01686150098542944   -0.0005928975269831356
-0.0004883521856454271   -0.014616995298986933   -0.0005905305273024504
0.00025538180438184173   -0.01682123909821224   -0.0005424588446890932
-0.0007745699517037885   -0.01686150098542944   -0.0005928975269831356
0.0007055351102688407   -0.014561226444555141   -0.000593862539169601
0.0006545140164916759   -0.01457088218503381   -0.0006504130147343157
0.0001488440059177299   -0.01682452187925793   -0.0006531832466482677
0.0019297008850810964   -0.01452114272357293   -0.000679504838787398
0.0006796595150799487   -0.014562813437228764   -0.000620724608334968
0.0001488440059177299   -0.01682452187925793   -0.0006531832466482677
0.0011942278705153453   -0.016756258148640187   -0.000689629917827693
0.0019297008850810964   -0.01452114272357293   -0.000679504838787398
0.0012906986493435577   -0.016736173718654112   -0.0006282479613672171
0.0006796595150799487   -0.014562813437228764   -0.000620724608334968
0.0019967037007404226   -0.014504723898411127   -0.0006361667102589838
0.0012906986493435577   -0.016736173718654112   -0.0006282479613672171
0.0019297008850810964   -0.01452114272357293   -0.000679504838787398
0.0006796595150799487   -0.014562813437228764   -0.000620724608334968
0.0012906986493435577   -0.016736173718654112   -0.0006282479613672171
0.00018647258293422875   -0.01681399436517105   -0.0006131203490092929
0.0001488440059177299   -0.01682452187925793   -0.0006531832466482677
0.0006796595150799487   -0.014562813437228764   -0.000620724608334968
0.0012906986493435577   -0.016736173718654112   -0.0006282479613672171
0.0001488440059177299   -0.01682452187925793   -0.0006531832466482677
0.0019297008850810964   -0.01452114272357293   -0.000679504838787398
0.0006796595150799487   -0.014562813437228764   -0.000620724608334968
0.00018647258293422875   -0.01681399436517105   -0.0006131203490092929
0.0019967037007404226   -0.014504723898411127   -0.0006361667102589838
0.0007055351102688407   -0.014561226444555141   -0.000593862539169601
0.00018647258293422875   -0.01681399436517105   -0.0006131203490092929
0.0012906986493435577   -0.016736173718654112   -0.0006282479613672171
0.0019967037007404226   -0.014504723898411127   -0.0006361667102589838
0.0013647503812357186   -0.016732691426413097   -0.0005712388555969011
0.0007055351102688407   -0.014561226444555141   -0.000593862539169601
0.0020465224814268388   -0.014500130589103774   -0.0005966010175273137
0.0013647503812357186   -0.016732691426413097   -0.0005712388555969011
0.0019967037007404226   -0.014504723898411127   -0.0006361667102589838
0.0007055351102688407   -0.014561226444555141   -0.000593862539169601
0.0013647503812357186   -0.016732691426413097   -0.0005712388555969011
0.00022627518682002246   -0.01681305265313104   -0.000576579783300565
0.00018647258293422875   -0.01681399436517105   -0.0006131203490092929
0.0007055351102688407   -0.014561226444555141   -0.000593862539169601
0.0013647503812357186   -0.016732691426413097   -0.0005712388555969011
0.00018647258293422875   -0.01681399436517105   -0.0006131203490092929
0.0019967037007404226   -0.014504723898411127   -0.0006361667102589838
0.0007055351102688407   -0.014561226444555141   -0.000593862539169601
0.00022627518682002246   -0.01681305265313104   -0.000576579783300565
0.0020465224814268388   -0.014500130589103774   -0.0005966010175273137
0.0007229033760521673   -0.01456494450326446   -0.0005694520695911497
0.00022627518682002246   -0.01681305265313104   -0.000576579783300565
0.0013647503812357186   -0.016732691426413097   -0.0005712388555969011
0.0020465224814268388   -0.014500130589103774   -0.0005966010175273137
0.0014419720725553108   -0.016738833130927742   -0.0005190593767020108
0.0007229033760521673   -0.01456494450326446   -0.0005694520695911497
0.0020973995978495717   -0.014500163349995062   -0.00056098978834335
0.0014419720725553108   -0.016738833130927742   -0.0005190593767020108
0.0020465224814268388   -0.014500130589103774   -0.0005966010175273137
0.0007229033760521673   -0.01456494450326446   -0.0005694520695911497
0.0014419720725553108   -0.016738833130927742   -0.0005190593767020108
0.00025538180438184173   -0.01682123909821224   -0.0005424588446890932
0.00022627518682002246   -0.01681305265313104   -0.000576579783300565
0.0007229033760521673   -0.01456494450326446   -0.0005694520695911497
0.0014419720725553108   -0.016738833130927742   -0.0005190593767020108
0.00022627518682002246   -0.01681305265313104   -0.000576579783300565
0.0020465224814268388   -0.014500130589103774   -0.0005966010175273137
-0.0038737540331267983   -0.01678953083094834   -0.0006331690022718882
-0.003254797084556913   -0.018529485779631656   -0.0005752931139512033
-0.0027518526299005856   -0.01684106517478325   -0.000629710180500911
-0.0038159443482887827   -0.016800486874833546   -0.0006677194731232646
-0.003254797084556913   -0.018529485779631656   -0.0005752931139512033
-0.002455172789330925   -0.018605142363614567   -0.0005978479594420695
-0.0027518526299005856   -0.01684106517478325   -0.000629710180500911
-0.0024161489223176557   -0.01860146877224801   -0.0006166948177747507
-0.0038159443482887827   -0.016800486874833546   -0.0006677194731232646
-0.0027243070330216653   -0.016848480373000865   -0.0006419798449241047
-0.0024161489223176557   -0.01860146877224801   -0.0006166948177747507
-0.0027518526299005856   -0.01684106517478325   -0.000629710180500911
-0.0038159443482887827   -0.016800486874833546   -0.0006677194731232646
-0.0024161489223176557   -0.01860146877224801   -0.0006166948177747507
-0.003169704386240412   -0.018527502366338846   -0.0006260666812118061
-0.003254797084556913   -0.018529485779631656   -0.0005752931139512033
-0.0038159443482887827   -0.016800486874833546   -0.0006677194731232646
-0.0024161489223176557   -0.01860146877224801   -0.0006166948177747507
-0.003254797084556913   -0.018529485779631656   -0.0005752931139512033
-0.0027518526299005856   -0.01684106517478325   -0.000629710180500911
-0.0038159443482887827   -0.016800486874833546   -0.0006677194731232646
-0.003169704386240412   -0.018527502366338846   -0.0006260666812118061
-0.0027243070330216653   -0.016848480373000865   -0.0006419798449241047
-0.003758509516413369   -0.01682157251708481   -0.0007066540507874661
-0.003169704386240412   -0.018527502366338846   -0.0006260666812118061
-0.0024161489223176557   -0.01860146877224801   -0.0006166948177747507
-0.0027243070330216653   -0.016848480373000865   -0.0006419798449241047
-0.002370096881021301   -0.018612750745788605   -0.0006382654870370925
-0.003758509516413369   -0.01682157251708481   -0.0007066540507874661
-0.002689690657964782   -0.01686644015872484   -0.0006569437248746086
-0.002370096881021301   -0.018612750745788605   -0.0006382654870370925
-0.0027243070330216653   -0.016848480373000865   -0.0006419798449241047
-0.003758509516413369   -0.01682157251708481   -0.0007066540507874661
-0.002370096881021301   -0.018612750745788605   -0.0006382654870370925
-0.0030914251172577773   -0.018541378057708717   -0.0006806877566306156
-0.003169704386240412   -0.018527502366338846   -0.0006260666812118061
-0.003758509516413369   -0.01682157251708481   -0.0007066540507874661
-0.002370096881021301   -0.018612750745788605   -0.0006382654870370925
-0.003169704386240412   -0.018527502366338846   -0.0006260666812118061
-0.0027243070330216653   -0.016848480373000865   -0.0006419798449241047
-0.003758509516413369   -0.01682157251708481   -0.0007066540507874661
-0.0030914251172577773   -0.018541378057708717   -0.0006806877566306156
-0.002689690657964782   -0.01686644015872484   -0.0006569437248746086
-0.0036850041623523234   -0.016860893094778655   -0.0007499099945489172
-0.0030914251172577773   -0.018541378057708717   -0.0006806877566306156
-0.002370096881021301   -0.018612750745788605   -0.0006382654870370925
-0.002689690657964782   -0.01686644015872484   -0.0006569437248746086
-0.0023283271386461   -0.018639268682569675   -0.0006623889517347616
-0.0036850041623523234   -0.016860893094778655   -0.0007499099945489172
-0.00265557875802843   -0.016895968563960164   -0.000674575838844546
-0.0023283271386461   -0.018639268682569675   -0.0006623889517347616
-0.002689690657964782   -0.01686644015872484   -0.0006569437248746086
-0.0036850041623523234   -0.016860893094778655   -0.0007499099945489172
-0.0023283271386461   -0.018639268682569675   -0.0006623889517347616
-0.002995842143285503   -0.018577919059420498   -0.0007389473695285669
-0.0030914251172577773   -0.018541378057708717   -0.0006806877566306156
-0.0036850041623523234   -0.016860893094778655   -0.0007499099945489172
-0.0023283271386461   -0.018639268682569675   -0.0006623889517347616
-0.0030914251172577773   -0.018541378057708717   -0.0006806877566306156
-0.002689690657964782   -0.01686644015872484   -0.0006569437248746086
-0.0027518526299005856   -0.01684106517478325   -0.000629710180500911
-0.002455172789330925   -0.018605142363614567   -0.0005978479594420695
-0.0017776140282196695   -0.01686476872207245   -0.0006284709256289778
-0.0027243070330216653   -0.016848480373000865   -0.0006419798449241047
-0.002455172789330925   -0.018605142363614567   -0.0005978479594420695
-0.00179845073363994   -0.018653131446776158   -0.0006155354559530735
-0.0017776140282196695   -0.01686476872207245   -0.0006284709256289778
-0.0017585514466209862   -0.018647015646843373   -0.0006097964212436045
-0.0027243070330216653   -0.016848480373000865   -0.0006419798449241047
-0.001749434262897145   -0.016867132809225215   -0.0006228731673140304
-0.0017585514466209862   -0.018647015646843373   -0.0006097964212436045
-0.0017776140282196695   -0.01686476872207245   -0.0006284709256289778
-0.0027243070330216653   -0.016848480373000865   -0.0006419798449241047
-0.0017585514466209862   -0.018647015646843373   -0.0006097964212436045
-0.0024161489223176557   -0.01860146877224801   -0.0006166948177747507
-0.002455172789330925   -0.018605142363614567   -0.0005978479594420695
-0.0027243070330216653   -0.016848480373000865   -0.0006419798449241047
-0.0017585514466209862   -0.018647015646843373   -0.0006097964212436045
-0.002455172789330925   -0.018605142363614567   -0.0005978479594420695
-0.0017776140282196695   -0.01686476872207245   -0.0006284709256289778
-0.0027243070330216653   -0.016848480373000865   -0.0006419798449241047
-0.0024161489223176557   -0.01860146877224801   -0.0006166948177747507
-0.001749434262897145   -0.016867132809225215   -0.0006228731673140304
-0.002689690657964782   -0.01686644015872484   -0.0006569437248746086
-0.0024161489223176557   -0.01860146877224801   -0.0006166948177747507
-0.0017585514466209862   -0.018647015646843373   -0.0006097964212436045
-0.001749434262897145   -0.016867132809225215   -0.0006228731673140304
-0.0017191247911542986   -0.01865385701352675   -0.0006067134791395638
-0.002689690657964782   -0.01686644015872484   -0.0006569437248746086
-0.0017203173772062487   -0.01687893070139675   -0.0006198893972883465
-0.0017191247911542986   -0.01865385701352675   -0.0006067134791395638
-0.001749434262897145   -0.016867132809225215   -0.0006228731673140304
-0.002689690657964782   -0.01686644015872484   -0.0006569437248746086
-0.0017191247911542986   -0.01865385701352675   -0.0006067134791395638
-0.002370096881021301   -0.018612750745788605   -0.0006382654870370925
-0.0024161489223176557   -0.01860146877224801   -0.0006166948177747507
-0.002689690657964782   -0.01686644015872484   -0.0006569437248746086
-0.0017191247911542986   -0.01865385701352675   -0.0006067134791395638
-0.0024161489223176557   -0.01860146877224801   -0.0006166948177747507
-0.001749434262897145   -0.016867132809225215   -0.0006228731673140304
-0.002689690657964782   -0.01686644015872484   -0.0006569437248746086
-0.002370096881021301   -0.018612750745788605   -0.0006382654870370925
-0.0017203173772062487   -0.01687893070139675   -0.0006198893972883465
-0.00265557875802843   -0.016895968563960164   -0.000674575838844546
-0.002370096881021301   -0.018612750745788605   -0.0006382654870370925
-0.0017191247911542986   -0.01865385701352675   -0.0006067134791395638
-0.0017203173772062487   -0.01687893070139675   -0.0006198893972883465
-0.001682752878079924   -0.018674048715166855   -0.0006068273912626842
-0.00265557875802843   -0.016895968563960164   -0.000674575838844546
-0.0016912310171544346   -0.01690067744912727   -0.0006194992528076507
-0.001682752878079924   -0.018674048715166855   -0.0006068273912626842
-0.0017203173772062487   -0.01687893070139675   -0.0006198893972883465
-0.00265557875802843   -0.016895968563960164   -0.000674575838844546
-0.001682752878079924   -0.018674048715166855   -0.0006068273912626842
-0.0023283271386461   -0.018639268682569675   -0.0006623889517347616
-0.002370096881021301   -0.018612750745788605   -0.0006382654870370925
-0.00265557875802843   -0.016895968563960164   -0.000674575838844546
-0.001682752878079924   -0.018674048715166855   -0.0006068273912626842
-0.002370096881021301   -0.018612750745788605   -0.0006382654870370925
-0.0017203173772062487   -0.01687893070139675   -0.0006198893972883465
-0.0017776140282196695   -0.01686476872207245   -0.0006284709256289778
-0.00179845073363994   -0.018653131446776158   -0.0006155354559530735
-0.0008354234260190426   -0.01685960428076417   -0.0006358035151698771
-0.001749434262897145   -0.016867132809225215   -0.0006228731673140304
-0.00179845073363994   -0.018653131446776158   -0.0006155354559530735
-0.0011690946188024024   -0.01867671730012398   -0.0006367934984029388
-0.0008354234260190426   -0.01685960428076417   -0.0006358035151698771
-0.0011241519489745885   -0.018667678615208527   -0.0006078052596124038
-0.001749434262897145   -0.016867132809225215   -0.0006228731673140304
-0.0008045653527545535   -0.016856262940168308   -0.0006129563877350885
-0.0011241519489745885   -0.018667678615208527   -0.0006078052596124038
-0.0008354234260190426   -0.01685960428076417   -0.0006358035151698771
-0.001749434262897145   -0.016867132809225215   -0.0006228731673140304
-0.0011241519489745885   -0.018667678615208527   -0.0006078052596124038
-0.0017585514466209862   -0.018647015646843373   -0.0006097964212436045
-0.00179845073363994   -0.018653131446776158   -0.0006155354559530735
-0.001749434262897145   -0.016867132809225215   -0.0006228731673140304
-0.0011241519489745885   -0.018667678615208527   -0.0006078052596124038
-0.00179845073363994   -0.018653131446776158   -0.0006155354559530735
-0.0008354234260190426   -0.01685960428076417   -0.0006358035151698771
-0.001749434262897145   -0.016867132809225215   -0.0006228731673140304
-0.0017585514466209862   -0.018647015646843373   -0.0006097964212436045
-0.0008045653527545535   -0.016856262940168308   -0.0006129563877350885
-0.0017203173772062487   -0.01687893070139675   -0.0006198893972883465
-0.0017585514466209862   -0.018647015646843373   -0.0006097964212436045
-0.0011241519489745885   -0.018667678615208527   -0.0006078052596124038
-0.0008045653527545535   -0.016856262940168308   -0.0006129563877350885
-0.0010812374821871694   -0.018670122727255406   -0.0005812030754752216
-0.0017203173772062487   -0.01687893070139675   -0.0006198893972883465
-0.0007745699517037885   -0.01686150098542944   -0.0005928975269831356
-0.0010812374821871694   -0.018670122727255406   -0.0005812030754752216
-0.0008045653527545535   -0.016856262940168308   -0.0006129563877350885
-0.0017203173772062487   -0.01687893070139675   -0.0006198893972883465
-0.0010812374821871694   -0.018670122727255406   -0.0005812030754752216
-0.0017191247911542986   -0.01865385701352675   -0.0006067134791395638
-0.0017585514466209862   -0.018647015646843373   -0.0006097964212436045
-0.0017203173772062487   -0.01687893070139675   -0.0006198893972883465
-0.0010812374821871694   -0.018670122727255406   -0.0005812030754752216
-0.0017585514466209862   -0.018647015646843373   -0.0006097964212436045
-0.0008045653527545535   -0.016856262940168308   -0.0006129563877350885
-0.0017203173772062487   -0.01687893070139675   -0.0006198893972883465
-0.0017191247911542986   -0.01865385701352675   -0.0006067134791395638
-0.0007745699517037885   -0.01686150098542944   -0.0005928975269831356
-0.0016912310171544346   -0.01690067744912727   -0.0006194992528076507
-0.0017191247911542986   -0.01865385701352675   -0.0006067134791395638
-0.0010812374821871694   -0.018670122727255406   -0.0005812030754752216
-0.0007745699517037885   -0.01686150098542944   -0.0005928975269831356
-0.0010454047435759536   -0.018686122951723668   -0.0005583896552600759
-0.0016912310171544346   -0.01690067744912727   -0.0006194992528076507
-0.000747426372275739   -0.016876477277383277   -0.0005753923979423989
-0.0010454047435759536   -0.018686122951723668   -0.0005583896552600759
-0.0007745699517037885   -0.01686150098542944   -0.0005928975269831356
-0.0016912310171544346   -0.01690067744912727   -0.0006194992528076507
-0.0010454047435759536   -0.018686122951723668   -0.0005583896552600759
-0.001682752878079924   -0.018674048715166855   -0.0006068273912626842
-0.0017191247911542986   -0.01865385701352675   -0.0006067134791395638
-0.0016912310171544346   -0.01690067744912727   -0.0006194992528076507
-0.0010454047435759536   -0.018686122951723668   -0.0005583896552600759
-0.0017191247911542986   -0.01865385701352675   -0.0006067134791395638
-0.0007745699517037885   -0.01686150098542944   -0.0005928975269831356
-0.0008354234260190426   -0.01685960428076417   -0.0006358035151698771
-0.0011690946188024024   -0.01867671730012398   -0.0006367934984029388
0.0001488440059177299   -0.01682452187925793   -0.0006531832466482677
-0.0008045653527545535   -0.016856262940168308   -0.0006129563877350885
-0.0011690946188024024   -0.01867671730012398   -0.0006367934984029388
-0.0005023792625399713   -0.018667270785101497   -0.0006621376473593043
0.0001488440059177299   -0.01682452187925793   -0.0006531832466482677
-0.0004446711239511103   -0.018653042044714265   -0.000610818403589175
-0.0008045653527545535   -0.016856262940168308   -0.0006129563877350885
0.00018647258293422875   -0.01681399436517105   -0.0006131203490092929
-0.0004446711239511103   -0.018653042044714265   -0.000610818403589175
0.0001488440059177299   -0.01682452187925793   -0.0006531832466482677
-0.0008045653527545535   -0.016856262940168308   -0.0006129563877350885
-0.0004446711239511103   -0.018653042044714265   -0.000610818403589175
-0.0011241519489745885   -0.018667678615208527   -0.0006078052596124038
-0.0011690946188024024   -0.01867671730012398   -0.0006367934984029388
-0.0008045653527545535   -0.016856262940168308   -0.0006129563877350885
-0.0004446711239511103   -0.018653042044714265   -0.000610818403589175
-0.0011690946188024024   -0.01867671730012398   -0.0006367934984029388
0.0001488440059177299   -0.01682452187925793   -0.0006531832466482677
-0.0008045653527545535   -0.016856262940168308   -0.0006129563877350885
-0.0011241519489745885   -0.018667678615208527   -0.0006078052596124038
0.00018647258293422875   -0.01681399436517105   -0.0006131203490092929
-0.0007745699517037885   -0.01686150098542944   -0.0005928975269831356
-0.0011241519489745885   -0.018667678615208527   -0.0006078052596124038
-0.0004446711239511103   -0.018653042044714265   -0.000610818403589175
0.00018647258293422875   -0.01681399436517105   -0.0006131203490092929
-0.0003853374151838628   -0.0186507307912857   -0.0005620288529128258
-0.0007745699517037885   -0.01686150098542944   -0.0005928975269831356
0.00022627518682002246   -0.01681305265313104   -0.000576579783300565
-0.0003853374151838628   -0.0186507307912857   -0.0005620288529128258
0.00018647258293422875   -0.01681399436517105   -0.0006131203490092929
-0.0007745699517037885   -0.01686150098542944   -0.0005928975269831356
-0.0003853374151838628   -0.0186507307912857   -0.0005620288529128258
-0.0010812374821871694   -0.018670122727255406   -0.0005812030754752216
-0.0011241519489745885   -0.018667678615208527   -0.0006078052596124038
-0.0007745699517037885   -0.01686150098542944   -0.0005928975269831356
-0.0003853374151838628   -0.0186507307912857   -0.0005620288529128258
-0.0011241519489745885   -0.018667678615208527   -0.0006078052596124038
0.00018647258293422875   -0.01681399436517105   -0.0006131203490092929
-0.0007745699517037885   -0.01686150098542944   -0.0005928975269831356
-0.0010812374821871694   -0.018670122727255406   -0.0005812030754752216
0.00022627518682002246   -0.01681305265313104   -0.000576579783300565
-0.000747426372275739   -0.016876477277383277   -0.0005753923979423989
-0.0010812374821871694   -0.018670122727255406   -0.0005812030754752216
-0.0003853374151838628   -0.0186507307912857   -0.0005620288529128258
0.00022627518682002246   -0.01681305265313104   -0.000576579783300565
-0.0003415899853391757   -0.01866275648984039   -0.0005175471466695769
-0.000747426372275739   -0.016876477277383277   -0.0005753923979423989
0.00025538180438184173   -0.01682123909821224   -0.0005424588446890932
-0.0003415899853391757   -0.01866275648984039   -0.0005175471466695769
0.00022627518682002246   -0.01681305265313104   -0.000576579783300565
-0.000747426372275739   -0.016876477277383277   -0.0005753923979423989
-0.0003415899853391757   -0.01866275648984039   -0.0005175471466695769
-0.0010454047435759536   -0.018686122951723668   -0.0005583896552600759
-0.0010812374821871694   -0.018670122727255406   -0.0005812030754752216
-0.000747426372275739   -0.016876477277383277   -0.0005753923979423989
-0.0003415899853391757   -0.01866275648984039   -0.0005175471466695769
-0.0010812374821871694   -0.018670122727255406   -0.0005812030754752216
0.00022627518682002246   -0.01681305265313104   -0.000576579783300565
0.0001488440059177299   -0.01682452187925793   -0.0006531832466482677
-0.0005023792625399713   -0.018667270785101497   -0.0006621376473593043
0.0011942278705153453   -0.016756258148640187   -0.000689629917827693
0.00018647258293422875   -0.01681399436517105   -0.0006131203490092929
-0.0005023792625399713   -0.018667270785101497   -0.0006621376473593043
0.00021019333075094121   -0.018602153069126773   -0.0007130235761738408
0.0011942278705153453   -0.016756258148640187   -0.000689629917827693
0.00034723717624018355   -0.01857152590847698   -0.0006292543677044952
0.00018647258293422875   -0.01681399436517105   -0.0006131203490092929
0.0012906986493435577   -0.016736173718654112   -0.0006282479613672171
0.00034723717624018355   -0.01857152590847698   -0.0006292543677044952
0.0011942278705153453   -0.016756258148640187   -0.000689629917827693
0.00018647258293422875   -0.01681399436517105   -0.0006131203490092929
0.00034723717624018355   -0.01857152590847698   -0.0006292543677044952
-0.0004446711239511103   -0.018653042044714265   -0.000610818403589175
-0.0005023792625399713   -0.018667270785101497   -0.0006621376473593043
0.00018647258293422875   -0.01681399436517105   -0.0006131203490092929
0.00034723717624018355   -0.01857152590847698   -0.0006292543677044952
-0.0005023792625399713   -0.018667270785101497   -0.0006621376473593043
0.0011942278705153453   -0.016756258148640187   -0.000689629917827693
0.00018647258293422875   -0.01681399436517105   -0.0006131203490092929
-0.0004446711239511103   -0.018653042044714265   -0.000610818403589175
0.0012906986493435577   -0.016736173718654112   -0.0006282479613672171
0.00022627518682002246   -0.01681305265313104   -0.000576579783300565
-0.0004446711239511103   -0.018653042044714265   -0.000610818403589175
0.00034723717624018355   -0.01857152590847698   -0.0006292543677044952
0.0012906986493435577   -0.016736173718654112   -0.0006282479613672171
0.0004547946999734625   -0.018565487659384507   -0.0005503864873333689
0.00022627518682002246   -0.01681305265313104   -0.000576579783300565
0.0013647503812357186   -0.016732691426413097   -0.0005712388555969011
0.0004547946999734625   -0.018565487659384507   -0.0005503864873333689
0.0012906986493435577   -0.016736173718654112   -0.0006282479613672171
0.00022627518682002246   -0.01681305265313104   -0.000576579783300565
0.0004547946999734625   -0.018565487659384507   -0.0005503864873333689
-0.0003853374151838628   -0.0186507307912857   -0.0005620288529128258
-0.0004446711239511103   -0.018653042044714265   -0.000610818403589175
0.00022627518682002246   -0.01681305265313104   -0.000576579783300565
0.0004547946999734625   -0.018565487659384507   -0.0005503864873333689
-0.0004446711239511103   -0.018653042044714265   -0.000610818403589175
0.0012906986493435577   -0.016736173718654112   -0.0006282479613672171
0.00022627518682002246   -0.01681305265313104   -0.000576579783300565
-0.0003853374151838628   -0.0186507307912857   -0.0005620288529128258
0.0013647503812357186   -0.016732691426413097   -0.0005712388555969011
0.00025538180438184173   -0.01682123909821224   -0.0005424588446890932
-0.0003853374151838628   -0.0186507307912857   -0.0005620288529128258
0.0004547946999734625   -0.018565487659384507   -0.0005503864873333689
0.0013647503812357186   -0.016732691426413097   -0.0005712388555969011
0.000567212803962629   -0.018571387566661067   -0.0004781005446953259
0.00025538180438184173   -0.01682123909821224   -0.0005424588446890932
0.0014419720725553108   -0.016738833130927742   -0.0005190593767020108
0.000567212803962629   -0.018571387566661067   -0.0004781005446953259
0.0013647503812357186   -0.016732691426413097   -0.0005712388555969011
0.00025538180438184173   -0.01682123909821224   -0.0005424588446890932
0.000567212803962629   -0.018571387566661067   -0.0004781005446953259
-0.0003415899853391757   -0.01866275648984039   -0.0005175471466695769
-0.0003853374151838628   -0.0186507307912857   -0.0005620288529128258
0.00025538180438184173   -0.01682123909821224   -0.0005424588446890932
0.000567212803962629   -0.018571387566661067   -0.0004781005446953259
-0.0003853374151838628   -0.0186507307912857   -0.0005620288529128258
0.0013647503812357186   -0.016732691426413097   -0.0005712388555969011
-0.003254797084556913   -0.018529485779631656   -0.0005752931139512033
-0.002409985885272914   -0.01956832363804586   -0.0005070123057779773
-0.002455172789330925   -0.018605142363614567   -0.0005978479594420695
-0.003169704386240412   -0.018527502366338846   -0.0006260666812118061
-0.002409985885272914   -0.01956832363804586   -0.0005070123057779773
-0.002032240220017235   -0.019663495240323882   -0.0005634848639206458
-0.002455172789330925   -0.018605142363614567   -0.0005978479594420695
-0.0019834548110967258   -0.019645211138186628   -0.0005837231537013034
-0.003169704386240412   -0.018527502366338846   -0.0006260666812118061
-0.0024161489223176557   -0.01860146877224801   -0.0006166948177747507
-0.0019834548110967258   -0.019645211138186628   -0.0005837231537013034
-0.002455172789330925   -0.018605142363614567   -0.0005978479594420695
-0.003169704386240412   -0.018527502366338846   -0.0006260666812118061
-0.0019834548110967258   -0.019645211138186628   -0.0005837231537013034
-0.002304583105571028   -0.01954765520913679   -0.0005677985425791388
-0.002409985885272914   -0.01956832363804586   -0.0005070123057779773
-0.003169704386240412   -0.018527502366338846   -0.0006260666812118061
-0.0019834548110967258   -0.019645211138186628   -0.0005837231537013034
-0.002409985885272914   -0.01956832363804586   -0.0005070123057779773
-0.002455172789330925   -0.018605142363614567   -0.0005978479594420695
-0.003169704386240412   -0.018527502366338846   -0.0006260666812118061
-0.002304583105571028   -0.01954765520913679   -0.0005677985425791388
-0.0024161489223176557   -0.01860146877224801   -0.0006166948177747507
-0.0030914251172577773   -0.018541378057708717   -0.0006806877566306156
-0.002304583105571028   -0.01954765520913679   -0.0005677985425791388
-0.0019834548110967258   -0.019645211138186628   -0.0005837231537013034
-0.0024161489223176557   -0.01860146877224801   -0.0006166948177747507
-0.0019291652876918745   -0.01964680824435215   -0.0006041786095781095
-0.0030914251172577773   -0.018541378057708717   -0.0006806877566306156
-0.002370096881021301   -0.018612750745788605   -0.0006382654870370925
-0.0019291652876918745   -0.01964680824435215   -0.0006041786095781095
-0.0024161489223176557   -0.01860146877224801   -0.0006166948177747507
-0.0030914251172577773   -0.018541378057708717   -0.0006806877566306156
-0.0019291652876918745   -0.01964680824435215   -0.0006041786095781095
-0.0022137046074083362   -0.01955020307992795   -0.0006284118109759481
-0.002304583105571028   -0.01954765520913679   -0.0005677985425791388
-0.0030914251172577773   -0.018541378057708717   -0.0006806877566306156
-0.0019291652876918745   -0.01964680824435215   -0.0006041786095781095
-0.002304583105571028   -0.01954765520913679   -0.0005677985425791388
-0.0024161489223176557   -0.01860146877224801   -0.0006166948177747507
-0.0030914251172577773   -0.018541378057708717   -0.0006806877566306156
-0.0022137046074083362   -0.01955020307992795   -0.0006284118109759481
-0.002370096881021301   -0.018612750745788605   -0.0006382654870370925
-0.002995842143285503   -0.018577919059420498   -0.0007389473695285669
-0.0022137046074083362   -0.01955020307992795   -0.0006284118109759481
-0.0019291652876918745   -0.01964680824435215   -0.0006041786095781095
-0.002370096881021301   -0.018612750745788605   -0.0006382654870370925
-0.0018788733436627637   -0.019668411340246682   -0.0006249352460844476
-0.002995842143285503   -0.018577919059420498   -0.0007389473695285669
-0.0023283271386461   -0.018639268682569675   -0.0006623889517347616
-0.0018788733436627637   -0.019668411340246682   -0.0006249352460844476
-0.002370096881021301   -0.018612750745788605   -0.0006382654870370925
-0.002995842143285503   -0.018577919059420498   -0.0007389473695285669
-0.0018788733436627637   -0.019668411340246682   -0.0006249352460844476
-0.00210570887210392   -0.019577375016947268   -0.0006903112378330155
-0.0022137046074083362   -0.01955020307992795   -0.0006284118109759481
-0.002995842143285503   -0.018577919059420498   -0.0007389473695285669
-0.0018788733436627637   -0.019668411340246682   -0.0006249352460844476
-0.0022137046074083362   -0.01955020307992795   -0.0006284118109759481
-0.002370096881021301   -0.018612750745788605   -0.0006382654870370925
-0.002455172789330925   -0.018605142363614567   -0.0005978479594420695
-0.002032240220017235   -0.019663495240323882   -0.0005634848639206458
-0.00179845073363994   -0.018653131446776158   -0.0006155354559530735
-0.0024161489223176557   -0.01860146877224801   -0.0006166948177747507
-0.002032240220017235   -0.019663495240323882   -0.0005634848639206458
-0.0017528761988347761   -0.019756480327368257   -0.0006132189503939364
-0.00179845073363994   -0.018653131446776158   -0.0006155354559530735
-0.001701654483180186   -0.01973758586873573   -0.0005997705443872121
-0.0024161489223176557   -0.01860146877224801   -0.0006166948177747507
-0.0017585514466209862   -0.018647015646843373   -0.0006097964212436045
-0.001701654483180186   -0.01973758586873573   -0.0005997705443872121
-0.00179845073363994   -0.018653131446776158   -0.0006155354559530735
-0.0024161489223176557   -0.01860146877224801   -0.0006166948177747507
-0.001701654483180186   -0.01973758586873573   -0.0005997705443872121
-0.0019834548110967258   -0.019645211138186628   -0.0005837231537013034
-0.002032240220017235   -0.019663495240323882   -0.0005634848639206458
-0.0024161489223176557   -0.01860146877224801   -0.0006166948177747507
-0.001701654483180186   -0.01973758586873573   -0.0005997705443872121
-0.002032240220017235   -0.019663495240323882   -0.0005634848639206458
-0.00179845073363994   -0.018653131446776158   -0.0006155354559530735
-0.0024161489223176557   -0.01860146877224801   -0.0006166948177747507
-0.0019834548110967258   -0.019645211138186628   -0.0005837231537013034
-0.0017585514466209862   -0.018647015646843373   -0.0006097964212436045
-0.002370096881021301   -0.018612750745788605   -0.0006382654870370925
-0.0019834548110967258   -0.019645211138186628   -0.0005837231537013034
-0.001701654483180186   -0.01973758586873573   -0.0005997705443872121
-0.0017585514466209862   -0.018647015646843373   -0.0006097964212436045
-0.0016520143366064363   -0.019737763368182632   -0.0005861725523291246
-0.002370096881021301   -0.018612750745788605   -0.0006382654870370925
-0.0017191247911542986   -0.01865385701352675   -0.0006067134791395638
-0.0016520143366064363   -0.019737763368182632   -0.0005861725523291246
-0.0017585514466209862   -0.018647015646843373   -0.0006097964212436045
-0.002370096881021301   -0.018612750745788605   -0.0006382654870370925
-0.0016520143366064363   -0.019737763368182632   -0.0005861725523291246
-0.0019291652876918745   -0.01964680824435215   -0.0006041786095781095
-0.0019834548110967258   -0.019645211138186628   -0.0005837231537013034
-0.002370096881021301   -0.018612750745788605   -0.0006382654870370925
-0.0016520143366064363   -0.019737763368182632   -0.0005861725523291246
-0.0019834548110967258   -0.019645211138186628   -0.0005837231537013034
-0.0017585514466209862   -0.018647015646843373   -0.0006097964212436045
-0.002370096881021301   -0.018612750745788605   -0.0006382654870370925
-0.0019291652876918745   -0.01964680824435215   -0.0006041786095781095
-0.0017191247911542986   -0.01865385701352675   -0.0006067134791395638
-0.0023283271386461   -0.018639268682569675   -0.0006623889517347616
-0.0019291652876918745   -0.01964680824435215   -0.0006041786095781095
-0.0016520143366064363   -0.019737763368182632   -0.0005861725523291246
-0.0017191247911542986   -0.01865385701352675   -0.0006067134791395638
-0.001600352914801744   -0.0197566467616112   -0.0005731547777347822
-0.0023283271386461   -0.018639268682569675   -0.0006623889517347616
-0.001682752878079924   -0.018674048715166855   -0.0006068273912626842
-0.001600352914801744   -0.0197566467616112   -0.0005731547777347822
-0.0017191247911542986   -0.01865385701352675   -0.0006067134791395638
-0.0023283271386461   -0.018639268682569675   -0.0006623889517347616
-0.001600352914801744   -0.0197566467616112   -0.0005731547777347822
-0.0018788733436627637   -0.019668411340246682   -0.0006249352460844476
-0.0019291652876918745   -0.01964680824435215   -0.0006041786095781095
-0.0023283271386461   -0.018639268682569675   -0.0006623889517347616
-0.001600352914801744   -0.0197566467616112   -0.0005731547777347822
-0.0019291652876918745   -0.01964680824435215   -0.0006041786095781095
-0.0017191247911542986   -0.01865385701352675   -0.0006067134791395638
-0.00179845073363994   -0.018653131446776158   -0.0006155354559530735
-0.0017528761988347761   -0.019756480327368257   -0.0006132189503939364
-0.0011690946188024024   -0.01867671730012398   -0.0006367934984029388
-0.0017585514466209862   -0.018647015646843373   -0.0006097964212436045
-0.0017528761988347761   -0.019756480327368257   -0.0006132189503939364
-0.0014967842016197894   -0.019866011176765657   -0.0006683510982862726
-0.0011690946188024024   -0.01867671730012398   -0.0006367934984029388
-0.0014341545563408523   -0.01984933496383314   -0.0006193805930622322
-0.0017585514466209862   -0.018647015646843373   -0.0006097964212436045
-0.0011241519489745885   -0.018667678615208527   -0.0006078052596124038
-0.0014341545563408523   -0.01984933496383314   -0.0006193805930622322
-0.0011690946188024024   -0.01867671730012398   -0.0006367934984029388
-0.0017585514466209862   -0.018647015646843373   -0.0006097964212436045
-0.0014341545563408523   -0.01984933496383314   -0.0006193805930622322
-0.001701654483180186   -0.01973758586873573   -0.0005997705443872121
-0.0017528761988347761   -0.019756480327368257   -0.0006132189503939364
-0.0017585514466209862   -0.018647015646843373   -0.0006097964212436045
-0.0014341545563408523   -0.01984933496383314   -0.0006193805930622322
-0.0017528761988347761   -0.019756480327368257   -0.0006132189503939364
-0.0011690946188024024   -0.01867671730012398   -0.0006367934984029388
-0.0017585514466209862   -0.018647015646843373   -0.0006097964212436045
-0.001701654483180186   -0.01973758586873573   -0.0005997705443872121
-0.0011241519489745885   -0.018667678615208527   -0.0006078052596124038
-0.0017191247911542986   -0.01865385701352675   -0.0006067134791395638
-0.001701654483180186   -0.01973758586873573   -0.0005997705443872121
-0.0014341545563408523   -0.01984933496383314   -0.0006193805930622322
-0.0011241519489745885   -0.018667678615208527   -0.0006078052596124038
-0.001375941330319276   -0.019848743496571338   -0.0005704672070568638
-0.0017191247911542986   -0.01865385701352675   -0.0006067134791395638
-0.0010812374821871694   -0.018670122727255406   -0.0005812030754752216
-0.001375941330319276   -0.019848743496571338   -0.0005704672070568638
-0.0011241519489745885   -0.018667678615208527   -0.0006078052596124038
-0.0017191247911542986   -0.01865385701352675   -0.0006067134791395638
-0.001375941330319276   -0.019848743496571338   -0.0005704672070568638
-0.0016520143366064363   -0.019737763368182632   -0.0005861725523291246
-0.001701654483180186   -0.01973758586873573   -0.0005997705443872121
-0.0017191247911542986   -0.01865385701352675   -0.0006067134791395638
-0.001375941330319276   -0.019848743496571338   -0.0005704672070568638
-0.001701654483180186   -0.01973758586873573   -0.0005997705443872121
-0.0011241519489745885   -0.018667678615208527   -0.0006078052596124038
-0.0017191247911542986   -0.01865385701352675   -0.0006067134791395638
-0.0016520143366064363   -0.019737763368182632   -0.0005861725523291246
-0.0010812374821871694   -0.018670122727255406   -0.0005812030754752216
-0.001682752878079924   -0.018674048715166855   -0.0006068273912626842
-0.0016520143366064363   -0.019737763368182632   -0.0005861725523291246
-0.001375941330319276   -0.019848743496571338   -0.0005704672070568638
-0.0010812374821871694   -0.018670122727255406   -0.0005812030754752216
-0.0013136766158896975   -0.019863446982343432   -0.0005216288561513269
-0.001682752878079924   -0.018674048715166855   -0.0006068273912626842
-0.0010454047435759536   -0.018686122951723668   -0.0005583896552600759
-0.0013136766158896975   -0.019863446982343432   -0.0005216288561513269
-0.0010812374821871694   -0.018670122727255406   -0.0005812030754752216
-0.001682752878079924   -0.018674048715166855   -0.0006068273912626842
-0.0013136766158896975   -0.019863446982343432   -0.0005216288561513269
-0.001600352914801744   -0.0197566467616112   -0.0005731547777347822
-0.0016520143366064363   -0.019737763368182632   -0.0005861725523291246
-0.001682752878079924   -0.018674048715166855   -0.0006068273912626842
-0.0013136766158896975   -0.019863446982343432   -0.0005216288561513269
-0.0016520143366064363   -0.019737763368182632   -0.0005861725523291246
-0.0010812374821871694   -0.018670122727255406   -0.0005812030754752216
-0.0011690946188024024   -0.01867671730012398   -0.0006367934984029388
-0.0014967842016197894   -0.019866011176765657   -0.0006683510982862726
-0.0005023792625399713   -0.018667270785101497   -0.0006621376473593043
-0.0011241519489745885   -0.018667678615208527   -0.0006078052596124038
-0.0014967842016197894   -0.019866011176765657   -0.0006683510982862726
-0.0012447381969492102   -0.02   -0.0007121115494335843
-0.0005023792625399713   -0.018667270785101497   -0.0006621376473593043
-0.0011655680091445459   -0.02   -0.0006366253295069698
-0.0011241519489745885   -0.018667678615208527   -0.0006078052596124038
-0.0004446711239511103   -0.018653042044714265   -0.000610818403589175
-0.0011655680091445459   -0.02   -0.0006366253295069698
-0.0005023792625399713   -0.018667270785101497   -0.0006621376473593043
-0.0011241519489745885   -0.018667678615208527   -0.0006078052596124038
-0.0011655680091445459   -0.02   -0.0006366253295069698
-0.0014341545563408523   -0.01984933496383314   -0.0006193805930622322
-0.0014967842016197894   -0.019866011176765657   -0.0006683510982862726
-0.0011241519489745885   -0.018667678615208527   -0.0006078052596124038
-0.0011655680091445459   -0.02   -0.0006366253295069698
-0.0014967842016197894   -0.019866011176765657   -0.0006683510982862726
-0.0005023792625399713   -0.018667270785101497   -0.0006621376473593043
-0.0011241519489745885   -0.018667678615208527   -0.0006078052596124038
-0.0014341545563408523   -0.01984933496383314   -0.0006193805930622322
-0.0004446711239511103   -0.018653042044714265   -0.000610818403589175
-0.0010812374821871694   -0.018670122727255406   -0.0005812030754752216
-0.0014341545563408523   -0.01984933496383314   -0.0006193805930622322
-0.0011655680091445459   -0.02   -0.0006366253295069698
-0.0004446711239511103   -0.018653042044714265   -0.000610818403589175
-0.001085698788076207   -0.02   -0.0005602548731811962
-0.0010812374821871694   -0.018670122727255406   -0.0005812030754752216
-0.0003853374151838628   -0.0186507307912857   -0.0005620288529128258
-0.001085698788076207   -0.02   -0.0005602548731811962
-0.0004446711239511103   -0.018653042044714265   -0.000610818403589175
-0.0010812374821871694   -0.018670122727255406   -0.0005812030754752216
-0.001085698788076207   -0.02   -0.0005602548731811962
-0.001375941330319276   -0.019848743496571338   -0.0005704672070568638
-0.0014341545563408523   -0.01984933496383314   -0.0006193805930622322
-0.0010812374821871694   -0.018670122727255406   -0.0005812030754752216
-0.001085698788076207   -0.02   -0.0005602548731811962
-0.0014341545563408523   -0.01984933496383314   -0.0006193805930622322
-0.0004446711239511103   -0.018653042044714265   -0.000610818403589175
-0.0010812374821871694   -0.018670122727255406   -0.0005812030754752216
-0.001375941330319276   -0.019848743496571338   -0.0005704672070568638
-0.0003853374151838628   -0.0186507307912857   -0.0005620288529128258
-0.0010454047435759536   -0.018686122951723668   -0.0005583896552600759
-0.001375941330319276   -0.019848743496571338   -0.0005704672070568638
-0.001085698788076207   -0.02   -0.0005602548731811962
-0.0003853374151838628   -0.0186507307912857   -0.0005620288529128258
-0.0010080295134869955   -0.02   -0.00048492183520794694
-0.0010454047435759536   -0.018686122951723668   -0.0005583896552600759
-0.0003415899853391757   -0.01866275648984039   -0.0005175471466695769
-0.0010080295134869955   -0.02   -0.00048492183520794694
-0.0003853374151838628   -0.0186507307912857   -0.0005620288529128258
-0.0010454047435759536   -0.018686122951723668   -0.0005583896552600759
-0.0010080295134869955   -0.02   -0.00048492183520794694
-0.0013136766158896975   -0.019863446982343432   -0.0005216288561513269
-0.001375941330319276   -0.019848743496571338   -0.0005704672070568638
-0.0010454047435759536   -0.018686122951723668   -0.0005583896552600759
-0.0010080295134869955   -0.02   -0.00048492183520794694
-0.001375941330319276   -0.019848743496571338   -0.0005704672070568638
-0.0003853374151838628   -0.0186507307912857   -0.0005620288529128258
-0.0005023792625399713   -0.018667270785101497   -0.0006621376473593043
-0.0012447381969492102   -0.02   -0.0007121115494335843
0.00021019333075094121   -0.018602153069126773   -0.0007130235761738408
-0.0004446711239511103   -0.018653042044714265   -0.000610818403589175
-0.0012447381969492102   -0.02   -0.0007121115494335843
-0.0010583819271096004   -0.02   -0.0007650996020065016
0.00021019333075094121   -0.018602153069126773   -0.0007130235761738408
-0.0008902462753696671   -0.02   -0.0006553101861498183
-0.0004446711239511103   -0.018653042044714265   -0.000610818403589175
0.00034723717624018355   -0.01857152590847698   -0.0006292543677044952
-0.0008902462753696671   -0.02   -0.0006553101861498183
0.00021019333075094121   -0.018602153069126773   -0.0007130235761738408
-0.0004446711239511103   -0.018653042044714265   -0.000610818403589175
-0.0008902462753696671   -0.02   -0.0006553101861498183
-0.0011655680091445459   -0.02   -0.0006366253295069698
-0.0012447381969492102   -0.02   -0.0007121115494335843
-0.0004446711239511103   -0.018653042044714265   -0.000610818403589175
-0.0008902462753696671   -0.02   -0.0006553101861498183
-0.0012447381969492102   -0.02   -0.0007121115494335843
0.00021019333075094121   -0.018602153069126773   -0.0007130235761738408
-0.0004446711239511103   -0.018653042044714265   -0.000610818403589175
-0.0011655680091445459   -0.02   -0.0006366253295069698
0.00034723717624018355   -0.01857152590847698   -0.0006292543677044952
-0.0003853374151838628   -0.0186507307912857   -0.0005620288529128258
-0.0011655680091445459   -0.02   -0.0006366253295069698
-0.0008902462753696671   -0.02   -0.0006553101861498183
0.00034723717624018355   -0.01857152590847698   -0.0006292543677044952
-0.000756186930755957   -0.02   -0.0005503158980682605
-0.0003853374151838628   -0.0186507307912857   -0.0005620288529128258
0.0004547946999734625   -0.018565487659384507   -0.0005503864873333689
-0.000756186930755957   -0.02   -0.0005503158980682605
0.00034723717624018355   -0.01857152590847698   -0.0006292543677044952
-0.0003853374151838628   -0.0186507307912857   -0.0005620288529128258
-0.000756186930755957   -0.02   -0.0005503158980682605
-0.001085698788076207   -0.02   -0.0005602548731811962
-0.0011655680091445459   -0.02   -0.0006366253295069698
-0.0003853374151838628   -0.0186507307912857   -0.0005620288529128258
-0.000756186930755957   -0.02   -0.0005503158980682605
-0.0011655680091445459   -0.02   -0.0006366253295069698
0.00034723717624018355   -0.01857152590847698   -0.0006292543677044952
-0.0003853374151838628   -0.0186507307912857   -0.0005620288529128258
-0.001085698788076207   -0.02   -0.0005602548731811962
0.0004547946999734625   -0.018565487659384507   -0.0005503864873333689
-0.0003415899853391757   -0.01866275648984039   -0.0005175471466695769
-0.001085698788076207   -0.02   -0.0005602548731811962
-0.000756186930755957   -0.02   -0.0005503158980682605
0.0004547946999734625   -0.018565487659384507   -0.0005503864873333689
-0.0005906884386501775   -0.02   -0.0004412913943760212
-0.0003415899853391757   -0.01866275648984039   -0.0005175471466695769
0.000567212803962629   -0.018571387566661067   -0.0004781005446953259
-0.0005906884386501775   -0.02   -0.0004412913943760212
0.0004547946999734625   -0.018565487659384507   -0.0005503864873333689
-0.0003415899853391757   -0.01866275648984039   -0.0005175471466695769
-0.0005906884386501775   -0.02   -0.0004412913943760212
-0.0010080295134869955   -0.02   -0.00048492183520794694
-0.001085698788076207   -0.02   -0.0005602548731811962
-0.0003415899853391757   -0.01866275648984039   -0.0005175471466695769
-0.0005906884386501775   -0.02   -0.0004412913943760212
-0.001085698788076207   -0.02   -0.0005602548731811962
0.0004547946999734625   -0.018565487659384507   -0.0005503864873333689
-0.002409985885272914   -0.01956832363804586   -0.0005070123057779773
-0.0014754827319777813   -0.0196434670395489   -0.0004344504349078925
-0.002032240220017235   -0.019663495240323882   -0.0005634848639206458
-0.002304583105571028   -0.01954765520913679   -0.0005677985425791388
-0.0014754827319777813   -0.0196434670395489   -0.0004344504349078925
-0.0015495823941496154   -0.019717821088314196   -0.0005072340737415452
-0.002032240220017235   -0.019663495240323882   -0.0005634848639206458
-0.0015124918312696715   -0.019692735009259135   -0.0005344959214736695
-0.002304583105571028   -0.01954765520913679   -0.0005677985425791388
-0.0019834548110967258   -0.019645211138186628   -0.0005837231537013034
-0.0015124918312696715   -0.019692735009259135   -0.0005344959214736695
-0.002032240220017235   -0.019663495240323882   -0.0005634848639206458
-0.002304583105571028   -0.01954765520913679   -0.0005677985425791388
-0.0015124918312696715   -0.019692735009259135   -0.0005344959214736695
-0.0013794545468861761   -0.019611175579436434   -0.0004983901198490648
-0.0014754827319777813   -0.0196434670395489   -0.0004344504349078925
-0.002304583105571028   -0.01954765520913679   -0.0005677985425791388
-0.0015124918312696715   -0.019692735009259135   -0.0005344959214736695
-0.0014754827319777813   -0.0196434670395489   -0.0004344504349078925
-0.002032240220017235   -0.019663495240323882   -0.0005634848639206458
-0.002304583105571028   -0.01954765520913679   -0.0005677985425791388
-0.0013794545468861761   -0.019611175579436434   -0.0004983901198490648
-0.0019834548110967258   -0.019645211138186628   -0.0005837231537013034
-0.0022137046074083362   -0.01955020307992795   -0.0006284118109759481
-0.0013794545468861761   -0.019611175579436434   -0.0004983901198490648
-0.0015124918312696715   -0.019692735009259135   -0.0005344959214736695
-0.0019834548110967258   -0.019645211138186628   -0.0005837231537013034
-0.001468823714077662   -0.019684176558722045   -0.0005597598935951088
-0.0022137046074083362   -0.01955020307992795   -0.0006284118109759481
-0.0019291652876918745   -0.01964680824435215   -0.0006041786095781095
-0.001468823714077662   -0.019684176558722045   -0.0005597598935951088
-0.0019834548110967258   -0.019645211138186628   -0.0005837231537013034
-0.0022137046074083362   -0.01955020307992795   -0.0006284118109759481
-0.001468823714077662   -0.019684176558722045   -0.0005597598935951088
-0.0012995793367858975   -0.019602031194779733   -0.0005598568497025238
-0.0013794545468861761   -0.019611175579436434   -0.0004983901198490648
-0.0022137046074083362   -0.01955020307992795   -0.0006284118109759481
-0.001468823714077662   -0.019684176558722045   -0.0005597598935951088
-0.0013794545468861761   -0.019611175579436434   -0.0004983901198490648
-0.0019834548110967258   -0.019645211138186628   -0.0005837231537013034
-0.0022137046074083362   -0.01955020307992795   -0.0006284118109759481
-0.0012995793367858975   -0.019602031194779733   -0.0005598568497025238
-0.0019291652876918745   -0.01964680824435215   -0.0006041786095781095
-0.00210570887210392   -0.019577375016947268   -0.0006903112378330155
-0.0012995793367858975   -0.019602031194779733   -0.0005598568497025238
-0.001468823714077662   -0.019684176558722045   -0.0005597598935951088
-0.0019291652876918745   -0.01964680824435215   -0.0006041786095781095
-0.001431512839573114   -0.019692301346036972   -0.0005829056895396152
-0.00210570887210392   -0.019577375016947268   -0.0006903112378330155
-0.0018788733436627637   -0.019668411340246682   -0.0006249352460844476
-0.001431512839573114   -0.019692301346036972   -0.0005829056895396152
-0.0019291652876918745   -0.01964680824435215   -0.0006041786095781095
-0.00210570887210392   -0.019577375016947268   -0.0006903112378330155
-0.001431512839573114   -0.019692301346036972   -0.0005829056895396152
-0.00120883862911961   -0.019612132160859858   -0.0006186018619837579
-0.0012995793367858975   -0.019602031194779733   -0.0005598568497025238
-0.00210570887210392   -0.019577375016947268   -0.0006903112378330155
-0.001431512839573114   -0.019692301346036972   -0.0005829056895396152
-0.0012995793367858975   -0.019602031194779733   -0.0005598568497025238
-0.0019291652876918745   -0.01964680824435215   -0.0006041786095781095
-0.002032240220017235   -0.019663495240323882   -0.0005634848639206458
-0.0015495823941496154   -0.019717821088314196   -0.0005072340737415452
-0.0017528761988347761   -0.019756480327368257   -0.0006132189503939364
-0.0019834548110967258   -0.019645211138186628   -0.0005837231537013034
-0.0015495823941496154   -0.019717821088314196   -0.0005072340737415452
-0.0016562737578055954   -0.019762629882471423   -0.0005652534531745941
-0.0017528761988347761   -0.019756480327368257   -0.0006132189503939364
-0.0016235507586108886   -0.019740179719065245   -0.0005658032977590802
-0.0019834548110967258   -0.019645211138186628   -0.0005837231537013034
-0.001701654483180186   -0.01973758586873573   -0.0005997705443872121
-0.0016235507586108886   -0.019740179719065245   -0.0005658032977590802
-0.0017528761988347761   -0.019756480327368257   -0.0006132189503939364
-0.0019834548110967258   -0.019645211138186628   -0.0005837231537013034
-0.0016235507586108886   -0.019740179719065245   -0.0005658032977590802
-0.0015124918312696715   -0.019692735009259135   -0.0005344959214736695
-0.0015495823941496154   -0.019717821088314196   -0.0005072340737415452
-0.0019834548110967258   -0.019645211138186628   -0.0005837231537013034
-0.0016235507586108886   -0.019740179719065245   -0.0005658032977590802
-0.0015495823941496154   -0.019717821088314196   -0.0005072340737415452
-0.0017528761988347761   -0.019756480327368257   -0.0006132189503939364
-0.0019834548110967258   -0.019645211138186628   -0.0005837231537013034
-0.0015124918312696715   -0.019692735009259135   -0.0005344959214736695
-0.001701654483180186   -0.01973758586873573   -0.0005997705443872121
-0.0019291652876918745   -0.01964680824435215   -0.0006041786095781095
-0.0015124918312696715   -0.019692735009259135   -0.0005344959214736695
-0.0016235507586108886   -0.019740179719065245   -0.0005658032977590802
-0.001701654483180186   -0.01973758586873573   -0.0005997705443872121
-0.0015871706328008802   -0.019732690506276726   -0.0005637644631046215
-0.0019291652876918745   -0.01964680824435215   -0.0006041786095781095
-0.0016520143366064363   -0.019737763368182632   -0.0005861725523291246
-0.0015871706328008802   -0.019732690506276726   -0.0005637644631046215
-0.001701654483180186   -0.01973758586873573   -0.0005997705443872121
-0.0019291652876918745   -0.01964680824435215   -0.0006041786095781095
-0.0015871706328008802   -0.019732690506276726   -0.0005637644631046215
-0.001468823714077662   -0.019684176558722045   -0.0005597598935951088
-0.0015124918312696715   -0.019692735009259135   -0.0005344959214736695
-0.0019291652876918745   -0.01964680824435215   -0.0006041786095781095
-0.0015871706328008802   -0.019732690506276726   -0.0005637644631046215
-0.0015124918312696715   -0.019692735009259135   -0.0005344959214736695
-0.001701654483180186   -0.01973758586873573   -0.0005997705443872121
-0.0019291652876918745   -0.01964680824435215   -0.0006041786095781095
-0.001468823714077662   -0.019684176558722045   -0.0005597598935951088
-0.0016520143366064363   -0.019737763368182632   -0.0005861725523291246
-0.0018788733436627637   -0.019668411340246682   -0.0006249352460844476
-0.001468823714077662   -0.019684176558722045   -0.0005597598935951088
-0.0015871706328008802   -0.019732690506276726   -0.0005637644631046215
-0.0016520143366064363   -0.019737763368182632   -0.0005861725523291246
-0.0015502315301512098   -0.019739538240402206   -0.000559691664933806
-0.0018788733436627637   -0.019668411340246682   -0.0006249352460844476
-0.001600352914801744   -0.0197566467616112   -0.0005731547777347822
-0.0015502315301512098   -0.019739538240402206   -0.000559691664933806
-0.0016520143366064363   -0.019737763368182632   -0.0005861725523291246
-0.0018788733436627637   -0.019668411340246682   -0.0006249352460844476
-0.0015502315301512098   -0.019739538240402206   -0.000559691664933806
-0.001431512839573114   -0.019692301346036972   -0.0005829056895396152
-0.001468823714077662   -0.019684176558722045   -0.0005597598935951088
-0.0018788733436627637   -0.019668411340246682   -0.0006249352460844476
-0.0015502315301512098   -0.019739538240402206   -0.000559691664933806
-0.001468823714077662   -0.019684176558722045   -0.0005597598935951088
-0.0016520143366064363   -0.019737763368182632   -0.0005861725523291246
-0.0017528761988347761   -0.019756480327368257   -0.0006132189503939364
-0.0016562737578055954   -0.019762629882471423   -0.0005652534531745941
-0.0014967842016197894   -0.019866011176765657   -0.0006683510982862726
-0.001701654483180186   -0.01973758586873573   -0.0005997705443872121
-0.0016562737578055954   -0.019762629882471423   -0.0005652534531745941
-0.0017714810909433257   -0.019779672231067386   -0.0006225443503853812
-0.0014967842016197894   -0.019866011176765657   -0.0006683510982862726
-0.001737576996063791   -0.01975811832630404   -0.000597393105895949
-0.001701654483180186   -0.01973758586873573   -0.0005997705443872121
-0.0014341545563408523   -0.01984933496383314   -0.0006193805930622322
-0.001737576996063791   -0.01975811832630404   -0.000597393105895949
-0.0014967842016197894   -0.019866011176765657   -0.0006683510982862726
-0.001701654483180186   -0.01973758586873573   -0.0005997705443872121
-0.001737576996063791   -0.01975811832630404   -0.000597393105895949
-0.0016235507586108886   -0.019740179719065245   -0.0005658032977590802
-0.0016562737578055954   -0.019762629882471423   -0.0005652534531745941
-0.001701654483180186   -0.01973758586873573   -0.0005997705443872121
-0.001737576996063791   -0.01975811832630404   -0.000597393105895949
-0.0016562737578055954   -0.019762629882471423   -0.0005652534531745941
-0.0014967842016197894   -0.019866011176765657   -0.0006683510982862726
-0.001701654483180186   -0.01973758586873573   -0.0005997705443872121
-0.0016235507586108886   -0.019740179719065245   -0.0005658032977590802
-0.0014341545563408523   -0.01984933496383314   -0.0006193805930622322
-0.0016520143366064363   -0.019737763368182632   -0.0005861725523291246
-0.0016235507586108886   -0.019740179719065245   -0.0005658032977590802
-0.001737576996063791   -0.01975811832630404   -0.000597393105895949
-0.0014341545563408523   -0.01984933496383314   -0.0006193805930622322
-0.0016970344908096586   -0.019751754630965304   -0.0005690849109329991
-0.0016520143366064363   -0.019737763368182632   -0.0005861725523291246
-0.001375941330319276   -0.019848743496571338   -0.0005704672070568638
-0.0016970344908096586   -0.019751754630965304   -0.0005690849109329991
-0.0014341545563408523   -0.01984933496383314   -0.0006193805930622322
-0.0016520143366064363   -0.019737763368182632   -0.0005861725523291246
-0.0016970344908096586   -0.019751754630965304   -0.0005690849109329991
-0.0015871706328008802   -0.019732690506276726   -0.0005637644631046215
-0.0016235507586108886   -0.019740179719065245   -0.0005658032977590802
-0.0016520143366064363   -0.019737763368182632   -0.0005861725523291246
-0.0016970344908096586   -0.019751754630965304   -0.0005690849109329991
-0.0016235507586108886   -0.019740179719065245   -0.0005658032977590802
-0.0014341545563408523   -0.01984933496383314   -0.0006193805930622322
-0.0016520143366064363   -0.019737763368182632   -0.0005861725523291246
-0.0015871706328008802   -0.019732690506276726   -0.0005637644631046215
-0.001375941330319276   -0.019848743496571338   -0.0005704672070568638
-0.001600352914801744   -0.0197566467616112   -0.0005731547777347822
-0.0015871706328008802   -0.019732690506276726   -0.0005637644631046215
-0.0016970344908096586   -0.019751754630965304   -0.0005690849109329991
-0.001375941330319276   -0.019848743496571338   -0.0005704672070568638
-0.0016554181299554436   -0.01975834241906892   -0.0005390079881857224
-0.001600352914801744   -0.0197566467616112   -0.0005731547777347822
-0.0013136766158896975   -0.019863446982343432   -0.0005216288561513269
-0.0016554181299554436   -0.01975834241906892   -0.0005390079881857224
-0.001375941330319276   -0.019848743496571338   -0.0005704672070568638
-0.001600352914801744   -0.0197566467616112   -0.0005731547777347822
-0.0016554181299554436   -0.01975834241906892   -0.0005390079881857224
-0.0015502315301512098   -0.019739538240402206   -0.000559691664933806
-0.0015871706328008802   -0.019732690506276726   -0.0005637644631046215
-0.001600352914801744   -0.0197566467616112   -0.0005731547777347822
-0.0016554181299554436   -0.01975834241906892   -0.0005390079881857224
-0.0015871706328008802   -0.019732690506276726   -0.0005637644631046215
-0.001375941330319276   -0.019848743496571338   -0.0005704672070568638
-0.0014967842016197894   -0.019866011176765657   -0.0006683510982862726
-0.0017714810909433257   -0.019779672231067386   -0.0006225443503853812
-0.0012447381969492102   -0.02   -0.0007121115494335843
-0.0014341545563408523   -0.01984933496383314   -0.0006193805930622322
-0.0017714810909433257   -0.019779672231067386   -0.0006225443503853812
-0.0019388781187035004   -0.01975620227655429   -0.0006774636658796763
-0.0012447381969492102   -0.02   -0.0007121115494335843
-0.0018946496297658367   -0.019735582387959485   -0.0006277306685015217
-0.0014341545563408523   -0.01984933496383314   -0.0006193805930622322
-0.0011655680091445459   -0.02   -0.0006366253295069698
-0.0018946496297658367   -0.019735582387959485   -0.0006277306685015217
-0.0012447381969492102   -0.02   -0.0007121115494335843
-0.0014341545563408523   -0.01984933496383314   -0.0006193805930622322
-0.0018946496297658367   -0.019735582387959485   -0.0006277306685015217
-0.001737576996063791   -0.01975811832630404   -0.000597393105895949
-0.0017714810909433257   -0.019779672231067386   -0.0006225443503853812
-0.0014341545563408523   -0.01984933496383314   -0.0006193805930622322
-0.0018946496297658367   -0.019735582387959485   -0.0006277306685015217
-0.0017714810909433257   -0.019779672231067386   -0.0006225443503853812
-0.0012447381969492102   -0.02   -0.0007121115494335843
-0.0014341545563408523   -0.01984933496383314   -0.0006193805930622322
-0.001737576996063791   -0.01975811832630404   -0.000597393105895949
-0.0011655680091445459   -0.02   -0.0006366253295069698
-0.001375941330319276   -0.019848743496571338   -0.0005704672070568638
-0.001737576996063791   -0.01975811832630404   -0.000597393105895949
-0.0018946496297658367   -0.019735582387959485   -0.0006277306685015217
-0.0011655680091445459   -0.02   -0.0006366253295069698
-0.0018359936406176316   -0.019731264635901663   -0.0005744365492002291
-0.001375941330319276   -0.019848743496571338   -0.0005704672070568638
-0.001085698788076207   -0.02   -0.0005602548731811962
-0.0018359936406176316   -0.019731264635901663   -0.0005744365492002291
-0.0011655680091445459   -0.02   -0.0006366253295069698
-0.001375941330319276   -0.019848743496571338   -0.0005704672070568638
-0.0018359936406176316   -0.019731264635901663   -0.0005744365492002291
-0.0016970344908096586   -0.019751754630965304   -0.0005690849109329991
-0.001737576996063791   -0.01975811832630404   -0.000597393105895949
-0.001375941330319276   -0.019848743496571338   -0.0005704672070568638
-0.0018359936406176316   -0.019731264635901663   -0.0005744365492002291
-0.001737576996063791   -0.01975811832630404   -0.000597393105895949
-0.0011655680091445459   -0.02   -0.0006366253295069698
-0.001375941330319276   -0.019848743496571338   -0.0005704672070568638
-0.0016970344908096586   -0.019751754630965304   -0.0005690849109329991
-0.001085698788076207   -0.02   -0.0005602548731811962
-0.0013136766158896975   -0.019863446982343432   -0.0005216288561513269
-0.0016970344908096586   -0.019751754630965304   -0.0005690849109329991
-0.0018359936406176316   -0.019731264635901663   -0.0005744365492002291
-0.001085698788076207   -0.02   -0.0005602548731811962
-0.0017812777432991678   -0.019740210994827215   -0.0005191860648958808
-0.0013136766158896975   -0.019863446982343432   -0.0005216288561513269
-0.0010080295134869955   -0.02   -0.00048492183520794694
-0.0017812777432991678   -0.019740210994827215   -0.0005191860648958808
-0.001085698788076207   -0.02   -0.0005602548731811962
-0.0013136766158896975   -0.019863446982343432   -0.0005216288561513269
-0.0017812777432991678   -0.019740210994827215   -0.0005191860648958808
-0.0016554181299554436   -0.01975834241906892   -0.0005390079881857224
-0.0016970344908096586   -0.019751754630965304   -0.0005690849109329991
-0.0013136766158896975   -0.019863446982343432   -0.0005216288561513269
-0.0017812777432991678   -0.019740210994827215   -0.0005191860648958808
-0.0016970344908096586   -0.019751754630965304   -0.0005690849109329991
-0.001085698788076207   -0.02   -0.0005602548731811962
-0.0012447381969492102   -0.02   -0.0007121115494335843
-0.0019388781187035004   -0.01975620227655429   -0.0006774636658796763
-0.0010583819271096004   -0.02   -0.0007650996020065016
-0.0011655680091445459   -0.02   -0.0006366253295069698
-0.0019388781187035004   -0.01975620227655429   -0.0006774636658796763
-0.0022708989850296606   -0.019660120432550467   -0.0007366267090012518
-0.0010583819271096004   -0.02   -0.0007650996020065016
-0.0021501540538575764   -0.0196422762014502   -0.0006550980913963035
-0.0011655680091445459   -0.02   -0.0006366253295069698
-0.0008902462753696671   -0.02   -0.0006553101861498183
-0.0021501540538575764   -0.0196422762014502   -0.0006550980913963035
-0.0010583819271096004   -0.02   -0.0007650996020065016
-0.0011655680091445459   -0.02   -0.0006366253295069698
-0.0021501540538575764   -0.0196422762014502   -0.0006550980913963035
-0.0018946496297658367   -0.019735582387959485   -0.0006277306685015217
-0.0019388781187035004   -0.01975620227655429   -0.0006774636658796763
-0.0011655680091445459   -0.02   -0.0006366253295069698
-0.0021501540538575764   -0.0196422762014502   -0.0006550980913963035
-0.0019388781187035004   -0.01975620227655429   -0.0006774636658796763
-0.0010583819271096004   -0.02   -0.0007650996020065016
-0.0011655680091445459   -0.02   -0.0006366253295069698
-0.0018946496297658367   -0.019735582387959485   -0.0006277306685015217
-0.0008902462753696671   -0.02   -0.0006553101861498183
-0.001085698788076207   -0.02   -0.0005602548731811962
-0.0018946496297658367   -0.019735582387959485   -0.0006277306685015217
-0.0021501540538575764   -0.0196422762014502   -0.0006550980913963035
-0.0008902462753696671   -0.02   -0.0006553101861498183
-0.0020398641592023216   -0.01964013893735419   -0.0005683727554112691
-0.001085698788076207   -0.02   -0.0005602548731811962
-0.000756186930755957   -0.02   -0.0005503158980682605
-0.0020398641592023216   -0.01964013893735419   -0.0005683727554112691
-0.0008902462753696671   -0.02   -0.0006553101861498183
-0.001085698788076207   -0.02   -0.0005602548731811962
-0.0020398641592023216   -0.01964013893735419   -0.0005683727554112691
-0.0018359936406176316   -0.019731264635901663   -0.0005744365492002291
-0.0018946496297658367   -0.019735582387959485   -0.0006277306685015217
-0.001085698788076207   -0.02   -0.0005602548731811962
-0.0020398641592023216   -0.01964013893735419   -0.0005683727554112691
-0.0018946496297658367   -0.019735582387959485   -0.0006277306685015217
-0.0008902462753696671   -0.02   -0.0006553101861498183
-0.001085698788076207   -0.02   -0.0005602548731811962
-0.0018359936406176316   -0.019731264635901663   -0.0005744365492002291
-0.000756186930755957   -0.02   -0.0005503158980682605
-0.0010080295134869955   -0.02   -0.00048492183520794694
-0.0018359936406176316   -0.019731264635901663   -0.0005744365492002291
-0.0020398641592023216   -0.01964013893735419   -0.0005683727554112691
-0.000756186930755957   -0.02   -0.0005503158980682605
-0.0019004590032016759   -0.019663431474939312   -0.0004779267123093334
-0.0010080295134869955   -0.02   -0.00048492183520794694
-0.0005906884386501775   -0.02   -0.0004412913943760212
-0.0019004590032016759   -0.019663431474939312   -0.0004779267123093334
-0.000756186930755957   -0.02   -0.0005503158980682605
-0.0010080295134869955   -0.02   -0.00048492183520794694
-0.0019004590032016759   -0.019663431474939312   -0.0004779267123093334
-0.0017812777432991678   -0.019740210994827215   -0.0005191860648958808
-0.0018359936406176316   -0.019731264635901663   -0.0005744365492002291
-0.0010080295134869955   -0.02   -0.00048492183520794694
-0.0019004590032016759   -0.019663431474939312   -0.0004779267123093334
-0.0018359936406176316   -0.019731264635901663   -0.0005744365492002291
-0.000756186930755957   -0.02   -0.0005503158980682605
-0.0014754827319777813   -0.0196434670395489   -0.0004344504349078925
-0.0006461475956784021   -0.01893765393732558   -0.00037409738420768606
-0.0015495823941496154   -0.019717821088314196   -0.0005072340737415452
-0.0013794545468861761   -0.019611175579436434   -0.0004983901198490648
-0.0006461475956784021   -0.01893765393732558   -0.00037409738420768606
-0.0011316797831468733   -0.018994566822548554   -0.0004516220612764602
-0.0015495823941496154   -0.019717821088314196   -0.0005072340737415452
-0.0011051862715148863   -0.018964156408450023   -0.0004761203271847192
-0.0013794545468861761   -0.019611175579436434   -0.0004983901198490648
-0.0015124918312696715   -0.019692735009259135   -0.0005344959214736695
-0.0011051862715148863   -0.018964156408450023   -0.0004761203271847192
-0.0015495823941496154   -0.019717821088314196   -0.0005072340737415452
-0.0013794545468861761   -0.019611175579436434   -0.0004983901198490648
-0.0011051862715148863   -0.018964156408450023   -0.0004761203271847192
-0.000568850160393853   -0.018899875689204707   -0.0004298857778850989
-0.0006461475956784021   -0.01893765393732558   -0.00037409738420768606
-0.0013794545468861761   -0.019611175579436434   -0.0004983901198490648
-0.0011051862715148863   -0.018964156408450023   -0.0004761203271847192
-0.0006461475956784021   -0.01893765393732558   -0.00037409738420768606
-0.0015495823941496154   -0.019717821088314196   -0.0005072340737415452
-0.0013794545468861761   -0.019611175579436434   -0.0004983901198490648
-0.000568850160393853   -0.018899875689204707   -0.0004298857778850989
-0.0015124918312696715   -0.019692735009259135   -0.0005344959214736695
-0.0012995793367858975   -0.019602031194779733   -0.0005598568497025238
-0.000568850160393853   -0.018899875689204707   -0.0004298857778850989
-0.0011051862715148863   -0.018964156408450023   -0.0004761203271847192
-0.0015124918312696715   -0.019692735009259135   -0.0005344959214736695
-0.0010751646796129768   -0.018948029066763575   -0.0004985150250527504
-0.0012995793367858975   -0.019602031194779733   -0.0005598568497025238
-0.001468823714077662   -0.019684176558722045   -0.0005597598935951088
-0.0010751646796129768   -0.018948029066763575   -0.0004985150250527504
-0.0015124918312696715   -0.019692735009259135   -0.0005344959214736695
-0.0012995793367858975   -0.019602031194779733   -0.0005598568497025238
-0.0010751646796129768   -0.018948029066763575   -0.0004985150250527504
-0.0005080068979018406   -0.018882706963346107   -0.00048256244122262627
-0.000568850160393853   -0.018899875689204707   -0.0004298857778850989
-0.0012995793367858975   -0.019602031194779733   -0.0005598568497025238
-0.0010751646796129768   -0.018948029066763575   -0.0004985150250527504
-0.000568850160393853   -0.018899875689204707   -0.0004298857778850989
-0.0015124918312696715   -0.019692735009259135   -0.0005344959214736695
-0.0012995793367858975   -0.019602031194779733   -0.0005598568497025238
-0.0005080068979018406   -0.018882706963346107   -0.00048256244122262627
-0.001468823714077662   -0.019684176558722045   -0.0005597598935951088
-0.00120883862911961   -0.019612132160859858   -0.0006186018619837579
-0.0005080068979018406   -0.018882706963346107   -0.00048256244122262627
-0.0010751646796129768   -0.018948029066763575   -0.0004985150250527504
-0.001468823714077662   -0.019684176558722045   -0.0005597598935951088
-0.0010522041132964488   -0.018945725106325553   -0.0005188799713081436
-0.00120883862911961   -0.019612132160859858   -0.0006186018619837579
-0.001431512839573114   -0.019692301346036972   -0.0005829056895396152
-0.0010522041132964488   -0.018945725106325553   -0.0005188799713081436
-0.001468823714077662   -0.019684176558722045   -0.0005597598935951088
-0.00120883862911961   -0.019612132160859858   -0.0006186018619837579
-0.0010522041132964488   -0.018945725106325553   -0.0005188799713081436
-0.0004411172662375507   -0.018881055101912455   -0.0005320042227055156
-0.0005080068979018406   -0.018882706963346107   -0.00048256244122262627
-0.00120883862911961   -0.019612132160859858   -0.0006186018619837579
-0.0010522041132964488   -0.018945725106325553   -0.0005188799713081436
-0.0005080068979018406   -0.018882706963346107   -0.00048256244122262627
-0.001468823714077662   -0.019684176558722045   -0.0005597598935951088
-0.0015495823941496154   -0.019717821088314196   -0.0005072340737415452
-0.0011316797831468733   -0.018994566822548554   -0.0004516220612764602
-0.0016562737578055954   -0.019762629882471423   -0.0005652534531745941
-0.0015124918312696715   -0.019692735009259135   -0.0005344959214736695
-0.0011316797831468733   -0.018994566822548554   -0.0004516220612764602
-0.0016141869147106584   -0.019014356896010633   -0.0005145419415157742
-0.0016562737578055954   -0.019762629882471423   -0.0005652534531745941
-0.0015920346572186625   -0.018987853311591685   -0.0005157155635581219
-0.0015124918312696715   -0.019692735009259135   -0.0005344959214736695
-0.0016235507586108886   -0.019740179719065245   -0.0005658032977590802
-0.0015920346572186625   -0.018987853311591685   -0.0005157155635581219
-0.0016562737578055954   -0.019762629882471423   -0.0005652534531745941
-0.0015124918312696715   -0.019692735009259135   -0.0005344959214736695
-0.0015920346572186625   -0.018987853311591685   -0.0005157155635581219
-0.0011051862715148863   -0.018964156408450023   -0.0004761203271847192
-0.0011316797831468733   -0.018994566822548554   -0.0004516220612764602
-0.0015124918312696715   -0.019692735009259135   -0.0005344959214736695
-0.0015920346572186625   -0.018987853311591685   -0.0005157155635581219
-0.0011316797831468733   -0.018994566822548554   -0.0004516220612764602
-0.0016562737578055954   -0.019762629882471423   -0.0005652534531745941
-0.0015124918312696715   -0.019692735009259135   -0.0005344959214736695
-0.0011051862715148863   -0.018964156408450023   -0.0004761203271847192
-0.0016235507586108886   -0.019740179719065245   -0.0005658032977590802
-0.001468823714077662   -0.019684176558722045   -0.0005597598935951088
-0.0011051862715148863   -0.018964156408450023   -0.0004761203271847192
-0.0015920346572186625   -0.018987853311591685   -0.0005157155635581219
-0.0016235507586108886   -0.019740179719065245   -0.0005658032977590802
-0.0015691013058663432   -0.01897421566047352   -0.0005149381758610557
-0.001468823714077662   -0.019684176558722045   -0.0005597598935951088
-0.0015871706328008802   -0.019732690506276726   -0.0005637644631046215
-0.0015691013058663432   -0.01897421566047352   -0.0005149381758610557
-0.0016235507586108886   -0.019740179719065245   -0.0005658032977590802
-0.001468823714077662   -0.019684176558722045   -0.0005597598935951088
-0.0015691013058663432   -0.01897421566047352   -0.0005149381758610557
-0.0010751646796129768   -0.018948029066763575   -0.0004985150250527504
-0.0011051862715148863   -0.018964156408450023   -0.0004761203271847192
-0.001468823714077662   -0.019684176558722045   -0.0005597598935951088
-0.0015691013058663432   -0.01897421566047352   -0.0005149381758610557
-0.0011051862715148863   -0.018964156408450023   -0.0004761203271847192
-0.0016235507586108886   -0.019740179719065245   -0.0005658032977590802
-0.001468823714077662   -0.019684176558722045   -0.0005597598935951088
-0.0010751646796129768   -0.018948029066763575   -0.0004985150250527504
-0.0015871706328008802   -0.019732690506276726   -0.0005637644631046215
-0.001431512839573114   -0.019692301346036972   -0.0005829056895396152
-0.0010751646796129768   -0.018948029066763575   -0.0004985150250527504
-0.0015691013058663432   -0.01897421566047352   -0.0005149381758610557
-0.0015871706328008802   -0.019732690506276726   -0.0005637644631046215
-0.0015470113283658576   -0.018972873171723838   -0.0005122045751880353
-0.001431512839573114   -0.019692301346036972   -0.0005829056895396152
-0.0015502315301512098   -0.019739538240402206   -0.000559691664933806
-0.0015470113283658576   -0.018972873171723838   -0.0005122045751880353
-0.0015871706328008802   -0.019732690506276726   -0.0005637644631046215
-0.001431512839573114   -0.019692301346036972   -0.0005829056895396152
-0.0015470113283658576   -0.018972873171723838   -0.0005122045751880353
-0.0010522041132964488   -0.018945725106325553   -0.0005188799713081436
-0.0010751646796129768   -0.018948029066763575   -0.0004985150250527504
-0.001431512839573114   -0.019692301346036972   -0.0005829056895396152
-0.0015470113283658576   -0.018972873171723838   -0.0005122045751880353
-0.0010751646796129768   -0.018948029066763575   -0.0004985150250527504
-0.0015871706328008802   -0.019732690506276726   -0.0005637644631046215
-0.0016562737578055954   -0.019762629882471423   -0.0005652534531745941
-0.0016141869147106584   -0.019014356896010633   -0.0005145419415157742
-0.0017714810909433257   -0.019779672231067386   -0.0006225443503853812
-0.0016235507586108886   -0.019740179719065245   -0.0005658032977590802
-0.0016141869147106584   -0.019014356896010633   -0.0005145419415157742
-0.002093837523797098   -0.018996136242657384   -0.0005735075486904097
-0.0017714810909433257   -0.019779672231067386   -0.0006225443503853812
-0.002071861524896582   -0.018972527476569308   -0.0005522872763156235
-0.0016235507586108886   -0.019740179719065245   -0.0005658032977590802
-0.001737576996063791   -0.01975811832630404   -0.000597393105895949
-0.002071861524896582   -0.018972527476569308   -0.0005522872763156235
-0.0017714810909433257   -0.019779672231067386   -0.0006225443503853812
-0.0016235507586108886   -0.019740179719065245   -0.0005658032977590802
-0.002071861524896582   -0.018972527476569308   -0.0005522872763156235
-0.0015920346572186625   -0.018987853311591685   -0.0005157155635581219
-0.0016141869147106584   -0.019014356896010633   -0.0005145419415157742
-0.0016235507586108886   -0.019740179719065245   -0.0005658032977590802
-0.002071861524896582   -0.018972527476569308   -0.0005522872763156235
-0.0016141869147106584   -0.019014356896010633   -0.0005145419415157742
-0.0017714810909433257   -0.019779672231067386   -0.0006225443503853812
-0.0016235507586108886   -0.019740179719065245   -0.0005658032977590802
-0.0015920346572186625   -0.018987853311591685   -0.0005157155635581219
-0.001737576996063791   -0.01975811832630404   -0.000597393105895949
-0.0015871706328008802   -0.019732690506276726   -0.0005637644631046215
-0.0015920346572186625   -0.018987853311591685   -0.0005157155635581219
-0.002071861524896582   -0.018972527476569308   -0.0005522872763156235
-0.001737576996063791   -0.01975811832630404   -0.000597393105895949
-0.002047203888868451   -0.01896158379255875   -0.0005291508214223421
-0.0015871706328008802   -0.019732690506276726   -0.0005637644631046215
-0.0016970344908096586   -0.019751754630965304   -0.0005690849109329991
-0.002047203888868451   -0.01896158379255875   -0.0005291508214223421
-0.001737576996063791   -0.01975811832630404   -0.000597393105895949
-0.0015871706328008802   -0.019732690506276726   -0.0005637644631046215
-0.002047203888868451   -0.01896158379255875   -0.0005291508214223421
-0.0015691013058663432   -0.01897421566047352   -0.0005149381758610557
-0.0015920346572186625   -0.018987853311591685   -0.0005157155635581219
-0.0015871706328008802   -0.019732690506276726   -0.0005637644631046215
-0.002047203888868451   -0.01896158379255875   -0.0005291508214223421
-0.0015920346572186625   -0.018987853311591685   -0.0005157155635581219
-0.001737576996063791   -0.01975811832630404   -0.000597393105895949
-0.0015871706328008802   -0.019732690506276726   -0.0005637644631046215
-0.0015691013058663432   -0.01897421566047352   -0.0005149381758610557
-0.0016970344908096586   -0.019751754630965304   -0.0005690849109329991
-0.0015502315301512098   -0.019739538240402206   -0.000559691664933806
-0.0015691013058663432   -0.01897421566047352   -0.0005149381758610557
-0.002047203888868451   -0.01896158379255875   -0.0005291508214223421
-0.0016970344908096586   -0.019751754630965304   -0.0005690849109329991
-0.0020225090086086112   -0.01896215806037857   -0.000503865806763985
-0.0015502315301512098   -0.019739538240402206   -0.000559691664933806
-0.0016554181299554436   -0.01975834241906892   -0.0005390079881857224
-0.0020225090086086112   -0.01896215806037857   -0.000503865806763985
-0.0016970344908096586   -0.019751754630965304   -0.0005690849109329991
-0.0015502315301512098   -0.019739538240402206   -0.000559691664933806
-0.0020225090086086112   -0.01896215806037857   -0.000503865806763985
-0.0015470113283658576   -0.018972873171723838   -0.0005122045751880353
-0.0015691013058663432   -0.01897421566047352   -0.0005149381758610557
-0.0015502315301512098   -0.019739538240402206   -0.000559691664933806
-0.0020225090086086112   -0.01896215806037857   -0.000503865806763985
-0.0015691013058663432   -0.01897421566047352   -0.0005149381758610557
-0.0016970344908096586   -0.019751754630965304   -0.0005690849109329991
-0.0017714810909433257   -0.019779672231067386   -0.0006225443503853812
-0.002093837523797098   -0.018996136242657384   -0.0005735075486904097
-0.0019388781187035004   -0.01975620227655429   -0.0006774636658796763
-0.001737576996063791   -0.01975811832630404   -0.000597393105895949
-0.002093837523797098   -0.018996136242657384   -0.0005735075486904097
-0.002619498802506815   -0.018937604146755844   -0.0006279230579654943
-0.0019388781187035004   -0.01975620227655429   -0.0006774636658796763
-0.0025924162627946443   -0.01891684442327451   -0.0005847385643531916
-0.001737576996063791   -0.01975811832630404   -0.000597393105895949
-0.0018946496297658367   -0.019735582387959485   -0.0006277306685015217
-0.0025924162627946443   -0.01891684442327451   -0.0005847385643531916
-0.0019388781187035004   -0.01975620227655429   -0.0006774636658796763
-0.001737576996063791   -0.01975811832630404   -0.000597393105895949
-0.0025924162627946443   -0.01891684442327451   -0.0005847385643531916
-0.002071861524896582   -0.018972527476569308   -0.0005522872763156235
-0.002093837523797098   -0.018996136242657384   -0.0005735075486904097
-0.001737576996063791   -0.01975811832630404   -0.000597393105895949
-0.0025924162627946443   -0.01891684442327451   -0.0005847385643531916
-0.002093837523797098   -0.018996136242657384   -0.0005735075486904097
-0.0019388781187035004   -0.01975620227655429   -0.0006774636658796763
-0.001737576996063791   -0.01975811832630404   -0.000597393105895949
-0.002071861524896582   -0.018972527476569308   -0.0005522872763156235
-0.0018946496297658367   -0.019735582387959485   -0.0006277306685015217
-0.0016970344908096586   -0.019751754630965304   -0.0005690849109329991
-0.002071861524896582   -0.018972527476569308   -0.0005522872763156235
-0.0025924162627946443   -0.01891684442327451   -0.0005847385643531916
-0.0018946496297658367   -0.019735582387959485   -0.0006277306685015217
-0.002554850486337766   -0.01890858442387868   -0.000539796770537147
-0.0016970344908096586   -0.019751754630965304   -0.0005690849109329991
-0.0018359936406176316   -0.019731264635901663   -0.0005744365492002291
-0.002554850486337766   -0.01890858442387868   -0.000539796770537147
-0.0018946496297658367   -0.019735582387959485   -0.0006277306685015217
-0.0016970344908096586   -0.019751754630965304   -0.0005690849109329991
-0.002554850486337766   -0.01890858442387868   -0.000539796770537147
-0.002047203888868451   -0.01896158379255875   -0.0005291508214223421
-0.002071861524896582   -0.018972527476569308   -0.0005522872763156235
-0.0016970344908096586   -0.019751754630965304   -0.0005690849109329991
-0.002554850486337766   -0.01890858442387868   -0.000539796770537147
-0.002071861524896582   -0.018972527476569308   -0.0005522872763156235
-0.0018946496297658367   -0.019735582387959485   -0.0006277306685015217
-0.0016970344908096586   -0.019751754630965304   -0.0005690849109329991
-0.002047203888868451   -0.01896158379255875   -0.0005291508214223421
-0.0018359936406176316   -0.019731264635901663   -0.0005744365492002291
-0.0016554181299554436   -0.01975834241906892   -0.0005390079881857224
-0.002047203888868451   -0.01896158379255875   -0.0005291508214223421
-0.002554850486337766   -0.01890858442387868   -0.000539796770537147
-0.0018359936406176316   -0.019731264635901663   -0.0005744365492002291
-0.00252236233977197   -0.01891282201767657   -0.0004918936855283705
-0.0016554181299554436   -0.01975834241906892   -0.0005390079881857224
-0.0017812777432991678   -0.019740210994827215   -0.0005191860648958808
-0.00252236233977197   -0.01891282201767657   -0.0004918936855283705
-0.0018359936406176316   -0.019731264635901663   -0.0005744365492002291
-0.0016554181299554436   -0.01975834241906892   -0.0005390079881857224
-0.00252236233977197   -0.01891282201767657   -0.0004918936855283705
-0.0020225090086086112   -0.01896215806037857   -0.000503865806763985
-0.002047203888868451   -0.01896158379255875   -0.0005291508214223421
-0.0016554181299554436   -0.01975834241906892   -0.0005390079881857224
-0.00252236233977197   -0.01891282201767657   -0.0004918936855283705
-0.002047203888868451   -0.01896158379255875   -0.0005291508214223421
-0.0018359936406176316   -0.019731264635901663   -0.0005744365492002291
-0.0019388781187035004   -0.01975620227655429   -0.0006774636658796763
-0.002619498802506815   -0.018937604146755844   -0.0006279230579654943
-0.0022708989850296606   -0.019660120432550467   -0.0007366267090012518
-0.0018946496297658367   -0.019735582387959485   -0.0006277306685015217
-0.002619498802506815   -0.018937604146755844   -0.0006279230579654943
-0.0032961523648764486   -0.018842409704684388   -0.0006809201962773706
-0.0022708989850296606   -0.019660120432550467   -0.0007366267090012518
-0.00320631658464744   -0.018819577501608835   -0.0006126572152476632
-0.0018946496297658367   -0.019735582387959485   -0.0006277306685015217
-0.0021501540538575764   -0.0196422762014502   -0.0006550980913963035
-0.00320631658464744   -0.018819577501608835   -0.0006126572152476632
-0.0022708989850296606   -0.019660120432550467   -0.0007366267090012518
-0.0018946496297658367   -0.019735582387959485   -0.0006277306685015217
-0.00320631658464744   -0.018819577501608835   -0.0006126572152476632
-0.0025924162627946443   -0.01891684442327451   -0.0005847385643531916
-0.002619498802506815   -0.018937604146755844   -0.0006279230579654943
-0.0018946496297658367   -0.019735582387959485   -0.0006277306685015217
-0.00320631658464744   -0.018819577501608835   -0.0006126572152476632
-0.002619498802506815   -0.018937604146755844   -0.0006279230579654943
-0.0022708989850296606   -0.019660120432550467   -0.0007366267090012518
-0.0018946496297658367   -0.019735582387959485   -0.0006277306685015217
-0.0025924162627946443   -0.01891684442327451   -0.0005847385643531916
-0.0021501540538575764   -0.0196422762014502   -0.0006550980913963035
-0.0018359936406176316   -0.019731264635901663   -0.0005744365492002291
-0.0025924162627946443   -0.01891684442327451   -0.0005847385643531916
-0.00320631658464744   -0.018819577501608835   -0.0006126572152476632
-0.0021501540538575764   -0.0196422762014502   -0.0006550980913963035
-0.003126328524655365   -0.018811937387174526   -0.000540668735433681
-0.0018359936406176316   -0.019731264635901663   -0.0005744365492002291
-0.0020398641592023216   -0.01964013893735419   -0.0005683727554112691
-0.003126328524655365   -0.018811937387174526   -0.000540668735433681
-0.0021501540538575764   -0.0196422762014502   -0.0006550980913963035
-0.0018359936406176316   -0.019731264635901663   -0.0005744365492002291
-0.003126328524655365   -0.018811937387174526   -0.000540668735433681
-0.002554850486337766   -0.01890858442387868   -0.000539796770537147
-0.0025924162627946443   -0.01891684442327451   -0.0005847385643531916
-0.0018359936406176316   -0.019731264635901663   -0.0005744365492002291
-0.003126328524655365   -0.018811937387174526   -0.000540668735433681
-0.0025924162627946443   -0.01891684442327451   -0.0005847385643531916
-0.0021501540538575764   -0.0196422762014502   -0.0006550980913963035
-0.0018359936406176316   -0.019731264635901663   -0.0005744365492002291
-0.002554850486337766   -0.01890858442387868   -0.000539796770537147
-0.0020398641592023216   -0.01964013893735419   -0.0005683727554112691
-0.0017812777432991678   -0.019740210994827215   -0.0005191860648958808
-0.002554850486337766   -0.01890858442387868   -0.000539796770537147
-0.003126328524655365   -0.018811937387174526   -0.000540668735433681
-0.0020398641592023216   -0.01964013893735419   -0.0005683727554112691
-0.0030227289439545744   -0.01882360571289856   -0.0004656176482084364
-0.0017812777432991678   -0.019740210994827215   -0.0005191860648958808
-0.0019004590032016759   -0.019663431474939312   -0.0004779267123093334
-0.0030227289439545744   -0.01882360571289856   -0.0004656176482084364
-0.0020398641592023216   -0.01964013893735419   -0.0005683727554112691
-0.0017812777432991678   -0.019740210994827215   -0.0005191860648958808
-0.0030227289439545744   -0.01882360571289856   -0.0004656176482084364
-0.00252236233977197   -0.01891282201767657   -0.0004918936855283705
-0.002554850486337766   -0.01890858442387868   -0.000539796770537147
-0.0017812777432991678   -0.019740210994827215   -0.0005191860648958808
-0.0030227289439545744   -0.01882360571289856   -0.0004656176482084364
-0.002554850486337766   -0.01890858442387868   -0.000539796770537147
-0.0020398641592023216   -0.01964013893735419   -0.0005683727554112691
-0.0006461475956784021   -0.01893765393732558   -0.00037409738420768606
3.458948747905097e-05   -0.017609816359097204   -0.0003083448057842955
-0.0011316797831468733   -0.018994566822548554   -0.0004516220612764602
-0.000568850160393853   -0.018899875689204707   -0.0004298857778850989
3.458948747905097e-05   -0.017609816359097204   -0.0003083448057842955
-0.000795906701203223   -0.01765219005902101   -0.0003846518732542377
-0.0011316797831468733   -0.018994566822548554   -0.0004516220612764602
-0.0007816435116615097   -0.017620274574981016   -0.0004043213038528481
-0.000568850160393853   -0.018899875689204707   -0.0004298857778850989
-0.0011051862715148863   -0.018964156408450023   -0.0004761203271847192
-0.0007816435116615097   -0.017620274574981016   -0.0004043213038528481
-0.0011316797831468733   -0.018994566822548554   -0.0004516220612764602
-0.000568850160393853   -0.018899875689204707   -0.0004298857778850989
-0.0007816435116615097   -0.017620274574981016   -0.0004043213038528481
8.945397993863471e-05   -0.017571310032903215   -0.0003533473512750123
3.458948747905097e-05   -0.017609816359097204   -0.0003083448057842955
-0.000568850160393853   -0.018899875689204707   -0.0004298857778850989
-0.0007816435116615097   -0.017620274574981016   -0.0004043213038528481
3.458948747905097e-05   -0.017609816359097204   -0.0003083448057842955
-0.0011316797831468733   -0.018994566822548554   -0.0004516220612764602
-0.000568850160393853   -0.018899875689204707   -0.0004298857778850989
8.945397993863471e-05   -0.017571310032903215   -0.0003533473512750123
-0.0011051862715148863   -0.018964156408450023   -0.0004761203271847192
-0.0005080068979018406   -0.018882706963346107   -0.00048256244122262627
8.945397993863471e-05   -0.017571310032903215   -0.0003533473512750123
-0.0007816435116615097   -0.017620274574981016   -0.0004043213038528481
-0.0011051862715148863   -0.018964156408450023   -0.0004761203271847192
-0.0007652485765157922   -0.01760015191210075   -0.00042181008469376296
-0.0005080068979018406   -0.018882706963346107   -0.00048256244122262627
-0.0010751646796129768   -0.018948029066763575   -0.0004985150250527504
-0.0007652485765157922   -0.01760015191210075   -0.00042181008469376296
-0.0011051862715148863   -0.018964156408450023   -0.0004761203271847192
-0.0005080068979018406   -0.018882706963346107   -0.00048256244122262627
-0.0007652485765157922   -0.01760015191210075   -0.00042181008469376296
0.0001299074554672319   -0.01754989983794018   -0.0003952968625751617
8.945397993863471e-05   -0.017571310032903215   -0.0003533473512750123
-0.0005080068979018406   -0.018882706963346107   -0.00048256244122262627
-0.0007652485765157922   -0.01760015191210075   -0.00042181008469376296
8.945397993863471e-05   -0.017571310032903215   -0.0003533473512750123
-0.0011051862715148863   -0.018964156408450023   -0.0004761203271847192
-0.0005080068979018406   -0.018882706963346107   -0.00048256244122262627
0.0001299074554672319   -0.01754989983794018   -0.0003952968625751617
-0.0010751646796129768   -0.018948029066763575   -0.0004985150250527504
-0.0004411172662375507   -0.018881055101912455   -0.0005320042227055156
0.0001299074554672319   -0.01754989983794018   -0.0003952968625751617
-0.0007652485765157922   -0.01760015191210075   -0.00042181008469376296
-0.0010751646796129768   -0.018948029066763575   -0.0004985150250527504
-0.0007554281542982546   -0.017591201419228597   -0.00043733456976664196
-0.0004411172662375507   -0.018881055101912455   -0.0005320042227055156
-0.0010522041132964488   -0.018945725106325553   -0.0005188799713081436
-0.0007554281542982546   -0.017591201419228597   -0.00043733456976664196
-0.0010751646796129768   -0.018948029066763575   -0.0004985150250527504
-0.0004411172662375507   -0.018881055101912455   -0.0005320042227055156
-0.0007554281542982546   -0.017591201419228597   -0.00043733456976664196
0.000173632254235087   -0.017540615102791382   -0.0004341853034302984
0.0001299074554672319   -0.01754989983794018   -0.0003952968625751617
-0.0004411172662375507   -0.018881055101912455   -0.0005320042227055156
-0.0007554281542982546   -0.017591201419228597   -0.00043733456976664196
0.0001299074554672319   -0.01754989983794018   -0.0003952968625751617
-0.0010751646796129768   -0.018948029066763575   -0.0004985150250527504
-0.0011316797831468733   -0.018994566822548554   -0.0004516220612764602
-0.000795906701203223   -0.01765219005902101   -0.0003846518732542377
-0.0016141869147106584   -0.019014356896010633   -0.0005145419415157742
-0.0011051862715148863   -0.018964156408450023   -0.0004761203271847192
-0.000795906701203223   -0.01765219005902101   -0.0003846518732542377
-0.0016022770933865264   -0.017660368344256702   -0.0004470718346396872
-0.0016141869147106584   -0.019014356896010633   -0.0005145419415157742
-0.0015919040806825703   -0.017633079619882152   -0.00044744885222222045
-0.0011051862715148863   -0.018964156408450023   -0.0004761203271847192
-0.0015920346572186625   -0.018987853311591685   -0.0005157155635581219
-0.0015919040806825703   -0.017633079619882152   -0.00044744885222222045
-0.0016141869147106584   -0.019014356896010633   -0.0005145419415157742
-0.0011051862715148863   -0.018964156408450023   -0.0004761203271847192
-0.0015919040806825703   -0.017633079619882152   -0.00044744885222222045
-0.0007816435116615097   -0.017620274574981016   -0.0004043213038528481
-0.000795906701203223   -0.01765219005902101   -0.0003846518732542377
-0.0011051862715148863   -0.018964156408450023   -0.0004761203271847192
-0.0015919040806825703   -0.017633079619882152   -0.00044744885222222045
-0.000795906701203223   -0.01765219005902101   -0.0003846518732542377
-0.0016141869147106584   -0.019014356896010633   -0.0005145419415157742
-0.0011051862715148863   -0.018964156408450023   -0.0004761203271847192
-0.0007816435116615097   -0.017620274574981016   -0.0004043213038528481
-0.0015920346572186625   -0.018987853311591685   -0.0005157155635581219
-0.0010751646796129768   -0.018948029066763575   -0.0004985150250527504
-0.0007816435116615097   -0.017620274574981016   -0.0004043213038528481
-0.0015919040806825703   -0.017633079619882152   -0.00044744885222222045
-0.0015920346572186625   -0.018987853311591685   -0.0005157155635581219
-0.001581217357192044   -0.01761633491265445   -0.0004457303523675885
-0.0010751646796129768   -0.018948029066763575   -0.0004985150250527504
-0.0015691013058663432   -0.01897421566047352   -0.0005149381758610557
-0.001581217357192044   -0.01761633491265445   -0.0004457303523675885
-0.0015920346572186625   -0.018987853311591685   -0.0005157155635581219
-0.0010751646796129768   -0.018948029066763575   -0.0004985150250527504
-0.001581217357192044   -0.01761633491265445   -0.0004457303523675885
-0.0007652485765157922   -0.01760015191210075   -0.00042181008469376296
-0.0007816435116615097   -0.017620274574981016   -0.0004043213038528481
-0.0010751646796129768   -0.018948029066763575   -0.0004985150250527504
-0.001581217357192044   -0.01761633491265445   -0.0004457303523675885
-0.0007816435116615097   -0.017620274574981016   -0.0004043213038528481
-0.0015920346572186625   -0.018987853311591685   -0.0005157155635581219
-0.0010751646796129768   -0.018948029066763575   -0.0004985150250527504
-0.0007652485765157922   -0.01760015191210075   -0.00042181008469376296
-0.0015691013058663432   -0.01897421566047352   -0.0005149381758610557
-0.0010522041132964488   -0.018945725106325553   -0.0005188799713081436
-0.0007652485765157922   -0.01760015191210075   -0.00042181008469376296
-0.001581217357192044   -0.01761633491265445   -0.0004457303523675885
-0.0015691013058663432   -0.01897421566047352   -0.0005149381758610557
-0.0015718780615408805   -0.017609978145018988   -0.00044206556727316573
-0.0010522041132964488   -0.018945725106325553   -0.0005188799713081436
-0.0015470113283658576   -0.018972873171723838   -0.0005122045751880353
-0.0015718780615408805   -0.017609978145018988   -0.00044206556727316573
-0.0015691013058663432   -0.01897421566047352   -0.0005149381758610557
-0.0010522041132964488   -0.018945725106325553   -0.0005188799713081436
-0.0015718780615408805   -0.017609978145018988   -0.00044206556727316573
-0.0007554281542982546   -0.017591201419228597   -0.00043733456976664196
-0.0007652485765157922   -0.01760015191210075   -0.00042181008469376296
-0.0010522041132964488   -0.018945725106325553   -0.0005188799713081436
-0.0015718780615408805   -0.017609978145018988   -0.00044206556727316573
-0.0007652485765157922   -0.01760015191210075   -0.00042181008469376296
-0.0015691013058663432   -0.01897421566047352   -0.0005149381758610557
-0.0016141869147106584   -0.019014356896010633   -0.0005145419415157742
-0.0016022770933865264   -0.017660368344256702   -0.0004470718346396872
-0.002093837523797098   -0.018996136242657384   -0.0005735075486904097
-0.0015920346572186625   -0.018987853311591685   -0.0005157155635581219
-0.0016022770933865264   -0.017660368344256702   -0.0004470718346396872
-0.0023965984219021627   -0.0176343960698115   -0.0005033703792405224
-0.002093837523797098   -0.018996136242657384   -0.0005735075486904097
-0.0023869524802000277   -0.01761088927197442   -0.0004849122383115869
-0.0015920346572186625   -0.018987853311591685   -0.0005157155635581219
-0.002071861524896582   -0.018972527476569308   -0.0005522872763156235
-0.0023869524802000277   -0.01761088927197442   -0.0004849122383115869
-0.002093837523797098   -0.018996136242657384   -0.0005735075486904097
-0.0015920346572186625   -0.018987853311591685   -0.0005157155635581219
-0.0023869524802000277   -0.01761088927197442   -0.0004849122383115869
-0.0015919040806825703   -0.017633079619882152   -0.00044744885222222045
-0.0016022770933865264   -0.017660368344256702   -0.0004470718346396872
-0.0015920346572186625   -0.018987853311591685   -0.0005157155635581219
-0.0023869524802000277   -0.01761088927197442   -0.0004849122383115869
-0.0016022770933865264   -0.017660368344256702   -0.0004470718346396872
-0.002093837523797098   -0.018996136242657384   -0.0005735075486904097
-0.0015920346572186625   -0.018987853311591685   -0.0005157155635581219
-0.0015919040806825703   -0.017633079619882152   -0.00044744885222222045
-0.002071861524896582   -0.018972527476569308   -0.0005522872763156235
-0.0015691013058663432   -0.01897421566047352   -0.0005149381758610557
-0.0015919040806825703   -0.017633079619882152   -0.00044744885222222045
-0.0023869524802000277   -0.01761088927197442   -0.0004849122383115869
-0.002071861524896582   -0.018972527476569308   -0.0005522872763156235
-0.0023752849634010786   -0.017597813731311637   -0.00046440943974112155
-0.0015691013058663432   -0.01897421566047352   -0.0005149381758610557
-0.002047203888868451   -0.01896158379255875   -0.0005291508214223421
-0.0023752849634010786   -0.017597813731311637   -0.00046440943974112155
-0.002071861524896582   -0.018972527476569308   -0.0005522872763156235
-0.0015691013058663432   -0.01897421566047352   -0.0005149381758610557
-0.0023752849634010786   -0.017597813731311637   -0.00046440943974112155
-0.001581217357192044   -0.01761633491265445   -0.0004457303523675885
-0.0015919040806825703   -0.017633079619882152   -0.00044744885222222045
-0.0015691013058663432   -0.01897421566047352   -0.0005149381758610557
-0.0023752849634010786   -0.017597813731311637   -0.00046440943974112155
-0.0015919040806825703   -0.017633079619882152   -0.00044744885222222045
-0.002071861524896582   -0.018972527476569308   -0.0005522872763156235
-0.0015691013058663432   -0.01897421566047352   -0.0005149381758610557
-0.001581217357192044   -0.01761633491265445   -0.0004457303523675885
-0.002047203888868451   -0.01896158379255875   -0.0005291508214223421
-0.0015470113283658576   -0.018972873171723838   -0.0005122045751880353
-0.001581217357192044   -0.01761633491265445   -0.0004457303523675885
-0.0023752849634010786   -0.017597813731311637   -0.00046440943974112155
-0.002047203888868451   -0.01896158379255875   -0.0005291508214223421
-0.002363977632938363   -0.017594718678361532   -0.0004419236335220277
-0.0015470113283658576   -0.018972873171723838   -0.0005122045751880353
-0.0020225090086086112   -0.01896215806037857   -0.000503865806763985
-0.002363977632938363   -0.017594718678361532   -0.0004419236335220277
-0.002047203888868451   -0.01896158379255875   -0.0005291508214223421
-0.0015470113283658576   -0.018972873171723838   -0.0005122045751880353
-0.002363977632938363   -0.017594718678361532   -0.0004419236335220277
-0.0015718780615408805   -0.017609978145018988   -0.00044206556727316573
-0.001581217357192044   -0.01761633491265445   -0.0004457303523675885
-0.0015470113283658576   -0.018972873171723838   -0.0005122045751880353
-0.002363977632938363   -0.017594718678361532   -0.0004419236335220277
-0.001581217357192044   -0.01761633491265445   -0.0004457303523675885
-0.002047203888868451   -0.01896158379255875   -0.0005291508214223421
-0.002093837523797098   -0.018996136242657384   -0.0005735075486904097
-0.0023965984219021627   -0.0176343960698115   -0.0005033703792405224
-0.002619498802506815   -0.018937604146755844   -0.0006279230579654943
-0.002071861524896582   -0.018972527476569308   -0.0005522872763156235
-0.0023965984219021627   -0.0176343960698115   -0.0005033703792405224
-0.003228178991824394   -0.017575106861968733   -0.0005534442667657647
-0.002619498802506815   -0.018937604146755844   -0.0006279230579654943
-0.0032153960098605843   -0.017555150882174058   -0.000516097729553204
-0.002071861524896582   -0.018972527476569308   -0.0005522872763156235
-0.0025924162627946443   -0.01891684442327451   -0.0005847385643531916
-0.0032153960098605843   -0.017555150882174058   -0.000516097729553204
-0.002619498802506815   -0.018937604146755844   -0.0006279230579654943
-0.002071861524896582   -0.018972527476569308   -0.0005522872763156235
-0.0032153960098605843   -0.017555150882174058   -0.000516097729553204
-0.0023869524802000277   -0.01761088927197442   -0.0004849122383115869
-0.0023965984219021627   -0.0176343960698115   -0.0005033703792405224
-0.002071861524896582   -0.018972527476569308   -0.0005522872763156235
-0.0032153960098605843   -0.017555150882174058   -0.000516097729553204
-0.0023965984219021627   -0.0176343960698115   -0.0005033703792405224
-0.002619498802506815   -0.018937604146755844   -0.0006279230579654943
-0.002071861524896582   -0.018972527476569308   -0.0005522872763156235
-0.0023869524802000277   -0.01761088927197442   -0.0004849122383115869
-0.0025924162627946443   -0.01891684442327451   -0.0005847385643531916
-0.002047203888868451   -0.01896158379255875   -0.0005291508214223421
-0.0023869524802000277   -0.01761088927197442   -0.0004849122383115869
-0.0032153960098605843   -0.017555150882174058   -0.000516097729553204
-0.0025924162627946443   -0.01891684442327451   -0.0005847385643531916
-0.0031936226081953844   -0.017545400956180353   -0.0004770293313698325
-0.002047203888868451   -0.01896158379255875   -0.0005291508214223421
-0.002554850486337766   -0.01890858442387868   -0.000539796770537147
-0.0031936226081953844   -0.017545400956180353   -0.0004770293313698325
-0.0025924162627946443   -0.01891684442327451   -0.0005847385643531916
-0.002047203888868451   -0.01896158379255875   -0.0005291508214223421
-0.0031936226081953844   -0.017545400956180353   -0.0004770293313698325
-0.0023752849634010786   -0.017597813731311637   -0.00046440943974112155
-0.0023869524802000277   -0.01761088927197442   -0.0004849122383115869
-0.002047203888868451   -0.01896158379255875   -0.0005291508214223421
-0.0031936226081953844   -0.017545400956180353   -0.0004770293313698325
-0.0023869524802000277   -0.01761088927197442   -0.0004849122383115869
-0.0025924162627946443   -0.01891684442327451   -0.0005847385643531916
-0.002047203888868451   -0.01896158379255875   -0.0005291508214223421
-0.0023752849634010786   -0.017597813731311637   -0.00046440943974112155
-0.002554850486337766   -0.01890858442387868   -0.000539796770537147
-0.0020225090086086112   -0.01896215806037857   -0.000503865806763985
-0.0023752849634010786   -0.017597813731311637   -0.00046440943974112155
-0.0031936226081953844   -0.017545400956180353   -0.0004770293313698325
-0.002554850486337766   -0.01890858442387868   -0.000539796770537147
-0.0031761517925295094   -0.017546414585140155   -0.0004356841258875157
-0.0020225090086086112   -0.01896215806037857   -0.000503865806763985
-0.00252236233977197   -0.01891282201767657   -0.0004918936855283705
-0.0031761517925295094   -0.017546414585140155   -0.0004356841258875157
-0.002554850486337766   -0.01890858442387868   -0.000539796770537147
-0.0020225090086086112   -0.01896215806037857   -0.000503865806763985
-0.0031761517925295094   -0.017546414585140155   -0.0004356841258875157
-0.002363977632938363   -0.017594718678361532   -0.0004419236335220277
-0.0023752849634010786   -0.017597813731311637   -0.00046440943974112155
-0.0020225090086086112   -0.01896215806037857   -0.000503865806763985
-0.0031761517925295094   -0.017546414585140155   -0.0004356841258875157
-0.0023752849634010786   -0.017597813731311637   -0.00046440943974112155
-0.002554850486337766   -0.01890858442387868   -0.000539796770537147
-0.002619498802506815   -0.018937604146755844   -0.0006279230579654943
-0.003228178991824394   -0.017575106861968733   -0.0005534442667657647
-0.0032961523648764486   -0.018842409704684388   -0.0006809201962773706
-0.0025924162627946443   -0.01891684442327451   -0.0005847385643531916
-0.003228178991824394   -0.017575106861968733   -0.0005534442667657647
-0.004197567561965576   -0.017489150467389435   -0.0006006696257587276
-0.0032961523648764486   -0.018842409704684388   -0.0006809201962773706
-0.004130274546521614   -0.017468091542695567   -0.0005420875624904477
-0.0025924162627946443   -0.01891684442327451   -0.0005847385643531916
-0.00320631658464744   -0.018819577501608835   -0.0006126572152476632
-0.004130274546521614   -0.017468091542695567   -0.0005420875624904477
-0.0032961523648764486   -0.018842409704684388   -0.0006809201962773706
-0.0025924162627946443   -0.01891684442327451   -0.0005847385643531916
-0.004130274546521614   -0.017468091542695567   -0.0005420875624904477
-0.0032153960098605843   -0.017555150882174058   -0.000516097729553204
-0.003228178991824394   -0.017575106861968733   -0.0005534442667657647
-0.0025924162627946443   -0.01891684442327451   -0.0005847385643531916
-0.004130274546521614   -0.017468091542695567   -0.0005420875624904477
-0.003228178991824394   -0.017575106861968733   -0.0005534442667657647
-0.0032961523648764486   -0.018842409704684388   -0.0006809201962773706
-0.0025924162627946443   -0.01891684442327451   -0.0005847385643531916
-0.0032153960098605843   -0.017555150882174058   -0.000516097729553204
-0.00320631658464744   -0.018819577501608835   -0.0006126572152476632
-0.002554850486337766   -0.01890858442387868   -0.000539796770537147
-0.0032153960098605843   -0.017555150882174058   -0.000516097729553204
-0.004130274546521614   -0.017468091542695567   -0.0005420875624904477
-0.00320631658464744   -0.018819577501608835   -0.0006126572152476632
-0.004072214905734174   -0.017459246195833833   -0.0004806411819217906
-0.002554850486337766   -0.01890858442387868   -0.000539796770537147
-0.003126328524655365   -0.018811937387174526   -0.000540668735433681
-0.004072214905734174   -0.017459246195833833   -0.0004806411819217906
-0.00320631658464744   -0.018819577501608835   -0.0006126572152476632
-0.002554850486337766   -0.01890858442387868   -0.000539796770537147
-0.004072214905734174   -0.017459246195833833   -0.0004806411819217906
-0.0031936226081953844   -0.017545400956180353   -0.0004770293313698325
-0.0032153960098605843   -0.017555150882174058   -0.000516097729553204
-0.002554850486337766   -0.01890858442387868   -0.000539796770537147
-0.004072214905734174   -0.017459246195833833   -0.0004806411819217906
-0.0032153960098605843   -0.017555150882174058   -0.000516097729553204
-0.00320631658464744   -0.018819577501608835   -0.0006126572152476632
-0.002554850486337766   -0.01890858442387868   -0.000539796770537147
-0.0031936226081953844   -0.017545400956180353   -0.0004770293313698325
-0.003126328524655365   -0.018811937387174526   -0.000540668735433681
-0.00252236233977197   -0.01891282201767657   -0.0004918936855283705
-0.0031936226081953844   -0.017545400956180353   -0.0004770293313698325
-0.004072214905734174   -0.017459246195833833   -0.0004806411819217906
-0.003126328524655365   -0.018811937387174526   -0.000540668735433681
-0.0039941411176917145   -0.01746676679914251   -0.00041671723407793666
-0.00252236233977197   -0.01891282201767657   -0.0004918936855283705
-0.0030227289439545744   -0.01882360571289856   -0.0004656176482084364
-0.0039941411176917145   -0.01746676679914251   -0.00041671723407793666
-0.003126328524655365   -0.018811937387174526   -0.000540668735433681
-0.00252236233977197   -0.01891282201767657   -0.0004918936855283705
-0.0039941411176917145   -0.01746676679914251   -0.00041671723407793666
-0.0031761517925295094   -0.017546414585140155   -0.0004356841258875157
-0.0031936226081953844   -0.017545400956180353   -0.0004770293313698325
-0.00252236233977197   -0.01891282201767657   -0.0004918936855283705
-0.0039941411176917145   -0.01746676679914251   -0.00041671723407793666
-0.0031936226081953844   -0.017545400956180353   -0.0004770293313698325
-0.003126328524655365   -0.018811937387174526   -0.000540668735433681
3.458948747905097e-05   -0.017609816359097204   -0.0003083448057842955
0.0005590700859822575   -0.01578711569958311   -0.00023458173196195669
-0.000795906701203223   -0.01765219005902101   -0.0003846518732542377
8.945397993863471e-05   -0.017571310032903215   -0.0003533473512750123
0.0005590700859822575   -0.01578711569958311   -0.00023458173196195669
-0.0005496842669572256   -0.015815689596534455   -0.0003075074990300936
-0.000795906701203223   -0.01765219005902101   -0.0003846518732542377
-0.0005464095769075313   -0.015783935543371614   -0.00032139708631889107
8.945397993863471e-05   -0.017571310032903215   -0.0003533473512750123
-0.0007816435116615097   -0.017620274574981016   -0.0004043213038528481
-0.0005464095769075313   -0.015783935543371614   -0.00032139708631889107
-0.000795906701203223   -0.01765219005902101   -0.0003846518732542377
8.945397993863471e-05   -0.017571310032903215   -0.0003533473512750123
-0.0005464095769075313   -0.015783935543371614   -0.00032139708631889107
0.0005926207857956233   -0.01574946293114052   -0.00026842329079144025
0.0005590700859822575   -0.01578711569958311   -0.00023458173196195669
8.945397993863471e-05   -0.017571310032903215   -0.0003533473512750123
-0.0005464095769075313   -0.015783935543371614   -0.00032139708631889107
0.0005590700859822575   -0.01578711569958311   -0.00023458173196195669
-0.000795906701203223   -0.01765219005902101   -0.0003846518732542377
8.945397993863471e-05   -0.017571310032903215   -0.0003533473512750123
0.0005926207857956233   -0.01574946293114052   -0.00026842329079144025
-0.0007816435116615097   -0.017620274574981016   -0.0004043213038528481
0.0001299074554672319   -0.01754989983794018   -0.0003952968625751617
0.0005926207857956233   -0.01574946293114052   -0.00026842329079144025
-0.0005464095769075313   -0.015783935543371614   -0.00032139708631889107
-0.0007816435116615097   -0.017620274574981016   -0.0004043213038528481
-0.0005421950380278491   -0.015761609256810118   -0.0003332667118745732
0.0001299074554672319   -0.01754989983794018   -0.0003952968625751617
-0.0007652485765157922   -0.01760015191210075   -0.00042181008469376296
-0.0005421950380278491   -0.015761609256810118   -0.0003332667118745732
-0.0007816435116615097   -0.017620274574981016   -0.0004043213038528481
0.0001299074554672319   -0.01754989983794018   -0.0003952968625751617
-0.0005421950380278491   -0.015761609256810118   -0.0003332667118745732
0.0006143292519652108   -0.0157255918548462   -0.00029940404362778224
0.0005926207857956233   -0.01574946293114052   -0.00026842329079144025
0.0001299074554672319   -0.01754989983794018   -0.0003952968625751617
-0.0005421950380278491   -0.015761609256810118   -0.0003332667118745732
0.0005926207857956233   -0.01574946293114052   -0.00026842329079144025
-0.0007816435116615097   -0.017620274574981016   -0.0004043213038528481
0.0001299074554672319   -0.01754989983794018   -0.0003952968625751617
0.0006143292519652108   -0.0157255918548462   -0.00029940404362778224
-0.0007652485765157922   -0.01760015191210075   -0.00042181008469376296
0.000173632254235087   -0.017540615102791382   -0.0004341853034302984
0.0006143292519652108   -0.0157255918548462   -0.00029940404362778224
-0.0005421950380278491   -0.015761609256810118   -0.0003332667118745732
-0.0007652485765157922   -0.01760015191210075   -0.00042181008469376296
-0.000543650768299596   -0.015747957438283597   -0.00034326266661432526
0.000173632254235087   -0.017540615102791382   -0.0004341853034302984
-0.0007554281542982546   -0.017591201419228597   -0.00043733456976664196
-0.000543650768299596   -0.015747957438283597   -0.00034326266661432526
-0.0007652485765157922   -0.01760015191210075   -0.00042181008469376296
0.000173632254235087   -0.017540615102791382   -0.0004341853034302984
-0.000543650768299596   -0.015747957438283597   -0.00034326266661432526
0.0006370142951979085   -0.015710640369005244   -0.0003275897809728265
0.0006143292519652108   -0.0157255918548462   -0.00029940404362778224
0.000173632254235087   -0.017540615102791382   -0.0004341853034302984
-0.000543650768299596   -0.015747957438283597   -0.00034326266661432526
0.0006143292519652108   -0.0157255918548462   -0.00029940404362778224
-0.0007652485765157922   -0.01760015191210075   -0.00042181008469376296
-0.000795906701203223   -0.01765219005902101   -0.0003846518732542377
-0.0005496842669572256   -0.015815689596534455   -0.0003075074990300936
-0.0016022770933865264   -0.017660368344256702   -0.0004470718346396872
-0.0007816435116615097   -0.017620274574981016   -0.0004043213038528481
-0.0005496842669572256   -0.015815689596534455   -0.0003075074990300936
-0.0016190394403365707   -0.01581613595313269   -0.00036707484605771846
-0.0016022770933865264   -0.017660368344256702   -0.0004470718346396872
-0.0016190261001309066   -0.015789458327050275   -0.0003657476752289114
-0.0007816435116615097   -0.017620274574981016   -0.0004043213038528481
-0.0015919040806825703   -0.017633079619882152   -0.00044744885222222045
-0.0016190261001309066   -0.015789458327050275   -0.0003657476752289114
-0.0016022770933865264   -0.017660368344256702   -0.0004470718346396872
-0.0007816435116615097   -0.017620274574981016   -0.0004043213038528481
-0.0016190261001309066   -0.015789458327050275   -0.0003657476752289114
-0.0005464095769075313   -0.015783935543371614   -0.00032139708631889107
-0.0005496842669572256   -0.015815689596534455   -0.0003075074990300936
-0.0007816435116615097   -0.017620274574981016   -0.0004043213038528481
-0.0016190261001309066   -0.015789458327050275   -0.0003657476752289114
-0.0005496842669572256   -0.015815689596534455   -0.0003075074990300936
-0.0016022770933865264   -0.017660368344256702   -0.0004470718346396872
-0.0007816435116615097   -0.017620274574981016   -0.0004043213038528481
-0.0005464095769075313   -0.015783935543371614   -0.00032139708631889107
-0.0015919040806825703   -0.017633079619882152   -0.00044744885222222045
-0.0007652485765157922   -0.01760015191210075   -0.00042181008469376296
-0.0005464095769075313   -0.015783935543371614   -0.00032139708631889107
-0.0016190261001309066   -0.015789458327050275   -0.0003657476752289114
-0.0015919040806825703   -0.017633079619882152   -0.00044744885222222045
-0.001618931300700076   -0.015771081559698637   -0.0003624015724583293
-0.0007652485765157922   -0.01760015191210075   -0.00042181008469376296
-0.001581217357192044   -0.01761633491265445   -0.0004457303523675885
-0.001618931300700076   -0.015771081559698637   -0.0003624015724583293
-0.0015919040806825703   -0.017633079619882152   -0.00044744885222222045
-0.0007652485765157922   -0.01760015191210075   -0.00042181008469376296
-0.001618931300700076   -0.015771081559698637   -0.0003624015724583293
-0.0005421950380278491   -0.015761609256810118   -0.0003332667118745732
-0.0005464095769075313   -0.015783935543371614   -0.00032139708631889107
-0.0007652485765157922   -0.01760015191210075   -0.00042181008469376296
-0.001618931300700076   -0.015771081559698637   -0.0003624015724583293
-0.0005464095769075313   -0.015783935543371614   -0.00032139708631889107
-0.0015919040806825703   -0.017633079619882152   -0.00044744885222222045
-0.0007652485765157922   -0.01760015191210075   -0.00042181008469376296
-0.0005421950380278491   -0.015761609256810118   -0.0003332667118745732
-0.001581217357192044   -0.01761633491265445   -0.0004457303523675885
-0.0007554281542982546   -0.017591201419228597   -0.00043733456976664196
-0.0005421950380278491   -0.015761609256810118   -0.0003332667118745732
-0.001618931300700076   -0.015771081559698637   -0.0003624015724583293
-0.001581217357192044   -0.01761633491265445   -0.0004457303523675885
-0.00162024864021084   -0.015761023200165546   -0.0003571501935419933
-0.0007554281542982546   -0.017591201419228597   -0.00043733456976664196
-0.0015718780615408805   -0.017609978145018988   -0.00044206556727316573
-0.00162024864021084   -0.015761023200165546   -0.0003571501935419933
-0.001581217357192044   -0.01761633491265445   -0.0004457303523675885
-0.0007554281542982546   -0.017591201419228597   -0.00043733456976664196
-0.00162024864021084   -0.015761023200165546   -0.0003571501935419933
-0.000543650768299596   -0.015747957438283597   -0.00034326266661432526
-0.0005421950380278491   -0.015761609256810118   -0.0003332667118745732
-0.0007554281542982546   -0.017591201419228597   -0.00043733456976664196
-0.00162024864021084   -0.015761023200165546   -0.0003571501935419933
-0.0005421950380278491   -0.015761609256810118   -0.0003332667118745732
-0.001581217357192044   -0.01761633491265445   -0.0004457303523675885
-0.0016022770933865264   -0.017660368344256702   -0.0004470718346396872
-0.0016190394403365707   -0.01581613595313269   -0.00036707484605771846
-0.0023965984219021627   -0.0176343960698115   -0.0005033703792405224
-0.0015919040806825703   -0.017633079619882152   -0.00044744885222222045
-0.0016190394403365707   -0.01581613595313269   -0.00036707484605771846
-0.0026708163027321452   -0.01578928622434848   -0.00041907287887731466
-0.0023965984219021627   -0.0176343960698115   -0.0005033703792405224
-0.002671614979407402   -0.015767010982223335   -0.00040272021416440406
-0.0015919040806825703   -0.017633079619882152   -0.00044744885222222045
-0.0023869524802000277   -0.01761088927197442   -0.0004849122383115869
-0.002671614979407402   -0.015767010982223335   -0.00040272021416440406
-0.0023965984219021627   -0.0176343960698115   -0.0005033703792405224
-0.0015919040806825703   -0.017633079619882152   -0.00044744885222222045
-0.002671614979407402   -0.015767010982223335   -0.00040272021416440406
-0.0016190261001309066   -0.015789458327050275   -0.0003657476752289114
-0.0016190394403365707   -0.01581613595313269   -0.00036707484605771846
-0.0015919040806825703   -0.017633079619882152   -0.00044744885222222045
-0.002671614979407402   -0.015767010982223335   -0.00040272021416440406
-0.0016190394403365707   -0.01581613595313269   -0.00036707484605771846
-0.0023965984219021627   -0.0176343960698115   -0.0005033703792405224
-0.0015919040806825703   -0.017633079619882152   -0.00044744885222222045
-0.0016190261001309066   -0.015789458327050275   -0.0003657476752289114
-0.0023869524802000277   -0.01761088927197442   -0.0004849122383115869
-0.001581217357192044   -0.01761633491265445   -0.0004457303523675885
-0.0016190261001309066   -0.015789458327050275   -0.0003657476752289114
-0.002671614979407402   -0.015767010982223335   -0.00040272021416440406
-0.0023869524802000277   -0.01761088927197442   -0.0004849122383115869
-0.002670637035509109   -0.015752964009956225   -0.0003843925094584626
-0.001581217357192044   -0.01761633491265445   -0.0004457303523675885
-0.0023752849634010786   -0.017597813731311637   -0.00046440943974112155
-0.002670637035509109   -0.015752964009956225   -0.0003843925094584626
-0.0023869524802000277   -0.01761088927197442   -0.0004849122383115869
-0.001581217357192044   -0.01761633491265445   -0.0004457303523675885
-0.002670637035509109   -0.015752964009956225   -0.0003843925094584626
-0.001618931300700076   -0.015771081559698637   -0.0003624015724583293
-0.0016190261001309066   -0.015789458327050275   -0.0003657476752289114
-0.001581217357192044   -0.01761633491265445   -0.0004457303523675885
-0.002670637035509109   -0.015752964009956225   -0.0003843925094584626
-0.0016190261001309066   -0.015789458327050275   -0.0003657476752289114
-0.0023869524802000277   -0.01761088927197442   -0.0004849122383115869
-0.001581217357192044   -0.01761633491265445   -0.0004457303523675885
-0.001618931300700076   -0.015771081559698637   -0.0003624015724583293
-0.0023752849634010786   -0.017597813731311637   -0.00046440943974112155
-0.0015718780615408805   -0.017609978145018988   -0.00044206556727316573
-0.001618931300700076   -0.015771081559698637   -0.0003624015724583293
-0.002670637035509109   -0.015752964009956225   -0.0003843925094584626
-0.0023752849634010786   -0.017597813731311637   -0.00046440943974112155
-0.002670000516646343   -0.015747009770280433   -0.00036414505300789844
-0.0015718780615408805   -0.017609978145018988   -0.00044206556727316573
-0.002363977632938363   -0.017594718678361532   -0.0004419236335220277
-0.002670000516646343   -0.015747009770280433   -0.00036414505300789844
-0.0023752849634010786   -0.017597813731311637   -0.00046440943974112155
-0.0015718780615408805   -0.017609978145018988   -0.00044206556727316573
-0.002670000516646343   -0.015747009770280433   -0.00036414505300789844
-0.00162024864021084   -0.015761023200165546   -0.0003571501935419933
-0.001618931300700076   -0.015771081559698637   -0.0003624015724583293
-0.0015718780615408805   -0.017609978145018988   -0.00044206556727316573
-0.002670000516646343   -0.015747009770280433   -0.00036414505300789844
-0.001618931300700076   -0.015771081559698637   -0.0003624015724583293
-0.0023752849634010786   -0.017597813731311637   -0.00046440943974112155
-0.0023965984219021627   -0.0176343960698115   -0.0005033703792405224
-0.0026708163027321452   -0.01578928622434848   -0.00041907287887731466
-0.003228178991824394   -0.017575106861968733   -0.0005534442667657647
-0.0023869524802000277   -0.01761088927197442   -0.0004849122383115869
-0.0026708163027321452   -0.01578928622434848   -0.00041907287887731466
-0.003754992065151104   -0.01573608583889142   -0.0004636849924787105
-0.003228178991824394   -0.017575106861968733   -0.0005534442667657647
-0.0037534724182317096   -0.01571797641744989   -0.0004321154893296958
-0.0023869524802000277   -0.01761088927197442   -0.0004849122383115869
-0.0032153960098605843   -0.017555150882174058   -0.000516097729553204
-0.0037534724182317096   -0.01571797641744989   -0.0004321154893296958
-0.003228178991824394   -0.017575106861968733   -0.0005534442667657647
-0.0023869524802000277   -0.01761088927197442   -0.0004849122383115869
-0.0037534724182317096   -0.01571797641744989   -0.0004321154893296958
-0.002671614979407402   -0.015767010982223335   -0.00040272021416440406
-0.0026708163027321452   -0.01578928622434848   -0.00041907287887731466
-0.0023869524802000277   -0.01761088927197442   -0.0004849122383115869
-0.0037534724182317096   -0.01571797641744989   -0.0004321154893296958
-0.0026708163027321452   -0.01578928622434848   -0.00041907287887731466
-0.003228178991824394   -0.017575106861968733   -0.0005534442667657647
-0.0023869524802000277   -0.01761088927197442   -0.0004849122383115869
-0.002671614979407402   -0.015767010982223335   -0.00040272021416440406
-0.0032153960098605843   -0.017555150882174058   -0.000516097729553204
-0.0023752849634010786   -0.017597813731311637   -0.00046440943974112155
-0.002671614979407402   -0.015767010982223335   -0.00040272021416440406
-0.0037534724182317096   -0.01571797641744989   -0.0004321154893296958
-0.0032153960098605843   -0.017555150882174058   -0.000516097729553204
-0.0037440586150237778   -0.01570785798099606   -0.0003988717975748515
-0.0023752849634010786   -0.017597813731311637   -0.00046440943974112155
-0.0031936226081953844   -0.017545400956180353   -0.0004770293313698325
-0.0037440586150237778   -0.01570785798099606   -0.0003988717975748515
-0.0032153960098605843   -0.017555150882174058   -0.000516097729553204
-0.0023752849634010786   -0.017597813731311637   -0.00046440943974112155
-0.0037440586150237778   -0.01570785798099606   -0.0003988717975748515
-0.002670637035509109   -0.015752964009956225   -0.0003843925094584626
-0.002671614979407402   -0.015767010982223335   -0.00040272021416440406
-0.0023752849634010786   -0.017597813731311637   -0.00046440943974112155
-0.0037440586150237778   -0.01570785798099606   -0.0003988717975748515
-0.002671614979407402   -0.015767010982223335   -0.00040272021416440406
-0.0032153960098605843   -0.017555150882174058   -0.000516097729553204
-0.0023752849634010786   -0.017597813731311637   -0.00046440943974112155
-0.002670637035509109   -0.015752964009956225   -0.0003843925094584626
-0.0031936226081953844   -0.017545400956180353   -0.0004770293313698325
-0.002363977632938363   -0.017594718678361532   -0.0004419236335220277
-0.002670637035509109   -0.015752964009956225   -0.0003843925094584626
-0.0037440586150237778   -0.01570785798099606   -0.0003988717975748515
-0.0031936226081953844   -0.017545400956180353   -0.0004770293313698325
-0.00373784198048597   -0.01570652175857313   -0.00036354905694940397
-0.002363977632938363   -0.017594718678361532   -0.0004419236335220277
-0.0031761517925295094   -0.017546414585140155   -0.0004356841258875157
-0.00373784198048597   -0.01570652175857313   -0.00036354905694940397
-0.0031936226081953844   -0.017545400956180353   -0.0004770293313698325
-0.002363977632938363   -0.017594718678361532   -0.0004419236335220277
-0.00373784198048597   -0.01570652175857313   -0.00036354905694940397
-0.002670000516646343   -0.015747009770280433   -0.00036414505300789844
-0.002670637035509109   -0.015752964009956225   -0.0003843925094584626
-0.002363977632938363   -0.017594718678361532   -0.0004419236335220277
-0.00373784198048597   -0.01570652175857313   -0.00036354905694940397
-0.002670637035509109   -0.015752964009956225   -0.0003843925094584626
-0.0031936226081953844   -0.017545400956180353   -0.0004770293313698325
-0.003228178991824394   -0.017575106861968733   -0.0005534442667657647
-0.003754992065151104   -0.01573608583889142   -0.0004636849924787105
-0.004197567561965576   -0.017489150467389435   -0.0006006696257587276
-0.0032153960098605843   -0.017555150882174058   -0.000516097729553204
-0.003754992065151104   -0.01573608583889142   -0.0004636849924787105
-0.004966145545055191   -0.015662150253998842   -0.0005042132856188133
-0.004197567561965576   -0.017489150467389435   -0.0006006696257587276
-0.004919188267758492   -0.015644229133464593   -0.00045573894607462513
-0.0032153960098605843   -0.017555150882174058   -0.000516097729553204
-0.004130274546521614   -0.017468091542695567   -0.0005420875624904477
-0.004919188267758492   -0.015644229133464593   -0.00045573894607462513
-0.004197567561965576   -0.017489150467389435   -0.0006006696257587276
-0.0032153960098605843   -0.017555150882174058   -0.000516097729553204
-0.004919188267758492   -0.015644229133464593   -0.00045573894607462513
-0.0037534724182317096   -0.01571797641744989   -0.0004321154893296958
-0.003754992065151104   -0.01573608583889142   -0.0004636849924787105
-0.0032153960098605843   -0.017555150882174058   -0.000516097729553204
-0.004919188267758492   -0.015644229133464593   -0.00045573894607462513
-0.003754992065151104   -0.01573608583889142   -0.0004636849924787105
-0.004197567561965576   -0.017489150467389435   -0.0006006696257587276
-0.0032153960098605843   -0.017555150882174058   -0.000516097729553204
-0.0037534724182317096   -0.01571797641744989   -0.0004321154893296958
-0.004130274546521614   -0.017468091542695567   -0.0005420875624904477
-0.0031936226081953844   -0.017545400956180353   -0.0004770293313698325
-0.0037534724182317096   -0.01571797641744989   -0.0004321154893296958
-0.004919188267758492   -0.015644229133464593   -0.00045573894607462513
-0.004130274546521614   -0.017468091542695567   -0.0005420875624904477
-0.004879249342586846   -0.015635553219362535   -0.00040443001560915975
-0.0031936226081953844   -0.017545400956180353   -0.0004770293313698325
-0.004072214905734174   -0.017459246195833833   -0.0004806411819217906
-0.004879249342586846   -0.015635553219362535   -0.00040443001560915975
-0.004130274546521614   -0.017468091542695567   -0.0005420875624904477
-0.0031936226081953844   -0.017545400956180353   -0.0004770293313698325
-0.004879249342586846   -0.015635553219362535   -0.00040443001560915975
-0.0037440586150237778   -0.01570785798099606   -0.0003988717975748515
-0.0037534724182317096   -0.01571797641744989   -0.0004321154893296958
-0.0031936226081953844   -0.017545400956180353   -0.0004770293313698325
-0.004879249342586846   -0.015635553219362535   -0.00040443001560915975
-0.0037534724182317096   -0.01571797641744989   -0.0004321154893296958
-0.004130274546521614   -0.017468091542695567   -0.0005420875624904477
-0.0031936226081953844   -0.017545400956180353   -0.0004770293313698325
-0.0037440586150237778   -0.01570785798099606   -0.0003988717975748515
-0.004072214905734174   -0.017459246195833833   -0.0004806411819217906
-0.0031761517925295094   -0.017546414585140155   -0.0004356841258875157
-0.0037440586150237778   -0.01570785798099606   -0.0003988717975748515
-0.004879249342586846   -0.015635553219362535   -0.00040443001560915975
-0.004072214905734174   -0.017459246195833833   -0.0004806411819217906
-0.004821913864701188   -0.01564072509024767   -0.00035068476909845374
-0.0031761517925295094   -0.017546414585140155   -0.0004356841258875157
-0.0039941411176917145   -0.01746676679914251   -0.00041671723407793666
-0.004821913864701188   -0.01564072509024767   -0.00035068476909845374
-0.004072214905734174   -0.017459246195833833   -0.0004806411819217906
-0.0031761517925295094   -0.017546414585140155   -0.0004356841258875157
-0.004821913864701188   -0.01564072509024767   -0.00035068476909845374
-0.00373784198048597   -0.01570652175857313   -0.00036354905694940397
-0.0037440586150237778   -0.01570785798099606   -0.0003988717975748515
-0.0031761517925295094   -0.017546414585140155   -0.0004356841258875157
-0.004821913864701188   -0.01564072509024767   -0.00035068476909845374
-0.0037440586150237778   -0.01570785798099606   -0.0003988717975748515
-0.004072214905734174   -0.017459246195833833   -0.0004806411819217906
0.0005590700859822575   -0.01578711569958311   -0.00023458173196195669
0.0009277296188740513   -0.013577197292207388   -0.0001566178610742271
-0.0005496842669572256   -0.015815689596534455   -0.0003075074990300936
0.0005926207857956233   -0.01574946293114052   -0.00026842329079144025
0.0009277296188740513   -0.013577197292207388   -0.0001566178610742271
-0.0003962543173115336   -0.013591872386947363   -0.00022517350929983563
-0.0005496842669572256   -0.015815689596534455   -0.0003075074990300936
-0.00040191022667594457   -0.013560933246457836   -0.00023294456040297471
0.0005926207857956233   -0.01574946293114052   -0.00026842329079144025
-0.0005464095769075313   -0.015783935543371614   -0.00032139708631889107
-0.00040191022667594457   -0.013560933246457836   -0.00023294456040297471
-0.0005496842669572256   -0.015815689596534455   -0.0003075074990300936
0.0005926207857956233   -0.01574946293114052   -0.00026842329079144025
-0.00040191022667594457   -0.013560933246457836   -0.00023294456040297471
0.0009421512214487603   -0.01354091297034269   -0.0001793404721781906
0.0009277296188740513   -0.013577197292207388   -0.0001566178610742271
0.0005926207857956233   -0.01574946293114052   -0.00026842329079144025
-0.00040191022667594457   -0.013560933246457836   -0.00023294456040297471
0.0009277296188740513   -0.013577197292207388   -0.0001566178610742271
-0.0005496842669572256   -0.015815689596534455   -0.0003075074990300936
0.0005926207857956233   -0.01574946293114052   -0.00026842329079144025
0.0009421512214487603   -0.01354091297034269   -0.0001793404721781906
-0.0005464095769075313   -0.015783935543371614   -0.00032139708631889107
0.0006143292519652108   -0.0157255918548462   -0.00029940404362778224
0.0009421512214487603   -0.01354091297034269   -0.0001793404721781906
-0.00040191022667594457   -0.013560933246457836   -0.00023294456040297471
-0.0005464095769075313   -0.015783935543371614   -0.00032139708631889107
-0.00040778484450518086   -0.01353709262399892   -0.0002388841797326577
0.0006143292519652108   -0.0157255918548462   -0.00029940404362778224
-0.0005421950380278491   -0.015761609256810118   -0.0003332667118745732
-0.00040778484450518086   -0.01353709262399892   -0.0002388841797326577
-0.0005464095769075313   -0.015783935543371614   -0.00032139708631889107
0.0006143292519652108   -0.0157255918548462   -0.00029940404362778224
-0.00040778484450518086   -0.01353709262399892   -0.0002388841797326577
0.0009473783647127353   -0.013515269202630527   -0.00019935425926872045
0.0009421512214487603   -0.01354091297034269   -0.0001793404721781906
0.0006143292519652108   -0.0157255918548462   -0.00029940404362778224
-0.00040778484450518086   -0.01353709262399892   -0.0002388841797326577
0.0009421512214487603   -0.01354091297034269   -0.0001793404721781906
-0.0005464095769075313   -0.015783935543371614   -0.00032139708631889107
0.0006143292519652108   -0.0157255918548462   -0.00029940404362778224
0.0009473783647127353   -0.013515269202630527   -0.00019935425926872045
-0.0005421950380278491   -0.015761609256810118   -0.0003332667118745732
0.0006370142951979085   -0.015710640369005244   -0.0003275897809728265
0.0009473783647127353   -0.013515269202630527   -0.00019935425926872045
-0.00040778484450518086   -0.01353709262399892   -0.0002388841797326577
-0.0005421950380278491   -0.015761609256810118   -0.0003332667118745732
-0.0004183093248846253   -0.013519554905778726   -0.00024305272370637914
0.0006370142951979085   -0.015710640369005244   -0.0003275897809728265
-0.000543650768299596   -0.015747957438283597   -0.00034326266661432526
-0.0004183093248846253   -0.013519554905778726   -0.00024305272370637914
-0.0005421950380278491   -0.015761609256810118   -0.0003332667118745732
0.0006370142951979085   -0.015710640369005244   -0.0003275897809728265
-0.0004183093248846253   -0.013519554905778726   -0.00024305272370637914
0.0009512676052193118   -0.013495466537592385   -0.00021679095663660607
0.0009473783647127353   -0.013515269202630527   -0.00019935425926872045
0.0006370142951979085   -0.015710640369005244   -0.0003275897809728265
-0.0004183093248846253   -0.013519554905778726   -0.00024305272370637914
0.0009473783647127353   -0.013515269202630527   -0.00019935425926872045
-0.0005421950380278491   -0.015761609256810118   -0.0003332667118745732
-0.0005496842669572256   -0.015815689596534455   -0.0003075074990300936
-0.0003962543173115336   -0.013591872386947363   -0.00022517350929983563
-0.0016190394403365707   -0.01581613595313269   -0.00036707484605771846
-0.0005464095769075313   -0.015783935543371614   -0.00032139708631889107
-0.0003962543173115336   -0.013591872386947363   -0.00022517350929983563
-0.0016670327388707815   -0.01358516117154723   -0.00028093934104813745
-0.0016190394403365707   -0.01581613595313269   -0.00036707484605771846
-0.0016752510607173105   -0.013559567886872863   -0.00027753655563414226
-0.0005464095769075313   -0.015783935543371614   -0.00032139708631889107
-0.0016190261001309066   -0.015789458327050275   -0.0003657476752289114
-0.0016752510607173105   -0.013559567886872863   -0.00027753655563414226
-0.0016190394403365707   -0.01581613595313269   -0.00036707484605771846
-0.0005464095769075313   -0.015783935543371614   -0.00032139708631889107
-0.0016752510607173105   -0.013559567886872863   -0.00027753655563414226
-0.00040191022667594457   -0.013560933246457836   -0.00023294456040297471
-0.0003962543173115336   -0.013591872386947363   -0.00022517350929983563
-0.0005464095769075313   -0.015783935543371614   -0.00032139708631889107
-0.0016752510607173105   -0.013559567886872863   -0.00027753655563414226
-0.0003962543173115336   -0.013591872386947363   -0.00022517350929983563
-0.0016190394403365707   -0.01581613595313269   -0.00036707484605771846
-0.0005464095769075313   -0.015783935543371614   -0.00032139708631889107
-0.00040191022667594457   -0.013560933246457836   -0.00023294456040297471
-0.0016190261001309066   -0.015789458327050275   -0.0003657476752289114
-0.0005421950380278491   -0.015761609256810118   -0.0003332667118745732
-0.00040191022667594457   -0.013560933246457836   -0.00023294456040297471
-0.0016752510607173105   -0.013559567886872863   -0.00027753655563414226
-0.0016190261001309066   -0.015789458327050275   -0.0003657476752289114
-0.0016835857559015085   -0.013540052520570549   -0.000272241780520994
-0.0005421950380278491   -0.015761609256810118   -0.0003332667118745732
-0.001618931300700076   -0.015771081559698637   -0.0003624015724583293
-0.0016835857559015085   -0.013540052520570549   -0.000272241780520994
-0.0016190261001309066   -0.015789458327050275   -0.0003657476752289114
-0.0005421950380278491   -0.015761609256810118   -0.0003332667118745732
-0.0016835857559015085   -0.013540052520570549   -0.000272241780520994
-0.00040778484450518086   -0.01353709262399892   -0.0002388841797326577
-0.00040191022667594457   -0.013560933246457836   -0.00023294456040297471
-0.0005421950380278491   -0.015761609256810118   -0.0003332667118745732
-0.0016835857559015085   -0.013540052520570549   -0.000272241780520994
-0.00040191022667594457   -0.013560933246457836   -0.00023294456040297471
-0.0016190261001309066   -0.015789458327050275   -0.0003657476752289114
-0.0005421950380278491   -0.015761609256810118   -0.0003332667118745732
-0.00040778484450518086   -0.01353709262399892   -0.0002388841797326577
-0.001618931300700076   -0.015771081559698637   -0.0003624015724583293
-0.000543650768299596   -0.015747957438283597   -0.00034326266661432526
-0.00040778484450518086   -0.01353709262399892   -0.0002388841797326577
-0.0016835857559015085   -0.013540052520570549   -0.000272241780520994
-0.001618931300700076   -0.015771081559698637   -0.0003624015724583293
-0.0016932718210601145   -0.013526714873874258   -0.0002651545385678385
-0.000543650768299596   -0.015747957438283597   -0.00034326266661432526
-0.00162024864021084   -0.015761023200165546   -0.0003571501935419933
-0.0016932718210601145   -0.013526714873874258   -0.0002651545385678385
-0.001618931300700076   -0.015771081559698637   -0.0003624015724583293
-0.000543650768299596   -0.015747957438283597   -0.00034326266661432526
-0.0016932718210601145   -0.013526714873874258   -0.0002651545385678385
-0.0004183093248846253   -0.013519554905778726   -0.00024305272370637914
-0.00040778484450518086   -0.01353709262399892   -0.0002388841797326577
-0.000543650768299596   -0.015747957438283597   -0.00034326266661432526
-0.0016932718210601145   -0.013526714873874258   -0.0002651545385678385
-0.00040778484450518086   -0.01353709262399892   -0.0002388841797326577
-0.001618931300700076   -0.015771081559698637   -0.0003624015724583293
-0.0016190394403365707   -0.01581613595313269   -0.00036707484605771846
-0.0016670327388707815   -0.01358516117154723   -0.00028093934104813745
-0.0026708163027321452   -0.01578928622434848   -0.00041907287887731466
-0.0016190261001309066   -0.015789458327050275   -0.0003657476752289114
-0.0016670327388707815   -0.01358516117154723   -0.00028093934104813745
-0.002916708634607531   -0.0135585714591294   -0.00032833760221797866
-0.0026708163027321452   -0.01578928622434848   -0.00041907287887731466
-0.002925657343535358   -0.013537781248571475   -0.0003138316490807151
-0.0016190261001309066   -0.015789458327050275   -0.0003657476752289114
-0.002671614979407402   -0.015767010982223335   -0.00040272021416440406
-0.002925657343535358   -0.013537781248571475   -0.0003138316490807151
-0.0026708163027321452   -0.01578928622434848   -0.00041907287887731466
-0.0016190261001309066   -0.015789458327050275   -0.0003657476752289114
-0.002925657343535358   -0.013537781248571475   -0.0003138316490807151
-0.0016752510607173105   -0.013559567886872863   -0.00027753655563414226
-0.0016670327388707815   -0.01358516117154723   -0.00028093934104813745
-0.0016190261001309066   -0.015789458327050275   -0.0003657476752289114
-0.002925657343535358   -0.013537781248571475   -0.0003138316490807151
-0.0016670327388707815   -0.01358516117154723   -0.00028093934104813745
-0.0026708163027321452   -0.01578928622434848   -0.00041907287887731466
-0.0016190261001309066   -0.015789458327050275   -0.0003657476752289114
-0.0016752510607173105   -0.013559567886872863   -0.00027753655563414226
-0.002671614979407402   -0.015767010982223335   -0.00040272021416440406
-0.001618931300700076   -0.015771081559698637   -0.0003624015724583293
-0.0016752510607173105   -0.013559567886872863   -0.00027753655563414226
-0.002925657343535358   -0.013537781248571475   -0.0003138316490807151
-0.002671614979407402   -0.015767010982223335   -0.00040272021416440406
-0.002933013795032001   -0.013523012131160998   -0.0002974711298362037
-0.001618931300700076   -0.015771081559698637   -0.0003624015724583293
-0.002670637035509109   -0.015752964009956225   -0.0003843925094584626
-0.002933013795032001   -0.013523012131160998   -0.0002974711298362037
-0.002671614979407402   -0.015767010982223335   -0.00040272021416440406
-0.001618931300700076   -0.015771081559698637   -0.0003624015724583293
-0.002933013795032001   -0.013523012131160998   -0.0002974711298362037
-0.0016835857559015085   -0.013540052520570549   -0.000272241780520994
-0.0016752510607173105   -0.013559567886872863   -0.00027753655563414226
-0.001618931300700076   -0.015771081559698637   -0.0003624015724583293
-0.002933013795032001   -0.013523012131160998   -0.0002974711298362037
-0.0016752510607173105   -0.013559567886872863   -0.00027753655563414226
-0.002671614979407402   -0.015767010982223335   -0.00040272021416440406
-0.001618931300700076   -0.015771081559698637   -0.0003624015724583293
-0.0016835857559015085   -0.013540052520570549   -0.000272241780520994
-0.002670637035509109   -0.015752964009956225   -0.0003843925094584626
-0.00162024864021084   -0.015761023200165546   -0.0003571501935419933
-0.0016835857559015085   -0.013540052520570549   -0.000272241780520994
-0.002933013795032001   -0.013523012131160998   -0.0002974711298362037
-0.002670637035509109   -0.015752964009956225   -0.0003843925094584626
-0.0029406030161477107   -0.013514235969612954   -0.00027930800889504006
-0.00162024864021084   -0.015761023200165546   -0.0003571501935419933
-0.002670000516646343   -0.015747009770280433   -0.00036414505300789844
-0.0029406030161477107   -0.013514235969612954   -0.00027930800889504006
-0.002670637035509109   -0.015752964009956225   -0.0003843925094584626
-0.00162024864021084   -0.015761023200165546   -0.0003571501935419933
-0.0029406030161477107   -0.013514235969612954   -0.00027930800889504006
-0.0016932718210601145   -0.013526714873874258   -0.0002651545385678385
-0.0016835857559015085   -0.013540052520570549   -0.000272241780520994
-0.00162024864021084   -0.015761023200165546   -0.0003571501935419933
-0.0029406030161477107   -0.013514235969612954   -0.00027930800889504006
-0.0016835857559015085   -0.013540052520570549   -0.000272241780520994
-0.002670637035509109   -0.015752964009956225   -0.0003843925094584626
-0.0026708163027321452   -0.01578928622434848   -0.00041907287887731466
-0.002916708634607531   -0.0135585714591294   -0.00032833760221797866
-0.003754992065151104   -0.01573608583889142   -0.0004636849924787105
-0.002671614979407402   -0.015767010982223335   -0.00040272021416440406
-0.002916708634607531   -0.0135585714591294   -0.00032833760221797866
-0.004196062686893228   -0.013512601202359937   -0.0003676189891758997
-0.003754992065151104   -0.01573608583889142   -0.0004636849924787105
-0.004203319625756066   -0.013496464890072075   -0.0003418507304704888
-0.002671614979407402   -0.015767010982223335   -0.00040272021416440406
-0.0037534724182317096   -0.01571797641744989   -0.0004321154893296958
-0.004203319625756066   -0.013496464890072075   -0.0003418507304704888
-0.003754992065151104   -0.01573608583889142   -0.0004636849924787105
-0.002671614979407402   -0.015767010982223335   -0.00040272021416440406
-0.004203319625756066   -0.013496464890072075   -0.0003418507304704888
-0.002925657343535358   -0.013537781248571475   -0.0003138316490807151
-0.002916708634607531   -0.0135585714591294   -0.00032833760221797866
-0.002671614979407402   -0.015767010982223335   -0.00040272021416440406
-0.004203319625756066   -0.013496464890072075   -0.0003418507304704888
-0.002916708634607531   -0.0135585714591294   -0.00032833760221797866
-0.003754992065151104   -0.01573608583889142   -0.0004636849924787105
-0.002671614979407402   -0.015767010982223335   -0.00040272021416440406
-0.002925657343535358   -0.013537781248571475   -0.0003138316490807151
-0.0037534724182317096   -0.01571797641744989   -0.0004321154893296958
-0.002670637035509109   -0.015752964009956225   -0.0003843925094584626
-0.002925657343535358   -0.013537781248571475   -0.0003138316490807151
-0.004203319625756066   -0.013496464890072075   -0.0003418507304704888
-0.0037534724182317096   -0.01571797641744989   -0.0004321154893296958
-0.0042037516917138905   -0.013486042546604468   -0.00031448317227579476
-0.002670637035509109   -0.015752964009956225   -0.0003843925094584626
-0.0037440586150237778   -0.01570785798099606   -0.0003988717975748515
-0.0042037516917138905   -0.013486042546604468   -0.00031448317227579476
-0.0037534724182317096   -0.01571797641744989   -0.0004321154893296958
-0.002670637035509109   -0.015752964009956225   -0.0003843925094584626
-0.0042037516917138905   -0.013486042546604468   -0.00031448317227579476
-0.002933013795032001   -0.013523012131160998   -0.0002974711298362037
-0.002925657343535358   -0.013537781248571475   -0.0003138316490807151
-0.002670637035509109   -0.015752964009956225   -0.0003843925094584626
-0.0042037516917138905   -0.013486042546604468   -0.00031448317227579476
-0.002925657343535358   -0.013537781248571475   -0.0003138316490807151
-0.0037534724182317096   -0.01571797641744989   -0.0004321154893296958
-0.002670637035509109   -0.015752964009956225   -0.0003843925094584626
-0.002933013795032001   -0.013523012131160998   -0.0002974711298362037
-0.0037440586150237778   -0.01570785798099606   -0.0003988717975748515
-0.002670000516646343   -0.015747009770280433   -0.00036414505300789844
-0.002933013795032001   -0.013523012131160998   -0.0002974711298362037
-0.0042037516917138905   -0.013486042546604468   -0.00031448317227579476
-0.0037440586150237778   -0.01570785798099606   -0.0003988717975748515
-0.004206238604255602   -0.013482165494658338   -0.00028517335390303996
-0.002670000516646343   -0.015747009770280433   -0.00036414505300789844
-0.00373784198048597   -0.01570652175857313   -0.00036354905694940397
-0.004206238604255602   -0.013482165494658338   -0.00028517335390303996
-0.0037440586150237778   -0.01570785798099606   -0.0003988717975748515
-0.002670000516646343   -0.015747009770280433   -0.00036414505300789844
-0.004206238604255602   -0.013482165494658338   -0.00028517335390303996
-0.0029406030161477107   -0.013514235969612954   -0.00027930800889504006
-0.002933013795032001   -0.013523012131160998   -0.0002974711298362037
-0.002670000516646343   -0.015747009770280433   -0.00036414505300789844
-0.004206238604255602   -0.013482165494658338   -0.00028517335390303996
-0.002933013795032001   -0.013523012131160998   -0.0002974711298362037
-0.0037440586150237778   -0.01570785798099606   -0.0003988717975748515
-0.003754992065151104   -0.01573608583889142   -0.0004636849924787105
-0.004196062686893228   -0.013512601202359937   -0.0003676189891758997
-0.004966145545055191   -0.015662150253998842   -0.0005042132856188133
-0.0037534724182317096   -0.01571797641744989   -0.0004321154893296958
-0.004196062686893228   -0.013512601202359937   -0.0003676189891758997
-0.0055920207427529465   -0.013451709739449485   -0.00040120740792713906
-0.004966145545055191   -0.015662150253998842   -0.0005042132856188133
-0.005563543844058212   -0.01343696302550231   -0.00036334593803730256
-0.0037534724182317096   -0.01571797641744989   -0.0004321154893296958
-0.004919188267758492   -0.015644229133464593   -0.00045573894607462513
-0.005563543844058212   -0.01343696302550231   -0.00036334593803730256
-0.004966145545055191   -0.015662150253998842   -0.0005042132856188133
-0.0037534724182317096   -0.01571797641744989   -0.0004321154893296958
-0.005563543844058212   -0.01343696302550231   -0.00036334593803730256
-0.004203319625756066   -0.013496464890072075   -0.0003418507304704888
-0.004196062686893228   -0.013512601202359937   -0.0003676189891758997
-0.0037534724182317096   -0.01571797641744989   -0.0004321154893296958
-0.005563543844058212   -0.01343696302550231   -0.00036334593803730256
-0.004196062686893228   -0.013512601202359937   -0.0003676189891758997
-0.004966145545055191   -0.015662150253998842   -0.0005042132856188133
-0.0037534724182317096   -0.01571797641744989   -0.0004321154893296958
-0.004203319625756066   -0.013496464890072075   -0.0003418507304704888
-0.004919188267758492   -0.015644229133464593   -0.00045573894607462513
-0.0037440586150237778   -0.01570785798099606   -0.0003988717975748515
-0.004203319625756066   -0.013496464890072075   -0.0003418507304704888
-0.005563543844058212   -0.01343696302550231   -0.00036334593803730256
-0.004919188267758492   -0.015644229133464593   -0.00045573894607462513
-0.0055396423656940965   -0.013428392450876687   -0.0003226800209785612
-0.0037440586150237778   -0.01570785798099606   -0.0003988717975748515
-0.004879249342586846   -0.015635553219362535   -0.00040443001560915975
-0.0055396423656940965   -0.013428392450876687   -0.0003226800209785612
-0.004919188267758492   -0.015644229133464593   -0.00045573894607462513
-0.0037440586150237778   -0.01570785798099606   -0.0003988717975748515
-0.0055396423656940965   -0.013428392450876687   -0.0003226800209785612
-0.0042037516917138905   -0.013486042546604468   -0.00031448317227579476
-0.004203319625756066   -0.013496464890072075   -0.0003418507304704888
-0.0037440586150237778   -0.01570785798099606   -0.0003988717975748515
-0.0055396423656940965   -0.013428392450876687   -0.0003226800209785612
-0.004203319625756066   -0.013496464890072075   -0.0003418507304704888
-0.004919188267758492   -0.015644229133464593   -0.00045573894607462513
-0.0037440586150237778   -0.01570785798099606   -0.0003988717975748515
-0.0042037516917138905   -0.013486042546604468   -0.00031448317227579476
-0.004879249342586846   -0.015635553219362535   -0.00040443001560915975
-0.00373784198048597   -0.01570652175857313   -0.00036354905694940397
-0.0042037516917138905   -0.013486042546604468   -0.00031448317227579476
-0.0055396423656940965   -0.013428392450876687   -0.0003226800209785612
-0.004879249342586846   -0.015635553219362535   -0.00040443001560915975
-0.0055008349637455925   -0.013430848931474395   -0.00027956296447966564
-0.00373784198048597   -0.01570652175857313   -0.00036354905694940397
-0.004821913864701188   -0.01564072509024767   -0.00035068476909845374
-0.0055008349637455925   -0.013430848931474395   -0.00027956296447966564
-0.004879249342586846   -0.015635553219362535   -0.00040443001560915975
-0.00373784198048597   -0.01570652175857313   -0.00036354905694940397
-0.0055008349637455925   -0.013430848931474395   -0.00027956296447966564
-0.004206238604255602   -0.013482165494658338   -0.00028517335390303996
-0.0042037516917138905   -0.013486042546604468   -0.00031448317227579476
-0.00373784198048597   -0.01570652175857313   -0.00036354905694940397
-0.0055008349637455925   -0.013430848931474395   -0.00027956296447966564
-0.0042037516917138905   -0.013486042546604468   -0.00031448317227579476
-0.004879249342586846   -0.015635553219362535   -0.00040443001560915975
0.0009277296188740513   -0.013577197292207388   -0.0001566178610742271
0.0011402983429809376   -0.011081287730527436   -8.08348514664569e-05
-0.0003962543173115336   -0.013591872386947363   -0.00022517350929983563
0.0009421512214487603   -0.01354091297034269   -0.0001793404721781906
0.0011402983429809376   -0.011081287730527436   -8.08348514664569e-05
-0.0003376289717826545   -0.011081999900557978   -0.00014417746815466054
-0.0003962543173115336   -0.013591872386947363   -0.00022517350929983563
-0.00035009028821470346   -0.011052172305774538   -0.0001456519758078906
0.0009421512214487603   -0.01354091297034269   -0.0001793404721781906
-0.00040191022667594457   -0.013560933246457836   -0.00023294456040297471
-0.00035009028821470346   -0.011052172305774538   -0.0001456519758078906
-0.0003962543173115336   -0.013591872386947363   -0.00022517350929983563
0.0009421512214487603   -0.01354091297034269   -0.0001793404721781906
-0.00035009028821470346   -0.011052172305774538   -0.0001456519758078906
0.0011378084497106504   -0.011046625098192077   -9.238690397656356e-05
0.0011402983429809376   -0.011081287730527436   -8.08348514664569e-05
0.0009421512214487603   -0.01354091297034269   -0.0001793404721781906
-0.00035009028821470346   -0.011052172305774538   -0.0001456519758078906
0.0011402983429809376   -0.011081287730527436   -8.08348514664569e-05
-0.0003962543173115336   -0.013591872386947363   -0.00022517350929983563
0.0009421512214487603   -0.01354091297034269   -0.0001793404721781906
0.0011378084497106504   -0.011046625098192077   -9.238690397656356e-05
-0.00040191022667594457   -0.013560933246457836   -0.00023294456040297471
0.0009473783647127353   -0.013515269202630527   -0.00019935425926872045
0.0011378084497106504   -0.011046625098192077   -9.238690397656356e-05
-0.00035009028821470346   -0.011052172305774538   -0.0001456519758078906
-0.00040191022667594457   -0.013560933246457836   -0.00023294456040297471
-0.0003639511606468443   -0.011027036389219126   -0.0001454746467536837
0.0009473783647127353   -0.013515269202630527   -0.00019935425926872045
-0.00040778484450518086   -0.01353709262399892   -0.0002388841797326577
-0.0003639511606468443   -0.011027036389219126   -0.0001454746467536837
-0.00040191022667594457   -0.013560933246457836   -0.00023294456040297471
0.0009473783647127353   -0.013515269202630527   -0.00019935425926872045
-0.0003639511606468443   -0.011027036389219126   -0.0001454746467536837
0.0011286533506796766   -0.011019456916729075   -0.00010129115389143516
0.0011378084497106504   -0.011046625098192077   -9.238690397656356e-05
0.0009473783647127353   -0.013515269202630527   -0.00019935425926872045
-0.0003639511606468443   -0.011027036389219126   -0.0001454746467536837
0.0011378084497106504   -0.011046625098192077   -9.238690397656356e-05
-0.00040191022667594457   -0.013560933246457836   -0.00023294456040297471
0.0009473783647127353   -0.013515269202630527   -0.00019935425926872045
0.0011286533506796766   -0.011019456916729075   -0.00010129115389143516
-0.00040778484450518086   -0.01353709262399892   -0.0002388841797326577
0.0009512676052193118   -0.013495466537592385   -0.00021679095663660607
0.0011286533506796766   -0.011019456916729075   -0.00010129115389143516
-0.0003639511606468443   -0.011027036389219126   -0.0001454746467536837
-0.00040778484450518086   -0.01353709262399892   -0.0002388841797326577
-0.00038142375818668497   -0.011005897482530511   -0.00014358035634106717
0.0009512676052193118   -0.013495466537592385   -0.00021679095663660607
-0.0004183093248846253   -0.013519554905778726   -0.00024305272370637914
-0.00038142375818668497   -0.011005897482530511   -0.00014358035634106717
-0.00040778484450518086   -0.01353709262399892   -0.0002388841797326577
0.0009512676052193118   -0.013495466537592385   -0.00021679095663660607
-0.00038142375818668497   -0.011005897482530511   -0.00014358035634106717
0.0011156099268226935   -0.010995031970597787   -0.00010773279428813292
0.0011286533506796766   -0.011019456916729075   -0.00010129115389143516
0.0009512676052193118   -0.013495466537592385   -0.00021679095663660607
-0.00038142375818668497   -0.011005897482530511   -0.00014358035634106717
0.0011286533506796766   -0.011019456916729075   -0.00010129115389143516
-0.00040778484450518086   -0.01353709262399892   -0.0002388841797326577
-0.0003962543173115336   -0.013591872386947363   -0.00022517350929983563
-0.0003376289717826545   -0.011081999900557978   -0.00014417746815466054
-0.0016670327388707815   -0.01358516117154723   -0.00028093934104813745
-0.00040191022667594457   -0.013560933246457836   -0.00023294456040297471
-0.0003376289717826545   -0.011081999900557978   -0.00014417746815466054
-0.0017481438759663162   -0.011068858912737569   -0.0001956727627027533
-0.0016670327388707815   -0.01358516117154723   -0.00028093934104813745
-0.0017623706858462289   -0.01104442518765903   -0.00018998237615024151
-0.00040191022667594457   -0.013560933246457836   -0.00023294456040297471
-0.0016752510607173105   -0.013559567886872863   -0.00027753655563414226
-0.0017623706858462289   -0.01104442518765903   -0.00018998237615024151
-0.0016670327388707815   -0.01358516117154723   -0.00028093934104813745
-0.00040191022667594457   -0.013560933246457836   -0.00023294456040297471
-0.0017623706858462289   -0.01104442518765903   -0.00018998237615024151
-0.00035009028821470346   -0.011052172305774538   -0.0001456519758078906
-0.0003376289717826545   -0.011081999900557978   -0.00014417746815466054
-0.00040191022667594457   -0.013560933246457836   -0.00023294456040297471
-0.0017623706858462289   -0.01104442518765903   -0.00018998237615024151
-0.0003376289717826545   -0.011081999900557978   -0.00014417746815466054
-0.0016670327388707815   -0.01358516117154723   -0.00028093934104813745
-0.00040191022667594457   -0.013560933246457836   -0.00023294456040297471
-0.00035009028821470346   -0.011052172305774538   -0.0001456519758078906
-0.0016752510607173105   -0.013559567886872863   -0.00027753655563414226
-0.00040778484450518086   -0.01353709262399892   -0.0002388841797326577
-0.00035009028821470346   -0.011052172305774538   -0.0001456519758078906
-0.0017623706858462289   -0.01104442518765903   -0.00018998237615024151
-0.0016752510607173105   -0.013559567886872863   -0.00027753655563414226
-0.0017769019662306565   -0.011023808874327098   -0.00018256429850427826
-0.00040778484450518086   -0.01353709262399892   -0.0002388841797326577
-0.0016835857559015085   -0.013540052520570549   -0.000272241780520994
-0.0017769019662306565   -0.011023808874327098   -0.00018256429850427826
-0.0016752510607173105   -0.013559567886872863   -0.00027753655563414226
-0.00040778484450518086   -0.01353709262399892   -0.0002388841797326577
-0.0017769019662306565   -0.011023808874327098   -0.00018256429850427826
-0.0003639511606468443   -0.011027036389219126   -0.0001454746467536837
-0.00035009028821470346   -0.011052172305774538   -0.0001456519758078906
-0.00040778484450518086   -0.01353709262399892   -0.0002388841797326577
-0.0017769019662306565   -0.011023808874327098   -0.00018256429850427826
-0.00035009028821470346   -0.011052172305774538   -0.0001456519758078906
-0.0016752510607173105   -0.013559567886872863   -0.00027753655563414226
-0.00040778484450518086   -0.01353709262399892   -0.0002388841797326577
-0.0003639511606468443   -0.011027036389219126   -0.0001454746467536837
-0.0016835857559015085   -0.013540052520570549   -0.000272241780520994
-0.0004183093248846253   -0.013519554905778726   -0.00024305272370637914
-0.0003639511606468443   -0.011027036389219126   -0.0001454746467536837
-0.0017769019662306565   -0.011023808874327098   -0.00018256429850427826
-0.0016835857559015085   -0.013540052520570549   -0.000272241780520994
-0.0017927066073053488   -0.011007225405640274   -0.00017350760931581608
-0.0004183093248846253   -0.013519554905778726   -0.00024305272370637914
-0.0016932718210601145   -0.013526714873874258   -0.0002651545385678385
-0.0017927066073053488   -0.011007225405640274   -0.00017350760931581608
-0.0016835857559015085   -0.013540052520570549   -0.000272241780520994
-0.0004183093248846253   -0.013519554905778726   -0.00024305272370637914
-0.0017927066073053488   -0.011007225405640274   -0.00017350760931581608
-0.00038142375818668497   -0.011005897482530511   -0.00014358035634106717
-0.0003639511606468443   -0.011027036389219126   -0.0001454746467536837
-0.0004183093248846253   -0.013519554905778726   -0.00024305272370637914
-0.0017927066073053488   -0.011007225405640274   -0.00017350760931581608
-0.0003639511606468443   -0.011027036389219126   -0.0001454746467536837
-0.0016835857559015085   -0.013540052520570549   -0.000272241780520994
-0.0016670327388707815   -0.01358516117154723   -0.00028093934104813745
-0.0017481438759663162   -0.011068858912737569   -0.0001956727627027533
-0.002916708634607531   -0.0135585714591294   -0.00032833760221797866
-0.0016752510607173105   -0.013559567886872863   -0.00027753655563414226
-0.0017481438759663162   -0.011068858912737569   -0.0001956727627027533
-0.003134850842928852   -0.011043628985901083   -0.00023867983847947836
-0.002916708634607531   -0.0135585714591294   -0.00032833760221797866
-0.003149591493625487   -0.011024115230697242   -0.00022586160915427986
-0.0016752510607173105   -0.013559567886872863   -0.00027753655563414226
-0.002925657343535358   -0.013537781248571475   -0.0003138316490807151
-0.003149591493625487   -0.011024115230697242   -0.00022586160915427986
-0.002916708634607531   -0.0135585714591294   -0.00032833760221797866
-0.0016752510607173105   -0.013559567886872863   -0.00027753655563414226
-0.003149591493625487   -0.011024115230697242   -0.00022586160915427986
-0.0017623706858462289   -0.01104442518765903   -0.00018998237615024151
-0.0017481438759663162   -0.011068858912737569   -0.0001956727627027533
-0.0016752510607173105   -0.013559567886872863   -0.00027753655563414226
-0.003149591493625487   -0.011024115230697242   -0.00022586160915427986
-0.0017481438759663162   -0.011068858912737569   -0.0001956727627027533
-0.002916708634607531   -0.0135585714591294   -0.00032833760221797866
-0.0016752510607173105   -0.013559567886872863   -0.00027753655563414226
-0.0017623706858462289   -0.01104442518765903   -0.00018998237615024151
-0.002925657343535358   -0.013537781248571475   -0.0003138316490807151
-0.0016835857559015085   -0.013540052520570549   -0.000272241780520994
-0.0017623706858462289   -0.01104442518765903   -0.00018998237615024151
-0.003149591493625487   -0.011024115230697242   -0.00022586160915427986
-0.002925657343535358   -0.013537781248571475   -0.0003138316490807151
-0.0031629194078128297   -0.011008392139661512   -0.00021135853549997344
-0.0016835857559015085   -0.013540052520570549   -0.000272241780520994
-0.002933013795032001   -0.013523012131160998   -0.0002974711298362037
-0.0031629194078128297   -0.011008392139661512   -0.00021135853549997344
-0.002925657343535358   -0.013537781248571475   -0.0003138316490807151
-0.0016835857559015085   -0.013540052520570549   -0.000272241780520994
-0.0031629194078128297   -0.011008392139661512   -0.00021135853549997344
-0.0017769019662306565   -0.011023808874327098   -0.00018256429850427826
-0.0017623706858462289   -0.01104442518765903   -0.00018998237615024151
-0.0016835857559015085   -0.013540052520570549   -0.000272241780520994
-0.0031629194078128297   -0.011008392139661512   -0.00021135853549997344
-0.0017623706858462289   -0.01104442518765903   -0.00018998237615024151
-0.002925657343535358   -0.013537781248571475   -0.0003138316490807151
-0.0016835857559015085   -0.013540052520570549   -0.000272241780520994
-0.0017769019662306565   -0.011023808874327098   -0.00018256429850427826
-0.002933013795032001   -0.013523012131160998   -0.0002974711298362037
-0.0016932718210601145   -0.013526714873874258   -0.0002651545385678385
-0.0017769019662306565   -0.011023808874327098   -0.00018256429850427826
-0.0031629194078128297   -0.011008392139661512   -0.00021135853549997344
-0.002933013795032001   -0.013523012131160998   -0.0002974711298362037
-0.003176379751807465   -0.010996480288684777   -0.0001952317850024625
-0.0016932718210601145   -0.013526714873874258   -0.0002651545385678385
-0.0029406030161477107   -0.013514235969612954   -0.00027930800889504006
-0.003176379751807465   -0.010996480288684777   -0.0001952317850024625
-0.002933013795032001   -0.013523012131160998   -0.0002974711298362037
-0.0016932718210601145   -0.013526714873874258   -0.0002651545385678385
-0.003176379751807465   -0.010996480288684777   -0.0001952317850024625
-0.0017927066073053488   -0.011007225405640274   -0.00017350760931581608
-0.0017769019662306565   -0.011023808874327098   -0.00018256429850427826
-0.0016932718210601145   -0.013526714873874258   -0.0002651545385678385
-0.003176379751807465   -0.010996480288684777   -0.0001952317850024625
-0.0017769019662306565   -0.011023808874327098   -0.00018256429850427826
-0.002933013795032001   -0.013523012131160998   -0.0002974711298362037
-0.002916708634607531   -0.0135585714591294   -0.00032833760221797866
-0.003134850842928852   -0.011043628985901083   -0.00023867983847947836
-0.004196062686893228   -0.013512601202359937   -0.0003676189891758997
-0.002925657343535358   -0.013537781248571475   -0.0003138316490807151
-0.003134850842928852   -0.011043628985901083   -0.00023867983847947836
-0.004549219126180377   -0.01100578785717927   -0.0002733463591938386
-0.004196062686893228   -0.013512601202359937   -0.0003676189891758997
-0.0045628187632904575   -0.010991211685464256   -0.00025334142431803175
-0.002925657343535358   -0.013537781248571475   -0.0003138316490807151
-0.004203319625756066   -0.013496464890072075   -0.0003418507304704888
-0.0045628187632904575   -0.010991211685464256   -0.00025334142431803175
-0.004196062686893228   -0.013512601202359937   -0.0003676189891758997
-0.002925657343535358   -0.013537781248571475   -0.0003138316490807151
-0.0045628187632904575   -0.010991211685464256   -0.00025334142431803175
-0.003149591493625487   -0.011024115230697242   -0.00022586160915427986
-0.003134850842928852   -0.011043628985901083   -0.00023867983847947836
-0.002925657343535358   -0.013537781248571475   -0.0003138316490807151
-0.0045628187632904575   -0.010991211685464256   -0.00025334142431803175
-0.003134850842928852   -0.011043628985901083   -0.00023867983847947836
-0.004196062686893228   -0.013512601202359937   -0.0003676189891758997
-0.002925657343535358   -0.013537781248571475   -0.0003138316490807151
-0.003149591493625487   -0.011024115230697242   -0.00022586160915427986
-0.004203319625756066   -0.013496464890072075   -0.0003418507304704888
-0.002933013795032001   -0.013523012131160998   -0.0002974711298362037
-0.003149591493625487   -0.011024115230697242   -0.00022586160915427986
-0.0045628187632904575   -0.010991211685464256   -0.00025334142431803175
-0.004203319625756066   -0.013496464890072075   -0.0003418507304704888
-0.004570726894232574   -0.01098001201558408   -0.00023187211914706476
-0.002933013795032001   -0.013523012131160998   -0.0002974711298362037
-0.0042037516917138905   -0.013486042546604468   -0.00031448317227579476
-0.004570726894232574   -0.01098001201558408   -0.00023187211914706476
-0.004203319625756066   -0.013496464890072075   -0.0003418507304704888
-0.002933013795032001   -0.013523012131160998   -0.0002974711298362037
-0.004570726894232574   -0.01098001201558408   -0.00023187211914706476
-0.0031629194078128297   -0.011008392139661512   -0.00021135853549997344
-0.003149591493625487   -0.011024115230697242   -0.00022586160915427986
-0.002933013795032001   -0.013523012131160998   -0.0002974711298362037
-0.004570726894232574   -0.01098001201558408   -0.00023187211914706476
-0.003149591493625487   -0.011024115230697242   -0.00022586160915427986
-0.004203319625756066   -0.013496464890072075   -0.0003418507304704888
-0.002933013795032001   -0.013523012131160998   -0.0002974711298362037
-0.0031629194078128297   -0.011008392139661512   -0.00021135853549997344
-0.0042037516917138905   -0.013486042546604468   -0.00031448317227579476
-0.0029406030161477107   -0.013514235969612954   -0.00027930800889504006
-0.0031629194078128297   -0.011008392139661512   -0.00021135853549997344
-0.004570726894232574   -0.01098001201558408   -0.00023187211914706476
-0.0042037516917138905   -0.013486042546604468   -0.00031448317227579476
-0.004579584433525709   -0.010972970457733953   -0.00020863897101087636
-0.0029406030161477107   -0.013514235969612954   -0.00027930800889504006
-0.004206238604255602   -0.013482165494658338   -0.00028517335390303996
-0.004579584433525709   -0.010972970457733953   -0.00020863897101087636
-0.0042037516917138905   -0.013486042546604468   -0.00031448317227579476
-0.0029406030161477107   -0.013514235969612954   -0.00027930800889504006
-0.004579584433525709   -0.010972970457733953   -0.00020863897101087636
-0.003176379751807465   -0.010996480288684777   -0.0001952317850024625
-0.0031629194078128297   -0.011008392139661512   -0.00021135853549997344
-0.0029406030161477107   -0.013514235969612954   -0.00027930800889504006
-0.004579584433525709   -0.010972970457733953   -0.00020863897101087636
-0.0031629194078128297   -0.011008392139661512   -0.00021135853549997344
-0.0042037516917138905   -0.013486042546604468   -0.00031448317227579476
-0.004196062686893228   -0.013512601202359937   -0.0003676189891758997
-0.004549219126180377   -0.01100578785717927   -0.0002733463591938386
-0.0055920207427529465   -0.013451709739449485   -0.00040120740792713906
-0.004203319625756066   -0.013496464890072075   -0.0003418507304704888
-0.004549219126180377   -0.01100578785717927   -0.0002733463591938386
-0.006068769204352149   -0.010958668223049316   -0.0003006100685494223
-0.0055920207427529465   -0.013451709739449485   -0.00040120740792713906
-0.006056631780547742   -0.010946566465431419   -0.0002736117754628528
-0.004203319625756066   -0.013496464890072075   -0.0003418507304704888
-0.005563543844058212   -0.01343696302550231   -0.00036334593803730256
-0.006056631780547742   -0.010946566465431419   -0.0002736117754628528
-0.0055920207427529465   -0.013451709739449485   -0.00040120740792713906
-0.004203319625756066   -0.013496464890072075   -0.0003418507304704888
-0.006056631780547742   -0.010946566465431419   -0.0002736117754628528
-0.0045628187632904575   -0.010991211685464256   -0.00025334142431803175
-0.004549219126180377   -0.01100578785717927   -0.0002733463591938386
-0.004203319625756066   -0.013496464890072075   -0.0003418507304704888
-0.006056631780547742   -0.010946566465431419   -0.0002736117754628528
-0.004549219126180377   -0.01100578785717927   -0.0002733463591938386
-0.0055920207427529465   -0.013451709739449485   -0.00040120740792713906
-0.004203319625756066   -0.013496464890072075   -0.0003418507304704888
-0.0045628187632904575   -0.010991211685464256   -0.00025334142431803175
-0.005563543844058212   -0.01343696302550231   -0.00036334593803730256
-0.0042037516917138905   -0.013486042546604468   -0.00031448317227579476
-0.0045628187632904575   -0.010991211685464256   -0.00025334142431803175
-0.006056631780547742   -0.010946566465431419   -0.0002736117754628528
-0.005563543844058212   -0.01343696302550231   -0.00036334593803730256
-0.006046717263729471   -0.0109375043997126   -0.00024392525649401004
-0.0042037516917138905   -0.013486042546604468   -0.00031448317227579476
-0.0055396423656940965   -0.013428392450876687   -0.0003226800209785612
-0.006046717263729471   -0.0109375043997126   -0.00024392525649401004
-0.005563543844058212   -0.01343696302550231   -0.00036334593803730256
-0.0042037516917138905   -0.013486042546604468   -0.00031448317227579476
-0.006046717263729471   -0.0109375043997126   -0.00024392525649401004
-0.004570726894232574   -0.01098001201558408   -0.00023187211914706476
-0.0045628187632904575   -0.010991211685464256   -0.00025334142431803175
-0.0042037516917138905   -0.013486042546604468   -0.00031448317227579476
-0.006046717263729471   -0.0109375043997126   -0.00024392525649401004
-0.0045628187632904575   -0.010991211685464256   -0.00025334142431803175
-0.005563543844058212   -0.01343696302550231   -0.00036334593803730256
-0.0042037516917138905   -0.013486042546604468   -0.00031448317227579476
-0.004570726894232574   -0.01098001201558408   -0.00023187211914706476
-0.0055396423656940965   -0.013428392450876687   -0.0003226800209785612
-0.004206238604255602   -0.013482165494658338   -0.00028517335390303996
-0.004570726894232574   -0.01098001201558408   -0.00023187211914706476
-0.006046717263729471   -0.0109375043997126   -0.00024392525649401004
-0.0055396423656940965   -0.013428392450876687   -0.0003226800209785612
-0.006024559957231822   -0.010936391163365916   -0.00021185497556648882
-0.004206238604255602   -0.013482165494658338   -0.00028517335390303996
-0.0055008349637455925   -0.013430848931474395   -0.00027956296447966564
-0.006024559957231822   -0.010936391163365916   -0.00021185497556648882
-0.0055396423656940965   -0.013428392450876687   -0.0003226800209785612
-0.004206238604255602   -0.013482165494658338   -0.00028517335390303996
-0.006024559957231822   -0.010936391163365916   -0.00021185497556648882
-0.004579584433525709   -0.010972970457733953   -0.00020863897101087636
-0.004570726894232574   -0.01098001201558408   -0.00023187211914706476
-0.004206238604255602   -0.013482165494658338   -0.00028517335390303996
-0.006024559957231822   -0.010936391163365916   -0.00021185497556648882
-0.004570726894232574   -0.01098001201558408   -0.00023187211914706476
-0.0055396423656940965   -0.013428392450876687   -0.0003226800209785612
0.0011402983429809376   -0.011081287730527436   -8.08348514664569e-05
0.0011944489268974642   -0.008398110800986871   -1.4680411740917516e-05
-0.0003376289717826545   -0.011081999900557978   -0.00014417746815466054
0.0011378084497106504   -0.011046625098192077   -9.238690397656356e-05
0.0011944489268974642   -0.008398110800986871   -1.4680411740917516e-05
-0.00037502674057865893   -0.008385244164865063   -7.11646997482973e-05
-0.0003376289717826545   -0.011081999900557978   -0.00014417746815466054
-0.00039248453654522775   -0.008356856312143775   -6.623847540022389e-05
0.0011378084497106504   -0.011046625098192077   -9.238690397656356e-05
-0.00035009028821470346   -0.011052172305774538   -0.0001456519758078906
-0.00039248453654522775   -0.008356856312143775   -6.623847540022389e-05
-0.0003376289717826545   -0.011081999900557978   -0.00014417746815466054
0.0011378084497106504   -0.011046625098192077   -9.238690397656356e-05
-0.00039248453654522775   -0.008356856312143775   -6.623847540022389e-05
0.0011768977527855517   -0.00836520523566988   -1.4711190417944698e-05
0.0011944489268974642   -0.008398110800986871   -1.4680411740917516e-05
0.0011378084497106504   -0.011046625098192077   -9.238690397656356e-05
-0.00039248453654522775   -0.008356856312143775   -6.623847540022389e-05
0.0011944489268974642   -0.008398110800986871   -1.4680411740917516e-05
-0.0003376289717826545   -0.011081999900557978   -0.00014417746815466054
0.0011378084497106504   -0.011046625098192077   -9.238690397656356e-05
0.0011768977527855517   -0.00836520523566988   -1.4711190417944698e-05
-0.00035009028821470346   -0.011052172305774538   -0.0001456519758078906
0.0011286533506796766   -0.011019456916729075   -0.00010129115389143516
0.0011768977527855517   -0.00836520523566988   -1.4711190417944698e-05
-0.00039248453654522775   -0.008356856312143775   -6.623847540022389e-05
-0.00035009028821470346   -0.011052172305774538   -0.0001456519758078906
-0.0004125472994567105   -0.008330448858487069   -5.9789784655232464e-05
0.0011286533506796766   -0.011019456916729075   -0.00010129115389143516
-0.0003639511606468443   -0.011027036389219126   -0.0001454746467536837
-0.0004125472994567105   -0.008330448858487069   -5.9789784655232464e-05
-0.00035009028821470346   -0.011052172305774538   -0.0001456519758078906
0.0011286533506796766   -0.011019456916729075   -0.00010129115389143516
-0.0004125472994567105   -0.008330448858487069   -5.9789784655232464e-05
0.0011545958281807996   -0.008336385301733262   -1.1647868964678617e-05
0.0011768977527855517   -0.00836520523566988   -1.4711190417944698e-05
0.0011286533506796766   -0.011019456916729075   -0.00010129115389143516
-0.0004125472994567105   -0.008330448858487069   -5.9789784655232464e-05
0.0011768977527855517   -0.00836520523566988   -1.4711190417944698e-05
-0.00035009028821470346   -0.011052172305774538   -0.0001456519758078906
0.0011286533506796766   -0.011019456916729075   -0.00010129115389143516
0.0011545958281807996   -0.008336385301733262   -1.1647868964678617e-05
-0.0003639511606468443   -0.011027036389219126   -0.0001454746467536837
0.0011156099268226935   -0.010995031970597787   -0.00010773279428813292
0.0011545958281807996   -0.008336385301733262   -1.1647868964678617e-05
-0.0004125472994567105   -0.008330448858487069   -5.9789784655232464e-05
-0.0003639511606468443   -0.011027036389219126   -0.0001454746467536837
-0.0004352533346142644   -0.008305640627193049   -5.1440253546960366e-05
0.0011156099268226935   -0.010995031970597787   -0.00010773279428813292
-0.00038142375818668497   -0.011005897482530511   -0.00014358035634106717
-0.0004352533346142644   -0.008305640627193049   -5.1440253546960366e-05
-0.0003639511606468443   -0.011027036389219126   -0.0001454746467536837
0.0011156099268226935   -0.010995031970597787   -0.00010773279428813292
-0.0004352533346142644   -0.008305640627193049   -5.1440253546960366e-05
0.0011249977405716211   -0.008306532287337931   -5.625274823132706e-06
0.0011545958281807996   -0.008336385301733262   -1.1647868964678617e-05
0.0011156099268226935   -0.010995031970597787   -0.00010773279428813292
-0.0004352533346142644   -0.008305640627193049   -5.1440253546960366e-05
0.0011545958281807996   -0.008336385301733262   -1.1647868964678617e-05
-0.0003639511606468443   -0.011027036389219126   -0.0001454746467536837
-0.0003376289717826545   -0.011081999900557978   -0.00014417746815466054
-0.00037502674057865893   -0.008385244164865063   -7.11646997482973e-05
-0.0017481438759663162   -0.011068858912737569   -0.0001956727627027533
-0.00035009028821470346   -0.011052172305774538   -0.0001456519758078906
-0.00037502674057865893   -0.008385244164865063   -7.11646997482973e-05
-0.0018619235159142691   -0.008369282327267994   -0.00011815684485757813
-0.0017481438759663162   -0.011068858912737569   -0.0001956727627027533
-0.0018799806660533083   -0.008345899478626347   -0.00010998316172435184
-0.00035009028821470346   -0.011052172305774538   -0.0001456519758078906
-0.0017623706858462289   -0.01104442518765903   -0.00018998237615024151
-0.0018799806660533083   -0.008345899478626347   -0.00010998316172435184
-0.0017481438759663162   -0.011068858912737569   -0.0001956727627027533
-0.00035009028821470346   -0.011052172305774538   -0.0001456519758078906
-0.0018799806660533083   -0.008345899478626347   -0.00010998316172435184
-0.00039248453654522775   -0.008356856312143775   -6.623847540022389e-05
-0.00037502674057865893   -0.008385244164865063   -7.11646997482973e-05
-0.00035009028821470346   -0.011052172305774538   -0.0001456519758078906
-0.0018799806660533083   -0.008345899478626347   -0.00010998316172435184
-0.00037502674057865893   -0.008385244164865063   -7.11646997482973e-05
-0.0017481438759663162   -0.011068858912737569   -0.0001956727627027533
-0.00035009028821470346   -0.011052172305774538   -0.0001456519758078906
-0.00039248453654522775   -0.008356856312143775   -6.623847540022389e-05
-0.0017623706858462289   -0.01104442518765903   -0.00018998237615024151
-0.0003639511606468443   -0.011027036389219126   -0.0001454746467536837
-0.00039248453654522775   -0.008356856312143775   -6.623847540022389e-05
-0.0018799806660533083   -0.008345899478626347   -0.00010998316172435184
-0.0017623706858462289   -0.01104442518765903   -0.00018998237615024151
-0.001898471649419434   -0.008324045248445303   -0.00010034530842944869
-0.0003639511606468443   -0.011027036389219126   -0.0001454746467536837
-0.0017769019662306565   -0.011023808874327098   -0.00018256429850427826
-0.001898471649419434   -0.008324045248445303   -0.00010034530842944869
-0.0017623706858462289   -0.01104442518765903   -0.00018998237615024151
-0.0003639511606468443   -0.011027036389219126   -0.0001454746467536837
-0.001898471649419434   -0.008324045248445303   -0.00010034530842944869
-0.0004125472994567105   -0.008330448858487069   -5.9789784655232464e-05
-0.00039248453654522775   -0.008356856312143775   -6.623847540022389e-05
-0.0003639511606468443   -0.011027036389219126   -0.0001454746467536837
-0.001898471649419434   -0.008324045248445303   -0.00010034530842944869
-0.00039248453654522775   -0.008356856312143775   -6.623847540022389e-05
-0.0017623706858462289   -0.01104442518765903   -0.00018998237615024151
-0.0003639511606468443   -0.011027036389219126   -0.0001454746467536837
-0.0004125472994567105   -0.008330448858487069   -5.9789784655232464e-05
-0.0017769019662306565   -0.011023808874327098   -0.00018256429850427826
-0.00038142375818668497   -0.011005897482530511   -0.00014358035634106717
-0.0004125472994567105   -0.008330448858487069   -5.9789784655232464e-05
-0.001898471649419434   -0.008324045248445303   -0.00010034530842944869
-0.0017769019662306565   -0.011023808874327098   -0.00018256429850427826
-0.0019181840862322335   -0.008304098897137577   -8.92377615376771e-05
-0.00038142375818668497   -0.011005897482530511   -0.00014358035634106717
-0.0017927066073053488   -0.011007225405640274   -0.00017350760931581608
-0.0019181840862322335   -0.008304098897137577   -8.92377615376771e-05
-0.0017769019662306565   -0.011023808874327098   -0.00018256429850427826
-0.00038142375818668497   -0.011005897482530511   -0.00014358035634106717
-0.0019181840862322335   -0.008304098897137577   -8.92377615376771e-05
-0.0004352533346142644   -0.008305640627193049   -5.1440253546960366e-05
-0.0004125472994567105   -0.008330448858487069   -5.9789784655232464e-05
-0.00038142375818668497   -0.011005897482530511   -0.00014358035634106717
-0.0019181840862322335   -0.008304098897137577   -8.92377615376771e-05
-0.0004125472994567105   -0.008330448858487069   -5.9789784655232464e-05
-0.0017769019662306565   -0.011023808874327098   -0.00018256429850427826
-0.0017481438759663162   -0.011068858912737569   -0.0001956727627027533
-0.0018619235159142691   -0.008369282327267994   -0.00011815684485757813
-0.003134850842928852   -0.011043628985901083   -0.00023867983847947836
-0.0017623706858462289   -0.01104442518765903   -0.00018998237615024151
-0.0018619235159142691   -0.008369282327267994   -0.00011815684485757813
-0.003324128111936792   -0.008349698958879567   -0.00015758320897976534
-0.003134850842928852   -0.011043628985901083   -0.00023867983847947836
-0.003342151639316676   -0.008330901239921015   -0.0001462025729998443
-0.0017623706858462289   -0.01104442518765903   -0.00018998237615024151
-0.003149591493625487   -0.011024115230697242   -0.00022586160915427986
-0.003342151639316676   -0.008330901239921015   -0.0001462025729998443
-0.003134850842928852   -0.011043628985901083   -0.00023867983847947836
-0.0017623706858462289   -0.01104442518765903   -0.00018998237615024151
-0.003342151639316676   -0.008330901239921015   -0.0001462025729998443
-0.0018799806660533083   -0.008345899478626347   -0.00010998316172435184
-0.0018619235159142691   -0.008369282327267994   -0.00011815684485757813
-0.0017623706858462289   -0.01104442518765903   -0.00018998237615024151
-0.003342151639316676   -0.008330901239921015   -0.0001462025729998443
-0.0018619235159142691   -0.008369282327267994   -0.00011815684485757813
-0.003134850842928852   -0.011043628985901083   -0.00023867983847947836
-0.0017623706858462289   -0.01104442518765903   -0.00018998237615024151
-0.0018799806660533083   -0.008345899478626347   -0.00010998316172435184
-0.003149591493625487   -0.011024115230697242   -0.00022586160915427986
-0.0017769019662306565   -0.011023808874327098   -0.00018256429850427826
-0.0018799806660533083   -0.008345899478626347   -0.00010998316172435184
-0.003342151639316676   -0.008330901239921015   -0.0001462025729998443
-0.003149591493625487   -0.011024115230697242   -0.00022586160915427986
-0.0033589814556659464   -0.008313701565698134   -0.00013340720000277087
-0.0017769019662306565   -0.011023808874327098   -0.00018256429850427826
-0.0031629194078128297   -0.011008392139661512   -0.00021135853549997344
-0.0033589814556659464   -0.008313701565698134   -0.00013340720000277087
-0.003149591493625487   -0.011024115230697242   -0.00022586160915427986
-0.0017769019662306565   -0.011023808874327098   -0.00018256429850427826
-0.0033589814556659464   -0.008313701565698134   -0.00013340720000277087
-0.001898471649419434   -0.008324045248445303   -0.00010034530842944869
-0.0018799806660533083   -0.008345899478626347   -0.00010998316172435184
-0.0017769019662306565   -0.011023808874327098   -0.00018256429850427826
-0.0033589814556659464   -0.008313701565698134   -0.00013340720000277087
-0.0018799806660533083   -0.008345899478626347   -0.00010998316172435184
-0.003149591493625487   -0.011024115230697242   -0.00022586160915427986
-0.0017769019662306565   -0.011023808874327098   -0.00018256429850427826
-0.001898471649419434   -0.008324045248445303   -0.00010034530842944869
-0.0031629194078128297   -0.011008392139661512   -0.00021135853549997344
-0.0017927066073053488   -0.011007225405640274   -0.00017350760931581608
-0.001898471649419434   -0.008324045248445303   -0.00010034530842944869
-0.0033589814556659464   -0.008313701565698134   -0.00013340720000277087
-0.0031629194078128297   -0.011008392139661512   -0.00021135853549997344
-0.003375872380682885   -0.008298141295318417   -0.00011926409619953009
-0.0017927066073053488   -0.011007225405640274   -0.00017350760931581608
-0.003176379751807465   -0.010996480288684777   -0.0001952317850024625
-0.003375872380682885   -0.008298141295318417   -0.00011926409619953009
-0.0031629194078128297   -0.011008392139661512   -0.00021135853549997344
-0.0017927066073053488   -0.011007225405640274   -0.00017350760931581608
-0.003375872380682885   -0.008298141295318417   -0.00011926409619953009
-0.0019181840862322335   -0.008304098897137577   -8.92377615376771e-05
-0.001898471649419434   -0.008324045248445303   -0.00010034530842944869
-0.0017927066073053488   -0.011007225405640274   -0.00017350760931581608
-0.003375872380682885   -0.008298141295318417   -0.00011926409619953009
-0.001898471649419434   -0.008324045248445303   -0.00010034530842944869
-0.0031629194078128297   -0.011008392139661512   -0.00021135853549997344
-0.003134850842928852   -0.011043628985901083   -0.00023867983847947836
-0.003324128111936792   -0.008349698958879567   -0.00015758320897976534
-0.004549219126180377   -0.01100578785717927   -0.0002733463591938386
-0.003149591493625487   -0.011024115230697242   -0.00022586160915427986
-0.003324128111936792   -0.008349698958879567   -0.00015758320897976534
-0.004813045411650072   -0.008322937568004122   -0.00018909940964898105
-0.004549219126180377   -0.01100578785717927   -0.0002733463591938386
-0.004830266232803914   -0.00830895734325218   -0.00017455204229431295
-0.003149591493625487   -0.011024115230697242   -0.00022586160915427986
-0.0045628187632904575   -0.010991211685464256   -0.00025334142431803175
-0.004830266232803914   -0.00830895734325218   -0.00017455204229431295
-0.004549219126180377   -0.01100578785717927   -0.0002733463591938386
-0.003149591493625487   -0.011024115230697242   -0.00022586160915427986
-0.004830266232803914   -0.00830895734325218   -0.00017455204229431295
-0.003342151639316676   -0.008330901239921015   -0.0001462025729998443
-0.003324128111936792   -0.008349698958879567   -0.00015758320897976534
-0.003149591493625487   -0.011024115230697242   -0.00022586160915427986
-0.004830266232803914   -0.00830895734325218   -0.00017455204229431295
-0.003324128111936792   -0.008349698958879567   -0.00015758320897976534
-0.004549219126180377   -0.01100578785717927   -0.0002733463591938386
-0.003149591493625487   -0.011024115230697242   -0.00022586160915427986
-0.003342151639316676   -0.008330901239921015   -0.0001462025729998443
-0.0045628187632904575   -0.010991211685464256   -0.00025334142431803175
-0.0031629194078128297   -0.011008392139661512   -0.00021135853549997344
-0.003342151639316676   -0.008330901239921015   -0.0001462025729998443
-0.004830266232803914   -0.00830895734325218   -0.00017455204229431295
-0.0045628187632904575   -0.010991211685464256   -0.00025334142431803175
-0.004843094369456461   -0.008296070036865723   -0.00015880898022249053
-0.0031629194078128297   -0.011008392139661512   -0.00021135853549997344
-0.004570726894232574   -0.01098001201558408   -0.00023187211914706476
-0.004843094369456461   -0.008296070036865723   -0.00015880898022249053
-0.0045628187632904575   -0.010991211685464256   -0.00025334142431803175
-0.0031629194078128297   -0.011008392139661512   -0.00021135853549997344
-0.004843094369456461   -0.008296070036865723   -0.00015880898022249053
-0.0033589814556659464   -0.008313701565698134   -0.00013340720000277087
-0.003342151639316676   -0.008330901239921015   -0.0001462025729998443
-0.0031629194078128297   -0.011008392139661512   -0.00021135853549997344
-0.004843094369456461   -0.008296070036865723   -0.00015880898022249053
-0.003342151639316676   -0.008330901239921015   -0.0001462025729998443
-0.0045628187632904575   -0.010991211685464256   -0.00025334142431803175
-0.0031629194078128297   -0.011008392139661512   -0.00021135853549997344
-0.0033589814556659464   -0.008313701565698134   -0.00013340720000277087
-0.004570726894232574   -0.01098001201558408   -0.00023187211914706476
-0.003176379751807465   -0.010996480288684777   -0.0001952317850024625
-0.0033589814556659464   -0.008313701565698134   -0.00013340720000277087
-0.004843094369456461   -0.008296070036865723   -0.00015880898022249053
-0.004570726894232574   -0.01098001201558408   -0.00023187211914706476
-0.0048558765340237856   -0.00828493117690436   -0.0001415709326677031
-0.003176379751807465   -0.010996480288684777   -0.0001952317850024625
-0.004579584433525709   -0.010972970457733953   -0.00020863897101087636
-0.0048558765340237856   -0.00828493117690436   -0.0001415709326677031
-0.004570726894232574   -0.01098001201558408   -0.00023187211914706476
-0.003176379751807465   -0.010996480288684777   -0.0001952317850024625
-0.0048558765340237856   -0.00828493117690436   -0.0001415709326677031
-0.003375872380682885   -0.008298141295318417   -0.00011926409619953009
-0.0033589814556659464   -0.008313701565698134   -0.00013340720000277087
-0.003176379751807465   -0.010996480288684777   -0.0001952317850024625
-0.0048558765340237856   -0.00828493117690436   -0.0001415709326677031
-0.0033589814556659464   -0.008313701565698134   -0.00013340720000277087
-0.004570726894232574   -0.01098001201558408   -0.00023187211914706476
-0.004549219126180377   -0.01100578785717927   -0.0002733463591938386
-0.004813045411650072   -0.008322937568004122   -0.00018909940964898105
-0.006068769204352149   -0.010958668223049316   -0.0003006100685494223
-0.0045628187632904575   -0.010991211685464256   -0.00025334142431803175
-0.004813045411650072   -0.008322937568004122   -0.00018909940964898105
-0.0063933089859803845   -0.008290822361670972   -0.00021181893446769518
-0.006068769204352149   -0.010958668223049316   -0.0003006100685494223
-0.006394631255409591   -0.008280040340801383   -0.00019533230496017996
-0.0045628187632904575   -0.010991211685464256   -0.00025334142431803175
-0.006056631780547742   -0.010946566465431419   -0.0002736117754628528
-0.006394631255409591   -0.008280040340801383   -0.00019533230496017996
-0.006068769204352149   -0.010958668223049316   -0.0003006100685494223
-0.0045628187632904575   -0.010991211685464256   -0.00025334142431803175
-0.006394631255409591   -0.008280040340801383   -0.00019533230496017996
-0.004830266232803914   -0.00830895734325218   -0.00017455204229431295
-0.004813045411650072   -0.008322937568004122   -0.00018909940964898105
-0.0045628187632904575   -0.010991211685464256   -0.00025334142431803175
-0.006394631255409591   -0.008280040340801383   -0.00019533230496017996
-0.004813045411650072   -0.008322937568004122   -0.00018909940964898105
-0.006068769204352149   -0.010958668223049316   -0.0003006100685494223
-0.0045628187632904575   -0.010991211685464256   -0.00025334142431803175
-0.004830266232803914   -0.00830895734325218   -0.00017455204229431295
-0.006056631780547742   -0.010946566465431419   -0.0002736117754628528
-0.004570726894232574   -0.01098001201558408   -0.00023187211914706476
-0.004830266232803914   -0.00830895734325218   -0.00017455204229431295
-0.006394631255409591   -0.008280040340801383   -0.00019533230496017996
-0.006056631780547742   -0.010946566465431419   -0.0002736117754628528
-0.006396208763032569   -0.008269373727739482   -0.0001764545117541236
-0.004570726894232574   -0.01098001201558408   -0.00023187211914706476
-0.006046717263729471   -0.0109375043997126   -0.00024392525649401004
-0.006396208763032569   -0.008269373727739482   -0.0001764545117541236
-0.006056631780547742   -0.010946566465431419   -0.0002736117754628528
-0.004570726894232574   -0.01098001201558408   -0.00023187211914706476
-0.006396208763032569   -0.008269373727739482   -0.0001764545117541236
-0.004843094369456461   -0.008296070036865723   -0.00015880898022249053
-0.004830266232803914   -0.00830895734325218   -0.00017455204229431295
-0.004570726894232574   -0.01098001201558408   -0.00023187211914706476
-0.006396208763032569   -0.008269373727739482   -0.0001764545117541236
-0.004830266232803914   -0.00830895734325218   -0.00017455204229431295
-0.006056631780547742   -0.010946566465431419   -0.0002736117754628528
-0.004570726894232574   -0.01098001201558408   -0.00023187211914706476
-0.004843094369456461   -0.008296070036865723   -0.00015880898022249053
-0.006046717263729471   -0.0109375043997126   -0.00024392525649401004
-0.004579584433525709   -0.010972970457733953   -0.00020863897101087636
-0.004843094369456461   -0.008296070036865723   -0.00015880898022249053
-0.006396208763032569   -0.008269373727739482   -0.0001764545117541236
-0.006046717263729471   -0.0109375043997126   -0.00024392525649401004
-0.006388543932796599   -0.008263453801035752   -0.000155459939501513
-0.004579584433525709   -0.010972970457733953   -0.00020863897101087636
-0.006024559957231822   -0.010936391163365916   -0.00021185497556648882
-0.006388543932796599   -0.008263453801035752   -0.000155459939501513
-0.006046717263729471   -0.0109375043997126   -0.00024392525649401004
-0.004579584433525709   -0.010972970457733953   -0.00020863897101087636
-0.006388543932796599   -0.008263453801035752   -0.000155459939501513
-0.0048558765340237856   -0.00828493117690436   -0.0001415709326677031
-0.004843094369456461   -0.008296070036865723   -0.00015880898022249053
-0.004579584433525709   -0.010972970457733953   -0.00020863897101087636
-0.006388543932796599   -0.008263453801035752   -0.000155459939501513
-0.004843094369456461   -0.008296070036865723   -0.00015880898022249053
-0.006046717263729471   -0.0109375043997126   -0.00024392525649401004
0.0011944489268974642   -0.008398110800986871   -1.4680411740917516e-05
0.001081258410598133   -0.005621493173535107   3.1124467467571944e-05
-0.00037502674057865893   -0.008385244164865063   -7.11646997482973e-05
0.0011768977527855517   -0.00836520523566988   -1.4711190417944698e-05
0.001081258410598133   -0.005621493173535107   3.1124467467571944e-05
-0.0005073954934753335   -0.005596253350365083   -1.2776515673406009e-05
-0.00037502674057865893   -0.008385244164865063   -7.11646997482973e-05
-0.0005286892892794038   -0.005570808274467946   -1.8354192728950543e-06
0.0011768977527855517   -0.00836520523566988   -1.4711190417944698e-05
-0.00039248453654522775   -0.008356856312143775   -6.623847540022389e-05
-0.0005286892892794038   -0.005570808274467946   -1.8354192728950543e-06
-0.00037502674057865893   -0.008385244164865063   -7.11646997482973e-05
0.0011768977527855517   -0.00836520523566988   -1.4711190417944698e-05
-0.0005286892892794038   -0.005570808274467946   -1.8354192728950543e-06
0.0010484131410367697   -0.005590340366163819   4.415013531492827e-05
0.001081258410598133   -0.005621493173535107   3.1124467467571944e-05
0.0011768977527855517   -0.00836520523566988   -1.4711190417944698e-05
-0.0005286892892794038   -0.005570808274467946   -1.8354192728950543e-06
0.001081258410598133   -0.005621493173535107   3.1124467467571944e-05
-0.00037502674057865893   -0.008385244164865063   -7.11646997482973e-05
0.0011768977527855517   -0.00836520523566988   -1.4711190417944698e-05
0.0010484131410367697   -0.005590340366163819   4.415013531492827e-05
-0.00039248453654522775   -0.008356856312143775   -6.623847540022389e-05
0.0011545958281807996   -0.008336385301733262   -1.1647868964678617e-05
0.0010484131410367697   -0.005590340366163819   4.415013531492827e-05
-0.0005286892892794038   -0.005570808274467946   -1.8354192728950543e-06
-0.00039248453654522775   -0.008356856312143775   -6.623847540022389e-05
-0.0005537142081794054   -0.005544103033356957   1.1143431470265605e-05
0.0011545958281807996   -0.008336385301733262   -1.1647868964678617e-05
-0.0004125472994567105   -0.008330448858487069   -5.9789784655232464e-05
-0.0005537142081794054   -0.005544103033356957   1.1143431470265605e-05
-0.00039248453654522775   -0.008356856312143775   -6.623847540022389e-05
0.0011545958281807996   -0.008336385301733262   -1.1647868964678617e-05
-0.0005537142081794054   -0.005544103033356957   1.1143431470265605e-05
0.0010111365976544812   -0.0055597632148028904   6.339556514786632e-05
0.0010484131410367697   -0.005590340366163819   4.415013531492827e-05
0.0011545958281807996   -0.008336385301733262   -1.1647868964678617e-05
-0.0005537142081794054   -0.005544103033356957   1.1143431470265605e-05
0.0010484131410367697   -0.005590340366163819   4.415013531492827e-05
-0.00039248453654522775   -0.008356856312143775   -6.623847540022389e-05
0.0011545958281807996   -0.008336385301733262   -1.1647868964678617e-05
0.0010111365976544812   -0.0055597632148028904   6.339556514786632e-05
-0.0004125472994567105   -0.008330448858487069   -5.9789784655232464e-05
0.0011249977405716211   -0.008306532287337931   -5.625274823132706e-06
0.0010111365976544812   -0.0055597632148028904   6.339556514786632e-05
-0.0005537142081794054   -0.005544103033356957   1.1143431470265605e-05
-0.0004125472994567105   -0.008330448858487069   -5.9789784655232464e-05
-0.0005797351095891227   -0.005515883151921695   2.615119216424884e-05
0.0011249977405716211   -0.008306532287337931   -5.625274823132706e-06
-0.0004352533346142644   -0.008305640627193049   -5.1440253546960366e-05
-0.0005797351095891227   -0.005515883151921695   2.615119216424884e-05
-0.0004125472994567105   -0.008330448858487069   -5.9789784655232464e-05
0.0011249977405716211   -0.008306532287337931   -5.625274823132706e-06
-0.0005797351095891227   -0.005515883151921695   2.615119216424884e-05
0.0009655316413690845   -0.005522060861308746   8.466577606960683e-05
0.0010111365976544812   -0.0055597632148028904   6.339556514786632e-05
0.0011249977405716211   -0.008306532287337931   -5.625274823132706e-06
-0.0005797351095891227   -0.005515883151921695   2.615119216424884e-05
0.0010111365976544812   -0.0055597632148028904   6.339556514786632e-05
-0.0004125472994567105   -0.008330448858487069   -5.9789784655232464e-05
-0.00037502674057865893   -0.008385244164865063   -7.11646997482973e-05
-0.0005073954934753335   -0.005596253350365083   -1.2776515673406009e-05
-0.0018619235159142691   -0.008369282327267994   -0.00011815684485757813
-0.00039248453654522775   -0.008356856312143775   -6.623847540022389e-05
-0.0005073954934753335   -0.005596253350365083   -1.2776515673406009e-05
-0.0020013496931767264   -0.005589672539530721   -5.465703016046306e-05
-0.0018619235159142691   -0.008369282327267994   -0.00011815684485757813
-0.0020208245956978618   -0.005567796441810456   -4.4189371704450395e-05
-0.00039248453654522775   -0.008356856312143775   -6.623847540022389e-05
-0.0018799806660533083   -0.008345899478626347   -0.00010998316172435184
-0.0020208245956978618   -0.005567796441810456   -4.4189371704450395e-05
-0.0018619235159142691   -0.008369282327267994   -0.00011815684485757813
-0.00039248453654522775   -0.008356856312143775   -6.623847540022389e-05
-0.0020208245956978618   -0.005567796441810456   -4.4189371704450395e-05
-0.0005286892892794038   -0.005570808274467946   -1.8354192728950543e-06
-0.0005073954934753335   -0.005596253350365083   -1.2776515673406009e-05
-0.00039248453654522775   -0.008356856312143775   -6.623847540022389e-05
-0.0020208245956978618   -0.005567796441810456   -4.4189371704450395e-05
-0.0005073954934753335   -0.005596253350365083   -1.2776515673406009e-05
-0.0018619235159142691   -0.008369282327267994   -0.00011815684485757813
-0.00039248453654522775   -0.008356856312143775   -6.623847540022389e-05
-0.0005286892892794038   -0.005570808274467946   -1.8354192728950543e-06
-0.0018799806660533083   -0.008345899478626347   -0.00010998316172435184
-0.0004125472994567105   -0.008330448858487069   -5.9789784655232464e-05
-0.0005286892892794038   -0.005570808274467946   -1.8354192728950543e-06
-0.0020208245956978618   -0.005567796441810456   -4.4189371704450395e-05
-0.0018799806660533083   -0.008345899478626347   -0.00010998316172435184
-0.002041027004660022   -0.00554509945208246   -3.262822138821532e-05
-0.0004125472994567105   -0.008330448858487069   -5.9789784655232464e-05
-0.001898471649419434   -0.008324045248445303   -0.00010034530842944869
-0.002041027004660022   -0.00554509945208246   -3.262822138821532e-05
-0.0018799806660533083   -0.008345899478626347   -0.00010998316172435184
-0.0004125472994567105   -0.008330448858487069   -5.9789784655232464e-05
-0.002041027004660022   -0.00554509945208246   -3.262822138821532e-05
-0.0005537142081794054   -0.005544103033356957   1.1143431470265605e-05
-0.0005286892892794038   -0.005570808274467946   -1.8354192728950543e-06
-0.0004125472994567105   -0.008330448858487069   -5.9789784655232464e-05
-0.002041027004660022   -0.00554509945208246   -3.262822138821532e-05
-0.0005286892892794038   -0.005570808274467946   -1.8354192728950543e-06
-0.0018799806660533083   -0.008345899478626347   -0.00010998316172435184
-0.0004125472994567105   -0.008330448858487069   -5.9789784655232464e-05
-0.0005537142081794054   -0.005544103033356957   1.1143431470265605e-05
-0.001898471649419434   -0.008324045248445303   -0.00010034530842944869
-0.0004352533346142644   -0.008305640627193049   -5.1440253546960366e-05
-0.0005537142081794054   -0.005544103033356957   1.1143431470265605e-05
-0.002041027004660022   -0.00554509945208246   -3.262822138821532e-05
-0.001898471649419434   -0.008324045248445303   -0.00010034530842944869
-0.002062116135489678   -0.005522066620328098   -1.9767636007652237e-05
-0.0004352533346142644   -0.008305640627193049   -5.1440253546960366e-05
-0.0019181840862322335   -0.008304098897137577   -8.92377615376771e-05
-0.002062116135489678   -0.005522066620328098   -1.9767636007652237e-05
-0.001898471649419434   -0.008324045248445303   -0.00010034530842944869
-0.0004352533346142644   -0.008305640627193049   -5.1440253546960366e-05
-0.002062116135489678   -0.005522066620328098   -1.9767636007652237e-05
-0.0005797351095891227   -0.005515883151921695   2.615119216424884e-05
-0.0005537142081794054   -0.005544103033356957   1.1143431470265605e-05
-0.0004352533346142644   -0.008305640627193049   -5.1440253546960366e-05
-0.002062116135489678   -0.005522066620328098   -1.9767636007652237e-05
-0.0005537142081794054   -0.005544103033356957   1.1143431470265605e-05
-0.001898471649419434   -0.008324045248445303   -0.00010034530842944869
-0.0018619235159142691   -0.008369282327267994   -0.00011815684485757813
-0.0020013496931767264   -0.005589672539530721   -5.465703016046306e-05
-0.003324128111936792   -0.008349698958879567   -0.00015758320897976534
-0.0018799806660533083   -0.008345899478626347   -0.00010998316172435184
-0.0020013496931767264   -0.005589672539530721   -5.465703016046306e-05
-0.003478516157001511   -0.005587773579227944   -9.224141834653558e-05
-0.003324128111936792   -0.008349698958879567   -0.00015758320897976534
-0.0034972454854787145   -0.005568831582813937   -8.200928996590734e-05
-0.0018799806660533083   -0.008345899478626347   -0.00010998316172435184
-0.003342151639316676   -0.008330901239921015   -0.0001462025729998443
-0.0034972454854787145   -0.005568831582813937   -8.200928996590734e-05
-0.003324128111936792   -0.008349698958879567   -0.00015758320897976534
-0.0018799806660533083   -0.008345899478626347   -0.00010998316172435184
-0.0034972454854787145   -0.005568831582813937   -8.200928996590734e-05
-0.0020208245956978618   -0.005567796441810456   -4.4189371704450395e-05
-0.0020013496931767264   -0.005589672539530721   -5.465703016046306e-05
-0.0018799806660533083   -0.008345899478626347   -0.00010998316172435184
-0.0034972454854787145   -0.005568831582813937   -8.200928996590734e-05
-0.0020013496931767264   -0.005589672539530721   -5.465703016046306e-05
-0.003324128111936792   -0.008349698958879567   -0.00015758320897976534
-0.0018799806660533083   -0.008345899478626347   -0.00010998316172435184
-0.0020208245956978618   -0.005567796441810456   -4.4189371704450395e-05
-0.003342151639316676   -0.008330901239921015   -0.0001462025729998443
-0.001898471649419434   -0.008324045248445303   -0.00010034530842944869
-0.0020208245956978618   -0.005567796441810456   -4.4189371704450395e-05
-0.0034972454854787145   -0.005568831582813937   -8.200928996590734e-05
-0.003342151639316676   -0.008330901239921015   -0.0001462025729998443
-0.0035150937126986886   -0.005549641997568276   -7.081171952411551e-05
-0.001898471649419434   -0.008324045248445303   -0.00010034530842944869
-0.0033589814556659464   -0.008313701565698134   -0.00013340720000277087
-0.0035150937126986886   -0.005549641997568276   -7.081171952411551e-05
-0.003342151639316676   -0.008330901239921015   -0.0001462025729998443
-0.001898471649419434   -0.008324045248445303   -0.00010034530842944869
-0.0035150937126986886   -0.005549641997568276   -7.081171952411551e-05
-0.002041027004660022   -0.00554509945208246   -3.262822138821532e-05
-0.0020208245956978618   -0.005567796441810456   -4.4189371704450395e-05
-0.001898471649419434   -0.008324045248445303   -0.00010034530842944869
-0.0035150937126986886   -0.005549641997568276   -7.081171952411551e-05
-0.0020208245956978618   -0.005567796441810456   -4.4189371704450395e-05
-0.003342151639316676   -0.008330901239921015   -0.0001462025729998443
-0.001898471649419434   -0.008324045248445303   -0.00010034530842944869
-0.002041027004660022   -0.00554509945208246   -3.262822138821532e-05
-0.0033589814556659464   -0.008313701565698134   -0.00013340720000277087
-0.0019181840862322335   -0.008304098897137577   -8.92377615376771e-05
-0.002041027004660022   -0.00554509945208246   -3.262822138821532e-05
-0.0035150937126986886   -0.005549641997568276   -7.081171952411551e-05
-0.0033589814556659464   -0.008313701565698134   -0.00013340720000277087
-0.0035327685696130394   -0.005530080563480796   -5.869477021302985e-05
-0.0019181840862322335   -0.008304098897137577   -8.92377615376771e-05
-0.003375872380682885   -0.008298141295318417   -0.00011926409619953009
-0.0035327685696130394   -0.005530080563480796   -5.869477021302985e-05
-0.0033589814556659464   -0.008313701565698134   -0.00013340720000277087
-0.0019181840862322335   -0.008304098897137577   -8.92377615376771e-05
-0.0035327685696130394   -0.005530080563480796   -5.869477021302985e-05
-0.002062116135489678   -0.005522066620328098   -1.9767636007652237e-05
-0.002041027004660022   -0.00554509945208246   -3.262822138821532e-05
-0.0019181840862322335   -0.008304098897137577   -8.92377615376771e-05
-0.0035327685696130394   -0.005530080563480796   -5.869477021302985e-05
-0.002041027004660022   -0.00554509945208246   -3.262822138821532e-05
-0.0033589814556659464   -0.008313701565698134   -0.00013340720000277087
-0.003324128111936792   -0.008349698958879567   -0.00015758320897976534
-0.003478516157001511   -0.005587773579227944   -9.224141834653558e-05
-0.004813045411650072   -0.008322937568004122   -0.00018909940964898105
-0.003342151639316676   -0.008330901239921015   -0.0001462025729998443
-0.003478516157001511   -0.005587773579227944   -9.224141834653558e-05
-0.0049871929718983635   -0.005578847396118757   -0.00012327136716767164
-0.004813045411650072   -0.008322937568004122   -0.00018909940964898105
-0.00500504405053465   -0.005563798540758704   -0.0001133575902244418
-0.003342151639316676   -0.008330901239921015   -0.0001462025729998443
-0.004830266232803914   -0.00830895734325218   -0.00017455204229431295
-0.00500504405053465   -0.005563798540758704   -0.0001133575902244418
-0.004813045411650072   -0.008322937568004122   -0.00018909940964898105
-0.003342151639316676   -0.008330901239921015   -0.0001462025729998443
-0.00500504405053465   -0.005563798540758704   -0.0001133575902244418
-0.0034972454854787145   -0.005568831582813937   -8.200928996590734e-05
-0.003478516157001511   -0.005587773579227944   -9.224141834653558e-05
-0.003342151639316676   -0.008330901239921015   -0.0001462025729998443
-0.00500504405053465   -0.005563798540758704   -0.0001133575902244418
-0.003478516157001511   -0.005587773579227944   -9.224141834653558e-05
-0.004813045411650072   -0.008322937568004122   -0.00018909940964898105
-0.003342151639316676   -0.008330901239921015   -0.0001462025729998443
-0.0034972454854787145   -0.005568831582813937   -8.200928996590734e-05
-0.004830266232803914   -0.00830895734325218   -0.00017455204229431295
-0.0033589814556659464   -0.008313701565698134   -0.00013340720000277087
-0.0034972454854787145   -0.005568831582813937   -8.200928996590734e-05
-0.00500504405053465   -0.005563798540758704   -0.0001133575902244418
-0.004830266232803914   -0.00830895734325218   -0.00017455204229431295
-0.00502004664692406   -0.005547957966349174   -0.00010273117494842122
-0.0033589814556659464   -0.008313701565698134   -0.00013340720000277087
-0.004843094369456461   -0.008296070036865723   -0.00015880898022249053
-0.00502004664692406   -0.005547957966349174   -0.00010273117494842122
-0.004830266232803914   -0.00830895734325218   -0.00017455204229431295
-0.0033589814556659464   -0.008313701565698134   -0.00013340720000277087
-0.00502004664692406   -0.005547957966349174   -0.00010273117494842122
-0.0035150937126986886   -0.005549641997568276   -7.081171952411551e-05
-0.0034972454854787145   -0.005568831582813937   -8.200928996590734e-05
-0.0033589814556659464   -0.008313701565698134   -0.00013340720000277087
-0.00502004664692406   -0.005547957966349174   -0.00010273117494842122
-0.0034972454854787145   -0.005568831582813937   -8.200928996590734e-05
-0.004830266232803914   -0.00830895734325218   -0.00017455204229431295
-0.0033589814556659464   -0.008313701565698134   -0.00013340720000277087
-0.0035150937126986886   -0.005549641997568276   -7.081171952411551e-05
-0.004843094369456461   -0.008296070036865723   -0.00015880898022249053
-0.003375872380682885   -0.008298141295318417   -0.00011926409619953009
-0.0035150937126986886   -0.005549641997568276   -7.081171952411551e-05
-0.00502004664692406   -0.005547957966349174   -0.00010273117494842122
-0.004843094369456461   -0.008296070036865723   -0.00015880898022249053
-0.005034219282742198   -0.005531782633333311   -9.110750711844765e-05
-0.003375872380682885   -0.008298141295318417   -0.00011926409619953009
-0.0048558765340237856   -0.00828493117690436   -0.0001415709326677031
-0.005034219282742198   -0.005531782633333311   -9.110750711844765e-05
-0.004843094369456461   -0.008296070036865723   -0.00015880898022249053
-0.003375872380682885   -0.008298141295318417   -0.00011926409619953009
-0.005034219282742198   -0.005531782633333311   -9.110750711844765e-05
-0.0035327685696130394   -0.005530080563480796   -5.869477021302985e-05
-0.0035150937126986886   -0.005549641997568276   -7.081171952411551e-05
-0.003375872380682885   -0.008298141295318417   -0.00011926409619953009
-0.005034219282742198   -0.005531782633333311   -9.110750711844765e-05
-0.0035150937126986886   -0.005549641997568276   -7.081171952411551e-05
-0.004843094369456461   -0.008296070036865723   -0.00015880898022249053
-0.004813045411650072   -0.008322937568004122   -0.00018909940964898105
-0.0049871929718983635   -0.005578847396118757   -0.00012327136716767164
-0.0063933089859803845   -0.008290822361670972   -0.00021181893446769518
-0.004830266232803914   -0.00830895734325218   -0.00017455204229431295
-0.0049871929718983635   -0.005578847396118757   -0.00012327136716767164
-0.006570168073922141   -0.005563789256521556   -0.00014535461300605463
-0.0063933089859803845   -0.008290822361670972   -0.00021181893446769518
-0.006580608890008797   -0.005551539407720141   -0.00013752608529477115
-0.004830266232803914   -0.00830895734325218   -0.00017455204229431295
-0.006394631255409591   -0.008280040340801383   -0.00019533230496017996
-0.006580608890008797   -0.005551539407720141   -0.00013752608529477115
-0.0063933089859803845   -0.008290822361670972   -0.00021181893446769518
-0.004830266232803914   -0.00830895734325218   -0.00017455204229431295
-0.006580608890008797   -0.005551539407720141   -0.00013752608529477115
-0.00500504405053465   -0.005563798540758704   -0.0001133575902244418
-0.0049871929718983635   -0.005578847396118757   -0.00012327136716767164
-0.004830266232803914   -0.00830895734325218   -0.00017455204229431295
-0.006580608890008797   -0.005551539407720141   -0.00013752608529477115
-0.0049871929718983635   -0.005578847396118757   -0.00012327136716767164
-0.0063933089859803845   -0.008290822361670972   -0.00021181893446769518
-0.004830266232803914   -0.00830895734325218   -0.00017455204229431295
-0.00500504405053465   -0.005563798540758704   -0.0001133575902244418
-0.006394631255409591   -0.008280040340801383   -0.00019533230496017996
-0.004843094369456461   -0.008296070036865723   -0.00015880898022249053
-0.00500504405053465   -0.005563798540758704   -0.0001133575902244418
-0.006580608890008797   -0.005551539407720141   -0.00013752608529477115
-0.006394631255409591   -0.008280040340801383   -0.00019533230496017996
-0.00659015624994844   -0.005537518003742276   -0.00012800450000249107
-0.004843094369456461   -0.008296070036865723   -0.00015880898022249053
-0.006396208763032569   -0.008269373727739482   -0.0001764545117541236
-0.00659015624994844   -0.005537518003742276   -0.00012800450000249107
-0.006394631255409591   -0.008280040340801383   -0.00019533230496017996
-0.004843094369456461   -0.008296070036865723   -0.00015880898022249053
-0.00659015624994844   -0.005537518003742276   -0.00012800450000249107
-0.00502004664692406   -0.005547957966349174   -0.00010273117494842122
-0.00500504405053465   -0.005563798540758704   -0.0001133575902244418
-0.004843094369456461   -0.008296070036865723   -0.00015880898022249053
-0.00659015624994844   -0.005537518003742276   -0.00012800450000249107
-0.00500504405053465   -0.005563798540758704   -0.0001133575902244418
-0.006394631255409591   -0.008280040340801383   -0.00019533230496017996
-0.004843094369456461   -0.008296070036865723   -0.00015880898022249053
-0.00502004664692406   -0.005547957966349174   -0.00010273117494842122
-0.006396208763032569   -0.008269373727739482   -0.0001764545117541236
-0.0048558765340237856   -0.00828493117690436   -0.0001415709326677031
-0.00502004664692406   -0.005547957966349174   -0.00010273117494842122
-0.00659015624994844   -0.005537518003742276   -0.00012800450000249107
-0.006396208763032569   -0.008269373727739482   -0.0001764545117541236
-0.006594049722412656   -0.005525129432487708   -0.00011718233661368865
-0.0048558765340237856   -0.00828493117690436   -0.0001415709326677031
-0.006388543932796599   -0.008263453801035752   -0.000155459939501513
-0.006594049722412656   -0.005525129432487708   -0.00011718233661368865
-0.006396208763032569   -0.008269373727739482   -0.0001764545117541236
-0.0048558765340237856   -0.00828493117690436   -0.0001415709326677031
-0.006594049722412656   -0.005525129432487708   -0.00011718233661368865
-0.005034219282742198   -0.005531782633333311   -9.110750711844765e-05
-0.00502004664692406   -0.005547957966349174   -0.00010273117494842122
-0.0048558765340237856   -0.00828493117690436   -0.0001415709326677031
-0.006594049722412656   -0.005525129432487708   -0.00011718233661368865
-0.00502004664692406   -0.005547957966349174   -0.00010273117494842122
-0.006396208763032569   -0.008269373727739482   -0.0001764545117541236
0.001081258410598133   -0.005621493173535107   3.1124467467571944e-05
0.0007643583846279423   -0.00283607662649141   3.4239234442086663e-05
-0.0005073954934753335   -0.005596253350365083   -1.2776515673406009e-05
0.0010484131410367697   -0.005590340366163819   4.415013531492827e-05
0.0007643583846279423   -0.00283607662649141   3.4239234442086663e-05
-0.000725295535151078   -0.0028014187494104165   2.0891321273606657e-05
-0.0005073954934753335   -0.005596253350365083   -1.2776515673406009e-05
-0.000746759919850066   -0.0027896347797660196   3.6527077369900225e-05
0.0010484131410367697   -0.005590340366163819   4.415013531492827e-05
-0.0005286892892794038   -0.005570808274467946   -1.8354192728950543e-06
-0.000746759919850066   -0.0027896347797660196   3.6527077369900225e-05
-0.0005073954934753335   -0.005596253350365083   -1.2776515673406009e-05
0.0010484131410367697   -0.005590340366163819   4.415013531492827e-05
-0.000746759919850066   -0.0027896347797660196   3.6527077369900225e-05
0.0006971377667759028   -0.0028024978245906216   7.25249605941678e-05
0.0007643583846279423   -0.00283607662649141   3.4239234442086663e-05
0.0010484131410367697   -0.005590340366163819   4.415013531492827e-05
-0.000746759919850066   -0.0027896347797660196   3.6527077369900225e-05
0.0007643583846279423   -0.00283607662649141   3.4239234442086663e-05
-0.0005073954934753335   -0.005596253350365083   -1.2776515673406009e-05
0.0010484131410367697   -0.005590340366163819   4.415013531492827e-05
0.0006971377667759028   -0.0028024978245906216   7.25249605941678e-05
-0.0005286892892794038   -0.005570808274467946   -1.8354192728950543e-06
0.0010111365976544812   -0.0055597632148028904   6.339556514786632e-05
0.0006971377667759028   -0.0028024978245906216   7.25249605941678e-05
-0.000746759919850066   -0.0027896347797660196   3.6527077369900225e-05
-0.0005286892892794038   -0.005570808274467946   -1.8354192728950543e-06
-0.0007754569600394595   -0.002766998855947229   5.5653722000858335e-05
0.0010111365976544812   -0.0055597632148028904   6.339556514786632e-05
-0.0005537142081794054   -0.005544103033356957   1.1143431470265605e-05
-0.0007754569600394595   -0.002766998855947229   5.5653722000858335e-05
-0.0005286892892794038   -0.005570808274467946   -1.8354192728950543e-06
0.0010111365976544812   -0.0055597632148028904   6.339556514786632e-05
-0.0007754569600394595   -0.002766998855947229   5.5653722000858335e-05
0.000657992589488542   -0.002775811261874454   0.00010082471550720022
0.0006971377667759028   -0.0028024978245906216   7.25249605941678e-05
0.0010111365976544812   -0.0055597632148028904   6.339556514786632e-05
-0.0007754569600394595   -0.002766998855947229   5.5653722000858335e-05
0.0006971377667759028   -0.0028024978245906216   7.25249605941678e-05
-0.0005286892892794038   -0.005570808274467946   -1.8354192728950543e-06
0.0010111365976544812   -0.0055597632148028904   6.339556514786632e-05
0.000657992589488542   -0.002775811261874454   0.00010082471550720022
-0.0005537142081794054   -0.005544103033356957   1.1143431470265605e-05
0.0009655316413690845   -0.005522060861308746   8.466577606960683e-05
0.000657992589488542   -0.002775811261874454   0.00010082471550720022
-0.0007754569600394595   -0.002766998855947229   5.5653722000858335e-05
-0.0005537142081794054   -0.005544103033356957   1.1143431470265605e-05
-0.0007997978519439963   -0.0027429565929939365   7.246123568172289e-05
0.0009655316413690845   -0.005522060861308746   8.466577606960683e-05
-0.0005797351095891227   -0.005515883151921695   2.615119216424884e-05
-0.0007997978519439963   -0.0027429565929939365   7.246123568172289e-05
-0.0005537142081794054   -0.005544103033356957   1.1143431470265605e-05
0.0009655316413690845   -0.005522060861308746   8.466577606960683e-05
-0.0007997978519439963   -0.0027429565929939365   7.246123568172289e-05
0.0006074750038485111   -0.0027342962225822037   0.00013335645387921416
0.000657992589488542   -0.002775811261874454   0.00010082471550720022
0.0009655316413690845   -0.005522060861308746   8.466577606960683e-05
-0.0007997978519439963   -0.0027429565929939365   7.246123568172289e-05
0.000657992589488542   -0.002775811261874454   0.00010082471550720022
-0.0005537142081794054   -0.005544103033356957   1.1143431470265605e-05
-0.0005073954934753335   -0.005596253350365083   -1.2776515673406009e-05
-0.000725295535151078   -0.0028014187494104165   2.0891321273606657e-05
-0.0020013496931767264   -0.005589672539530721   -5.465703016046306e-05
-0.0005286892892794038   -0.005570808274467946   -1.8354192728950543e-06
-0.000725295535151078   -0.0028014187494104165   2.0891321273606657e-05
-0.0021369524634386344   -0.002844340434340688   -1.1319275933437345e-05
-0.0020013496931767264   -0.005589672539530721   -5.465703016046306e-05
-0.00215714885465774   -0.0028251588429007873   -6.755141199928579e-08
-0.0005286892892794038   -0.005570808274467946   -1.8354192728950543e-06
-0.0020208245956978618   -0.005567796441810456   -4.4189371704450395e-05
-0.00215714885465774   -0.0028251588429007873   -6.755141199928579e-08
-0.0020013496931767264   -0.005589672539530721   -5.465703016046306e-05
-0.0005286892892794038   -0.005570808274467946   -1.8354192728950543e-06
-0.00215714885465774   -0.0028251588429007873   -6.755141199928579e-08
-0.000746759919850066   -0.0027896347797660196   3.6527077369900225e-05
-0.000725295535151078   -0.0028014187494104165   2.0891321273606657e-05
-0.0005286892892794038   -0.005570808274467946   -1.8354192728950543e-06
-0.00215714885465774   -0.0028251588429007873   -6.755141199928579e-08
-0.000725295535151078   -0.0028014187494104165   2.0891321273606657e-05
-0.0020013496931767264   -0.005589672539530721   -5.465703016046306e-05
-0.0005286892892794038   -0.005570808274467946   -1.8354192728950543e-06
-0.000746759919850066   -0.0027896347797660196   3.6527077369900225e-05
-0.0020208245956978618   -0.005567796441810456   -4.4189371704450395e-05
-0.0005537142081794054   -0.005544103033356957   1.1143431470265605e-05
-0.000746759919850066   -0.0027896347797660196   3.6527077369900225e-05
-0.00215714885465774   -0.0028251588429007873   -6.755141199928579e-08
-0.0020208245956978618   -0.005567796441810456   -4.4189371704450395e-05
-0.002178523438476683   -0.0028032015194881963   1.1958254042165601e-05
-0.0005537142081794054   -0.005544103033356957   1.1143431470265605e-05
-0.002041027004660022   -0.00554509945208246   -3.262822138821532e-05
-0.002178523438476683   -0.0028032015194881963   1.1958254042165601e-05
-0.0020208245956978618   -0.005567796441810456   -4.4189371704450395e-05
-0.0005537142081794054   -0.005544103033356957   1.1143431470265605e-05
-0.002178523438476683   -0.0028032015194881963   1.1958254042165601e-05
-0.0007754569600394595   -0.002766998855947229   5.5653722000858335e-05
-0.000746759919850066   -0.0027896347797660196   3.6527077369900225e-05
-0.0005537142081794054   -0.005544103033356957   1.1143431470265605e-05
-0.002178523438476683   -0.0028032015194881963   1.1958254042165601e-05
-0.000746759919850066   -0.0027896347797660196   3.6527077369900225e-05
-0.0020208245956978618   -0.005567796441810456   -4.4189371704450395e-05
-0.0005537142081794054   -0.005544103033356957   1.1143431470265605e-05
-0.0007754569600394595   -0.002766998855947229   5.5653722000858335e-05
-0.002041027004660022   -0.00554509945208246   -3.262822138821532e-05
-0.0005797351095891227   -0.005515883151921695   2.615119216424884e-05
-0.0007754569600394595   -0.002766998855947229   5.5653722000858335e-05
-0.002178523438476683   -0.0028032015194881963   1.1958254042165601e-05
-0.002041027004660022   -0.00554509945208246   -3.262822138821532e-05
-0.002199034278628004   -0.002779132764820984   2.5290990681139974e-05
-0.0005797351095891227   -0.005515883151921695   2.615119216424884e-05
-0.002062116135489678   -0.005522066620328098   -1.9767636007652237e-05
-0.002199034278628004   -0.002779132764820984   2.5290990681139974e-05
-0.002041027004660022   -0.00554509945208246   -3.262822138821532e-05
-0.0005797351095891227   -0.005515883151921695   2.615119216424884e-05
-0.002199034278628004   -0.002779132764820984   2.5290990681139974e-05
-0.0007997978519439963   -0.0027429565929939365   7.246123568172289e-05
-0.0007754569600394595   -0.002766998855947229   5.5653722000858335e-05
-0.0005797351095891227   -0.005515883151921695   2.615119216424884e-05
-0.002199034278628004   -0.002779132764820984   2.5290990681139974e-05
-0.0007754569600394595   -0.002766998855947229   5.5653722000858335e-05
-0.002041027004660022   -0.00554509945208246   -3.262822138821532e-05
-0.0020013496931767264   -0.005589672539530721   -5.465703016046306e-05
-0.0021369524634386344   -0.002844340434340688   -1.1319275933437345e-05
-0.003478516157001511   -0.005587773579227944   -9.224141834653558e-05
-0.0020208245956978618   -0.005567796441810456   -4.4189371704450395e-05
-0.0021369524634386344   -0.002844340434340688   -1.1319275933437345e-05
-0.003580566962781018   -0.0028779122440612936   -4.7771403265913725e-05
-0.003478516157001511   -0.005587773579227944   -9.224141834653558e-05
-0.0035988959786486746   -0.0028581320354588782   -3.890711238715408e-05
-0.0020208245956978618   -0.005567796441810456   -4.4189371704450395e-05
-0.0034972454854787145   -0.005568831582813937   -8.200928996590734e-05
-0.0035988959786486746   -0.0028581320354588782   -3.890711238715408e-05
-0.003478516157001511   -0.005587773579227944   -9.224141834653558e-05
-0.0020208245956978618   -0.005567796441810456   -4.4189371704450395e-05
-0.0035988959786486746   -0.0028581320354588782   -3.890711238715408e-05
-0.00215714885465774   -0.0028251588429007873   -6.755141199928579e-08
-0.0021369524634386344   -0.002844340434340688   -1.1319275933437345e-05
-0.0020208245956978618   -0.005567796441810456   -4.4189371704450395e-05
-0.0035988959786486746   -0.0028581320354588782   -3.890711238715408e-05
-0.0021369524634386344   -0.002844340434340688   -1.1319275933437345e-05
-0.003478516157001511   -0.005587773579227944   -9.224141834653558e-05
-0.0020208245956978618   -0.005567796441810456   -4.4189371704450395e-05
-0.00215714885465774   -0.0028251588429007873   -6.755141199928579e-08
-0.0034972454854787145   -0.005568831582813937   -8.200928996590734e-05
-0.002041027004660022   -0.00554509945208246   -3.262822138821532e-05
-0.00215714885465774   -0.0028251588429007873   -6.755141199928579e-08
-0.0035988959786486746   -0.0028581320354588782   -3.890711238715408e-05
-0.0034972454854787145   -0.005568831582813937   -8.200928996590734e-05
-0.0036165732005260876   -0.0028371081872866346   -2.9987223973531974e-05
-0.002041027004660022   -0.00554509945208246   -3.262822138821532e-05
-0.0035150937126986886   -0.005549641997568276   -7.081171952411551e-05
-0.0036165732005260876   -0.0028371081872866346   -2.9987223973531974e-05
-0.0034972454854787145   -0.005568831582813937   -8.200928996590734e-05
-0.002041027004660022   -0.00554509945208246   -3.262822138821532e-05
-0.0036165732005260876   -0.0028371081872866346   -2.9987223973531974e-05
-0.002178523438476683   -0.0028032015194881963   1.1958254042165601e-05
-0.00215714885465774   -0.0028251588429007873   -6.755141199928579e-08
-0.002041027004660022   -0.00554509945208246   -3.262822138821532e-05
-0.0036165732005260876   -0.0028371081872866346   -2.9987223973531974e-05
-0.00215714885465774   -0.0028251588429007873   -6.755141199928579e-08
-0.0034972454854787145   -0.005568831582813937   -8.200928996590734e-05
-0.002041027004660022   -0.00554509945208246   -3.262822138821532e-05
-0.002178523438476683   -0.0028032015194881963   1.1958254042165601e-05
-0.0035150937126986886   -0.005549641997568276   -7.081171952411551e-05
-0.002062116135489678   -0.005522066620328098   -1.9767636007652237e-05
-0.002178523438476683   -0.0028032015194881963   1.1958254042165601e-05
-0.0036165732005260876   -0.0028371081872866346   -2.9987223973531974e-05
-0.0035150937126986886   -0.005549641997568276   -7.081171952411551e-05
-0.0036329763842256205   -0.002814241946702131   -2.0186706748704556e-05
-0.002062116135489678   -0.005522066620328098   -1.9767636007652237e-05
-0.0035327685696130394   -0.005530080563480796   -5.869477021302985e-05
-0.0036329763842256205   -0.002814241946702131   -2.0186706748704556e-05
-0.0035150937126986886   -0.005549641997568276   -7.081171952411551e-05
-0.002062116135489678   -0.005522066620328098   -1.9767636007652237e-05
-0.0036329763842256205   -0.002814241946702131   -2.0186706748704556e-05
-0.002199034278628004   -0.002779132764820984   2.5290990681139974e-05
-0.002178523438476683   -0.0028032015194881963   1.1958254042165601e-05
-0.002062116135489678   -0.005522066620328098   -1.9767636007652237e-05
-0.0036329763842256205   -0.002814241946702131   -2.0186706748704556e-05
-0.002178523438476683   -0.0028032015194881963   1.1958254042165601e-05
-0.0035150937126986886   -0.005549641997568276   -7.081171952411551e-05
-0.003478516157001511   -0.005587773579227944   -9.224141834653558e-05
-0.003580566962781018   -0.0028779122440612936   -4.7771403265913725e-05
-0.0049871929718983635   -0.005578847396118757   -0.00012327136716767164
-0.0034972454854787145   -0.005568831582813937   -8.200928996590734e-05
-0.003580566962781018   -0.0028779122440612936   -4.7771403265913725e-05
-0.005074968450860326   -0.0028918264516124836   -8.124563209781089e-05
-0.0049871929718983635   -0.005578847396118757   -0.00012327136716767164
-0.005091523019074129   -0.0028742902436827283   -7.466349649087044e-05
-0.0034972454854787145   -0.005568831582813937   -8.200928996590734e-05
-0.00500504405053465   -0.005563798540758704   -0.0001133575902244418
-0.005091523019074129   -0.0028742902436827283   -7.466349649087044e-05
-0.0049871929718983635   -0.005578847396118757   -0.00012327136716767164
-0.0034972454854787145   -0.005568831582813937   -8.200928996590734e-05
-0.005091523019074129   -0.0028742902436827283   -7.466349649087044e-05
-0.0035988959786486746   -0.0028581320354588782   -3.890711238715408e-05
-0.003580566962781018   -0.0028779122440612936   -4.7771403265913725e-05
-0.0034972454854787145   -0.005568831582813937   -8.200928996590734e-05
-0.005091523019074129   -0.0028742902436827283   -7.466349649087044e-05
-0.003580566962781018   -0.0028779122440612936   -4.7771403265913725e-05
-0.0049871929718983635   -0.005578847396118757   -0.00012327136716767164
-0.0034972454854787145   -0.005568831582813937   -8.200928996590734e-05
-0.0035988959786486746   -0.0028581320354588782   -3.890711238715408e-05
-0.00500504405053465   -0.005563798540758704   -0.0001133575902244418
-0.0035150937126986886   -0.005549641997568276   -7.081171952411551e-05
-0.0035988959786486746   -0.0028581320354588782   -3.890711238715408e-05
-0.005091523019074129   -0.0028742902436827283   -7.466349649087044e-05
-0.00500504405053465   -0.005563798540758704   -0.0001133575902244418
-0.005106283317769001   -0.002855010205993642   -6.819145114417231e-05
-0.0035150937126986886   -0.005549641997568276   -7.081171952411551e-05
-0.00502004664692406   -0.005547957966349174   -0.00010273117494842122
-0.005106283317769001   -0.002855010205993642   -6.819145114417231e-05
-0.00500504405053465   -0.005563798540758704   -0.0001133575902244418
-0.0035150937126986886   -0.005549641997568276   -7.081171952411551e-05
-0.005106283317769001   -0.002855010205993642   -6.819145114417231e-05
-0.0036165732005260876   -0.0028371081872866346   -2.9987223973531974e-05
-0.0035988959786486746   -0.0028581320354588782   -3.890711238715408e-05
-0.0035150937126986886   -0.005549641997568276   -7.081171952411551e-05
-0.005106283317769001   -0.002855010205993642   -6.819145114417231e-05
-0.0035988959786486746   -0.0028581320354588782   -3.890711238715408e-05
-0.00500504405053465   -0.005563798540758704   -0.0001133575902244418
-0.0035150937126986886   -0.005549641997568276   -7.081171952411551e-05
-0.0036165732005260876   -0.0028371081872866346   -2.9987223973531974e-05
-0.00502004664692406   -0.005547957966349174   -0.00010273117494842122
-0.0035327685696130394   -0.005530080563480796   -5.869477021302985e-05
-0.0036165732005260876   -0.0028371081872866346   -2.9987223973531974e-05
-0.005106283317769001   -0.002855010205993642   -6.819145114417231e-05
-0.00502004664692406   -0.005547957966349174   -0.00010273117494842122
-0.005119681965947571   -0.0028343984528804364   -6.143659618966702e-05
-0.0035327685696130394   -0.005530080563480796   -5.869477021302985e-05
-0.005034219282742198   -0.005531782633333311   -9.110750711844765e-05
-0.005119681965947571   -0.0028343984528804364   -6.143659618966702e-05
-0.00502004664692406   -0.005547957966349174   -0.00010273117494842122
-0.0035327685696130394   -0.005530080563480796   -5.869477021302985e-05
-0.005119681965947571   -0.0028343984528804364   -6.143659618966702e-05
-0.0036329763842256205   -0.002814241946702131   -2.0186706748704556e-05
-0.0036165732005260876   -0.0028371081872866346   -2.9987223973531974e-05
-0.0035327685696130394   -0.005530080563480796   -5.869477021302985e-05
-0.005119681965947571   -0.0028343984528804364   -6.143659618966702e-05
-0.0036165732005260876   -0.0028371081872866346   -2.9987223973531974e-05
-0.00502004664692406   -0.005547957966349174   -0.00010273117494842122
-0.0049871929718983635   -0.005578847396118757   -0.00012327136716767164
-0.005074968450860326   -0.0028918264516124836   -8.124563209781089e-05
-0.006570168073922141   -0.005563789256521556   -0.00014535461300605463
-0.00500504405053465   -0.005563798540758704   -0.0001133575902244418
-0.005074968450860326   -0.0028918264516124836   -8.124563209781089e-05
-0.006625096864264177   -0.0028931590896319175   -0.00010843595082216597
-0.006570168073922141   -0.005563789256521556   -0.00014535461300605463
-0.006639119898396431   -0.0028762422222178667   -0.00010537779070190413
-0.00500504405053465   -0.005563798540758704   -0.0001133575902244418
-0.006580608890008797   -0.005551539407720141   -0.00013752608529477115
-0.006639119898396431   -0.0028762422222178667   -0.00010537779070190413
-0.006570168073922141   -0.005563789256521556   -0.00014535461300605463
-0.00500504405053465   -0.005563798540758704   -0.0001133575902244418
-0.006639119898396431   -0.0028762422222178667   -0.00010537779070190413
-0.005091523019074129   -0.0028742902436827283   -7.466349649087044e-05
-0.005074968450860326   -0.0028918264516124836   -8.124563209781089e-05
-0.00500504405053465   -0.005563798540758704   -0.0001133575902244418
-0.006639119898396431   -0.0028762422222178667   -0.00010537779070190413
-0.005074968450860326   -0.0028918264516124836   -8.124563209781089e-05
-0.006570168073922141   -0.005563789256521556   -0.00014535461300605463
-0.00500504405053465   -0.005563798540758704   -0.0001133575902244418
-0.005091523019074129   -0.0028742902436827283   -7.466349649087044e-05
-0.006580608890008797   -0.005551539407720141   -0.00013752608529477115
-0.00502004664692406   -0.005547957966349174   -0.00010273117494842122
-0.005091523019074129   -0.0028742902436827283   -7.466349649087044e-05
-0.006639119898396431   -0.0028762422222178667   -0.00010537779070190413
-0.006580608890008797   -0.005551539407720141   -0.00013752608529477115
-0.006651683560764933   -0.002857769400851369   -0.00010175804039975552
-0.00502004664692406   -0.005547957966349174   -0.00010273117494842122
-0.00659015624994844   -0.005537518003742276   -0.00012800450000249107
-0.006651683560764933   -0.002857769400851369   -0.00010175804039975552
-0.006580608890008797   -0.005551539407720141   -0.00013752608529477115
-0.00502004664692406   -0.005547957966349174   -0.00010273117494842122
-0.006651683560764933   -0.002857769400851369   -0.00010175804039975552
-0.005106283317769001   -0.002855010205993642   -6.819145114417231e-05
-0.005091523019074129   -0.0028742902436827283   -7.466349649087044e-05
-0.00502004664692406   -0.005547957966349174   -0.00010273117494842122
-0.006651683560764933   -0.002857769400851369   -0.00010175804039975552
-0.005091523019074129   -0.0028742902436827283   -7.466349649087044e-05
-0.006580608890008797   -0.005551539407720141   -0.00013752608529477115
-0.00502004664692406   -0.005547957966349174   -0.00010273117494842122
-0.005106283317769001   -0.002855010205993642   -6.819145114417231e-05
-0.00659015624994844   -0.005537518003742276   -0.00012800450000249107
-0.005034219282742198   -0.005531782633333311   -9.110750711844765e-05
-0.005106283317769001   -0.002855010205993642   -6.819145114417231e-05
-0.006651683560764933   -0.002857769400851369   -0.00010175804039975552
-0.00659015624994844   -0.005537518003742276   -0.00012800450000249107
-0.0066619901056216   -0.0028382430732251823   -9.824364387833107e-05
-0.005034219282742198   -0.005531782633333311   -9.110750711844765e-05
-0.006594049722412656   -0.005525129432487708   -0.00011718233661368865
-0.0066619901056216   -0.0028382430732251823   -9.824364387833107e-05
-0.00659015624994844   -0.005537518003742276   -0.00012800450000249107
-0.005034219282742198   -0.005531782633333311   -9.110750711844765e-05
-0.0066619901056216   -0.0028382430732251823   -9.824364387833107e-05
-0.005119681965947571   -0.0028343984528804364   -6.143659618966702e-05
-0.005106283317769001   -0.002855010205993642   -6.819145114417231e-05
-0.005034219282742198   -0.005531782633333311   -9.110750711844765e-05
-0.0066619901056216   -0.0028382430732251823   -9.824364387833107e-05
-0.005106283317769001   -0.002855010205993642   -6.819145114417231e-05
-0.00659015624994844   -0.005537518003742276   -0.00012800450000249107
0.0007643583846279423   -0.00283607662649141   3.4239234442086663e-05
0.0   0.0   0.0
-0.000725295535151078   -0.0028014187494104165   2.0891321273606657e-05
0.0006971377667759028   -0.0028024978245906216   7.25249605941678e-05
0.0   0.0   0.0
-0.0009020193253439329   -0.00024306007799533143   -4.200908787901484e-06
-0.000725295535151078   -0.0028014187494104165   2.0891321273606657e-05
-0.0009562195891642053   -0.0001917814786278059   2.8330741195670925e-05
0.0006971377667759028   -0.0028024978245906216   7.25249605941678e-05
-0.000746759919850066   -0.0027896347797660196   3.6527077369900225e-05
-0.0009562195891642053   -0.0001917814786278059   2.8330741195670925e-05
-0.000725295535151078   -0.0028014187494104165   2.0891321273606657e-05
0.0006971377667759028   -0.0028024978245906216   7.25249605941678e-05
-0.0009562195891642053   -0.0001917814786278059   2.8330741195670925e-05
0.0   0.0   0.0
0.0   0.0   0.0
0.0006971377667759028   -0.0028024978245906216   7.25249605941678e-05
-0.0009562195891642053   -0.0001917814786278059   2.8330741195670925e-05
0.0   0.0   0.0
-0.000725295535151078   -0.0028014187494104165   2.0891321273606657e-05
0.0006971377667759028   -0.0028024978245906216   7.25249605941678e-05
0.0   0.0   0.0
-0.000746759919850066   -0.0027896347797660196   3.6527077369900225e-05
0.000657992589488542   -0.002775811261874454   0.00010082471550720022
0.0   0.0   0.0
-0.0009562195891642053   -0.0001917814786278059   2.8330741195670925e-05
-0.000746759919850066   -0.0027896347797660196   3.6527077369900225e-05
-0.0009906681504083486   -0.0001674545550198968   4.759037890859422e-05
0.000657992589488542   -0.002775811261874454   0.00010082471550720022
-0.0007754569600394595   -0.002766998855947229   5.5653722000858335e-05
-0.0009906681504083486   -0.0001674545550198968   4.759037890859422e-05
-0.000746759919850066   -0.0027896347797660196   3.6527077369900225e-05
0.000657992589488542   -0.002775811261874454   0.00010082471550720022
-0.0009906681504083486   -0.0001674545550198968   4.759037890859422e-05
0.0   0.0   0.0
0.0   0.0   0.0
0.000657992589488542   -0.002775811261874454   0.00010082471550720022
-0.0009906681504083486   -0.0001674545550198968   4.759037890859422e-05
0.0   0.0   0.0
-0.000746759919850066   -0.0027896347797660196   3.6527077369900225e-05
0.000657992589488542   -0.002775811261874454   0.00010082471550720022
0.0   0.0   0.0
-0.0007754569600394595   -0.002766998855947229   5.5653722000858335e-05
0.0006074750038485111   -0.0027342962225822037   0.00013335645387921416
0.0   0.0   0.0
-0.0009906681504083486   -0.0001674545550198968   4.759037890859422e-05
-0.0007754569600394595   -0.002766998855947229   5.5653722000858335e-05
-0.0010376094391235525   -0.00013490361174722234   6.978934585978885e-05
0.0006074750038485111   -0.0027342962225822037   0.00013335645387921416
-0.0007997978519439963   -0.0027429565929939365   7.246123568172289e-05
-0.0010376094391235525   -0.00013490361174722234   6.978934585978885e-05
-0.0007754569600394595   -0.002766998855947229   5.5653722000858335e-05
0.0006074750038485111   -0.0027342962225822037   0.00013335645387921416
-0.0010376094391235525   -0.00013490361174722234   6.978934585978885e-05
0.0   0.0   0.0
0.0   0.0   0.0
0.0006074750038485111   -0.0027342962225822037   0.00013335645387921416
-0.0010376094391235525   -0.00013490361174722234   6.978934585978885e-05
0.0   0.0   0.0
-0.0007754569600394595   -0.002766998855947229   5.5653722000858335e-05
-0.000725295535151078   -0.0028014187494104165   2.0891321273606657e-05
-0.0009020193253439329   -0.00024306007799533143   -4.200908787901484e-06
-0.0021369524634386344   -0.002844340434340688   -1.1319275933437345e-05
-0.000746759919850066   -0.0027896347797660196   3.6527077369900225e-05
-0.0009020193253439329   -0.00024306007799533143   -4.200908787901484e-06
-0.0021976441949452022   -0.00032364480197469986   9.889555734154867e-07
-0.0021369524634386344   -0.002844340434340688   -1.1319275933437345e-05
-0.0022261418216484113   -0.00029643462319772605   9.983553482109739e-06
-0.000746759919850066   -0.0027896347797660196   3.6527077369900225e-05
-0.00215714885465774   -0.0028251588429007873   -6.755141199928579e-08
-0.0022261418216484113   -0.00029643462319772605   9.983553482109739e-06
-0.0021369524634386344   -0.002844340434340688   -1.1319275933437345e-05
-0.000746759919850066   -0.0027896347797660196   3.6527077369900225e-05
-0.0022261418216484113   -0.00029643462319772605   9.983553482109739e-06
-0.0009562195891642053   -0.0001917814786278059   2.8330741195670925e-05
-0.0009020193253439329   -0.00024306007799533143   -4.200908787901484e-06
-0.000746759919850066   -0.0027896347797660196   3.6527077369900225e-05
-0.0022261418216484113   -0.00029643462319772605   9.983553482109739e-06
-0.0009020193253439329   -0.00024306007799533143   -4.200908787901484e-06
-0.0021369524634386344   -0.002844340434340688   -1.1319275933437345e-05
-0.000746759919850066   -0.0027896347797660196   3.6527077369900225e-05
-0.0009562195891642053   -0.0001917814786278059   2.8330741195670925e-05
-0.00215714885465774   -0.0028251588429007873   -6.755141199928579e-08
-0.0007754569600394595   -0.002766998855947229   5.5653722000858335e-05
-0.0009562195891642053   -0.0001917814786278059   2.8330741195670925e-05
-0.0022261418216484113   -0.00029643462319772605   9.983553482109739e-06
-0.00215714885465774   -0.0028251588429007873   -6.755141199928579e-08
-0.0022547201908761916   -0.00026438055116419153   2.5598206070720744e-05
-0.0007754569600394595   -0.002766998855947229   5.5653722000858335e-05
-0.002178523438476683   -0.0028032015194881963   1.1958254042165601e-05
-0.0022547201908761916   -0.00026438055116419153   2.5598206070720744e-05
-0.00215714885465774   -0.0028251588429007873   -6.755141199928579e-08
-0.0007754569600394595   -0.002766998855947229   5.5653722000858335e-05
-0.0022547201908761916   -0.00026438055116419153   2.5598206070720744e-05
-0.0009906681504083486   -0.0001674545550198968   4.759037890859422e-05
-0.0009562195891642053   -0.0001917814786278059   2.8330741195670925e-05
-0.0007754569600394595   -0.002766998855947229   5.5653722000858335e-05
-0.0022547201908761916   -0.00026438055116419153   2.5598206070720744e-05
-0.0009562195891642053   -0.0001917814786278059   2.8330741195670925e-05
-0.00215714885465774   -0.0028251588429007873   -6.755141199928579e-08
-0.0007754569600394595   -0.002766998855947229   5.5653722000858335e-05
-0.0009906681504083486   -0.0001674545550198968   4.759037890859422e-05
-0.002178523438476683   -0.0028032015194881963   1.1958254042165601e-05
-0.0007997978519439963   -0.0027429565929939365   7.246123568172289e-05
-0.0009906681504083486   -0.0001674545550198968   4.759037890859422e-05
-0.0022547201908761916   -0.00026438055116419153   2.5598206070720744e-05
-0.002178523438476683   -0.0028032015194881963   1.1958254042165601e-05
-0.002287148969600638   -0.00022682709132361564   4.085956097543771e-05
-0.0007997978519439963   -0.0027429565929939365   7.246123568172289e-05
-0.002199034278628004   -0.002779132764820984   2.5290990681139974e-05
-0.002287148969600638   -0.00022682709132361564   4.085956097543771e-05
-0.002178523438476683   -0.0028032015194881963   1.1958254042165601e-05
-0.0007997978519439963   -0.0027429565929939365   7.246123568172289e-05
-0.002287148969600638   -0.00022682709132361564   4.085956097543771e-05
-0.0010376094391235525   -0.00013490361174722234   6.978934585978885e-05
-0.0009906681504083486   -0.0001674545550198968   4.759037890859422e-05
-0.0007997978519439963   -0.0027429565929939365   7.246123568172289e-05
-0.002287148969600638   -0.00022682709132361564   4.085956097543771e-05
-0.0009906681504083486   -0.0001674545550198968   4.759037890859422e-05
-0.002178523438476683   -0.0028032015194881963   1.1958254042165601e-05
-0.0021369524634386344   -0.002844340434340688   -1.1319275933437345e-05
-0.0021976441949452022   -0.00032364480197469986   9.889555734154867e-07
-0.003580566962781018   -0.0028779122440612936   -4.7771403265913725e-05
-0.00215714885465774   -0.0028251588429007873   -6.755141199928579e-08
-0.0021976441949452022   -0.00032364480197469986   9.889555734154867e-07
-0.003614965722825568   -0.00034912001043600077   -2.0255804995076615e-05
-0.003580566962781018   -0.0028779122440612936   -4.7771403265913725e-05
-0.0036325805168342545   -0.00032880810199662944   -1.7467792004945836e-05
-0.00215714885465774   -0.0028251588429007873   -6.755141199928579e-08
-0.0035988959786486746   -0.0028581320354588782   -3.890711238715408e-05
-0.0036325805168342545   -0.00032880810199662944   -1.7467792004945836e-05
-0.003580566962781018   -0.0028779122440612936   -4.7771403265913725e-05
-0.00215714885465774   -0.0028251588429007873   -6.755141199928579e-08
-0.0036325805168342545   -0.00032880810199662944   -1.7467792004945836e-05
-0.0022261418216484113   -0.00029643462319772605   9.983553482109739e-06
-0.0021976441949452022   -0.00032364480197469986   9.889555734154867e-07
-0.00215714885465774   -0.0028251588429007873   -6.755141199928579e-08
-0.0036325805168342545   -0.00032880810199662944   -1.7467792004945836e-05
-0.0021976441949452022   -0.00032364480197469986   9.889555734154867e-07
-0.003580566962781018   -0.0028779122440612936   -4.7771403265913725e-05
-0.00215714885465774   -0.0028251588429007873   -6.755141199928579e-08
-0.0022261418216484113   -0.00029643462319772605   9.983553482109739e-06
-0.0035988959786486746   -0.0028581320354588782   -3.890711238715408e-05
-0.002178523438476683   -0.0028032015194881963   1.1958254042165601e-05
-0.0022261418216484113   -0.00029643462319772605   9.983553482109739e-06
-0.0036325805168342545   -0.00032880810199662944   -1.7467792004945836e-05
-0.0035988959786486746   -0.0028581320354588782   -3.890711238715408e-05
-0.0036509546813066323   -0.000304781839859619   -1.2744989433398162e-05
-0.002178523438476683   -0.0028032015194881963   1.1958254042165601e-05
-0.0036165732005260876   -0.0028371081872866346   -2.9987223973531974e-05
-0.0036509546813066323   -0.000304781839859619   -1.2744989433398162e-05
-0.0035988959786486746   -0.0028581320354588782   -3.890711238715408e-05
-0.002178523438476683   -0.0028032015194881963   1.1958254042165601e-05
-0.0036509546813066323   -0.000304781839859619   -1.2744989433398162e-05
-0.0022547201908761916   -0.00026438055116419153   2.5598206070720744e-05
-0.0022261418216484113   -0.00029643462319772605   9.983553482109739e-06
-0.002178523438476683   -0.0028032015194881963   1.1958254042165601e-05
-0.0036509546813066323   -0.000304781839859619   -1.2744989433398162e-05
-0.0022261418216484113   -0.00029643462319772605   9.983553482109739e-06
-0.0035988959786486746   -0.0028581320354588782   -3.890711238715408e-05
-0.002178523438476683   -0.0028032015194881963   1.1958254042165601e-05
-0.0022547201908761916   -0.00026438055116419153   2.5598206070720744e-05
-0.0036165732005260876   -0.0028371081872866346   -2.9987223973531974e-05
-0.002199034278628004   -0.002779132764820984   2.5290990681139974e-05
-0.0022547201908761916   -0.00026438055116419153   2.5598206070720744e-05
-0.0036509546813066323   -0.000304781839859619   -1.2744989433398162e-05
-0.0036165732005260876   -0.0028371081872866346   -2.9987223973531974e-05
-0.0036690362414650733   -0.0002747998559579526   -6.494033255020101e-06
-0.002199034278628004   -0.002779132764820984   2.5290990681139974e-05
-0.0036329763842256205   -0.002814241946702131   -2.0186706748704556e-05
-0.0036690362414650733   -0.0002747998559579526   -6.494033255020101e-06
-0.0036165732005260876   -0.0028371081872866346   -2.9987223973531974e-05
-0.002199034278628004   -0.002779132764820984   2.5290990681139974e-05
-0.0036690362414650733   -0.0002747998559579526   -6.494033255020101e-06
-0.002287148969600638   -0.00022682709132361564   4.085956097543771e-05
-0.0022547201908761916   -0.00026438055116419153   2.5598206070720744e-05
-0.002199034278628004   -0.002779132764820984   2.5290990681139974e-05
-0.0036690362414650733   -0.0002747998559579526   -6.494033255020101e-06
-0.0022547201908761916   -0.00026438055116419153   2.5598206070720744e-05
-0.0036165732005260876   -0.0028371081872866346   -2.9987223973531974e-05
-0.003580566962781018   -0.0028779122440612936   -4.7771403265913725e-05
-0.003614965722825568   -0.00034912001043600077   -2.0255804995076615e-05
-0.005074968450860326   -0.0028918264516124836   -8.124563209781089e-05
-0.0035988959786486746   -0.0028581320354588782   -3.890711238715408e-05
-0.003614965722825568   -0.00034912001043600077   -2.0255804995076615e-05
-0.005101728921168473   -0.0003481177389700814   -5.313948761296468e-05
-0.005074968450860326   -0.0028918264516124836   -8.124563209781089e-05
-0.005113710329260742   -0.0003305419852630539   -5.1901049619719124e-05
-0.0035988959786486746   -0.0028581320354588782   -3.890711238715408e-05
-0.005091523019074129   -0.0028742902436827283   -7.466349649087044e-05
-0.005113710329260742   -0.0003305419852630539   -5.1901049619719124e-05
-0.005074968450860326   -0.0028918264516124836   -8.124563209781089e-05
-0.0035988959786486746   -0.0028581320354588782   -3.890711238715408e-05
-0.005113710329260742   -0.0003305419852630539   -5.1901049619719124e-05
-0.0036325805168342545   -0.00032880810199662944   -1.7467792004945836e-05
-0.003614965722825568   -0.00034912001043600077   -2.0255804995076615e-05
-0.0035988959786486746   -0.0028581320354588782   -3.890711238715408e-05
-0.005113710329260742   -0.0003305419852630539   -5.1901049619719124e-05
-0.003614965722825568   -0.00034912001043600077   -2.0255804995076615e-05
-0.005074968450860326   -0.0028918264516124836   -8.124563209781089e-05
-0.0035988959786486746   -0.0028581320354588782   -3.890711238715408e-05
-0.0036325805168342545   -0.00032880810199662944   -1.7467792004945836e-05
-0.005091523019074129   -0.0028742902436827283   -7.466349649087044e-05
-0.0036165732005260876   -0.0028371081872866346   -2.9987223973531974e-05
-0.0036325805168342545   -0.00032880810199662944   -1.7467792004945836e-05
-0.005113710329260742   -0.0003305419852630539   -5.1901049619719124e-05
-0.005091523019074129   -0.0028742902436827283   -7.466349649087044e-05
-0.0051261906583809575   -0.0003105443105209607   -5.078931876890365e-05
-0.0036165732005260876   -0.0028371081872866346   -2.9987223973531974e-05
-0.005106283317769001   -0.002855010205993642   -6.819145114417231e-05
-0.0051261906583809575   -0.0003105443105209607   -5.078931876890365e-05
-0.005091523019074129   -0.0028742902436827283   -7.466349649087044e-05
-0.0036165732005260876   -0.0028371081872866346   -2.9987223973531974e-05
-0.0051261906583809575   -0.0003105443105209607   -5.078931876890365e-05
-0.0036509546813066323   -0.000304781839859619   -1.2744989433398162e-05
-0.0036325805168342545   -0.00032880810199662944   -1.7467792004945836e-05
-0.0036165732005260876   -0.0028371081872866346   -2.9987223973531974e-05
-0.0051261906583809575   -0.0003105443105209607   -5.078931876890365e-05
-0.0036325805168342545   -0.00032880810199662944   -1.7467792004945836e-05
-0.005091523019074129   -0.0028742902436827283   -7.466349649087044e-05
-0.0036165732005260876   -0.0028371081872866346   -2.9987223973531974e-05
-0.0036509546813066323   -0.000304781839859619   -1.2744989433398162e-05
-0.005106283317769001   -0.002855010205993642   -6.819145114417231e-05
-0.0036329763842256205   -0.002814241946702131   -2.0186706748704556e-05
-0.0036509546813066323   -0.000304781839859619   -1.2744989433398162e-05
-0.0051261906583809575   -0.0003105443105209607   -5.078931876890365e-05
-0.005106283317769001   -0.002855010205993642   -6.819145114417231e-05
-0.005136125204749215   -0.0002884497317770783   -4.983375083720988e-05
-0.0036329763842256205   -0.002814241946702131   -2.0186706748704556e-05
-0.005119681965947571   -0.0028343984528804364   -6.143659618966702e-05
-0.005136125204749215   -0.0002884497317770783   -4.983375083720988e-05
-0.005106283317769001   -0.002855010205993642   -6.819145114417231e-05
-0.0036329763842256205   -0.002814241946702131   -2.0186706748704556e-05
-0.005136125204749215   -0.0002884497317770783   -4.983375083720988e-05
-0.0036690362414650733   -0.0002747998559579526   -6.494033255020101e-06
-0.0036509546813066323   -0.000304781839859619   -1.2744989433398162e-05
-0.0036329763842256205   -0.002814241946702131   -2.0186706748704556e-05
-0.005136125204749215   -0.0002884497317770783   -4.983375083720988e-05
-0.0036509546813066323   -0.000304781839859619   -1.2744989433398162e-05
-0.005106283317769001   -0.002855010205993642   -6.819145114417231e-05
-0.005074968450860326   -0.0028918264516124836   -8.124563209781089e-05
-0.005101728921168473   -0.0003481177389700814   -5.313948761296468e-05
-0.006625096864264177   -0.0028931590896319175   -0.00010843595082216597
-0.005091523019074129   -0.0028742902436827283   -7.466349649087044e-05
-0.005101728921168473   -0.0003481177389700814   -5.313948761296468e-05
-0.006631359902901026   -0.0003461287879677371   -8.572826364077038e-05
-0.006625096864264177   -0.0028931590896319175   -0.00010843595082216597
-0.006640939544431517   -0.0003272235728906099   -8.556715111078015e-05
-0.005091523019074129   -0.0028742902436827283   -7.466349649087044e-05
-0.006639119898396431   -0.0028762422222178667   -0.00010537779070190413
-0.006640939544431517   -0.0003272235728906099   -8.556715111078015e-05
-0.006625096864264177   -0.0028931590896319175   -0.00010843595082216597
-0.005091523019074129   -0.0028742902436827283   -7.466349649087044e-05
-0.006640939544431517   -0.0003272235728906099   -8.556715111078015e-05
-0.005113710329260742   -0.0003305419852630539   -5.1901049619719124e-05
-0.005101728921168473   -0.0003481177389700814   -5.313948761296468e-05
-0.005091523019074129   -0.0028742902436827283   -7.466349649087044e-05
-0.006640939544431517   -0.0003272235728906099   -8.556715111078015e-05
-0.005101728921168473   -0.0003481177389700814   -5.313948761296468e-05
-0.006625096864264177   -0.0028931590896319175   -0.00010843595082216597
-0.005091523019074129   -0.0028742902436827283   -7.466349649087044e-05
-0.005113710329260742   -0.0003305419852630539   -5.1901049619719124e-05
-0.006639119898396431   -0.0028762422222178667   -0.00010537779070190413
-0.005106283317769001   -0.002855010205993642   -6.819145114417231e-05
-0.005113710329260742   -0.0003305419852630539   -5.1901049619719124e-05
-0.006640939544431517   -0.0003272235728906099   -8.556715111078015e-05
-0.006639119898396431   -0.0028762422222178667   -0.00010537779070190413
-0.0066514159390686466   -0.00030804262011054626   -8.689675085226951e-05
-0.005106283317769001   -0.002855010205993642   -6.819145114417231e-05
-0.006651683560764933   -0.002857769400851369   -0.00010175804039975552
-0.0066514159390686466   -0.00030804262011054626   -8.689675085226951e-05
-0.006639119898396431   -0.0028762422222178667   -0.00010537779070190413
-0.005106283317769001   -0.002855010205993642   -6.819145114417231e-05
-0.0066514159390686466   -0.00030804262011054626   -8.689675085226951e-05
-0.0051261906583809575   -0.0003105443105209607   -5.078931876890365e-05
-0.005113710329260742   -0.0003305419852630539   -5.1901049619719124e-05
-0.005106283317769001   -0.002855010205993642   -6.819145114417231e-05
-0.0066514159390686466   -0.00030804262011054626   -8.689675085226951e-05
-0.005113710329260742   -0.0003305419852630539   -5.1901049619719124e-05
-0.006639119898396431   -0.0028762422222178667   -0.00010537779070190413
-0.005106283317769001   -0.002855010205993642   -6.819145114417231e-05
-0.0051261906583809575   -0.0003105443105209607   -5.078931876890365e-05
-0.006651683560764933   -0.002857769400851369   -0.00010175804039975552
-0.005119681965947571   -0.0028343984528804364   -6.143659618966702e-05
-0.0051261906583809575   -0.0003105443105209607   -5.078931876890365e-05
-0.0066514159390686466   -0.00030804262011054626   -8.689675085226951e-05
-0.006651683560764933   -0.002857769400851369   -0.00010175804039975552
-0.006659283542557582   -0.00028695409749161837   -8.82411236613929e-05
-0.005119681965947571   -0.0028343984528804364   -6.143659618966702e-05
-0.0066619901056216   -0.0028382430732251823   -9.824364387833107e-05
-0.006659283542557582   -0.00028695409749161837   -8.82411236613929e-05
-0.006651683560764933   -0.002857769400851369   -0.00010175804039975552
-0.005119681965947571   -0.0028343984528804364   -6.143659618966702e-05
-0.006659283542557582   -0.00028695409749161837   -8.82411236613929e-05
-0.005136125204749215   -0.0002884497317770783   -4.983375083720988e-05
-0.0051261906583809575   -0.0003105443105209607   -5.078931876890365e-05
-0.005119681965947571   -0.0028343984528804364   -6.143659618966702e-05
-0.006659283542557582   -0.00028695409749161837   -8.82411236613929e-05
-0.0051261906583809575   -0.0003105443105209607   -5.078931876890365e-05
-0.006651683560764933   -0.002857769400851369   -0.00010175804039975552
              </DataArray>   
          </PointData>  
       </Piece>  
   </UnstructuredGrid> 
</VTKFile> 
