<?xml version="1.0"?> 
<VTKFile type="UnstructuredGrid"> 
   <UnstructuredGrid> 
      <Piece NumberOfPoints="6000"  NumberOfCells="1500">  
          <Points>  
             <DataArray type="Float64" NumberOfComponents="3" format="ascii">   
-500.0   0.0   0.0
-450.0   0.0   0.0
-500.0   30.0   0.0
-500.0   0.0   16.666666666666668
-450.0   0.0   0.0
-450.0   30.0   0.0
-500.0   30.0   0.0
-450.0   30.0   16.666666666666668
-500.0   0.0   16.666666666666668
-500.0   30.0   16.666666666666668
-450.0   30.0   16.666666666666668
-500.0   30.0   0.0
-500.0   0.0   16.666666666666668
-450.0   30.0   16.666666666666668
-450.0   0.0   16.666666666666668
-450.0   0.0   0.0
-500.0   0.0   16.666666666666668
-450.0   30.0   16.666666666666668
-450.0   0.0   0.0
-500.0   30.0   0.0
-500.0   0.0   16.666666666666668
-450.0   0.0   16.666666666666668
-500.0   30.0   16.666666666666668
-500.0   0.0   33.333333333333336
-450.0   0.0   16.666666666666668
-450.0   30.0   16.666666666666668
-500.0   30.0   16.666666666666668
-450.0   30.0   33.333333333333336
-500.0   0.0   33.333333333333336
-500.0   30.0   33.333333333333336
-450.0   30.0   33.333333333333336
-500.0   30.0   16.666666666666668
-500.0   0.0   33.333333333333336
-450.0   30.0   33.333333333333336
-450.0   0.0   33.333333333333336
-450.0   0.0   16.666666666666668
-500.0   0.0   33.333333333333336
-450.0   30.0   33.333333333333336
-450.0   0.0   16.666666666666668
-500.0   30.0   16.666666666666668
-500.0   0.0   33.333333333333336
-450.0   0.0   33.333333333333336
-500.0   30.0   33.333333333333336
-500.0   0.0   50.0
-450.0   0.0   33.333333333333336
-450.0   30.0   33.333333333333336
-500.0   30.0   33.333333333333336
-450.0   30.0   50.0
-500.0   0.0   50.0
-500.0   30.0   50.0
-450.0   30.0   50.0
-500.0   30.0   33.333333333333336
-500.0   0.0   50.0
-450.0   30.0   50.0
-450.0   0.0   50.0
-450.0   0.0   33.333333333333336
-500.0   0.0   50.0
-450.0   30.0   50.0
-450.0   0.0   33.333333333333336
-500.0   30.0   33.333333333333336
-500.0   30.0   0.0
-450.0   30.0   0.0
-500.0   60.0   0.0
-500.0   30.0   16.666666666666668
-450.0   30.0   0.0
-450.0   60.0   0.0
-500.0   60.0   0.0
-450.0   60.0   16.666666666666668
-500.0   30.0   16.666666666666668
-500.0   60.0   16.666666666666668
-450.0   60.0   16.666666666666668
-500.0   60.0   0.0
-500.0   30.0   16.666666666666668
-450.0   60.0   16.666666666666668
-450.0   30.0   16.666666666666668
-450.0   30.0   0.0
-500.0   30.0   16.666666666666668
-450.0   60.0   16.666666666666668
-450.0   30.0   0.0
-500.0   60.0   0.0
-500.0   30.0   16.666666666666668
-450.0   30.0   16.666666666666668
-500.0   60.0   16.666666666666668
-500.0   30.0   33.333333333333336
-450.0   30.0   16.666666666666668
-450.0   60.0   16.666666666666668
-500.0   60.0   16.666666666666668
-450.0   60.0   33.333333333333336
-500.0   30.0   33.333333333333336
-500.0   60.0   33.333333333333336
-450.0   60.0   33.333333333333336
-500.0   60.0   16.666666666666668
-500.0   30.0   33.333333333333336
-450.0   60.0   33.333333333333336
-450.0   30.0   33.333333333333336
-450.0   30.0   16.666666666666668
-500.0   30.0   33.333333333333336
-450.0   60.0   33.333333333333336
-450.0   30.0   16.666666666666668
-500.0   60.0   16.666666666666668
-500.0   30.0   33.333333333333336
-450.0   30.0   33.333333333333336
-500.0   60.0   33.333333333333336
-500.0   30.0   50.0
-450.0   30.0   33.333333333333336
-450.0   60.0   33.333333333333336
-500.0   60.0   33.333333333333336
-450.0   60.0   50.0
-500.0   30.0   50.0
-500.0   60.0   50.0
-450.0   60.0   50.0
-500.0   60.0   33.333333333333336
-500.0   30.0   50.0
-450.0   60.0   50.0
-450.0   30.0   50.0
-450.0   30.0   33.333333333333336
-500.0   30.0   50.0
-450.0   60.0   50.0
-450.0   30.0   33.333333333333336
-500.0   60.0   33.333333333333336
-500.0   60.0   0.0
-450.0   60.0   0.0
-500.0   90.0   0.0
-500.0   60.0   16.666666666666668
-450.0   60.0   0.0
-450.0   90.0   0.0
-500.0   90.0   0.0
-450.0   90.0   16.666666666666668
-500.0   60.0   16.666666666666668
-500.0   90.0   16.666666666666668
-450.0   90.0   16.666666666666668
-500.0   90.0   0.0
-500.0   60.0   16.666666666666668
-450.0   90.0   16.666666666666668
-450.0   60.0   16.666666666666668
-450.0   60.0   0.0
-500.0   60.0   16.666666666666668
-450.0   90.0   16.666666666666668
-450.0   60.0   0.0
-500.0   90.0   0.0
-500.0   60.0   16.666666666666668
-450.0   60.0   16.666666666666668
-500.0   90.0   16.666666666666668
-500.0   60.0   33.333333333333336
-450.0   60.0   16.666666666666668
-450.0   90.0   16.666666666666668
-500.0   90.0   16.666666666666668
-450.0   90.0   33.333333333333336
-500.0   60.0   33.333333333333336
-500.0   90.0   33.333333333333336
-450.0   90.0   33.333333333333336
-500.0   90.0   16.666666666666668
-500.0   60.0   33.333333333333336
-450.0   90.0   33.333333333333336
-450.0   60.0   33.333333333333336
-450.0   60.0   16.666666666666668
-500.0   60.0   33.333333333333336
-450.0   90.0   33.333333333333336
-450.0   60.0   16.666666666666668
-500.0   90.0   16.666666666666668
-500.0   60.0   33.333333333333336
-450.0   60.0   33.333333333333336
-500.0   90.0   33.333333333333336
-500.0   60.0   50.0
-450.0   60.0   33.333333333333336
-450.0   90.0   33.333333333333336
-500.0   90.0   33.333333333333336
-450.0   90.0   50.0
-500.0   60.0   50.0
-500.0   90.0   50.0
-450.0   90.0   50.0
-500.0   90.0   33.333333333333336
-500.0   60.0   50.0
-450.0   90.0   50.0
-450.0   60.0   50.0
-450.0   60.0   33.333333333333336
-500.0   60.0   50.0
-450.0   90.0   50.0
-450.0   60.0   33.333333333333336
-500.0   90.0   33.333333333333336
-500.0   90.0   0.0
-450.0   90.0   0.0
-500.0   120.0   0.0
-500.0   90.0   16.666666666666668
-450.0   90.0   0.0
-450.0   120.0   0.0
-500.0   120.0   0.0
-450.0   120.0   16.666666666666668
-500.0   90.0   16.666666666666668
-500.0   120.0   16.666666666666668
-450.0   120.0   16.666666666666668
-500.0   120.0   0.0
-500.0   90.0   16.666666666666668
-450.0   120.0   16.666666666666668
-450.0   90.0   16.666666666666668
-450.0   90.0   0.0
-500.0   90.0   16.666666666666668
-450.0   120.0   16.666666666666668
-450.0   90.0   0.0
-500.0   120.0   0.0
-500.0   90.0   16.666666666666668
-450.0   90.0   16.666666666666668
-500.0   120.0   16.666666666666668
-500.0   90.0   33.333333333333336
-450.0   90.0   16.666666666666668
-450.0   120.0   16.666666666666668
-500.0   120.0   16.666666666666668
-450.0   120.0   33.333333333333336
-500.0   90.0   33.333333333333336
-500.0   120.0   33.333333333333336
-450.0   120.0   33.333333333333336
-500.0   120.0   16.666666666666668
-500.0   90.0   33.333333333333336
-450.0   120.0   33.333333333333336
-450.0   90.0   33.333333333333336
-450.0   90.0   16.666666666666668
-500.0   90.0   33.333333333333336
-450.0   120.0   33.333333333333336
-450.0   90.0   16.666666666666668
-500.0   120.0   16.666666666666668
-500.0   90.0   33.333333333333336
-450.0   90.0   33.333333333333336
-500.0   120.0   33.333333333333336
-500.0   90.0   50.0
-450.0   90.0   33.333333333333336
-450.0   120.0   33.333333333333336
-500.0   120.0   33.333333333333336
-450.0   120.0   50.0
-500.0   90.0   50.0
-500.0   120.0   50.0
-450.0   120.0   50.0
-500.0   120.0   33.333333333333336
-500.0   90.0   50.0
-450.0   120.0   50.0
-450.0   90.0   50.0
-450.0   90.0   33.333333333333336
-500.0   90.0   50.0
-450.0   120.0   50.0
-450.0   90.0   33.333333333333336
-500.0   120.0   33.333333333333336
-500.0   120.0   0.0
-450.0   120.0   0.0
-500.0   150.0   0.0
-500.0   120.0   16.666666666666668
-450.0   120.0   0.0
-450.0   150.0   0.0
-500.0   150.0   0.0
-450.0   150.0   16.666666666666668
-500.0   120.0   16.666666666666668
-500.0   150.0   16.666666666666668
-450.0   150.0   16.666666666666668
-500.0   150.0   0.0
-500.0   120.0   16.666666666666668
-450.0   150.0   16.666666666666668
-450.0   120.0   16.666666666666668
-450.0   120.0   0.0
-500.0   120.0   16.666666666666668
-450.0   150.0   16.666666666666668
-450.0   120.0   0.0
-500.0   150.0   0.0
-500.0   120.0   16.666666666666668
-450.0   120.0   16.666666666666668
-500.0   150.0   16.666666666666668
-500.0   120.0   33.333333333333336
-450.0   120.0   16.666666666666668
-450.0   150.0   16.666666666666668
-500.0   150.0   16.666666666666668
-450.0   150.0   33.333333333333336
-500.0   120.0   33.333333333333336
-500.0   150.0   33.333333333333336
-450.0   150.0   33.333333333333336
-500.0   150.0   16.666666666666668
-500.0   120.0   33.333333333333336
-450.0   150.0   33.333333333333336
-450.0   120.0   33.333333333333336
-450.0   120.0   16.666666666666668
-500.0   120.0   33.333333333333336
-450.0   150.0   33.333333333333336
-450.0   120.0   16.666666666666668
-500.0   150.0   16.666666666666668
-500.0   120.0   33.333333333333336
-450.0   120.0   33.333333333333336
-500.0   150.0   33.333333333333336
-500.0   120.0   50.0
-450.0   120.0   33.333333333333336
-450.0   150.0   33.333333333333336
-500.0   150.0   33.333333333333336
-450.0   150.0   50.0
-500.0   120.0   50.0
-500.0   150.0   50.0
-450.0   150.0   50.0
-500.0   150.0   33.333333333333336
-500.0   120.0   50.0
-450.0   150.0   50.0
-450.0   120.0   50.0
-450.0   120.0   33.333333333333336
-500.0   120.0   50.0
-450.0   150.0   50.0
-450.0   120.0   33.333333333333336
-500.0   150.0   33.333333333333336
-450.0   0.0   0.0
-400.0   0.0   0.0
-450.0   30.0   0.0
-450.0   0.0   16.666666666666668
-400.0   0.0   0.0
-400.0   30.0   0.0
-450.0   30.0   0.0
-400.0   30.0   16.666666666666668
-450.0   0.0   16.666666666666668
-450.0   30.0   16.666666666666668
-400.0   30.0   16.666666666666668
-450.0   30.0   0.0
-450.0   0.0   16.666666666666668
-400.0   30.0   16.666666666666668
-400.0   0.0   16.666666666666668
-400.0   0.0   0.0
-450.0   0.0   16.666666666666668
-400.0   30.0   16.666666666666668
-400.0   0.0   0.0
-450.0   30.0   0.0
-450.0   0.0   16.666666666666668
-400.0   0.0   16.666666666666668
-450.0   30.0   16.666666666666668
-450.0   0.0   33.333333333333336
-400.0   0.0   16.666666666666668
-400.0   30.0   16.666666666666668
-450.0   30.0   16.666666666666668
-400.0   30.0   33.333333333333336
-450.0   0.0   33.333333333333336
-450.0   30.0   33.333333333333336
-400.0   30.0   33.333333333333336
-450.0   30.0   16.666666666666668
-450.0   0.0   33.333333333333336
-400.0   30.0   33.333333333333336
-400.0   0.0   33.333333333333336
-400.0   0.0   16.666666666666668
-450.0   0.0   33.333333333333336
-400.0   30.0   33.333333333333336
-400.0   0.0   16.666666666666668
-450.0   30.0   16.666666666666668
-450.0   0.0   33.333333333333336
-400.0   0.0   33.333333333333336
-450.0   30.0   33.333333333333336
-450.0   0.0   50.0
-400.0   0.0   33.333333333333336
-400.0   30.0   33.333333333333336
-450.0   30.0   33.333333333333336
-400.0   30.0   50.0
-450.0   0.0   50.0
-450.0   30.0   50.0
-400.0   30.0   50.0
-450.0   30.0   33.333333333333336
-450.0   0.0   50.0
-400.0   30.0   50.0
-400.0   0.0   50.0
-400.0   0.0   33.333333333333336
-450.0   0.0   50.0
-400.0   30.0   50.0
-400.0   0.0   33.333333333333336
-450.0   30.0   33.333333333333336
-450.0   30.0   0.0
-400.0   30.0   0.0
-450.0   60.0   0.0
-450.0   30.0   16.666666666666668
-400.0   30.0   0.0
-400.0   60.0   0.0
-450.0   60.0   0.0
-400.0   60.0   16.666666666666668
-450.0   30.0   16.666666666666668
-450.0   60.0   16.666666666666668
-400.0   60.0   16.666666666666668
-450.0   60.0   0.0
-450.0   30.0   16.666666666666668
-400.0   60.0   16.666666666666668
-400.0   30.0   16.666666666666668
-400.0   30.0   0.0
-450.0   30.0   16.666666666666668
-400.0   60.0   16.666666666666668
-400.0   30.0   0.0
-450.0   60.0   0.0
-450.0   30.0   16.666666666666668
-400.0   30.0   16.666666666666668
-450.0   60.0   16.666666666666668
-450.0   30.0   33.333333333333336
-400.0   30.0   16.666666666666668
-400.0   60.0   16.666666666666668
-450.0   60.0   16.666666666666668
-400.0   60.0   33.333333333333336
-450.0   30.0   33.333333333333336
-450.0   60.0   33.333333333333336
-400.0   60.0   33.333333333333336
-450.0   60.0   16.666666666666668
-450.0   30.0   33.333333333333336
-400.0   60.0   33.333333333333336
-400.0   30.0   33.333333333333336
-400.0   30.0   16.666666666666668
-450.0   30.0   33.333333333333336
-400.0   60.0   33.333333333333336
-400.0   30.0   16.666666666666668
-450.0   60.0   16.666666666666668
-450.0   30.0   33.333333333333336
-400.0   30.0   33.333333333333336
-450.0   60.0   33.333333333333336
-450.0   30.0   50.0
-400.0   30.0   33.333333333333336
-400.0   60.0   33.333333333333336
-450.0   60.0   33.333333333333336
-400.0   60.0   50.0
-450.0   30.0   50.0
-450.0   60.0   50.0
-400.0   60.0   50.0
-450.0   60.0   33.333333333333336
-450.0   30.0   50.0
-400.0   60.0   50.0
-400.0   30.0   50.0
-400.0   30.0   33.333333333333336
-450.0   30.0   50.0
-400.0   60.0   50.0
-400.0   30.0   33.333333333333336
-450.0   60.0   33.333333333333336
-450.0   60.0   0.0
-400.0   60.0   0.0
-450.0   90.0   0.0
-450.0   60.0   16.666666666666668
-400.0   60.0   0.0
-400.0   90.0   0.0
-450.0   90.0   0.0
-400.0   90.0   16.666666666666668
-450.0   60.0   16.666666666666668
-450.0   90.0   16.666666666666668
-400.0   90.0   16.666666666666668
-450.0   90.0   0.0
-450.0   60.0   16.666666666666668
-400.0   90.0   16.666666666666668
-400.0   60.0   16.666666666666668
-400.0   60.0   0.0
-450.0   60.0   16.666666666666668
-400.0   90.0   16.666666666666668
-400.0   60.0   0.0
-450.0   90.0   0.0
-450.0   60.0   16.666666666666668
-400.0   60.0   16.666666666666668
-450.0   90.0   16.666666666666668
-450.0   60.0   33.333333333333336
-400.0   60.0   16.666666666666668
-400.0   90.0   16.666666666666668
-450.0   90.0   16.666666666666668
-400.0   90.0   33.333333333333336
-450.0   60.0   33.333333333333336
-450.0   90.0   33.333333333333336
-400.0   90.0   33.333333333333336
-450.0   90.0   16.666666666666668
-450.0   60.0   33.333333333333336
-400.0   90.0   33.333333333333336
-400.0   60.0   33.333333333333336
-400.0   60.0   16.666666666666668
-450.0   60.0   33.333333333333336
-400.0   90.0   33.333333333333336
-400.0   60.0   16.666666666666668
-450.0   90.0   16.666666666666668
-450.0   60.0   33.333333333333336
-400.0   60.0   33.333333333333336
-450.0   90.0   33.333333333333336
-450.0   60.0   50.0
-400.0   60.0   33.333333333333336
-400.0   90.0   33.333333333333336
-450.0   90.0   33.333333333333336
-400.0   90.0   50.0
-450.0   60.0   50.0
-450.0   90.0   50.0
-400.0   90.0   50.0
-450.0   90.0   33.333333333333336
-450.0   60.0   50.0
-400.0   90.0   50.0
-400.0   60.0   50.0
-400.0   60.0   33.333333333333336
-450.0   60.0   50.0
-400.0   90.0   50.0
-400.0   60.0   33.333333333333336
-450.0   90.0   33.333333333333336
-450.0   90.0   0.0
-400.0   90.0   0.0
-450.0   120.0   0.0
-450.0   90.0   16.666666666666668
-400.0   90.0   0.0
-400.0   120.0   0.0
-450.0   120.0   0.0
-400.0   120.0   16.666666666666668
-450.0   90.0   16.666666666666668
-450.0   120.0   16.666666666666668
-400.0   120.0   16.666666666666668
-450.0   120.0   0.0
-450.0   90.0   16.666666666666668
-400.0   120.0   16.666666666666668
-400.0   90.0   16.666666666666668
-400.0   90.0   0.0
-450.0   90.0   16.666666666666668
-400.0   120.0   16.666666666666668
-400.0   90.0   0.0
-450.0   120.0   0.0
-450.0   90.0   16.666666666666668
-400.0   90.0   16.666666666666668
-450.0   120.0   16.666666666666668
-450.0   90.0   33.333333333333336
-400.0   90.0   16.666666666666668
-400.0   120.0   16.666666666666668
-450.0   120.0   16.666666666666668
-400.0   120.0   33.333333333333336
-450.0   90.0   33.333333333333336
-450.0   120.0   33.333333333333336
-400.0   120.0   33.333333333333336
-450.0   120.0   16.666666666666668
-450.0   90.0   33.333333333333336
-400.0   120.0   33.333333333333336
-400.0   90.0   33.333333333333336
-400.0   90.0   16.666666666666668
-450.0   90.0   33.333333333333336
-400.0   120.0   33.333333333333336
-400.0   90.0   16.666666666666668
-450.0   120.0   16.666666666666668
-450.0   90.0   33.333333333333336
-400.0   90.0   33.333333333333336
-450.0   120.0   33.333333333333336
-450.0   90.0   50.0
-400.0   90.0   33.333333333333336
-400.0   120.0   33.333333333333336
-450.0   120.0   33.333333333333336
-400.0   120.0   50.0
-450.0   90.0   50.0
-450.0   120.0   50.0
-400.0   120.0   50.0
-450.0   120.0   33.333333333333336
-450.0   90.0   50.0
-400.0   120.0   50.0
-400.0   90.0   50.0
-400.0   90.0   33.333333333333336
-450.0   90.0   50.0
-400.0   120.0   50.0
-400.0   90.0   33.333333333333336
-450.0   120.0   33.333333333333336
-450.0   120.0   0.0
-400.0   120.0   0.0
-450.0   150.0   0.0
-450.0   120.0   16.666666666666668
-400.0   120.0   0.0
-400.0   150.0   0.0
-450.0   150.0   0.0
-400.0   150.0   16.666666666666668
-450.0   120.0   16.666666666666668
-450.0   150.0   16.666666666666668
-400.0   150.0   16.666666666666668
-450.0   150.0   0.0
-450.0   120.0   16.666666666666668
-400.0   150.0   16.666666666666668
-400.0   120.0   16.666666666666668
-400.0   120.0   0.0
-450.0   120.0   16.666666666666668
-400.0   150.0   16.666666666666668
-400.0   120.0   0.0
-450.0   150.0   0.0
-450.0   120.0   16.666666666666668
-400.0   120.0   16.666666666666668
-450.0   150.0   16.666666666666668
-450.0   120.0   33.333333333333336
-400.0   120.0   16.666666666666668
-400.0   150.0   16.666666666666668
-450.0   150.0   16.666666666666668
-400.0   150.0   33.333333333333336
-450.0   120.0   33.333333333333336
-450.0   150.0   33.333333333333336
-400.0   150.0   33.333333333333336
-450.0   150.0   16.666666666666668
-450.0   120.0   33.333333333333336
-400.0   150.0   33.333333333333336
-400.0   120.0   33.333333333333336
-400.0   120.0   16.666666666666668
-450.0   120.0   33.333333333333336
-400.0   150.0   33.333333333333336
-400.0   120.0   16.666666666666668
-450.0   150.0   16.666666666666668
-450.0   120.0   33.333333333333336
-400.0   120.0   33.333333333333336
-450.0   150.0   33.333333333333336
-450.0   120.0   50.0
-400.0   120.0   33.333333333333336
-400.0   150.0   33.333333333333336
-450.0   150.0   33.333333333333336
-400.0   150.0   50.0
-450.0   120.0   50.0
-450.0   150.0   50.0
-400.0   150.0   50.0
-450.0   150.0   33.333333333333336
-450.0   120.0   50.0
-400.0   150.0   50.0
-400.0   120.0   50.0
-400.0   120.0   33.333333333333336
-450.0   120.0   50.0
-400.0   150.0   50.0
-400.0   120.0   33.333333333333336
-450.0   150.0   33.333333333333336
-400.0   0.0   0.0
-350.0   0.0   0.0
-400.0   30.0   0.0
-400.0   0.0   16.666666666666668
-350.0   0.0   0.0
-350.0   30.0   0.0
-400.0   30.0   0.0
-350.0   30.0   16.666666666666668
-400.0   0.0   16.666666666666668
-400.0   30.0   16.666666666666668
-350.0   30.0   16.666666666666668
-400.0   30.0   0.0
-400.0   0.0   16.666666666666668
-350.0   30.0   16.666666666666668
-350.0   0.0   16.666666666666668
-350.0   0.0   0.0
-400.0   0.0   16.666666666666668
-350.0   30.0   16.666666666666668
-350.0   0.0   0.0
-400.0   30.0   0.0
-400.0   0.0   16.666666666666668
-350.0   0.0   16.666666666666668
-400.0   30.0   16.666666666666668
-400.0   0.0   33.333333333333336
-350.0   0.0   16.666666666666668
-350.0   30.0   16.666666666666668
-400.0   30.0   16.666666666666668
-350.0   30.0   33.333333333333336
-400.0   0.0   33.333333333333336
-400.0   30.0   33.333333333333336
-350.0   30.0   33.333333333333336
-400.0   30.0   16.666666666666668
-400.0   0.0   33.333333333333336
-350.0   30.0   33.333333333333336
-350.0   0.0   33.333333333333336
-350.0   0.0   16.666666666666668
-400.0   0.0   33.333333333333336
-350.0   30.0   33.333333333333336
-350.0   0.0   16.666666666666668
-400.0   30.0   16.666666666666668
-400.0   0.0   33.333333333333336
-350.0   0.0   33.333333333333336
-400.0   30.0   33.333333333333336
-400.0   0.0   50.0
-350.0   0.0   33.333333333333336
-350.0   30.0   33.333333333333336
-400.0   30.0   33.333333333333336
-350.0   30.0   50.0
-400.0   0.0   50.0
-400.0   30.0   50.0
-350.0   30.0   50.0
-400.0   30.0   33.333333333333336
-400.0   0.0   50.0
-350.0   30.0   50.0
-350.0   0.0   50.0
-350.0   0.0   33.333333333333336
-400.0   0.0   50.0
-350.0   30.0   50.0
-350.0   0.0   33.333333333333336
-400.0   30.0   33.333333333333336
-400.0   30.0   0.0
-350.0   30.0   0.0
-400.0   60.0   0.0
-400.0   30.0   16.666666666666668
-350.0   30.0   0.0
-350.0   60.0   0.0
-400.0   60.0   0.0
-350.0   60.0   16.666666666666668
-400.0   30.0   16.666666666666668
-400.0   60.0   16.666666666666668
-350.0   60.0   16.666666666666668
-400.0   60.0   0.0
-400.0   30.0   16.666666666666668
-350.0   60.0   16.666666666666668
-350.0   30.0   16.666666666666668
-350.0   30.0   0.0
-400.0   30.0   16.666666666666668
-350.0   60.0   16.666666666666668
-350.0   30.0   0.0
-400.0   60.0   0.0
-400.0   30.0   16.666666666666668
-350.0   30.0   16.666666666666668
-400.0   60.0   16.666666666666668
-400.0   30.0   33.333333333333336
-350.0   30.0   16.666666666666668
-350.0   60.0   16.666666666666668
-400.0   60.0   16.666666666666668
-350.0   60.0   33.333333333333336
-400.0   30.0   33.333333333333336
-400.0   60.0   33.333333333333336
-350.0   60.0   33.333333333333336
-400.0   60.0   16.666666666666668
-400.0   30.0   33.333333333333336
-350.0   60.0   33.333333333333336
-350.0   30.0   33.333333333333336
-350.0   30.0   16.666666666666668
-400.0   30.0   33.333333333333336
-350.0   60.0   33.333333333333336
-350.0   30.0   16.666666666666668
-400.0   60.0   16.666666666666668
-400.0   30.0   33.333333333333336
-350.0   30.0   33.333333333333336
-400.0   60.0   33.333333333333336
-400.0   30.0   50.0
-350.0   30.0   33.333333333333336
-350.0   60.0   33.333333333333336
-400.0   60.0   33.333333333333336
-350.0   60.0   50.0
-400.0   30.0   50.0
-400.0   60.0   50.0
-350.0   60.0   50.0
-400.0   60.0   33.333333333333336
-400.0   30.0   50.0
-350.0   60.0   50.0
-350.0   30.0   50.0
-350.0   30.0   33.333333333333336
-400.0   30.0   50.0
-350.0   60.0   50.0
-350.0   30.0   33.333333333333336
-400.0   60.0   33.333333333333336
-400.0   60.0   0.0
-350.0   60.0   0.0
-400.0   90.0   0.0
-400.0   60.0   16.666666666666668
-350.0   60.0   0.0
-350.0   90.0   0.0
-400.0   90.0   0.0
-350.0   90.0   16.666666666666668
-400.0   60.0   16.666666666666668
-400.0   90.0   16.666666666666668
-350.0   90.0   16.666666666666668
-400.0   90.0   0.0
-400.0   60.0   16.666666666666668
-350.0   90.0   16.666666666666668
-350.0   60.0   16.666666666666668
-350.0   60.0   0.0
-400.0   60.0   16.666666666666668
-350.0   90.0   16.666666666666668
-350.0   60.0   0.0
-400.0   90.0   0.0
-400.0   60.0   16.666666666666668
-350.0   60.0   16.666666666666668
-400.0   90.0   16.666666666666668
-400.0   60.0   33.333333333333336
-350.0   60.0   16.666666666666668
-350.0   90.0   16.666666666666668
-400.0   90.0   16.666666666666668
-350.0   90.0   33.333333333333336
-400.0   60.0   33.333333333333336
-400.0   90.0   33.333333333333336
-350.0   90.0   33.333333333333336
-400.0   90.0   16.666666666666668
-400.0   60.0   33.333333333333336
-350.0   90.0   33.333333333333336
-350.0   60.0   33.333333333333336
-350.0   60.0   16.666666666666668
-400.0   60.0   33.333333333333336
-350.0   90.0   33.333333333333336
-350.0   60.0   16.666666666666668
-400.0   90.0   16.666666666666668
-400.0   60.0   33.333333333333336
-350.0   60.0   33.333333333333336
-400.0   90.0   33.333333333333336
-400.0   60.0   50.0
-350.0   60.0   33.333333333333336
-350.0   90.0   33.333333333333336
-400.0   90.0   33.333333333333336
-350.0   90.0   50.0
-400.0   60.0   50.0
-400.0   90.0   50.0
-350.0   90.0   50.0
-400.0   90.0   33.333333333333336
-400.0   60.0   50.0
-350.0   90.0   50.0
-350.0   60.0   50.0
-350.0   60.0   33.333333333333336
-400.0   60.0   50.0
-350.0   90.0   50.0
-350.0   60.0   33.333333333333336
-400.0   90.0   33.333333333333336
-400.0   90.0   0.0
-350.0   90.0   0.0
-400.0   120.0   0.0
-400.0   90.0   16.666666666666668
-350.0   90.0   0.0
-350.0   120.0   0.0
-400.0   120.0   0.0
-350.0   120.0   16.666666666666668
-400.0   90.0   16.666666666666668
-400.0   120.0   16.666666666666668
-350.0   120.0   16.666666666666668
-400.0   120.0   0.0
-400.0   90.0   16.666666666666668
-350.0   120.0   16.666666666666668
-350.0   90.0   16.666666666666668
-350.0   90.0   0.0
-400.0   90.0   16.666666666666668
-350.0   120.0   16.666666666666668
-350.0   90.0   0.0
-400.0   120.0   0.0
-400.0   90.0   16.666666666666668
-350.0   90.0   16.666666666666668
-400.0   120.0   16.666666666666668
-400.0   90.0   33.333333333333336
-350.0   90.0   16.666666666666668
-350.0   120.0   16.666666666666668
-400.0   120.0   16.666666666666668
-350.0   120.0   33.333333333333336
-400.0   90.0   33.333333333333336
-400.0   120.0   33.333333333333336
-350.0   120.0   33.333333333333336
-400.0   120.0   16.666666666666668
-400.0   90.0   33.333333333333336
-350.0   120.0   33.333333333333336
-350.0   90.0   33.333333333333336
-350.0   90.0   16.666666666666668
-400.0   90.0   33.333333333333336
-350.0   120.0   33.333333333333336
-350.0   90.0   16.666666666666668
-400.0   120.0   16.666666666666668
-400.0   90.0   33.333333333333336
-350.0   90.0   33.333333333333336
-400.0   120.0   33.333333333333336
-400.0   90.0   50.0
-350.0   90.0   33.333333333333336
-350.0   120.0   33.333333333333336
-400.0   120.0   33.333333333333336
-350.0   120.0   50.0
-400.0   90.0   50.0
-400.0   120.0   50.0
-350.0   120.0   50.0
-400.0   120.0   33.333333333333336
-400.0   90.0   50.0
-350.0   120.0   50.0
-350.0   90.0   50.0
-350.0   90.0   33.333333333333336
-400.0   90.0   50.0
-350.0   120.0   50.0
-350.0   90.0   33.333333333333336
-400.0   120.0   33.333333333333336
-400.0   120.0   0.0
-350.0   120.0   0.0
-400.0   150.0   0.0
-400.0   120.0   16.666666666666668
-350.0   120.0   0.0
-350.0   150.0   0.0
-400.0   150.0   0.0
-350.0   150.0   16.666666666666668
-400.0   120.0   16.666666666666668
-400.0   150.0   16.666666666666668
-350.0   150.0   16.666666666666668
-400.0   150.0   0.0
-400.0   120.0   16.666666666666668
-350.0   150.0   16.666666666666668
-350.0   120.0   16.666666666666668
-350.0   120.0   0.0
-400.0   120.0   16.666666666666668
-350.0   150.0   16.666666666666668
-350.0   120.0   0.0
-400.0   150.0   0.0
-400.0   120.0   16.666666666666668
-350.0   120.0   16.666666666666668
-400.0   150.0   16.666666666666668
-400.0   120.0   33.333333333333336
-350.0   120.0   16.666666666666668
-350.0   150.0   16.666666666666668
-400.0   150.0   16.666666666666668
-350.0   150.0   33.333333333333336
-400.0   120.0   33.333333333333336
-400.0   150.0   33.333333333333336
-350.0   150.0   33.333333333333336
-400.0   150.0   16.666666666666668
-400.0   120.0   33.333333333333336
-350.0   150.0   33.333333333333336
-350.0   120.0   33.333333333333336
-350.0   120.0   16.666666666666668
-400.0   120.0   33.333333333333336
-350.0   150.0   33.333333333333336
-350.0   120.0   16.666666666666668
-400.0   150.0   16.666666666666668
-400.0   120.0   33.333333333333336
-350.0   120.0   33.333333333333336
-400.0   150.0   33.333333333333336
-400.0   120.0   50.0
-350.0   120.0   33.333333333333336
-350.0   150.0   33.333333333333336
-400.0   150.0   33.333333333333336
-350.0   150.0   50.0
-400.0   120.0   50.0
-400.0   150.0   50.0
-350.0   150.0   50.0
-400.0   150.0   33.333333333333336
-400.0   120.0   50.0
-350.0   150.0   50.0
-350.0   120.0   50.0
-350.0   120.0   33.333333333333336
-400.0   120.0   50.0
-350.0   150.0   50.0
-350.0   120.0   33.333333333333336
-400.0   150.0   33.333333333333336
-350.0   0.0   0.0
-300.0   0.0   0.0
-350.0   30.0   0.0
-350.0   0.0   16.666666666666668
-300.0   0.0   0.0
-300.0   30.0   0.0
-350.0   30.0   0.0
-300.0   30.0   16.666666666666668
-350.0   0.0   16.666666666666668
-350.0   30.0   16.666666666666668
-300.0   30.0   16.666666666666668
-350.0   30.0   0.0
-350.0   0.0   16.666666666666668
-300.0   30.0   16.666666666666668
-300.0   0.0   16.666666666666668
-300.0   0.0   0.0
-350.0   0.0   16.666666666666668
-300.0   30.0   16.666666666666668
-300.0   0.0   0.0
-350.0   30.0   0.0
-350.0   0.0   16.666666666666668
-300.0   0.0   16.666666666666668
-350.0   30.0   16.666666666666668
-350.0   0.0   33.333333333333336
-300.0   0.0   16.666666666666668
-300.0   30.0   16.666666666666668
-350.0   30.0   16.666666666666668
-300.0   30.0   33.333333333333336
-350.0   0.0   33.333333333333336
-350.0   30.0   33.333333333333336
-300.0   30.0   33.333333333333336
-350.0   30.0   16.666666666666668
-350.0   0.0   33.333333333333336
-300.0   30.0   33.333333333333336
-300.0   0.0   33.333333333333336
-300.0   0.0   16.666666666666668
-350.0   0.0   33.333333333333336
-300.0   30.0   33.333333333333336
-300.0   0.0   16.666666666666668
-350.0   30.0   16.666666666666668
-350.0   0.0   33.333333333333336
-300.0   0.0   33.333333333333336
-350.0   30.0   33.333333333333336
-350.0   0.0   50.0
-300.0   0.0   33.333333333333336
-300.0   30.0   33.333333333333336
-350.0   30.0   33.333333333333336
-300.0   30.0   50.0
-350.0   0.0   50.0
-350.0   30.0   50.0
-300.0   30.0   50.0
-350.0   30.0   33.333333333333336
-350.0   0.0   50.0
-300.0   30.0   50.0
-300.0   0.0   50.0
-300.0   0.0   33.333333333333336
-350.0   0.0   50.0
-300.0   30.0   50.0
-300.0   0.0   33.333333333333336
-350.0   30.0   33.333333333333336
-350.0   30.0   0.0
-300.0   30.0   0.0
-350.0   60.0   0.0
-350.0   30.0   16.666666666666668
-300.0   30.0   0.0
-300.0   60.0   0.0
-350.0   60.0   0.0
-300.0   60.0   16.666666666666668
-350.0   30.0   16.666666666666668
-350.0   60.0   16.666666666666668
-300.0   60.0   16.666666666666668
-350.0   60.0   0.0
-350.0   30.0   16.666666666666668
-300.0   60.0   16.666666666666668
-300.0   30.0   16.666666666666668
-300.0   30.0   0.0
-350.0   30.0   16.666666666666668
-300.0   60.0   16.666666666666668
-300.0   30.0   0.0
-350.0   60.0   0.0
-350.0   30.0   16.666666666666668
-300.0   30.0   16.666666666666668
-350.0   60.0   16.666666666666668
-350.0   30.0   33.333333333333336
-300.0   30.0   16.666666666666668
-300.0   60.0   16.666666666666668
-350.0   60.0   16.666666666666668
-300.0   60.0   33.333333333333336
-350.0   30.0   33.333333333333336
-350.0   60.0   33.333333333333336
-300.0   60.0   33.333333333333336
-350.0   60.0   16.666666666666668
-350.0   30.0   33.333333333333336
-300.0   60.0   33.333333333333336
-300.0   30.0   33.333333333333336
-300.0   30.0   16.666666666666668
-350.0   30.0   33.333333333333336
-300.0   60.0   33.333333333333336
-300.0   30.0   16.666666666666668
-350.0   60.0   16.666666666666668
-350.0   30.0   33.333333333333336
-300.0   30.0   33.333333333333336
-350.0   60.0   33.333333333333336
-350.0   30.0   50.0
-300.0   30.0   33.333333333333336
-300.0   60.0   33.333333333333336
-350.0   60.0   33.333333333333336
-300.0   60.0   50.0
-350.0   30.0   50.0
-350.0   60.0   50.0
-300.0   60.0   50.0
-350.0   60.0   33.333333333333336
-350.0   30.0   50.0
-300.0   60.0   50.0
-300.0   30.0   50.0
-300.0   30.0   33.333333333333336
-350.0   30.0   50.0
-300.0   60.0   50.0
-300.0   30.0   33.333333333333336
-350.0   60.0   33.333333333333336
-350.0   60.0   0.0
-300.0   60.0   0.0
-350.0   90.0   0.0
-350.0   60.0   16.666666666666668
-300.0   60.0   0.0
-300.0   90.0   0.0
-350.0   90.0   0.0
-300.0   90.0   16.666666666666668
-350.0   60.0   16.666666666666668
-350.0   90.0   16.666666666666668
-300.0   90.0   16.666666666666668
-350.0   90.0   0.0
-350.0   60.0   16.666666666666668
-300.0   90.0   16.666666666666668
-300.0   60.0   16.666666666666668
-300.0   60.0   0.0
-350.0   60.0   16.666666666666668
-300.0   90.0   16.666666666666668
-300.0   60.0   0.0
-350.0   90.0   0.0
-350.0   60.0   16.666666666666668
-300.0   60.0   16.666666666666668
-350.0   90.0   16.666666666666668
-350.0   60.0   33.333333333333336
-300.0   60.0   16.666666666666668
-300.0   90.0   16.666666666666668
-350.0   90.0   16.666666666666668
-300.0   90.0   33.333333333333336
-350.0   60.0   33.333333333333336
-350.0   90.0   33.333333333333336
-300.0   90.0   33.333333333333336
-350.0   90.0   16.666666666666668
-350.0   60.0   33.333333333333336
-300.0   90.0   33.333333333333336
-300.0   60.0   33.333333333333336
-300.0   60.0   16.666666666666668
-350.0   60.0   33.333333333333336
-300.0   90.0   33.333333333333336
-300.0   60.0   16.666666666666668
-350.0   90.0   16.666666666666668
-350.0   60.0   33.333333333333336
-300.0   60.0   33.333333333333336
-350.0   90.0   33.333333333333336
-350.0   60.0   50.0
-300.0   60.0   33.333333333333336
-300.0   90.0   33.333333333333336
-350.0   90.0   33.333333333333336
-300.0   90.0   50.0
-350.0   60.0   50.0
-350.0   90.0   50.0
-300.0   90.0   50.0
-350.0   90.0   33.333333333333336
-350.0   60.0   50.0
-300.0   90.0   50.0
-300.0   60.0   50.0
-300.0   60.0   33.333333333333336
-350.0   60.0   50.0
-300.0   90.0   50.0
-300.0   60.0   33.333333333333336
-350.0   90.0   33.333333333333336
-350.0   90.0   0.0
-300.0   90.0   0.0
-350.0   120.0   0.0
-350.0   90.0   16.666666666666668
-300.0   90.0   0.0
-300.0   120.0   0.0
-350.0   120.0   0.0
-300.0   120.0   16.666666666666668
-350.0   90.0   16.666666666666668
-350.0   120.0   16.666666666666668
-300.0   120.0   16.666666666666668
-350.0   120.0   0.0
-350.0   90.0   16.666666666666668
-300.0   120.0   16.666666666666668
-300.0   90.0   16.666666666666668
-300.0   90.0   0.0
-350.0   90.0   16.666666666666668
-300.0   120.0   16.666666666666668
-300.0   90.0   0.0
-350.0   120.0   0.0
-350.0   90.0   16.666666666666668
-300.0   90.0   16.666666666666668
-350.0   120.0   16.666666666666668
-350.0   90.0   33.333333333333336
-300.0   90.0   16.666666666666668
-300.0   120.0   16.666666666666668
-350.0   120.0   16.666666666666668
-300.0   120.0   33.333333333333336
-350.0   90.0   33.333333333333336
-350.0   120.0   33.333333333333336
-300.0   120.0   33.333333333333336
-350.0   120.0   16.666666666666668
-350.0   90.0   33.333333333333336
-300.0   120.0   33.333333333333336
-300.0   90.0   33.333333333333336
-300.0   90.0   16.666666666666668
-350.0   90.0   33.333333333333336
-300.0   120.0   33.333333333333336
-300.0   90.0   16.666666666666668
-350.0   120.0   16.666666666666668
-350.0   90.0   33.333333333333336
-300.0   90.0   33.333333333333336
-350.0   120.0   33.333333333333336
-350.0   90.0   50.0
-300.0   90.0   33.333333333333336
-300.0   120.0   33.333333333333336
-350.0   120.0   33.333333333333336
-300.0   120.0   50.0
-350.0   90.0   50.0
-350.0   120.0   50.0
-300.0   120.0   50.0
-350.0   120.0   33.333333333333336
-350.0   90.0   50.0
-300.0   120.0   50.0
-300.0   90.0   50.0
-300.0   90.0   33.333333333333336
-350.0   90.0   50.0
-300.0   120.0   50.0
-300.0   90.0   33.333333333333336
-350.0   120.0   33.333333333333336
-350.0   120.0   0.0
-300.0   120.0   0.0
-350.0   150.0   0.0
-350.0   120.0   16.666666666666668
-300.0   120.0   0.0
-300.0   150.0   0.0
-350.0   150.0   0.0
-300.0   150.0   16.666666666666668
-350.0   120.0   16.666666666666668
-350.0   150.0   16.666666666666668
-300.0   150.0   16.666666666666668
-350.0   150.0   0.0
-350.0   120.0   16.666666666666668
-300.0   150.0   16.666666666666668
-300.0   120.0   16.666666666666668
-300.0   120.0   0.0
-350.0   120.0   16.666666666666668
-300.0   150.0   16.666666666666668
-300.0   120.0   0.0
-350.0   150.0   0.0
-350.0   120.0   16.666666666666668
-300.0   120.0   16.666666666666668
-350.0   150.0   16.666666666666668
-350.0   120.0   33.333333333333336
-300.0   120.0   16.666666666666668
-300.0   150.0   16.666666666666668
-350.0   150.0   16.666666666666668
-300.0   150.0   33.333333333333336
-350.0   120.0   33.333333333333336
-350.0   150.0   33.333333333333336
-300.0   150.0   33.333333333333336
-350.0   150.0   16.666666666666668
-350.0   120.0   33.333333333333336
-300.0   150.0   33.333333333333336
-300.0   120.0   33.333333333333336
-300.0   120.0   16.666666666666668
-350.0   120.0   33.333333333333336
-300.0   150.0   33.333333333333336
-300.0   120.0   16.666666666666668
-350.0   150.0   16.666666666666668
-350.0   120.0   33.333333333333336
-300.0   120.0   33.333333333333336
-350.0   150.0   33.333333333333336
-350.0   120.0   50.0
-300.0   120.0   33.333333333333336
-300.0   150.0   33.333333333333336
-350.0   150.0   33.333333333333336
-300.0   150.0   50.0
-350.0   120.0   50.0
-350.0   150.0   50.0
-300.0   150.0   50.0
-350.0   150.0   33.333333333333336
-350.0   120.0   50.0
-300.0   150.0   50.0
-300.0   120.0   50.0
-300.0   120.0   33.333333333333336
-350.0   120.0   50.0
-300.0   150.0   50.0
-300.0   120.0   33.333333333333336
-350.0   150.0   33.333333333333336
-300.0   0.0   0.0
-250.0   0.0   0.0
-300.0   30.0   0.0
-300.0   0.0   16.666666666666668
-250.0   0.0   0.0
-250.0   30.0   0.0
-300.0   30.0   0.0
-250.0   30.0   16.666666666666668
-300.0   0.0   16.666666666666668
-300.0   30.0   16.666666666666668
-250.0   30.0   16.666666666666668
-300.0   30.0   0.0
-300.0   0.0   16.666666666666668
-250.0   30.0   16.666666666666668
-250.0   0.0   16.666666666666668
-250.0   0.0   0.0
-300.0   0.0   16.666666666666668
-250.0   30.0   16.666666666666668
-250.0   0.0   0.0
-300.0   30.0   0.0
-300.0   0.0   16.666666666666668
-250.0   0.0   16.666666666666668
-300.0   30.0   16.666666666666668
-300.0   0.0   33.333333333333336
-250.0   0.0   16.666666666666668
-250.0   30.0   16.666666666666668
-300.0   30.0   16.666666666666668
-250.0   30.0   33.333333333333336
-300.0   0.0   33.333333333333336
-300.0   30.0   33.333333333333336
-250.0   30.0   33.333333333333336
-300.0   30.0   16.666666666666668
-300.0   0.0   33.333333333333336
-250.0   30.0   33.333333333333336
-250.0   0.0   33.333333333333336
-250.0   0.0   16.666666666666668
-300.0   0.0   33.333333333333336
-250.0   30.0   33.333333333333336
-250.0   0.0   16.666666666666668
-300.0   30.0   16.666666666666668
-300.0   0.0   33.333333333333336
-250.0   0.0   33.333333333333336
-300.0   30.0   33.333333333333336
-300.0   0.0   50.0
-250.0   0.0   33.333333333333336
-250.0   30.0   33.333333333333336
-300.0   30.0   33.333333333333336
-250.0   30.0   50.0
-300.0   0.0   50.0
-300.0   30.0   50.0
-250.0   30.0   50.0
-300.0   30.0   33.333333333333336
-300.0   0.0   50.0
-250.0   30.0   50.0
-250.0   0.0   50.0
-250.0   0.0   33.333333333333336
-300.0   0.0   50.0
-250.0   30.0   50.0
-250.0   0.0   33.333333333333336
-300.0   30.0   33.333333333333336
-300.0   30.0   0.0
-250.0   30.0   0.0
-300.0   60.0   0.0
-300.0   30.0   16.666666666666668
-250.0   30.0   0.0
-250.0   60.0   0.0
-300.0   60.0   0.0
-250.0   60.0   16.666666666666668
-300.0   30.0   16.666666666666668
-300.0   60.0   16.666666666666668
-250.0   60.0   16.666666666666668
-300.0   60.0   0.0
-300.0   30.0   16.666666666666668
-250.0   60.0   16.666666666666668
-250.0   30.0   16.666666666666668
-250.0   30.0   0.0
-300.0   30.0   16.666666666666668
-250.0   60.0   16.666666666666668
-250.0   30.0   0.0
-300.0   60.0   0.0
-300.0   30.0   16.666666666666668
-250.0   30.0   16.666666666666668
-300.0   60.0   16.666666666666668
-300.0   30.0   33.333333333333336
-250.0   30.0   16.666666666666668
-250.0   60.0   16.666666666666668
-300.0   60.0   16.666666666666668
-250.0   60.0   33.333333333333336
-300.0   30.0   33.333333333333336
-300.0   60.0   33.333333333333336
-250.0   60.0   33.333333333333336
-300.0   60.0   16.666666666666668
-300.0   30.0   33.333333333333336
-250.0   60.0   33.333333333333336
-250.0   30.0   33.333333333333336
-250.0   30.0   16.666666666666668
-300.0   30.0   33.333333333333336
-250.0   60.0   33.333333333333336
-250.0   30.0   16.666666666666668
-300.0   60.0   16.666666666666668
-300.0   30.0   33.333333333333336
-250.0   30.0   33.333333333333336
-300.0   60.0   33.333333333333336
-300.0   30.0   50.0
-250.0   30.0   33.333333333333336
-250.0   60.0   33.333333333333336
-300.0   60.0   33.333333333333336
-250.0   60.0   50.0
-300.0   30.0   50.0
-300.0   60.0   50.0
-250.0   60.0   50.0
-300.0   60.0   33.333333333333336
-300.0   30.0   50.0
-250.0   60.0   50.0
-250.0   30.0   50.0
-250.0   30.0   33.333333333333336
-300.0   30.0   50.0
-250.0   60.0   50.0
-250.0   30.0   33.333333333333336
-300.0   60.0   33.333333333333336
-300.0   60.0   0.0
-250.0   60.0   0.0
-300.0   90.0   0.0
-300.0   60.0   16.666666666666668
-250.0   60.0   0.0
-250.0   90.0   0.0
-300.0   90.0   0.0
-250.0   90.0   16.666666666666668
-300.0   60.0   16.666666666666668
-300.0   90.0   16.666666666666668
-250.0   90.0   16.666666666666668
-300.0   90.0   0.0
-300.0   60.0   16.666666666666668
-250.0   90.0   16.666666666666668
-250.0   60.0   16.666666666666668
-250.0   60.0   0.0
-300.0   60.0   16.666666666666668
-250.0   90.0   16.666666666666668
-250.0   60.0   0.0
-300.0   90.0   0.0
-300.0   60.0   16.666666666666668
-250.0   60.0   16.666666666666668
-300.0   90.0   16.666666666666668
-300.0   60.0   33.333333333333336
-250.0   60.0   16.666666666666668
-250.0   90.0   16.666666666666668
-300.0   90.0   16.666666666666668
-250.0   90.0   33.333333333333336
-300.0   60.0   33.333333333333336
-300.0   90.0   33.333333333333336
-250.0   90.0   33.333333333333336
-300.0   90.0   16.666666666666668
-300.0   60.0   33.333333333333336
-250.0   90.0   33.333333333333336
-250.0   60.0   33.333333333333336
-250.0   60.0   16.666666666666668
-300.0   60.0   33.333333333333336
-250.0   90.0   33.333333333333336
-250.0   60.0   16.666666666666668
-300.0   90.0   16.666666666666668
-300.0   60.0   33.333333333333336
-250.0   60.0   33.333333333333336
-300.0   90.0   33.333333333333336
-300.0   60.0   50.0
-250.0   60.0   33.333333333333336
-250.0   90.0   33.333333333333336
-300.0   90.0   33.333333333333336
-250.0   90.0   50.0
-300.0   60.0   50.0
-300.0   90.0   50.0
-250.0   90.0   50.0
-300.0   90.0   33.333333333333336
-300.0   60.0   50.0
-250.0   90.0   50.0
-250.0   60.0   50.0
-250.0   60.0   33.333333333333336
-300.0   60.0   50.0
-250.0   90.0   50.0
-250.0   60.0   33.333333333333336
-300.0   90.0   33.333333333333336
-300.0   90.0   0.0
-250.0   90.0   0.0
-300.0   120.0   0.0
-300.0   90.0   16.666666666666668
-250.0   90.0   0.0
-250.0   120.0   0.0
-300.0   120.0   0.0
-250.0   120.0   16.666666666666668
-300.0   90.0   16.666666666666668
-300.0   120.0   16.666666666666668
-250.0   120.0   16.666666666666668
-300.0   120.0   0.0
-300.0   90.0   16.666666666666668
-250.0   120.0   16.666666666666668
-250.0   90.0   16.666666666666668
-250.0   90.0   0.0
-300.0   90.0   16.666666666666668
-250.0   120.0   16.666666666666668
-250.0   90.0   0.0
-300.0   120.0   0.0
-300.0   90.0   16.666666666666668
-250.0   90.0   16.666666666666668
-300.0   120.0   16.666666666666668
-300.0   90.0   33.333333333333336
-250.0   90.0   16.666666666666668
-250.0   120.0   16.666666666666668
-300.0   120.0   16.666666666666668
-250.0   120.0   33.333333333333336
-300.0   90.0   33.333333333333336
-300.0   120.0   33.333333333333336
-250.0   120.0   33.333333333333336
-300.0   120.0   16.666666666666668
-300.0   90.0   33.333333333333336
-250.0   120.0   33.333333333333336
-250.0   90.0   33.333333333333336
-250.0   90.0   16.666666666666668
-300.0   90.0   33.333333333333336
-250.0   120.0   33.333333333333336
-250.0   90.0   16.666666666666668
-300.0   120.0   16.666666666666668
-300.0   90.0   33.333333333333336
-250.0   90.0   33.333333333333336
-300.0   120.0   33.333333333333336
-300.0   90.0   50.0
-250.0   90.0   33.333333333333336
-250.0   120.0   33.333333333333336
-300.0   120.0   33.333333333333336
-250.0   120.0   50.0
-300.0   90.0   50.0
-300.0   120.0   50.0
-250.0   120.0   50.0
-300.0   120.0   33.333333333333336
-300.0   90.0   50.0
-250.0   120.0   50.0
-250.0   90.0   50.0
-250.0   90.0   33.333333333333336
-300.0   90.0   50.0
-250.0   120.0   50.0
-250.0   90.0   33.333333333333336
-300.0   120.0   33.333333333333336
-300.0   120.0   0.0
-250.0   120.0   0.0
-300.0   150.0   0.0
-300.0   120.0   16.666666666666668
-250.0   120.0   0.0
-250.0   150.0   0.0
-300.0   150.0   0.0
-250.0   150.0   16.666666666666668
-300.0   120.0   16.666666666666668
-300.0   150.0   16.666666666666668
-250.0   150.0   16.666666666666668
-300.0   150.0   0.0
-300.0   120.0   16.666666666666668
-250.0   150.0   16.666666666666668
-250.0   120.0   16.666666666666668
-250.0   120.0   0.0
-300.0   120.0   16.666666666666668
-250.0   150.0   16.666666666666668
-250.0   120.0   0.0
-300.0   150.0   0.0
-300.0   120.0   16.666666666666668
-250.0   120.0   16.666666666666668
-300.0   150.0   16.666666666666668
-300.0   120.0   33.333333333333336
-250.0   120.0   16.666666666666668
-250.0   150.0   16.666666666666668
-300.0   150.0   16.666666666666668
-250.0   150.0   33.333333333333336
-300.0   120.0   33.333333333333336
-300.0   150.0   33.333333333333336
-250.0   150.0   33.333333333333336
-300.0   150.0   16.666666666666668
-300.0   120.0   33.333333333333336
-250.0   150.0   33.333333333333336
-250.0   120.0   33.333333333333336
-250.0   120.0   16.666666666666668
-300.0   120.0   33.333333333333336
-250.0   150.0   33.333333333333336
-250.0   120.0   16.666666666666668
-300.0   150.0   16.666666666666668
-300.0   120.0   33.333333333333336
-250.0   120.0   33.333333333333336
-300.0   150.0   33.333333333333336
-300.0   120.0   50.0
-250.0   120.0   33.333333333333336
-250.0   150.0   33.333333333333336
-300.0   150.0   33.333333333333336
-250.0   150.0   50.0
-300.0   120.0   50.0
-300.0   150.0   50.0
-250.0   150.0   50.0
-300.0   150.0   33.333333333333336
-300.0   120.0   50.0
-250.0   150.0   50.0
-250.0   120.0   50.0
-250.0   120.0   33.333333333333336
-300.0   120.0   50.0
-250.0   150.0   50.0
-250.0   120.0   33.333333333333336
-300.0   150.0   33.333333333333336
-250.0   0.0   0.0
-200.0   0.0   0.0
-250.0   30.0   0.0
-250.0   0.0   16.666666666666668
-200.0   0.0   0.0
-200.0   30.0   0.0
-250.0   30.0   0.0
-200.0   30.0   16.666666666666668
-250.0   0.0   16.666666666666668
-250.0   30.0   16.666666666666668
-200.0   30.0   16.666666666666668
-250.0   30.0   0.0
-250.0   0.0   16.666666666666668
-200.0   30.0   16.666666666666668
-200.0   0.0   16.666666666666668
-200.0   0.0   0.0
-250.0   0.0   16.666666666666668
-200.0   30.0   16.666666666666668
-200.0   0.0   0.0
-250.0   30.0   0.0
-250.0   0.0   16.666666666666668
-200.0   0.0   16.666666666666668
-250.0   30.0   16.666666666666668
-250.0   0.0   33.333333333333336
-200.0   0.0   16.666666666666668
-200.0   30.0   16.666666666666668
-250.0   30.0   16.666666666666668
-200.0   30.0   33.333333333333336
-250.0   0.0   33.333333333333336
-250.0   30.0   33.333333333333336
-200.0   30.0   33.333333333333336
-250.0   30.0   16.666666666666668
-250.0   0.0   33.333333333333336
-200.0   30.0   33.333333333333336
-200.0   0.0   33.333333333333336
-200.0   0.0   16.666666666666668
-250.0   0.0   33.333333333333336
-200.0   30.0   33.333333333333336
-200.0   0.0   16.666666666666668
-250.0   30.0   16.666666666666668
-250.0   0.0   33.333333333333336
-200.0   0.0   33.333333333333336
-250.0   30.0   33.333333333333336
-250.0   0.0   50.0
-200.0   0.0   33.333333333333336
-200.0   30.0   33.333333333333336
-250.0   30.0   33.333333333333336
-200.0   30.0   50.0
-250.0   0.0   50.0
-250.0   30.0   50.0
-200.0   30.0   50.0
-250.0   30.0   33.333333333333336
-250.0   0.0   50.0
-200.0   30.0   50.0
-200.0   0.0   50.0
-200.0   0.0   33.333333333333336
-250.0   0.0   50.0
-200.0   30.0   50.0
-200.0   0.0   33.333333333333336
-250.0   30.0   33.333333333333336
-250.0   30.0   0.0
-200.0   30.0   0.0
-250.0   60.0   0.0
-250.0   30.0   16.666666666666668
-200.0   30.0   0.0
-200.0   60.0   0.0
-250.0   60.0   0.0
-200.0   60.0   16.666666666666668
-250.0   30.0   16.666666666666668
-250.0   60.0   16.666666666666668
-200.0   60.0   16.666666666666668
-250.0   60.0   0.0
-250.0   30.0   16.666666666666668
-200.0   60.0   16.666666666666668
-200.0   30.0   16.666666666666668
-200.0   30.0   0.0
-250.0   30.0   16.666666666666668
-200.0   60.0   16.666666666666668
-200.0   30.0   0.0
-250.0   60.0   0.0
-250.0   30.0   16.666666666666668
-200.0   30.0   16.666666666666668
-250.0   60.0   16.666666666666668
-250.0   30.0   33.333333333333336
-200.0   30.0   16.666666666666668
-200.0   60.0   16.666666666666668
-250.0   60.0   16.666666666666668
-200.0   60.0   33.333333333333336
-250.0   30.0   33.333333333333336
-250.0   60.0   33.333333333333336
-200.0   60.0   33.333333333333336
-250.0   60.0   16.666666666666668
-250.0   30.0   33.333333333333336
-200.0   60.0   33.333333333333336
-200.0   30.0   33.333333333333336
-200.0   30.0   16.666666666666668
-250.0   30.0   33.333333333333336
-200.0   60.0   33.333333333333336
-200.0   30.0   16.666666666666668
-250.0   60.0   16.666666666666668
-250.0   30.0   33.333333333333336
-200.0   30.0   33.333333333333336
-250.0   60.0   33.333333333333336
-250.0   30.0   50.0
-200.0   30.0   33.333333333333336
-200.0   60.0   33.333333333333336
-250.0   60.0   33.333333333333336
-200.0   60.0   50.0
-250.0   30.0   50.0
-250.0   60.0   50.0
-200.0   60.0   50.0
-250.0   60.0   33.333333333333336
-250.0   30.0   50.0
-200.0   60.0   50.0
-200.0   30.0   50.0
-200.0   30.0   33.333333333333336
-250.0   30.0   50.0
-200.0   60.0   50.0
-200.0   30.0   33.333333333333336
-250.0   60.0   33.333333333333336
-250.0   60.0   0.0
-200.0   60.0   0.0
-250.0   90.0   0.0
-250.0   60.0   16.666666666666668
-200.0   60.0   0.0
-200.0   90.0   0.0
-250.0   90.0   0.0
-200.0   90.0   16.666666666666668
-250.0   60.0   16.666666666666668
-250.0   90.0   16.666666666666668
-200.0   90.0   16.666666666666668
-250.0   90.0   0.0
-250.0   60.0   16.666666666666668
-200.0   90.0   16.666666666666668
-200.0   60.0   16.666666666666668
-200.0   60.0   0.0
-250.0   60.0   16.666666666666668
-200.0   90.0   16.666666666666668
-200.0   60.0   0.0
-250.0   90.0   0.0
-250.0   60.0   16.666666666666668
-200.0   60.0   16.666666666666668
-250.0   90.0   16.666666666666668
-250.0   60.0   33.333333333333336
-200.0   60.0   16.666666666666668
-200.0   90.0   16.666666666666668
-250.0   90.0   16.666666666666668
-200.0   90.0   33.333333333333336
-250.0   60.0   33.333333333333336
-250.0   90.0   33.333333333333336
-200.0   90.0   33.333333333333336
-250.0   90.0   16.666666666666668
-250.0   60.0   33.333333333333336
-200.0   90.0   33.333333333333336
-200.0   60.0   33.333333333333336
-200.0   60.0   16.666666666666668
-250.0   60.0   33.333333333333336
-200.0   90.0   33.333333333333336
-200.0   60.0   16.666666666666668
-250.0   90.0   16.666666666666668
-250.0   60.0   33.333333333333336
-200.0   60.0   33.333333333333336
-250.0   90.0   33.333333333333336
-250.0   60.0   50.0
-200.0   60.0   33.333333333333336
-200.0   90.0   33.333333333333336
-250.0   90.0   33.333333333333336
-200.0   90.0   50.0
-250.0   60.0   50.0
-250.0   90.0   50.0
-200.0   90.0   50.0
-250.0   90.0   33.333333333333336
-250.0   60.0   50.0
-200.0   90.0   50.0
-200.0   60.0   50.0
-200.0   60.0   33.333333333333336
-250.0   60.0   50.0
-200.0   90.0   50.0
-200.0   60.0   33.333333333333336
-250.0   90.0   33.333333333333336
-250.0   90.0   0.0
-200.0   90.0   0.0
-250.0   120.0   0.0
-250.0   90.0   16.666666666666668
-200.0   90.0   0.0
-200.0   120.0   0.0
-250.0   120.0   0.0
-200.0   120.0   16.666666666666668
-250.0   90.0   16.666666666666668
-250.0   120.0   16.666666666666668
-200.0   120.0   16.666666666666668
-250.0   120.0   0.0
-250.0   90.0   16.666666666666668
-200.0   120.0   16.666666666666668
-200.0   90.0   16.666666666666668
-200.0   90.0   0.0
-250.0   90.0   16.666666666666668
-200.0   120.0   16.666666666666668
-200.0   90.0   0.0
-250.0   120.0   0.0
-250.0   90.0   16.666666666666668
-200.0   90.0   16.666666666666668
-250.0   120.0   16.666666666666668
-250.0   90.0   33.333333333333336
-200.0   90.0   16.666666666666668
-200.0   120.0   16.666666666666668
-250.0   120.0   16.666666666666668
-200.0   120.0   33.333333333333336
-250.0   90.0   33.333333333333336
-250.0   120.0   33.333333333333336
-200.0   120.0   33.333333333333336
-250.0   120.0   16.666666666666668
-250.0   90.0   33.333333333333336
-200.0   120.0   33.333333333333336
-200.0   90.0   33.333333333333336
-200.0   90.0   16.666666666666668
-250.0   90.0   33.333333333333336
-200.0   120.0   33.333333333333336
-200.0   90.0   16.666666666666668
-250.0   120.0   16.666666666666668
-250.0   90.0   33.333333333333336
-200.0   90.0   33.333333333333336
-250.0   120.0   33.333333333333336
-250.0   90.0   50.0
-200.0   90.0   33.333333333333336
-200.0   120.0   33.333333333333336
-250.0   120.0   33.333333333333336
-200.0   120.0   50.0
-250.0   90.0   50.0
-250.0   120.0   50.0
-200.0   120.0   50.0
-250.0   120.0   33.333333333333336
-250.0   90.0   50.0
-200.0   120.0   50.0
-200.0   90.0   50.0
-200.0   90.0   33.333333333333336
-250.0   90.0   50.0
-200.0   120.0   50.0
-200.0   90.0   33.333333333333336
-250.0   120.0   33.333333333333336
-250.0   120.0   0.0
-200.0   120.0   0.0
-250.0   150.0   0.0
-250.0   120.0   16.666666666666668
-200.0   120.0   0.0
-200.0   150.0   0.0
-250.0   150.0   0.0
-200.0   150.0   16.666666666666668
-250.0   120.0   16.666666666666668
-250.0   150.0   16.666666666666668
-200.0   150.0   16.666666666666668
-250.0   150.0   0.0
-250.0   120.0   16.666666666666668
-200.0   150.0   16.666666666666668
-200.0   120.0   16.666666666666668
-200.0   120.0   0.0
-250.0   120.0   16.666666666666668
-200.0   150.0   16.666666666666668
-200.0   120.0   0.0
-250.0   150.0   0.0
-250.0   120.0   16.666666666666668
-200.0   120.0   16.666666666666668
-250.0   150.0   16.666666666666668
-250.0   120.0   33.333333333333336
-200.0   120.0   16.666666666666668
-200.0   150.0   16.666666666666668
-250.0   150.0   16.666666666666668
-200.0   150.0   33.333333333333336
-250.0   120.0   33.333333333333336
-250.0   150.0   33.333333333333336
-200.0   150.0   33.333333333333336
-250.0   150.0   16.666666666666668
-250.0   120.0   33.333333333333336
-200.0   150.0   33.333333333333336
-200.0   120.0   33.333333333333336
-200.0   120.0   16.666666666666668
-250.0   120.0   33.333333333333336
-200.0   150.0   33.333333333333336
-200.0   120.0   16.666666666666668
-250.0   150.0   16.666666666666668
-250.0   120.0   33.333333333333336
-200.0   120.0   33.333333333333336
-250.0   150.0   33.333333333333336
-250.0   120.0   50.0
-200.0   120.0   33.333333333333336
-200.0   150.0   33.333333333333336
-250.0   150.0   33.333333333333336
-200.0   150.0   50.0
-250.0   120.0   50.0
-250.0   150.0   50.0
-200.0   150.0   50.0
-250.0   150.0   33.333333333333336
-250.0   120.0   50.0
-200.0   150.0   50.0
-200.0   120.0   50.0
-200.0   120.0   33.333333333333336
-250.0   120.0   50.0
-200.0   150.0   50.0
-200.0   120.0   33.333333333333336
-250.0   150.0   33.333333333333336
-200.0   0.0   0.0
-150.0   0.0   0.0
-200.0   30.0   0.0
-200.0   0.0   16.666666666666668
-150.0   0.0   0.0
-150.0   30.0   0.0
-200.0   30.0   0.0
-150.0   30.0   16.666666666666668
-200.0   0.0   16.666666666666668
-200.0   30.0   16.666666666666668
-150.0   30.0   16.666666666666668
-200.0   30.0   0.0
-200.0   0.0   16.666666666666668
-150.0   30.0   16.666666666666668
-150.0   0.0   16.666666666666668
-150.0   0.0   0.0
-200.0   0.0   16.666666666666668
-150.0   30.0   16.666666666666668
-150.0   0.0   0.0
-200.0   30.0   0.0
-200.0   0.0   16.666666666666668
-150.0   0.0   16.666666666666668
-200.0   30.0   16.666666666666668
-200.0   0.0   33.333333333333336
-150.0   0.0   16.666666666666668
-150.0   30.0   16.666666666666668
-200.0   30.0   16.666666666666668
-150.0   30.0   33.333333333333336
-200.0   0.0   33.333333333333336
-200.0   30.0   33.333333333333336
-150.0   30.0   33.333333333333336
-200.0   30.0   16.666666666666668
-200.0   0.0   33.333333333333336
-150.0   30.0   33.333333333333336
-150.0   0.0   33.333333333333336
-150.0   0.0   16.666666666666668
-200.0   0.0   33.333333333333336
-150.0   30.0   33.333333333333336
-150.0   0.0   16.666666666666668
-200.0   30.0   16.666666666666668
-200.0   0.0   33.333333333333336
-150.0   0.0   33.333333333333336
-200.0   30.0   33.333333333333336
-200.0   0.0   50.0
-150.0   0.0   33.333333333333336
-150.0   30.0   33.333333333333336
-200.0   30.0   33.333333333333336
-150.0   30.0   50.0
-200.0   0.0   50.0
-200.0   30.0   50.0
-150.0   30.0   50.0
-200.0   30.0   33.333333333333336
-200.0   0.0   50.0
-150.0   30.0   50.0
-150.0   0.0   50.0
-150.0   0.0   33.333333333333336
-200.0   0.0   50.0
-150.0   30.0   50.0
-150.0   0.0   33.333333333333336
-200.0   30.0   33.333333333333336
-200.0   30.0   0.0
-150.0   30.0   0.0
-200.0   60.0   0.0
-200.0   30.0   16.666666666666668
-150.0   30.0   0.0
-150.0   60.0   0.0
-200.0   60.0   0.0
-150.0   60.0   16.666666666666668
-200.0   30.0   16.666666666666668
-200.0   60.0   16.666666666666668
-150.0   60.0   16.666666666666668
-200.0   60.0   0.0
-200.0   30.0   16.666666666666668
-150.0   60.0   16.666666666666668
-150.0   30.0   16.666666666666668
-150.0   30.0   0.0
-200.0   30.0   16.666666666666668
-150.0   60.0   16.666666666666668
-150.0   30.0   0.0
-200.0   60.0   0.0
-200.0   30.0   16.666666666666668
-150.0   30.0   16.666666666666668
-200.0   60.0   16.666666666666668
-200.0   30.0   33.333333333333336
-150.0   30.0   16.666666666666668
-150.0   60.0   16.666666666666668
-200.0   60.0   16.666666666666668
-150.0   60.0   33.333333333333336
-200.0   30.0   33.333333333333336
-200.0   60.0   33.333333333333336
-150.0   60.0   33.333333333333336
-200.0   60.0   16.666666666666668
-200.0   30.0   33.333333333333336
-150.0   60.0   33.333333333333336
-150.0   30.0   33.333333333333336
-150.0   30.0   16.666666666666668
-200.0   30.0   33.333333333333336
-150.0   60.0   33.333333333333336
-150.0   30.0   16.666666666666668
-200.0   60.0   16.666666666666668
-200.0   30.0   33.333333333333336
-150.0   30.0   33.333333333333336
-200.0   60.0   33.333333333333336
-200.0   30.0   50.0
-150.0   30.0   33.333333333333336
-150.0   60.0   33.333333333333336
-200.0   60.0   33.333333333333336
-150.0   60.0   50.0
-200.0   30.0   50.0
-200.0   60.0   50.0
-150.0   60.0   50.0
-200.0   60.0   33.333333333333336
-200.0   30.0   50.0
-150.0   60.0   50.0
-150.0   30.0   50.0
-150.0   30.0   33.333333333333336
-200.0   30.0   50.0
-150.0   60.0   50.0
-150.0   30.0   33.333333333333336
-200.0   60.0   33.333333333333336
-200.0   60.0   0.0
-150.0   60.0   0.0
-200.0   90.0   0.0
-200.0   60.0   16.666666666666668
-150.0   60.0   0.0
-150.0   90.0   0.0
-200.0   90.0   0.0
-150.0   90.0   16.666666666666668
-200.0   60.0   16.666666666666668
-200.0   90.0   16.666666666666668
-150.0   90.0   16.666666666666668
-200.0   90.0   0.0
-200.0   60.0   16.666666666666668
-150.0   90.0   16.666666666666668
-150.0   60.0   16.666666666666668
-150.0   60.0   0.0
-200.0   60.0   16.666666666666668
-150.0   90.0   16.666666666666668
-150.0   60.0   0.0
-200.0   90.0   0.0
-200.0   60.0   16.666666666666668
-150.0   60.0   16.666666666666668
-200.0   90.0   16.666666666666668
-200.0   60.0   33.333333333333336
-150.0   60.0   16.666666666666668
-150.0   90.0   16.666666666666668
-200.0   90.0   16.666666666666668
-150.0   90.0   33.333333333333336
-200.0   60.0   33.333333333333336
-200.0   90.0   33.333333333333336
-150.0   90.0   33.333333333333336
-200.0   90.0   16.666666666666668
-200.0   60.0   33.333333333333336
-150.0   90.0   33.333333333333336
-150.0   60.0   33.333333333333336
-150.0   60.0   16.666666666666668
-200.0   60.0   33.333333333333336
-150.0   90.0   33.333333333333336
-150.0   60.0   16.666666666666668
-200.0   90.0   16.666666666666668
-200.0   60.0   33.333333333333336
-150.0   60.0   33.333333333333336
-200.0   90.0   33.333333333333336
-200.0   60.0   50.0
-150.0   60.0   33.333333333333336
-150.0   90.0   33.333333333333336
-200.0   90.0   33.333333333333336
-150.0   90.0   50.0
-200.0   60.0   50.0
-200.0   90.0   50.0
-150.0   90.0   50.0
-200.0   90.0   33.333333333333336
-200.0   60.0   50.0
-150.0   90.0   50.0
-150.0   60.0   50.0
-150.0   60.0   33.333333333333336
-200.0   60.0   50.0
-150.0   90.0   50.0
-150.0   60.0   33.333333333333336
-200.0   90.0   33.333333333333336
-200.0   90.0   0.0
-150.0   90.0   0.0
-200.0   120.0   0.0
-200.0   90.0   16.666666666666668
-150.0   90.0   0.0
-150.0   120.0   0.0
-200.0   120.0   0.0
-150.0   120.0   16.666666666666668
-200.0   90.0   16.666666666666668
-200.0   120.0   16.666666666666668
-150.0   120.0   16.666666666666668
-200.0   120.0   0.0
-200.0   90.0   16.666666666666668
-150.0   120.0   16.666666666666668
-150.0   90.0   16.666666666666668
-150.0   90.0   0.0
-200.0   90.0   16.666666666666668
-150.0   120.0   16.666666666666668
-150.0   90.0   0.0
-200.0   120.0   0.0
-200.0   90.0   16.666666666666668
-150.0   90.0   16.666666666666668
-200.0   120.0   16.666666666666668
-200.0   90.0   33.333333333333336
-150.0   90.0   16.666666666666668
-150.0   120.0   16.666666666666668
-200.0   120.0   16.666666666666668
-150.0   120.0   33.333333333333336
-200.0   90.0   33.333333333333336
-200.0   120.0   33.333333333333336
-150.0   120.0   33.333333333333336
-200.0   120.0   16.666666666666668
-200.0   90.0   33.333333333333336
-150.0   120.0   33.333333333333336
-150.0   90.0   33.333333333333336
-150.0   90.0   16.666666666666668
-200.0   90.0   33.333333333333336
-150.0   120.0   33.333333333333336
-150.0   90.0   16.666666666666668
-200.0   120.0   16.666666666666668
-200.0   90.0   33.333333333333336
-150.0   90.0   33.333333333333336
-200.0   120.0   33.333333333333336
-200.0   90.0   50.0
-150.0   90.0   33.333333333333336
-150.0   120.0   33.333333333333336
-200.0   120.0   33.333333333333336
-150.0   120.0   50.0
-200.0   90.0   50.0
-200.0   120.0   50.0
-150.0   120.0   50.0
-200.0   120.0   33.333333333333336
-200.0   90.0   50.0
-150.0   120.0   50.0
-150.0   90.0   50.0
-150.0   90.0   33.333333333333336
-200.0   90.0   50.0
-150.0   120.0   50.0
-150.0   90.0   33.333333333333336
-200.0   120.0   33.333333333333336
-200.0   120.0   0.0
-150.0   120.0   0.0
-200.0   150.0   0.0
-200.0   120.0   16.666666666666668
-150.0   120.0   0.0
-150.0   150.0   0.0
-200.0   150.0   0.0
-150.0   150.0   16.666666666666668
-200.0   120.0   16.666666666666668
-200.0   150.0   16.666666666666668
-150.0   150.0   16.666666666666668
-200.0   150.0   0.0
-200.0   120.0   16.666666666666668
-150.0   150.0   16.666666666666668
-150.0   120.0   16.666666666666668
-150.0   120.0   0.0
-200.0   120.0   16.666666666666668
-150.0   150.0   16.666666666666668
-150.0   120.0   0.0
-200.0   150.0   0.0
-200.0   120.0   16.666666666666668
-150.0   120.0   16.666666666666668
-200.0   150.0   16.666666666666668
-200.0   120.0   33.333333333333336
-150.0   120.0   16.666666666666668
-150.0   150.0   16.666666666666668
-200.0   150.0   16.666666666666668
-150.0   150.0   33.333333333333336
-200.0   120.0   33.333333333333336
-200.0   150.0   33.333333333333336
-150.0   150.0   33.333333333333336
-200.0   150.0   16.666666666666668
-200.0   120.0   33.333333333333336
-150.0   150.0   33.333333333333336
-150.0   120.0   33.333333333333336
-150.0   120.0   16.666666666666668
-200.0   120.0   33.333333333333336
-150.0   150.0   33.333333333333336
-150.0   120.0   16.666666666666668
-200.0   150.0   16.666666666666668
-200.0   120.0   33.333333333333336
-150.0   120.0   33.333333333333336
-200.0   150.0   33.333333333333336
-200.0   120.0   50.0
-150.0   120.0   33.333333333333336
-150.0   150.0   33.333333333333336
-200.0   150.0   33.333333333333336
-150.0   150.0   50.0
-200.0   120.0   50.0
-200.0   150.0   50.0
-150.0   150.0   50.0
-200.0   150.0   33.333333333333336
-200.0   120.0   50.0
-150.0   150.0   50.0
-150.0   120.0   50.0
-150.0   120.0   33.333333333333336
-200.0   120.0   50.0
-150.0   150.0   50.0
-150.0   120.0   33.333333333333336
-200.0   150.0   33.333333333333336
-150.0   0.0   0.0
-100.0   0.0   0.0
-150.0   30.0   0.0
-150.0   0.0   16.666666666666668
-100.0   0.0   0.0
-100.0   30.0   0.0
-150.0   30.0   0.0
-100.0   30.0   16.666666666666668
-150.0   0.0   16.666666666666668
-150.0   30.0   16.666666666666668
-100.0   30.0   16.666666666666668
-150.0   30.0   0.0
-150.0   0.0   16.666666666666668
-100.0   30.0   16.666666666666668
-100.0   0.0   16.666666666666668
-100.0   0.0   0.0
-150.0   0.0   16.666666666666668
-100.0   30.0   16.666666666666668
-100.0   0.0   0.0
-150.0   30.0   0.0
-150.0   0.0   16.666666666666668
-100.0   0.0   16.666666666666668
-150.0   30.0   16.666666666666668
-150.0   0.0   33.333333333333336
-100.0   0.0   16.666666666666668
-100.0   30.0   16.666666666666668
-150.0   30.0   16.666666666666668
-100.0   30.0   33.333333333333336
-150.0   0.0   33.333333333333336
-150.0   30.0   33.333333333333336
-100.0   30.0   33.333333333333336
-150.0   30.0   16.666666666666668
-150.0   0.0   33.333333333333336
-100.0   30.0   33.333333333333336
-100.0   0.0   33.333333333333336
-100.0   0.0   16.666666666666668
-150.0   0.0   33.333333333333336
-100.0   30.0   33.333333333333336
-100.0   0.0   16.666666666666668
-150.0   30.0   16.666666666666668
-150.0   0.0   33.333333333333336
-100.0   0.0   33.333333333333336
-150.0   30.0   33.333333333333336
-150.0   0.0   50.0
-100.0   0.0   33.333333333333336
-100.0   30.0   33.333333333333336
-150.0   30.0   33.333333333333336
-100.0   30.0   50.0
-150.0   0.0   50.0
-150.0   30.0   50.0
-100.0   30.0   50.0
-150.0   30.0   33.333333333333336
-150.0   0.0   50.0
-100.0   30.0   50.0
-100.0   0.0   50.0
-100.0   0.0   33.333333333333336
-150.0   0.0   50.0
-100.0   30.0   50.0
-100.0   0.0   33.333333333333336
-150.0   30.0   33.333333333333336
-150.0   30.0   0.0
-100.0   30.0   0.0
-150.0   60.0   0.0
-150.0   30.0   16.666666666666668
-100.0   30.0   0.0
-100.0   60.0   0.0
-150.0   60.0   0.0
-100.0   60.0   16.666666666666668
-150.0   30.0   16.666666666666668
-150.0   60.0   16.666666666666668
-100.0   60.0   16.666666666666668
-150.0   60.0   0.0
-150.0   30.0   16.666666666666668
-100.0   60.0   16.666666666666668
-100.0   30.0   16.666666666666668
-100.0   30.0   0.0
-150.0   30.0   16.666666666666668
-100.0   60.0   16.666666666666668
-100.0   30.0   0.0
-150.0   60.0   0.0
-150.0   30.0   16.666666666666668
-100.0   30.0   16.666666666666668
-150.0   60.0   16.666666666666668
-150.0   30.0   33.333333333333336
-100.0   30.0   16.666666666666668
-100.0   60.0   16.666666666666668
-150.0   60.0   16.666666666666668
-100.0   60.0   33.333333333333336
-150.0   30.0   33.333333333333336
-150.0   60.0   33.333333333333336
-100.0   60.0   33.333333333333336
-150.0   60.0   16.666666666666668
-150.0   30.0   33.333333333333336
-100.0   60.0   33.333333333333336
-100.0   30.0   33.333333333333336
-100.0   30.0   16.666666666666668
-150.0   30.0   33.333333333333336
-100.0   60.0   33.333333333333336
-100.0   30.0   16.666666666666668
-150.0   60.0   16.666666666666668
-150.0   30.0   33.333333333333336
-100.0   30.0   33.333333333333336
-150.0   60.0   33.333333333333336
-150.0   30.0   50.0
-100.0   30.0   33.333333333333336
-100.0   60.0   33.333333333333336
-150.0   60.0   33.333333333333336
-100.0   60.0   50.0
-150.0   30.0   50.0
-150.0   60.0   50.0
-100.0   60.0   50.0
-150.0   60.0   33.333333333333336
-150.0   30.0   50.0
-100.0   60.0   50.0
-100.0   30.0   50.0
-100.0   30.0   33.333333333333336
-150.0   30.0   50.0
-100.0   60.0   50.0
-100.0   30.0   33.333333333333336
-150.0   60.0   33.333333333333336
-150.0   60.0   0.0
-100.0   60.0   0.0
-150.0   90.0   0.0
-150.0   60.0   16.666666666666668
-100.0   60.0   0.0
-100.0   90.0   0.0
-150.0   90.0   0.0
-100.0   90.0   16.666666666666668
-150.0   60.0   16.666666666666668
-150.0   90.0   16.666666666666668
-100.0   90.0   16.666666666666668
-150.0   90.0   0.0
-150.0   60.0   16.666666666666668
-100.0   90.0   16.666666666666668
-100.0   60.0   16.666666666666668
-100.0   60.0   0.0
-150.0   60.0   16.666666666666668
-100.0   90.0   16.666666666666668
-100.0   60.0   0.0
-150.0   90.0   0.0
-150.0   60.0   16.666666666666668
-100.0   60.0   16.666666666666668
-150.0   90.0   16.666666666666668
-150.0   60.0   33.333333333333336
-100.0   60.0   16.666666666666668
-100.0   90.0   16.666666666666668
-150.0   90.0   16.666666666666668
-100.0   90.0   33.333333333333336
-150.0   60.0   33.333333333333336
-150.0   90.0   33.333333333333336
-100.0   90.0   33.333333333333336
-150.0   90.0   16.666666666666668
-150.0   60.0   33.333333333333336
-100.0   90.0   33.333333333333336
-100.0   60.0   33.333333333333336
-100.0   60.0   16.666666666666668
-150.0   60.0   33.333333333333336
-100.0   90.0   33.333333333333336
-100.0   60.0   16.666666666666668
-150.0   90.0   16.666666666666668
-150.0   60.0   33.333333333333336
-100.0   60.0   33.333333333333336
-150.0   90.0   33.333333333333336
-150.0   60.0   50.0
-100.0   60.0   33.333333333333336
-100.0   90.0   33.333333333333336
-150.0   90.0   33.333333333333336
-100.0   90.0   50.0
-150.0   60.0   50.0
-150.0   90.0   50.0
-100.0   90.0   50.0
-150.0   90.0   33.333333333333336
-150.0   60.0   50.0
-100.0   90.0   50.0
-100.0   60.0   50.0
-100.0   60.0   33.333333333333336
-150.0   60.0   50.0
-100.0   90.0   50.0
-100.0   60.0   33.333333333333336
-150.0   90.0   33.333333333333336
-150.0   90.0   0.0
-100.0   90.0   0.0
-150.0   120.0   0.0
-150.0   90.0   16.666666666666668
-100.0   90.0   0.0
-100.0   120.0   0.0
-150.0   120.0   0.0
-100.0   120.0   16.666666666666668
-150.0   90.0   16.666666666666668
-150.0   120.0   16.666666666666668
-100.0   120.0   16.666666666666668
-150.0   120.0   0.0
-150.0   90.0   16.666666666666668
-100.0   120.0   16.666666666666668
-100.0   90.0   16.666666666666668
-100.0   90.0   0.0
-150.0   90.0   16.666666666666668
-100.0   120.0   16.666666666666668
-100.0   90.0   0.0
-150.0   120.0   0.0
-150.0   90.0   16.666666666666668
-100.0   90.0   16.666666666666668
-150.0   120.0   16.666666666666668
-150.0   90.0   33.333333333333336
-100.0   90.0   16.666666666666668
-100.0   120.0   16.666666666666668
-150.0   120.0   16.666666666666668
-100.0   120.0   33.333333333333336
-150.0   90.0   33.333333333333336
-150.0   120.0   33.333333333333336
-100.0   120.0   33.333333333333336
-150.0   120.0   16.666666666666668
-150.0   90.0   33.333333333333336
-100.0   120.0   33.333333333333336
-100.0   90.0   33.333333333333336
-100.0   90.0   16.666666666666668
-150.0   90.0   33.333333333333336
-100.0   120.0   33.333333333333336
-100.0   90.0   16.666666666666668
-150.0   120.0   16.666666666666668
-150.0   90.0   33.333333333333336
-100.0   90.0   33.333333333333336
-150.0   120.0   33.333333333333336
-150.0   90.0   50.0
-100.0   90.0   33.333333333333336
-100.0   120.0   33.333333333333336
-150.0   120.0   33.333333333333336
-100.0   120.0   50.0
-150.0   90.0   50.0
-150.0   120.0   50.0
-100.0   120.0   50.0
-150.0   120.0   33.333333333333336
-150.0   90.0   50.0
-100.0   120.0   50.0
-100.0   90.0   50.0
-100.0   90.0   33.333333333333336
-150.0   90.0   50.0
-100.0   120.0   50.0
-100.0   90.0   33.333333333333336
-150.0   120.0   33.333333333333336
-150.0   120.0   0.0
-100.0   120.0   0.0
-150.0   150.0   0.0
-150.0   120.0   16.666666666666668
-100.0   120.0   0.0
-100.0   150.0   0.0
-150.0   150.0   0.0
-100.0   150.0   16.666666666666668
-150.0   120.0   16.666666666666668
-150.0   150.0   16.666666666666668
-100.0   150.0   16.666666666666668
-150.0   150.0   0.0
-150.0   120.0   16.666666666666668
-100.0   150.0   16.666666666666668
-100.0   120.0   16.666666666666668
-100.0   120.0   0.0
-150.0   120.0   16.666666666666668
-100.0   150.0   16.666666666666668
-100.0   120.0   0.0
-150.0   150.0   0.0
-150.0   120.0   16.666666666666668
-100.0   120.0   16.666666666666668
-150.0   150.0   16.666666666666668
-150.0   120.0   33.333333333333336
-100.0   120.0   16.666666666666668
-100.0   150.0   16.666666666666668
-150.0   150.0   16.666666666666668
-100.0   150.0   33.333333333333336
-150.0   120.0   33.333333333333336
-150.0   150.0   33.333333333333336
-100.0   150.0   33.333333333333336
-150.0   150.0   16.666666666666668
-150.0   120.0   33.333333333333336
-100.0   150.0   33.333333333333336
-100.0   120.0   33.333333333333336
-100.0   120.0   16.666666666666668
-150.0   120.0   33.333333333333336
-100.0   150.0   33.333333333333336
-100.0   120.0   16.666666666666668
-150.0   150.0   16.666666666666668
-150.0   120.0   33.333333333333336
-100.0   120.0   33.333333333333336
-150.0   150.0   33.333333333333336
-150.0   120.0   50.0
-100.0   120.0   33.333333333333336
-100.0   150.0   33.333333333333336
-150.0   150.0   33.333333333333336
-100.0   150.0   50.0
-150.0   120.0   50.0
-150.0   150.0   50.0
-100.0   150.0   50.0
-150.0   150.0   33.333333333333336
-150.0   120.0   50.0
-100.0   150.0   50.0
-100.0   120.0   50.0
-100.0   120.0   33.333333333333336
-150.0   120.0   50.0
-100.0   150.0   50.0
-100.0   120.0   33.333333333333336
-150.0   150.0   33.333333333333336
-100.0   0.0   0.0
-50.0   0.0   0.0
-100.0   30.0   0.0
-100.0   0.0   16.666666666666668
-50.0   0.0   0.0
-50.0   30.0   0.0
-100.0   30.0   0.0
-50.0   30.0   16.666666666666668
-100.0   0.0   16.666666666666668
-100.0   30.0   16.666666666666668
-50.0   30.0   16.666666666666668
-100.0   30.0   0.0
-100.0   0.0   16.666666666666668
-50.0   30.0   16.666666666666668
-50.0   0.0   16.666666666666668
-50.0   0.0   0.0
-100.0   0.0   16.666666666666668
-50.0   30.0   16.666666666666668
-50.0   0.0   0.0
-100.0   30.0   0.0
-100.0   0.0   16.666666666666668
-50.0   0.0   16.666666666666668
-100.0   30.0   16.666666666666668
-100.0   0.0   33.333333333333336
-50.0   0.0   16.666666666666668
-50.0   30.0   16.666666666666668
-100.0   30.0   16.666666666666668
-50.0   30.0   33.333333333333336
-100.0   0.0   33.333333333333336
-100.0   30.0   33.333333333333336
-50.0   30.0   33.333333333333336
-100.0   30.0   16.666666666666668
-100.0   0.0   33.333333333333336
-50.0   30.0   33.333333333333336
-50.0   0.0   33.333333333333336
-50.0   0.0   16.666666666666668
-100.0   0.0   33.333333333333336
-50.0   30.0   33.333333333333336
-50.0   0.0   16.666666666666668
-100.0   30.0   16.666666666666668
-100.0   0.0   33.333333333333336
-50.0   0.0   33.333333333333336
-100.0   30.0   33.333333333333336
-100.0   0.0   50.0
-50.0   0.0   33.333333333333336
-50.0   30.0   33.333333333333336
-100.0   30.0   33.333333333333336
-50.0   30.0   50.0
-100.0   0.0   50.0
-100.0   30.0   50.0
-50.0   30.0   50.0
-100.0   30.0   33.333333333333336
-100.0   0.0   50.0
-50.0   30.0   50.0
-50.0   0.0   50.0
-50.0   0.0   33.333333333333336
-100.0   0.0   50.0
-50.0   30.0   50.0
-50.0   0.0   33.333333333333336
-100.0   30.0   33.333333333333336
-100.0   30.0   0.0
-50.0   30.0   0.0
-100.0   60.0   0.0
-100.0   30.0   16.666666666666668
-50.0   30.0   0.0
-50.0   60.0   0.0
-100.0   60.0   0.0
-50.0   60.0   16.666666666666668
-100.0   30.0   16.666666666666668
-100.0   60.0   16.666666666666668
-50.0   60.0   16.666666666666668
-100.0   60.0   0.0
-100.0   30.0   16.666666666666668
-50.0   60.0   16.666666666666668
-50.0   30.0   16.666666666666668
-50.0   30.0   0.0
-100.0   30.0   16.666666666666668
-50.0   60.0   16.666666666666668
-50.0   30.0   0.0
-100.0   60.0   0.0
-100.0   30.0   16.666666666666668
-50.0   30.0   16.666666666666668
-100.0   60.0   16.666666666666668
-100.0   30.0   33.333333333333336
-50.0   30.0   16.666666666666668
-50.0   60.0   16.666666666666668
-100.0   60.0   16.666666666666668
-50.0   60.0   33.333333333333336
-100.0   30.0   33.333333333333336
-100.0   60.0   33.333333333333336
-50.0   60.0   33.333333333333336
-100.0   60.0   16.666666666666668
-100.0   30.0   33.333333333333336
-50.0   60.0   33.333333333333336
-50.0   30.0   33.333333333333336
-50.0   30.0   16.666666666666668
-100.0   30.0   33.333333333333336
-50.0   60.0   33.333333333333336
-50.0   30.0   16.666666666666668
-100.0   60.0   16.666666666666668
-100.0   30.0   33.333333333333336
-50.0   30.0   33.333333333333336
-100.0   60.0   33.333333333333336
-100.0   30.0   50.0
-50.0   30.0   33.333333333333336
-50.0   60.0   33.333333333333336
-100.0   60.0   33.333333333333336
-50.0   60.0   50.0
-100.0   30.0   50.0
-100.0   60.0   50.0
-50.0   60.0   50.0
-100.0   60.0   33.333333333333336
-100.0   30.0   50.0
-50.0   60.0   50.0
-50.0   30.0   50.0
-50.0   30.0   33.333333333333336
-100.0   30.0   50.0
-50.0   60.0   50.0
-50.0   30.0   33.333333333333336
-100.0   60.0   33.333333333333336
-100.0   60.0   0.0
-50.0   60.0   0.0
-100.0   90.0   0.0
-100.0   60.0   16.666666666666668
-50.0   60.0   0.0
-50.0   90.0   0.0
-100.0   90.0   0.0
-50.0   90.0   16.666666666666668
-100.0   60.0   16.666666666666668
-100.0   90.0   16.666666666666668
-50.0   90.0   16.666666666666668
-100.0   90.0   0.0
-100.0   60.0   16.666666666666668
-50.0   90.0   16.666666666666668
-50.0   60.0   16.666666666666668
-50.0   60.0   0.0
-100.0   60.0   16.666666666666668
-50.0   90.0   16.666666666666668
-50.0   60.0   0.0
-100.0   90.0   0.0
-100.0   60.0   16.666666666666668
-50.0   60.0   16.666666666666668
-100.0   90.0   16.666666666666668
-100.0   60.0   33.333333333333336
-50.0   60.0   16.666666666666668
-50.0   90.0   16.666666666666668
-100.0   90.0   16.666666666666668
-50.0   90.0   33.333333333333336
-100.0   60.0   33.333333333333336
-100.0   90.0   33.333333333333336
-50.0   90.0   33.333333333333336
-100.0   90.0   16.666666666666668
-100.0   60.0   33.333333333333336
-50.0   90.0   33.333333333333336
-50.0   60.0   33.333333333333336
-50.0   60.0   16.666666666666668
-100.0   60.0   33.333333333333336
-50.0   90.0   33.333333333333336
-50.0   60.0   16.666666666666668
-100.0   90.0   16.666666666666668
-100.0   60.0   33.333333333333336
-50.0   60.0   33.333333333333336
-100.0   90.0   33.333333333333336
-100.0   60.0   50.0
-50.0   60.0   33.333333333333336
-50.0   90.0   33.333333333333336
-100.0   90.0   33.333333333333336
-50.0   90.0   50.0
-100.0   60.0   50.0
-100.0   90.0   50.0
-50.0   90.0   50.0
-100.0   90.0   33.333333333333336
-100.0   60.0   50.0
-50.0   90.0   50.0
-50.0   60.0   50.0
-50.0   60.0   33.333333333333336
-100.0   60.0   50.0
-50.0   90.0   50.0
-50.0   60.0   33.333333333333336
-100.0   90.0   33.333333333333336
-100.0   90.0   0.0
-50.0   90.0   0.0
-100.0   120.0   0.0
-100.0   90.0   16.666666666666668
-50.0   90.0   0.0
-50.0   120.0   0.0
-100.0   120.0   0.0
-50.0   120.0   16.666666666666668
-100.0   90.0   16.666666666666668
-100.0   120.0   16.666666666666668
-50.0   120.0   16.666666666666668
-100.0   120.0   0.0
-100.0   90.0   16.666666666666668
-50.0   120.0   16.666666666666668
-50.0   90.0   16.666666666666668
-50.0   90.0   0.0
-100.0   90.0   16.666666666666668
-50.0   120.0   16.666666666666668
-50.0   90.0   0.0
-100.0   120.0   0.0
-100.0   90.0   16.666666666666668
-50.0   90.0   16.666666666666668
-100.0   120.0   16.666666666666668
-100.0   90.0   33.333333333333336
-50.0   90.0   16.666666666666668
-50.0   120.0   16.666666666666668
-100.0   120.0   16.666666666666668
-50.0   120.0   33.333333333333336
-100.0   90.0   33.333333333333336
-100.0   120.0   33.333333333333336
-50.0   120.0   33.333333333333336
-100.0   120.0   16.666666666666668
-100.0   90.0   33.333333333333336
-50.0   120.0   33.333333333333336
-50.0   90.0   33.333333333333336
-50.0   90.0   16.666666666666668
-100.0   90.0   33.333333333333336
-50.0   120.0   33.333333333333336
-50.0   90.0   16.666666666666668
-100.0   120.0   16.666666666666668
-100.0   90.0   33.333333333333336
-50.0   90.0   33.333333333333336
-100.0   120.0   33.333333333333336
-100.0   90.0   50.0
-50.0   90.0   33.333333333333336
-50.0   120.0   33.333333333333336
-100.0   120.0   33.333333333333336
-50.0   120.0   50.0
-100.0   90.0   50.0
-100.0   120.0   50.0
-50.0   120.0   50.0
-100.0   120.0   33.333333333333336
-100.0   90.0   50.0
-50.0   120.0   50.0
-50.0   90.0   50.0
-50.0   90.0   33.333333333333336
-100.0   90.0   50.0
-50.0   120.0   50.0
-50.0   90.0   33.333333333333336
-100.0   120.0   33.333333333333336
-100.0   120.0   0.0
-50.0   120.0   0.0
-100.0   150.0   0.0
-100.0   120.0   16.666666666666668
-50.0   120.0   0.0
-50.0   150.0   0.0
-100.0   150.0   0.0
-50.0   150.0   16.666666666666668
-100.0   120.0   16.666666666666668
-100.0   150.0   16.666666666666668
-50.0   150.0   16.666666666666668
-100.0   150.0   0.0
-100.0   120.0   16.666666666666668
-50.0   150.0   16.666666666666668
-50.0   120.0   16.666666666666668
-50.0   120.0   0.0
-100.0   120.0   16.666666666666668
-50.0   150.0   16.666666666666668
-50.0   120.0   0.0
-100.0   150.0   0.0
-100.0   120.0   16.666666666666668
-50.0   120.0   16.666666666666668
-100.0   150.0   16.666666666666668
-100.0   120.0   33.333333333333336
-50.0   120.0   16.666666666666668
-50.0   150.0   16.666666666666668
-100.0   150.0   16.666666666666668
-50.0   150.0   33.333333333333336
-100.0   120.0   33.333333333333336
-100.0   150.0   33.333333333333336
-50.0   150.0   33.333333333333336
-100.0   150.0   16.666666666666668
-100.0   120.0   33.333333333333336
-50.0   150.0   33.333333333333336
-50.0   120.0   33.333333333333336
-50.0   120.0   16.666666666666668
-100.0   120.0   33.333333333333336
-50.0   150.0   33.333333333333336
-50.0   120.0   16.666666666666668
-100.0   150.0   16.666666666666668
-100.0   120.0   33.333333333333336
-50.0   120.0   33.333333333333336
-100.0   150.0   33.333333333333336
-100.0   120.0   50.0
-50.0   120.0   33.333333333333336
-50.0   150.0   33.333333333333336
-100.0   150.0   33.333333333333336
-50.0   150.0   50.0
-100.0   120.0   50.0
-100.0   150.0   50.0
-50.0   150.0   50.0
-100.0   150.0   33.333333333333336
-100.0   120.0   50.0
-50.0   150.0   50.0
-50.0   120.0   50.0
-50.0   120.0   33.333333333333336
-100.0   120.0   50.0
-50.0   150.0   50.0
-50.0   120.0   33.333333333333336
-100.0   150.0   33.333333333333336
-50.0   0.0   0.0
0.0   0.0   0.0
-50.0   30.0   0.0
-50.0   0.0   16.666666666666668
0.0   0.0   0.0
0.0   30.0   0.0
-50.0   30.0   0.0
0.0   30.0   16.666666666666668
-50.0   0.0   16.666666666666668
-50.0   30.0   16.666666666666668
0.0   30.0   16.666666666666668
-50.0   30.0   0.0
-50.0   0.0   16.666666666666668
0.0   30.0   16.666666666666668
0.0   0.0   16.666666666666668
0.0   0.0   0.0
-50.0   0.0   16.666666666666668
0.0   30.0   16.666666666666668
0.0   0.0   0.0
-50.0   30.0   0.0
-50.0   0.0   16.666666666666668
0.0   0.0   16.666666666666668
-50.0   30.0   16.666666666666668
-50.0   0.0   33.333333333333336
0.0   0.0   16.666666666666668
0.0   30.0   16.666666666666668
-50.0   30.0   16.666666666666668
0.0   30.0   33.333333333333336
-50.0   0.0   33.333333333333336
-50.0   30.0   33.333333333333336
0.0   30.0   33.333333333333336
-50.0   30.0   16.666666666666668
-50.0   0.0   33.333333333333336
0.0   30.0   33.333333333333336
0.0   0.0   33.333333333333336
0.0   0.0   16.666666666666668
-50.0   0.0   33.333333333333336
0.0   30.0   33.333333333333336
0.0   0.0   16.666666666666668
-50.0   30.0   16.666666666666668
-50.0   0.0   33.333333333333336
0.0   0.0   33.333333333333336
-50.0   30.0   33.333333333333336
-50.0   0.0   50.0
0.0   0.0   33.333333333333336
0.0   30.0   33.333333333333336
-50.0   30.0   33.333333333333336
0.0   30.0   50.0
-50.0   0.0   50.0
-50.0   30.0   50.0
0.0   30.0   50.0
-50.0   30.0   33.333333333333336
-50.0   0.0   50.0
0.0   30.0   50.0
0.0   0.0   50.0
0.0   0.0   33.333333333333336
-50.0   0.0   50.0
0.0   30.0   50.0
0.0   0.0   33.333333333333336
-50.0   30.0   33.333333333333336
-50.0   30.0   0.0
0.0   30.0   0.0
-50.0   60.0   0.0
-50.0   30.0   16.666666666666668
0.0   30.0   0.0
0.0   60.0   0.0
-50.0   60.0   0.0
0.0   60.0   16.666666666666668
-50.0   30.0   16.666666666666668
-50.0   60.0   16.666666666666668
0.0   60.0   16.666666666666668
-50.0   60.0   0.0
-50.0   30.0   16.666666666666668
0.0   60.0   16.666666666666668
0.0   30.0   16.666666666666668
0.0   30.0   0.0
-50.0   30.0   16.666666666666668
0.0   60.0   16.666666666666668
0.0   30.0   0.0
-50.0   60.0   0.0
-50.0   30.0   16.666666666666668
0.0   30.0   16.666666666666668
-50.0   60.0   16.666666666666668
-50.0   30.0   33.333333333333336
0.0   30.0   16.666666666666668
0.0   60.0   16.666666666666668
-50.0   60.0   16.666666666666668
0.0   60.0   33.333333333333336
-50.0   30.0   33.333333333333336
-50.0   60.0   33.333333333333336
0.0   60.0   33.333333333333336
-50.0   60.0   16.666666666666668
-50.0   30.0   33.333333333333336
0.0   60.0   33.333333333333336
0.0   30.0   33.333333333333336
0.0   30.0   16.666666666666668
-50.0   30.0   33.333333333333336
0.0   60.0   33.333333333333336
0.0   30.0   16.666666666666668
-50.0   60.0   16.666666666666668
-50.0   30.0   33.333333333333336
0.0   30.0   33.333333333333336
-50.0   60.0   33.333333333333336
-50.0   30.0   50.0
0.0   30.0   33.333333333333336
0.0   60.0   33.333333333333336
-50.0   60.0   33.333333333333336
0.0   60.0   50.0
-50.0   30.0   50.0
-50.0   60.0   50.0
0.0   60.0   50.0
-50.0   60.0   33.333333333333336
-50.0   30.0   50.0
0.0   60.0   50.0
0.0   30.0   50.0
0.0   30.0   33.333333333333336
-50.0   30.0   50.0
0.0   60.0   50.0
0.0   30.0   33.333333333333336
-50.0   60.0   33.333333333333336
-50.0   60.0   0.0
0.0   60.0   0.0
-50.0   90.0   0.0
-50.0   60.0   16.666666666666668
0.0   60.0   0.0
0.0   90.0   0.0
-50.0   90.0   0.0
0.0   90.0   16.666666666666668
-50.0   60.0   16.666666666666668
-50.0   90.0   16.666666666666668
0.0   90.0   16.666666666666668
-50.0   90.0   0.0
-50.0   60.0   16.666666666666668
0.0   90.0   16.666666666666668
0.0   60.0   16.666666666666668
0.0   60.0   0.0
-50.0   60.0   16.666666666666668
0.0   90.0   16.666666666666668
0.0   60.0   0.0
-50.0   90.0   0.0
-50.0   60.0   16.666666666666668
0.0   60.0   16.666666666666668
-50.0   90.0   16.666666666666668
-50.0   60.0   33.333333333333336
0.0   60.0   16.666666666666668
0.0   90.0   16.666666666666668
-50.0   90.0   16.666666666666668
0.0   90.0   33.333333333333336
-50.0   60.0   33.333333333333336
-50.0   90.0   33.333333333333336
0.0   90.0   33.333333333333336
-50.0   90.0   16.666666666666668
-50.0   60.0   33.333333333333336
0.0   90.0   33.333333333333336
0.0   60.0   33.333333333333336
0.0   60.0   16.666666666666668
-50.0   60.0   33.333333333333336
0.0   90.0   33.333333333333336
0.0   60.0   16.666666666666668
-50.0   90.0   16.666666666666668
-50.0   60.0   33.333333333333336
0.0   60.0   33.333333333333336
-50.0   90.0   33.333333333333336
-50.0   60.0   50.0
0.0   60.0   33.333333333333336
0.0   90.0   33.333333333333336
-50.0   90.0   33.333333333333336
0.0   90.0   50.0
-50.0   60.0   50.0
-50.0   90.0   50.0
0.0   90.0   50.0
-50.0   90.0   33.333333333333336
-50.0   60.0   50.0
0.0   90.0   50.0
0.0   60.0   50.0
0.0   60.0   33.333333333333336
-50.0   60.0   50.0
0.0   90.0   50.0
0.0   60.0   33.333333333333336
-50.0   90.0   33.333333333333336
-50.0   90.0   0.0
0.0   90.0   0.0
-50.0   120.0   0.0
-50.0   90.0   16.666666666666668
0.0   90.0   0.0
0.0   120.0   0.0
-50.0   120.0   0.0
0.0   120.0   16.666666666666668
-50.0   90.0   16.666666666666668
-50.0   120.0   16.666666666666668
0.0   120.0   16.666666666666668
-50.0   120.0   0.0
-50.0   90.0   16.666666666666668
0.0   120.0   16.666666666666668
0.0   90.0   16.666666666666668
0.0   90.0   0.0
-50.0   90.0   16.666666666666668
0.0   120.0   16.666666666666668
0.0   90.0   0.0
-50.0   120.0   0.0
-50.0   90.0   16.666666666666668
0.0   90.0   16.666666666666668
-50.0   120.0   16.666666666666668
-50.0   90.0   33.333333333333336
0.0   90.0   16.666666666666668
0.0   120.0   16.666666666666668
-50.0   120.0   16.666666666666668
0.0   120.0   33.333333333333336
-50.0   90.0   33.333333333333336
-50.0   120.0   33.333333333333336
0.0   120.0   33.333333333333336
-50.0   120.0   16.666666666666668
-50.0   90.0   33.333333333333336
0.0   120.0   33.333333333333336
0.0   90.0   33.333333333333336
0.0   90.0   16.666666666666668
-50.0   90.0   33.333333333333336
0.0   120.0   33.333333333333336
0.0   90.0   16.666666666666668
-50.0   120.0   16.666666666666668
-50.0   90.0   33.333333333333336
0.0   90.0   33.333333333333336
-50.0   120.0   33.333333333333336
-50.0   90.0   50.0
0.0   90.0   33.333333333333336
0.0   120.0   33.333333333333336
-50.0   120.0   33.333333333333336
0.0   120.0   50.0
-50.0   90.0   50.0
-50.0   120.0   50.0
0.0   120.0   50.0
-50.0   120.0   33.333333333333336
-50.0   90.0   50.0
0.0   120.0   50.0
0.0   90.0   50.0
0.0   90.0   33.333333333333336
-50.0   90.0   50.0
0.0   120.0   50.0
0.0   90.0   33.333333333333336
-50.0   120.0   33.333333333333336
-50.0   120.0   0.0
0.0   120.0   0.0
-50.0   150.0   0.0
-50.0   120.0   16.666666666666668
0.0   120.0   0.0
0.0   150.0   0.0
-50.0   150.0   0.0
0.0   150.0   16.666666666666668
-50.0   120.0   16.666666666666668
-50.0   150.0   16.666666666666668
0.0   150.0   16.666666666666668
-50.0   150.0   0.0
-50.0   120.0   16.666666666666668
0.0   150.0   16.666666666666668
0.0   120.0   16.666666666666668
0.0   120.0   0.0
-50.0   120.0   16.666666666666668
0.0   150.0   16.666666666666668
0.0   120.0   0.0
-50.0   150.0   0.0
-50.0   120.0   16.666666666666668
0.0   120.0   16.666666666666668
-50.0   150.0   16.666666666666668
-50.0   120.0   33.333333333333336
0.0   120.0   16.666666666666668
0.0   150.0   16.666666666666668
-50.0   150.0   16.666666666666668
0.0   150.0   33.333333333333336
-50.0   120.0   33.333333333333336
-50.0   150.0   33.333333333333336
0.0   150.0   33.333333333333336
-50.0   150.0   16.666666666666668
-50.0   120.0   33.333333333333336
0.0   150.0   33.333333333333336
0.0   120.0   33.333333333333336
0.0   120.0   16.666666666666668
-50.0   120.0   33.333333333333336
0.0   150.0   33.333333333333336
0.0   120.0   16.666666666666668
-50.0   150.0   16.666666666666668
-50.0   120.0   33.333333333333336
0.0   120.0   33.333333333333336
-50.0   150.0   33.333333333333336
-50.0   120.0   50.0
0.0   120.0   33.333333333333336
0.0   150.0   33.333333333333336
-50.0   150.0   33.333333333333336
0.0   150.0   50.0
-50.0   120.0   50.0
-50.0   150.0   50.0
0.0   150.0   50.0
-50.0   150.0   33.333333333333336
-50.0   120.0   50.0
0.0   150.0   50.0
0.0   120.0   50.0
0.0   120.0   33.333333333333336
-50.0   120.0   50.0
0.0   150.0   50.0
0.0   120.0   33.333333333333336
-50.0   150.0   33.333333333333336
0.0   0.0   0.0
50.0   0.0   0.0
0.0   30.0   0.0
0.0   0.0   16.666666666666668
50.0   0.0   0.0
50.0   30.0   0.0
0.0   30.0   0.0
50.0   30.0   16.666666666666668
0.0   0.0   16.666666666666668
0.0   30.0   16.666666666666668
50.0   30.0   16.666666666666668
0.0   30.0   0.0
0.0   0.0   16.666666666666668
50.0   30.0   16.666666666666668
50.0   0.0   16.666666666666668
50.0   0.0   0.0
0.0   0.0   16.666666666666668
50.0   30.0   16.666666666666668
50.0   0.0   0.0
0.0   30.0   0.0
0.0   0.0   16.666666666666668
50.0   0.0   16.666666666666668
0.0   30.0   16.666666666666668
0.0   0.0   33.333333333333336
50.0   0.0   16.666666666666668
50.0   30.0   16.666666666666668
0.0   30.0   16.666666666666668
50.0   30.0   33.333333333333336
0.0   0.0   33.333333333333336
0.0   30.0   33.333333333333336
50.0   30.0   33.333333333333336
0.0   30.0   16.666666666666668
0.0   0.0   33.333333333333336
50.0   30.0   33.333333333333336
50.0   0.0   33.333333333333336
50.0   0.0   16.666666666666668
0.0   0.0   33.333333333333336
50.0   30.0   33.333333333333336
50.0   0.0   16.666666666666668
0.0   30.0   16.666666666666668
0.0   0.0   33.333333333333336
50.0   0.0   33.333333333333336
0.0   30.0   33.333333333333336
0.0   0.0   50.0
50.0   0.0   33.333333333333336
50.0   30.0   33.333333333333336
0.0   30.0   33.333333333333336
50.0   30.0   50.0
0.0   0.0   50.0
0.0   30.0   50.0
50.0   30.0   50.0
0.0   30.0   33.333333333333336
0.0   0.0   50.0
50.0   30.0   50.0
50.0   0.0   50.0
50.0   0.0   33.333333333333336
0.0   0.0   50.0
50.0   30.0   50.0
50.0   0.0   33.333333333333336
0.0   30.0   33.333333333333336
0.0   30.0   0.0
50.0   30.0   0.0
0.0   60.0   0.0
0.0   30.0   16.666666666666668
50.0   30.0   0.0
50.0   60.0   0.0
0.0   60.0   0.0
50.0   60.0   16.666666666666668
0.0   30.0   16.666666666666668
0.0   60.0   16.666666666666668
50.0   60.0   16.666666666666668
0.0   60.0   0.0
0.0   30.0   16.666666666666668
50.0   60.0   16.666666666666668
50.0   30.0   16.666666666666668
50.0   30.0   0.0
0.0   30.0   16.666666666666668
50.0   60.0   16.666666666666668
50.0   30.0   0.0
0.0   60.0   0.0
0.0   30.0   16.666666666666668
50.0   30.0   16.666666666666668
0.0   60.0   16.666666666666668
0.0   30.0   33.333333333333336
50.0   30.0   16.666666666666668
50.0   60.0   16.666666666666668
0.0   60.0   16.666666666666668
50.0   60.0   33.333333333333336
0.0   30.0   33.333333333333336
0.0   60.0   33.333333333333336
50.0   60.0   33.333333333333336
0.0   60.0   16.666666666666668
0.0   30.0   33.333333333333336
50.0   60.0   33.333333333333336
50.0   30.0   33.333333333333336
50.0   30.0   16.666666666666668
0.0   30.0   33.333333333333336
50.0   60.0   33.333333333333336
50.0   30.0   16.666666666666668
0.0   60.0   16.666666666666668
0.0   30.0   33.333333333333336
50.0   30.0   33.333333333333336
0.0   60.0   33.333333333333336
0.0   30.0   50.0
50.0   30.0   33.333333333333336
50.0   60.0   33.333333333333336
0.0   60.0   33.333333333333336
50.0   60.0   50.0
0.0   30.0   50.0
0.0   60.0   50.0
50.0   60.0   50.0
0.0   60.0   33.333333333333336
0.0   30.0   50.0
50.0   60.0   50.0
50.0   30.0   50.0
50.0   30.0   33.333333333333336
0.0   30.0   50.0
50.0   60.0   50.0
50.0   30.0   33.333333333333336
0.0   60.0   33.333333333333336
0.0   60.0   0.0
50.0   60.0   0.0
0.0   90.0   0.0
0.0   60.0   16.666666666666668
50.0   60.0   0.0
50.0   90.0   0.0
0.0   90.0   0.0
50.0   90.0   16.666666666666668
0.0   60.0   16.666666666666668
0.0   90.0   16.666666666666668
50.0   90.0   16.666666666666668
0.0   90.0   0.0
0.0   60.0   16.666666666666668
50.0   90.0   16.666666666666668
50.0   60.0   16.666666666666668
50.0   60.0   0.0
0.0   60.0   16.666666666666668
50.0   90.0   16.666666666666668
50.0   60.0   0.0
0.0   90.0   0.0
0.0   60.0   16.666666666666668
50.0   60.0   16.666666666666668
0.0   90.0   16.666666666666668
0.0   60.0   33.333333333333336
50.0   60.0   16.666666666666668
50.0   90.0   16.666666666666668
0.0   90.0   16.666666666666668
50.0   90.0   33.333333333333336
0.0   60.0   33.333333333333336
0.0   90.0   33.333333333333336
50.0   90.0   33.333333333333336
0.0   90.0   16.666666666666668
0.0   60.0   33.333333333333336
50.0   90.0   33.333333333333336
50.0   60.0   33.333333333333336
50.0   60.0   16.666666666666668
0.0   60.0   33.333333333333336
50.0   90.0   33.333333333333336
50.0   60.0   16.666666666666668
0.0   90.0   16.666666666666668
0.0   60.0   33.333333333333336
50.0   60.0   33.333333333333336
0.0   90.0   33.333333333333336
0.0   60.0   50.0
50.0   60.0   33.333333333333336
50.0   90.0   33.333333333333336
0.0   90.0   33.333333333333336
50.0   90.0   50.0
0.0   60.0   50.0
0.0   90.0   50.0
50.0   90.0   50.0
0.0   90.0   33.333333333333336
0.0   60.0   50.0
50.0   90.0   50.0
50.0   60.0   50.0
50.0   60.0   33.333333333333336
0.0   60.0   50.0
50.0   90.0   50.0
50.0   60.0   33.333333333333336
0.0   90.0   33.333333333333336
0.0   90.0   0.0
50.0   90.0   0.0
0.0   120.0   0.0
0.0   90.0   16.666666666666668
50.0   90.0   0.0
50.0   120.0   0.0
0.0   120.0   0.0
50.0   120.0   16.666666666666668
0.0   90.0   16.666666666666668
0.0   120.0   16.666666666666668
50.0   120.0   16.666666666666668
0.0   120.0   0.0
0.0   90.0   16.666666666666668
50.0   120.0   16.666666666666668
50.0   90.0   16.666666666666668
50.0   90.0   0.0
0.0   90.0   16.666666666666668
50.0   120.0   16.666666666666668
50.0   90.0   0.0
0.0   120.0   0.0
0.0   90.0   16.666666666666668
50.0   90.0   16.666666666666668
0.0   120.0   16.666666666666668
0.0   90.0   33.333333333333336
50.0   90.0   16.666666666666668
50.0   120.0   16.666666666666668
0.0   120.0   16.666666666666668
50.0   120.0   33.333333333333336
0.0   90.0   33.333333333333336
0.0   120.0   33.333333333333336
50.0   120.0   33.333333333333336
0.0   120.0   16.666666666666668
0.0   90.0   33.333333333333336
50.0   120.0   33.333333333333336
50.0   90.0   33.333333333333336
50.0   90.0   16.666666666666668
0.0   90.0   33.333333333333336
50.0   120.0   33.333333333333336
50.0   90.0   16.666666666666668
0.0   120.0   16.666666666666668
0.0   90.0   33.333333333333336
50.0   90.0   33.333333333333336
0.0   120.0   33.333333333333336
0.0   90.0   50.0
50.0   90.0   33.333333333333336
50.0   120.0   33.333333333333336
0.0   120.0   33.333333333333336
50.0   120.0   50.0
0.0   90.0   50.0
0.0   120.0   50.0
50.0   120.0   50.0
0.0   120.0   33.333333333333336
0.0   90.0   50.0
50.0   120.0   50.0
50.0   90.0   50.0
50.0   90.0   33.333333333333336
0.0   90.0   50.0
50.0   120.0   50.0
50.0   90.0   33.333333333333336
0.0   120.0   33.333333333333336
0.0   120.0   0.0
50.0   120.0   0.0
0.0   150.0   0.0
0.0   120.0   16.666666666666668
50.0   120.0   0.0
50.0   150.0   0.0
0.0   150.0   0.0
50.0   150.0   16.666666666666668
0.0   120.0   16.666666666666668
0.0   150.0   16.666666666666668
50.0   150.0   16.666666666666668
0.0   150.0   0.0
0.0   120.0   16.666666666666668
50.0   150.0   16.666666666666668
50.0   120.0   16.666666666666668
50.0   120.0   0.0
0.0   120.0   16.666666666666668
50.0   150.0   16.666666666666668
50.0   120.0   0.0
0.0   150.0   0.0
0.0   120.0   16.666666666666668
50.0   120.0   16.666666666666668
0.0   150.0   16.666666666666668
0.0   120.0   33.333333333333336
50.0   120.0   16.666666666666668
50.0   150.0   16.666666666666668
0.0   150.0   16.666666666666668
50.0   150.0   33.333333333333336
0.0   120.0   33.333333333333336
0.0   150.0   33.333333333333336
50.0   150.0   33.333333333333336
0.0   150.0   16.666666666666668
0.0   120.0   33.333333333333336
50.0   150.0   33.333333333333336
50.0   120.0   33.333333333333336
50.0   120.0   16.666666666666668
0.0   120.0   33.333333333333336
50.0   150.0   33.333333333333336
50.0   120.0   16.666666666666668
0.0   150.0   16.666666666666668
0.0   120.0   33.333333333333336
50.0   120.0   33.333333333333336
0.0   150.0   33.333333333333336
0.0   120.0   50.0
50.0   120.0   33.333333333333336
50.0   150.0   33.333333333333336
0.0   150.0   33.333333333333336
50.0   150.0   50.0
0.0   120.0   50.0
0.0   150.0   50.0
50.0   150.0   50.0
0.0   150.0   33.333333333333336
0.0   120.0   50.0
50.0   150.0   50.0
50.0   120.0   50.0
50.0   120.0   33.333333333333336
0.0   120.0   50.0
50.0   150.0   50.0
50.0   120.0   33.333333333333336
0.0   150.0   33.333333333333336
50.0   0.0   0.0
100.0   0.0   0.0
50.0   30.0   0.0
50.0   0.0   16.666666666666668
100.0   0.0   0.0
100.0   30.0   0.0
50.0   30.0   0.0
100.0   30.0   16.666666666666668
50.0   0.0   16.666666666666668
50.0   30.0   16.666666666666668
100.0   30.0   16.666666666666668
50.0   30.0   0.0
50.0   0.0   16.666666666666668
100.0   30.0   16.666666666666668
100.0   0.0   16.666666666666668
100.0   0.0   0.0
50.0   0.0   16.666666666666668
100.0   30.0   16.666666666666668
100.0   0.0   0.0
50.0   30.0   0.0
50.0   0.0   16.666666666666668
100.0   0.0   16.666666666666668
50.0   30.0   16.666666666666668
50.0   0.0   33.333333333333336
100.0   0.0   16.666666666666668
100.0   30.0   16.666666666666668
50.0   30.0   16.666666666666668
100.0   30.0   33.333333333333336
50.0   0.0   33.333333333333336
50.0   30.0   33.333333333333336
100.0   30.0   33.333333333333336
50.0   30.0   16.666666666666668
50.0   0.0   33.333333333333336
100.0   30.0   33.333333333333336
100.0   0.0   33.333333333333336
100.0   0.0   16.666666666666668
50.0   0.0   33.333333333333336
100.0   30.0   33.333333333333336
100.0   0.0   16.666666666666668
50.0   30.0   16.666666666666668
50.0   0.0   33.333333333333336
100.0   0.0   33.333333333333336
50.0   30.0   33.333333333333336
50.0   0.0   50.0
100.0   0.0   33.333333333333336
100.0   30.0   33.333333333333336
50.0   30.0   33.333333333333336
100.0   30.0   50.0
50.0   0.0   50.0
50.0   30.0   50.0
100.0   30.0   50.0
50.0   30.0   33.333333333333336
50.0   0.0   50.0
100.0   30.0   50.0
100.0   0.0   50.0
100.0   0.0   33.333333333333336
50.0   0.0   50.0
100.0   30.0   50.0
100.0   0.0   33.333333333333336
50.0   30.0   33.333333333333336
50.0   30.0   0.0
100.0   30.0   0.0
50.0   60.0   0.0
50.0   30.0   16.666666666666668
100.0   30.0   0.0
100.0   60.0   0.0
50.0   60.0   0.0
100.0   60.0   16.666666666666668
50.0   30.0   16.666666666666668
50.0   60.0   16.666666666666668
100.0   60.0   16.666666666666668
50.0   60.0   0.0
50.0   30.0   16.666666666666668
100.0   60.0   16.666666666666668
100.0   30.0   16.666666666666668
100.0   30.0   0.0
50.0   30.0   16.666666666666668
100.0   60.0   16.666666666666668
100.0   30.0   0.0
50.0   60.0   0.0
50.0   30.0   16.666666666666668
100.0   30.0   16.666666666666668
50.0   60.0   16.666666666666668
50.0   30.0   33.333333333333336
100.0   30.0   16.666666666666668
100.0   60.0   16.666666666666668
50.0   60.0   16.666666666666668
100.0   60.0   33.333333333333336
50.0   30.0   33.333333333333336
50.0   60.0   33.333333333333336
100.0   60.0   33.333333333333336
50.0   60.0   16.666666666666668
50.0   30.0   33.333333333333336
100.0   60.0   33.333333333333336
100.0   30.0   33.333333333333336
100.0   30.0   16.666666666666668
50.0   30.0   33.333333333333336
100.0   60.0   33.333333333333336
100.0   30.0   16.666666666666668
50.0   60.0   16.666666666666668
50.0   30.0   33.333333333333336
100.0   30.0   33.333333333333336
50.0   60.0   33.333333333333336
50.0   30.0   50.0
100.0   30.0   33.333333333333336
100.0   60.0   33.333333333333336
50.0   60.0   33.333333333333336
100.0   60.0   50.0
50.0   30.0   50.0
50.0   60.0   50.0
100.0   60.0   50.0
50.0   60.0   33.333333333333336
50.0   30.0   50.0
100.0   60.0   50.0
100.0   30.0   50.0
100.0   30.0   33.333333333333336
50.0   30.0   50.0
100.0   60.0   50.0
100.0   30.0   33.333333333333336
50.0   60.0   33.333333333333336
50.0   60.0   0.0
100.0   60.0   0.0
50.0   90.0   0.0
50.0   60.0   16.666666666666668
100.0   60.0   0.0
100.0   90.0   0.0
50.0   90.0   0.0
100.0   90.0   16.666666666666668
50.0   60.0   16.666666666666668
50.0   90.0   16.666666666666668
100.0   90.0   16.666666666666668
50.0   90.0   0.0
50.0   60.0   16.666666666666668
100.0   90.0   16.666666666666668
100.0   60.0   16.666666666666668
100.0   60.0   0.0
50.0   60.0   16.666666666666668
100.0   90.0   16.666666666666668
100.0   60.0   0.0
50.0   90.0   0.0
50.0   60.0   16.666666666666668
100.0   60.0   16.666666666666668
50.0   90.0   16.666666666666668
50.0   60.0   33.333333333333336
100.0   60.0   16.666666666666668
100.0   90.0   16.666666666666668
50.0   90.0   16.666666666666668
100.0   90.0   33.333333333333336
50.0   60.0   33.333333333333336
50.0   90.0   33.333333333333336
100.0   90.0   33.333333333333336
50.0   90.0   16.666666666666668
50.0   60.0   33.333333333333336
100.0   90.0   33.333333333333336
100.0   60.0   33.333333333333336
100.0   60.0   16.666666666666668
50.0   60.0   33.333333333333336
100.0   90.0   33.333333333333336
100.0   60.0   16.666666666666668
50.0   90.0   16.666666666666668
50.0   60.0   33.333333333333336
100.0   60.0   33.333333333333336
50.0   90.0   33.333333333333336
50.0   60.0   50.0
100.0   60.0   33.333333333333336
100.0   90.0   33.333333333333336
50.0   90.0   33.333333333333336
100.0   90.0   50.0
50.0   60.0   50.0
50.0   90.0   50.0
100.0   90.0   50.0
50.0   90.0   33.333333333333336
50.0   60.0   50.0
100.0   90.0   50.0
100.0   60.0   50.0
100.0   60.0   33.333333333333336
50.0   60.0   50.0
100.0   90.0   50.0
100.0   60.0   33.333333333333336
50.0   90.0   33.333333333333336
50.0   90.0   0.0
100.0   90.0   0.0
50.0   120.0   0.0
50.0   90.0   16.666666666666668
100.0   90.0   0.0
100.0   120.0   0.0
50.0   120.0   0.0
100.0   120.0   16.666666666666668
50.0   90.0   16.666666666666668
50.0   120.0   16.666666666666668
100.0   120.0   16.666666666666668
50.0   120.0   0.0
50.0   90.0   16.666666666666668
100.0   120.0   16.666666666666668
100.0   90.0   16.666666666666668
100.0   90.0   0.0
50.0   90.0   16.666666666666668
100.0   120.0   16.666666666666668
100.0   90.0   0.0
50.0   120.0   0.0
50.0   90.0   16.666666666666668
100.0   90.0   16.666666666666668
50.0   120.0   16.666666666666668
50.0   90.0   33.333333333333336
100.0   90.0   16.666666666666668
100.0   120.0   16.666666666666668
50.0   120.0   16.666666666666668
100.0   120.0   33.333333333333336
50.0   90.0   33.333333333333336
50.0   120.0   33.333333333333336
100.0   120.0   33.333333333333336
50.0   120.0   16.666666666666668
50.0   90.0   33.333333333333336
100.0   120.0   33.333333333333336
100.0   90.0   33.333333333333336
100.0   90.0   16.666666666666668
50.0   90.0   33.333333333333336
100.0   120.0   33.333333333333336
100.0   90.0   16.666666666666668
50.0   120.0   16.666666666666668
50.0   90.0   33.333333333333336
100.0   90.0   33.333333333333336
50.0   120.0   33.333333333333336
50.0   90.0   50.0
100.0   90.0   33.333333333333336
100.0   120.0   33.333333333333336
50.0   120.0   33.333333333333336
100.0   120.0   50.0
50.0   90.0   50.0
50.0   120.0   50.0
100.0   120.0   50.0
50.0   120.0   33.333333333333336
50.0   90.0   50.0
100.0   120.0   50.0
100.0   90.0   50.0
100.0   90.0   33.333333333333336
50.0   90.0   50.0
100.0   120.0   50.0
100.0   90.0   33.333333333333336
50.0   120.0   33.333333333333336
50.0   120.0   0.0
100.0   120.0   0.0
50.0   150.0   0.0
50.0   120.0   16.666666666666668
100.0   120.0   0.0
100.0   150.0   0.0
50.0   150.0   0.0
100.0   150.0   16.666666666666668
50.0   120.0   16.666666666666668
50.0   150.0   16.666666666666668
100.0   150.0   16.666666666666668
50.0   150.0   0.0
50.0   120.0   16.666666666666668
100.0   150.0   16.666666666666668
100.0   120.0   16.666666666666668
100.0   120.0   0.0
50.0   120.0   16.666666666666668
100.0   150.0   16.666666666666668
100.0   120.0   0.0
50.0   150.0   0.0
50.0   120.0   16.666666666666668
100.0   120.0   16.666666666666668
50.0   150.0   16.666666666666668
50.0   120.0   33.333333333333336
100.0   120.0   16.666666666666668
100.0   150.0   16.666666666666668
50.0   150.0   16.666666666666668
100.0   150.0   33.333333333333336
50.0   120.0   33.333333333333336
50.0   150.0   33.333333333333336
100.0   150.0   33.333333333333336
50.0   150.0   16.666666666666668
50.0   120.0   33.333333333333336
100.0   150.0   33.333333333333336
100.0   120.0   33.333333333333336
100.0   120.0   16.666666666666668
50.0   120.0   33.333333333333336
100.0   150.0   33.333333333333336
100.0   120.0   16.666666666666668
50.0   150.0   16.666666666666668
50.0   120.0   33.333333333333336
100.0   120.0   33.333333333333336
50.0   150.0   33.333333333333336
50.0   120.0   50.0
100.0   120.0   33.333333333333336
100.0   150.0   33.333333333333336
50.0   150.0   33.333333333333336
100.0   150.0   50.0
50.0   120.0   50.0
50.0   150.0   50.0
100.0   150.0   50.0
50.0   150.0   33.333333333333336
50.0   120.0   50.0
100.0   150.0   50.0
100.0   120.0   50.0
100.0   120.0   33.333333333333336
50.0   120.0   50.0
100.0   150.0   50.0
100.0   120.0   33.333333333333336
50.0   150.0   33.333333333333336
100.0   0.0   0.0
150.0   0.0   0.0
100.0   30.0   0.0
100.0   0.0   16.666666666666668
150.0   0.0   0.0
150.0   30.0   0.0
100.0   30.0   0.0
150.0   30.0   16.666666666666668
100.0   0.0   16.666666666666668
100.0   30.0   16.666666666666668
150.0   30.0   16.666666666666668
100.0   30.0   0.0
100.0   0.0   16.666666666666668
150.0   30.0   16.666666666666668
150.0   0.0   16.666666666666668
150.0   0.0   0.0
100.0   0.0   16.666666666666668
150.0   30.0   16.666666666666668
150.0   0.0   0.0
100.0   30.0   0.0
100.0   0.0   16.666666666666668
150.0   0.0   16.666666666666668
100.0   30.0   16.666666666666668
100.0   0.0   33.333333333333336
150.0   0.0   16.666666666666668
150.0   30.0   16.666666666666668
100.0   30.0   16.666666666666668
150.0   30.0   33.333333333333336
100.0   0.0   33.333333333333336
100.0   30.0   33.333333333333336
150.0   30.0   33.333333333333336
100.0   30.0   16.666666666666668
100.0   0.0   33.333333333333336
150.0   30.0   33.333333333333336
150.0   0.0   33.333333333333336
150.0   0.0   16.666666666666668
100.0   0.0   33.333333333333336
150.0   30.0   33.333333333333336
150.0   0.0   16.666666666666668
100.0   30.0   16.666666666666668
100.0   0.0   33.333333333333336
150.0   0.0   33.333333333333336
100.0   30.0   33.333333333333336
100.0   0.0   50.0
150.0   0.0   33.333333333333336
150.0   30.0   33.333333333333336
100.0   30.0   33.333333333333336
150.0   30.0   50.0
100.0   0.0   50.0
100.0   30.0   50.0
150.0   30.0   50.0
100.0   30.0   33.333333333333336
100.0   0.0   50.0
150.0   30.0   50.0
150.0   0.0   50.0
150.0   0.0   33.333333333333336
100.0   0.0   50.0
150.0   30.0   50.0
150.0   0.0   33.333333333333336
100.0   30.0   33.333333333333336
100.0   30.0   0.0
150.0   30.0   0.0
100.0   60.0   0.0
100.0   30.0   16.666666666666668
150.0   30.0   0.0
150.0   60.0   0.0
100.0   60.0   0.0
150.0   60.0   16.666666666666668
100.0   30.0   16.666666666666668
100.0   60.0   16.666666666666668
150.0   60.0   16.666666666666668
100.0   60.0   0.0
100.0   30.0   16.666666666666668
150.0   60.0   16.666666666666668
150.0   30.0   16.666666666666668
150.0   30.0   0.0
100.0   30.0   16.666666666666668
150.0   60.0   16.666666666666668
150.0   30.0   0.0
100.0   60.0   0.0
100.0   30.0   16.666666666666668
150.0   30.0   16.666666666666668
100.0   60.0   16.666666666666668
100.0   30.0   33.333333333333336
150.0   30.0   16.666666666666668
150.0   60.0   16.666666666666668
100.0   60.0   16.666666666666668
150.0   60.0   33.333333333333336
100.0   30.0   33.333333333333336
100.0   60.0   33.333333333333336
150.0   60.0   33.333333333333336
100.0   60.0   16.666666666666668
100.0   30.0   33.333333333333336
150.0   60.0   33.333333333333336
150.0   30.0   33.333333333333336
150.0   30.0   16.666666666666668
100.0   30.0   33.333333333333336
150.0   60.0   33.333333333333336
150.0   30.0   16.666666666666668
100.0   60.0   16.666666666666668
100.0   30.0   33.333333333333336
150.0   30.0   33.333333333333336
100.0   60.0   33.333333333333336
100.0   30.0   50.0
150.0   30.0   33.333333333333336
150.0   60.0   33.333333333333336
100.0   60.0   33.333333333333336
150.0   60.0   50.0
100.0   30.0   50.0
100.0   60.0   50.0
150.0   60.0   50.0
100.0   60.0   33.333333333333336
100.0   30.0   50.0
150.0   60.0   50.0
150.0   30.0   50.0
150.0   30.0   33.333333333333336
100.0   30.0   50.0
150.0   60.0   50.0
150.0   30.0   33.333333333333336
100.0   60.0   33.333333333333336
100.0   60.0   0.0
150.0   60.0   0.0
100.0   90.0   0.0
100.0   60.0   16.666666666666668
150.0   60.0   0.0
150.0   90.0   0.0
100.0   90.0   0.0
150.0   90.0   16.666666666666668
100.0   60.0   16.666666666666668
100.0   90.0   16.666666666666668
150.0   90.0   16.666666666666668
100.0   90.0   0.0
100.0   60.0   16.666666666666668
150.0   90.0   16.666666666666668
150.0   60.0   16.666666666666668
150.0   60.0   0.0
100.0   60.0   16.666666666666668
150.0   90.0   16.666666666666668
150.0   60.0   0.0
100.0   90.0   0.0
100.0   60.0   16.666666666666668
150.0   60.0   16.666666666666668
100.0   90.0   16.666666666666668
100.0   60.0   33.333333333333336
150.0   60.0   16.666666666666668
150.0   90.0   16.666666666666668
100.0   90.0   16.666666666666668
150.0   90.0   33.333333333333336
100.0   60.0   33.333333333333336
100.0   90.0   33.333333333333336
150.0   90.0   33.333333333333336
100.0   90.0   16.666666666666668
100.0   60.0   33.333333333333336
150.0   90.0   33.333333333333336
150.0   60.0   33.333333333333336
150.0   60.0   16.666666666666668
100.0   60.0   33.333333333333336
150.0   90.0   33.333333333333336
150.0   60.0   16.666666666666668
100.0   90.0   16.666666666666668
100.0   60.0   33.333333333333336
150.0   60.0   33.333333333333336
100.0   90.0   33.333333333333336
100.0   60.0   50.0
150.0   60.0   33.333333333333336
150.0   90.0   33.333333333333336
100.0   90.0   33.333333333333336
150.0   90.0   50.0
100.0   60.0   50.0
100.0   90.0   50.0
150.0   90.0   50.0
100.0   90.0   33.333333333333336
100.0   60.0   50.0
150.0   90.0   50.0
150.0   60.0   50.0
150.0   60.0   33.333333333333336
100.0   60.0   50.0
150.0   90.0   50.0
150.0   60.0   33.333333333333336
100.0   90.0   33.333333333333336
100.0   90.0   0.0
150.0   90.0   0.0
100.0   120.0   0.0
100.0   90.0   16.666666666666668
150.0   90.0   0.0
150.0   120.0   0.0
100.0   120.0   0.0
150.0   120.0   16.666666666666668
100.0   90.0   16.666666666666668
100.0   120.0   16.666666666666668
150.0   120.0   16.666666666666668
100.0   120.0   0.0
100.0   90.0   16.666666666666668
150.0   120.0   16.666666666666668
150.0   90.0   16.666666666666668
150.0   90.0   0.0
100.0   90.0   16.666666666666668
150.0   120.0   16.666666666666668
150.0   90.0   0.0
100.0   120.0   0.0
100.0   90.0   16.666666666666668
150.0   90.0   16.666666666666668
100.0   120.0   16.666666666666668
100.0   90.0   33.333333333333336
150.0   90.0   16.666666666666668
150.0   120.0   16.666666666666668
100.0   120.0   16.666666666666668
150.0   120.0   33.333333333333336
100.0   90.0   33.333333333333336
100.0   120.0   33.333333333333336
150.0   120.0   33.333333333333336
100.0   120.0   16.666666666666668
100.0   90.0   33.333333333333336
150.0   120.0   33.333333333333336
150.0   90.0   33.333333333333336
150.0   90.0   16.666666666666668
100.0   90.0   33.333333333333336
150.0   120.0   33.333333333333336
150.0   90.0   16.666666666666668
100.0   120.0   16.666666666666668
100.0   90.0   33.333333333333336
150.0   90.0   33.333333333333336
100.0   120.0   33.333333333333336
100.0   90.0   50.0
150.0   90.0   33.333333333333336
150.0   120.0   33.333333333333336
100.0   120.0   33.333333333333336
150.0   120.0   50.0
100.0   90.0   50.0
100.0   120.0   50.0
150.0   120.0   50.0
100.0   120.0   33.333333333333336
100.0   90.0   50.0
150.0   120.0   50.0
150.0   90.0   50.0
150.0   90.0   33.333333333333336
100.0   90.0   50.0
150.0   120.0   50.0
150.0   90.0   33.333333333333336
100.0   120.0   33.333333333333336
100.0   120.0   0.0
150.0   120.0   0.0
100.0   150.0   0.0
100.0   120.0   16.666666666666668
150.0   120.0   0.0
150.0   150.0   0.0
100.0   150.0   0.0
150.0   150.0   16.666666666666668
100.0   120.0   16.666666666666668
100.0   150.0   16.666666666666668
150.0   150.0   16.666666666666668
100.0   150.0   0.0
100.0   120.0   16.666666666666668
150.0   150.0   16.666666666666668
150.0   120.0   16.666666666666668
150.0   120.0   0.0
100.0   120.0   16.666666666666668
150.0   150.0   16.666666666666668
150.0   120.0   0.0
100.0   150.0   0.0
100.0   120.0   16.666666666666668
150.0   120.0   16.666666666666668
100.0   150.0   16.666666666666668
100.0   120.0   33.333333333333336
150.0   120.0   16.666666666666668
150.0   150.0   16.666666666666668
100.0   150.0   16.666666666666668
150.0   150.0   33.333333333333336
100.0   120.0   33.333333333333336
100.0   150.0   33.333333333333336
150.0   150.0   33.333333333333336
100.0   150.0   16.666666666666668
100.0   120.0   33.333333333333336
150.0   150.0   33.333333333333336
150.0   120.0   33.333333333333336
150.0   120.0   16.666666666666668
100.0   120.0   33.333333333333336
150.0   150.0   33.333333333333336
150.0   120.0   16.666666666666668
100.0   150.0   16.666666666666668
100.0   120.0   33.333333333333336
150.0   120.0   33.333333333333336
100.0   150.0   33.333333333333336
100.0   120.0   50.0
150.0   120.0   33.333333333333336
150.0   150.0   33.333333333333336
100.0   150.0   33.333333333333336
150.0   150.0   50.0
100.0   120.0   50.0
100.0   150.0   50.0
150.0   150.0   50.0
100.0   150.0   33.333333333333336
100.0   120.0   50.0
150.0   150.0   50.0
150.0   120.0   50.0
150.0   120.0   33.333333333333336
100.0   120.0   50.0
150.0   150.0   50.0
150.0   120.0   33.333333333333336
100.0   150.0   33.333333333333336
150.0   0.0   0.0
200.0   0.0   0.0
150.0   30.0   0.0
150.0   0.0   16.666666666666668
200.0   0.0   0.0
200.0   30.0   0.0
150.0   30.0   0.0
200.0   30.0   16.666666666666668
150.0   0.0   16.666666666666668
150.0   30.0   16.666666666666668
200.0   30.0   16.666666666666668
150.0   30.0   0.0
150.0   0.0   16.666666666666668
200.0   30.0   16.666666666666668
200.0   0.0   16.666666666666668
200.0   0.0   0.0
150.0   0.0   16.666666666666668
200.0   30.0   16.666666666666668
200.0   0.0   0.0
150.0   30.0   0.0
150.0   0.0   16.666666666666668
200.0   0.0   16.666666666666668
150.0   30.0   16.666666666666668
150.0   0.0   33.333333333333336
200.0   0.0   16.666666666666668
200.0   30.0   16.666666666666668
150.0   30.0   16.666666666666668
200.0   30.0   33.333333333333336
150.0   0.0   33.333333333333336
150.0   30.0   33.333333333333336
200.0   30.0   33.333333333333336
150.0   30.0   16.666666666666668
150.0   0.0   33.333333333333336
200.0   30.0   33.333333333333336
200.0   0.0   33.333333333333336
200.0   0.0   16.666666666666668
150.0   0.0   33.333333333333336
200.0   30.0   33.333333333333336
200.0   0.0   16.666666666666668
150.0   30.0   16.666666666666668
150.0   0.0   33.333333333333336
200.0   0.0   33.333333333333336
150.0   30.0   33.333333333333336
150.0   0.0   50.0
200.0   0.0   33.333333333333336
200.0   30.0   33.333333333333336
150.0   30.0   33.333333333333336
200.0   30.0   50.0
150.0   0.0   50.0
150.0   30.0   50.0
200.0   30.0   50.0
150.0   30.0   33.333333333333336
150.0   0.0   50.0
200.0   30.0   50.0
200.0   0.0   50.0
200.0   0.0   33.333333333333336
150.0   0.0   50.0
200.0   30.0   50.0
200.0   0.0   33.333333333333336
150.0   30.0   33.333333333333336
150.0   30.0   0.0
200.0   30.0   0.0
150.0   60.0   0.0
150.0   30.0   16.666666666666668
200.0   30.0   0.0
200.0   60.0   0.0
150.0   60.0   0.0
200.0   60.0   16.666666666666668
150.0   30.0   16.666666666666668
150.0   60.0   16.666666666666668
200.0   60.0   16.666666666666668
150.0   60.0   0.0
150.0   30.0   16.666666666666668
200.0   60.0   16.666666666666668
200.0   30.0   16.666666666666668
200.0   30.0   0.0
150.0   30.0   16.666666666666668
200.0   60.0   16.666666666666668
200.0   30.0   0.0
150.0   60.0   0.0
150.0   30.0   16.666666666666668
200.0   30.0   16.666666666666668
150.0   60.0   16.666666666666668
150.0   30.0   33.333333333333336
200.0   30.0   16.666666666666668
200.0   60.0   16.666666666666668
150.0   60.0   16.666666666666668
200.0   60.0   33.333333333333336
150.0   30.0   33.333333333333336
150.0   60.0   33.333333333333336
200.0   60.0   33.333333333333336
150.0   60.0   16.666666666666668
150.0   30.0   33.333333333333336
200.0   60.0   33.333333333333336
200.0   30.0   33.333333333333336
200.0   30.0   16.666666666666668
150.0   30.0   33.333333333333336
200.0   60.0   33.333333333333336
200.0   30.0   16.666666666666668
150.0   60.0   16.666666666666668
150.0   30.0   33.333333333333336
200.0   30.0   33.333333333333336
150.0   60.0   33.333333333333336
150.0   30.0   50.0
200.0   30.0   33.333333333333336
200.0   60.0   33.333333333333336
150.0   60.0   33.333333333333336
200.0   60.0   50.0
150.0   30.0   50.0
150.0   60.0   50.0
200.0   60.0   50.0
150.0   60.0   33.333333333333336
150.0   30.0   50.0
200.0   60.0   50.0
200.0   30.0   50.0
200.0   30.0   33.333333333333336
150.0   30.0   50.0
200.0   60.0   50.0
200.0   30.0   33.333333333333336
150.0   60.0   33.333333333333336
150.0   60.0   0.0
200.0   60.0   0.0
150.0   90.0   0.0
150.0   60.0   16.666666666666668
200.0   60.0   0.0
200.0   90.0   0.0
150.0   90.0   0.0
200.0   90.0   16.666666666666668
150.0   60.0   16.666666666666668
150.0   90.0   16.666666666666668
200.0   90.0   16.666666666666668
150.0   90.0   0.0
150.0   60.0   16.666666666666668
200.0   90.0   16.666666666666668
200.0   60.0   16.666666666666668
200.0   60.0   0.0
150.0   60.0   16.666666666666668
200.0   90.0   16.666666666666668
200.0   60.0   0.0
150.0   90.0   0.0
150.0   60.0   16.666666666666668
200.0   60.0   16.666666666666668
150.0   90.0   16.666666666666668
150.0   60.0   33.333333333333336
200.0   60.0   16.666666666666668
200.0   90.0   16.666666666666668
150.0   90.0   16.666666666666668
200.0   90.0   33.333333333333336
150.0   60.0   33.333333333333336
150.0   90.0   33.333333333333336
200.0   90.0   33.333333333333336
150.0   90.0   16.666666666666668
150.0   60.0   33.333333333333336
200.0   90.0   33.333333333333336
200.0   60.0   33.333333333333336
200.0   60.0   16.666666666666668
150.0   60.0   33.333333333333336
200.0   90.0   33.333333333333336
200.0   60.0   16.666666666666668
150.0   90.0   16.666666666666668
150.0   60.0   33.333333333333336
200.0   60.0   33.333333333333336
150.0   90.0   33.333333333333336
150.0   60.0   50.0
200.0   60.0   33.333333333333336
200.0   90.0   33.333333333333336
150.0   90.0   33.333333333333336
200.0   90.0   50.0
150.0   60.0   50.0
150.0   90.0   50.0
200.0   90.0   50.0
150.0   90.0   33.333333333333336
150.0   60.0   50.0
200.0   90.0   50.0
200.0   60.0   50.0
200.0   60.0   33.333333333333336
150.0   60.0   50.0
200.0   90.0   50.0
200.0   60.0   33.333333333333336
150.0   90.0   33.333333333333336
150.0   90.0   0.0
200.0   90.0   0.0
150.0   120.0   0.0
150.0   90.0   16.666666666666668
200.0   90.0   0.0
200.0   120.0   0.0
150.0   120.0   0.0
200.0   120.0   16.666666666666668
150.0   90.0   16.666666666666668
150.0   120.0   16.666666666666668
200.0   120.0   16.666666666666668
150.0   120.0   0.0
150.0   90.0   16.666666666666668
200.0   120.0   16.666666666666668
200.0   90.0   16.666666666666668
200.0   90.0   0.0
150.0   90.0   16.666666666666668
200.0   120.0   16.666666666666668
200.0   90.0   0.0
150.0   120.0   0.0
150.0   90.0   16.666666666666668
200.0   90.0   16.666666666666668
150.0   120.0   16.666666666666668
150.0   90.0   33.333333333333336
200.0   90.0   16.666666666666668
200.0   120.0   16.666666666666668
150.0   120.0   16.666666666666668
200.0   120.0   33.333333333333336
150.0   90.0   33.333333333333336
150.0   120.0   33.333333333333336
200.0   120.0   33.333333333333336
150.0   120.0   16.666666666666668
150.0   90.0   33.333333333333336
200.0   120.0   33.333333333333336
200.0   90.0   33.333333333333336
200.0   90.0   16.666666666666668
150.0   90.0   33.333333333333336
200.0   120.0   33.333333333333336
200.0   90.0   16.666666666666668
150.0   120.0   16.666666666666668
150.0   90.0   33.333333333333336
200.0   90.0   33.333333333333336
150.0   120.0   33.333333333333336
150.0   90.0   50.0
200.0   90.0   33.333333333333336
200.0   120.0   33.333333333333336
150.0   120.0   33.333333333333336
200.0   120.0   50.0
150.0   90.0   50.0
150.0   120.0   50.0
200.0   120.0   50.0
150.0   120.0   33.333333333333336
150.0   90.0   50.0
200.0   120.0   50.0
200.0   90.0   50.0
200.0   90.0   33.333333333333336
150.0   90.0   50.0
200.0   120.0   50.0
200.0   90.0   33.333333333333336
150.0   120.0   33.333333333333336
150.0   120.0   0.0
200.0   120.0   0.0
150.0   150.0   0.0
150.0   120.0   16.666666666666668
200.0   120.0   0.0
200.0   150.0   0.0
150.0   150.0   0.0
200.0   150.0   16.666666666666668
150.0   120.0   16.666666666666668
150.0   150.0   16.666666666666668
200.0   150.0   16.666666666666668
150.0   150.0   0.0
150.0   120.0   16.666666666666668
200.0   150.0   16.666666666666668
200.0   120.0   16.666666666666668
200.0   120.0   0.0
150.0   120.0   16.666666666666668
200.0   150.0   16.666666666666668
200.0   120.0   0.0
150.0   150.0   0.0
150.0   120.0   16.666666666666668
200.0   120.0   16.666666666666668
150.0   150.0   16.666666666666668
150.0   120.0   33.333333333333336
200.0   120.0   16.666666666666668
200.0   150.0   16.666666666666668
150.0   150.0   16.666666666666668
200.0   150.0   33.333333333333336
150.0   120.0   33.333333333333336
150.0   150.0   33.333333333333336
200.0   150.0   33.333333333333336
150.0   150.0   16.666666666666668
150.0   120.0   33.333333333333336
200.0   150.0   33.333333333333336
200.0   120.0   33.333333333333336
200.0   120.0   16.666666666666668
150.0   120.0   33.333333333333336
200.0   150.0   33.333333333333336
200.0   120.0   16.666666666666668
150.0   150.0   16.666666666666668
150.0   120.0   33.333333333333336
200.0   120.0   33.333333333333336
150.0   150.0   33.333333333333336
150.0   120.0   50.0
200.0   120.0   33.333333333333336
200.0   150.0   33.333333333333336
150.0   150.0   33.333333333333336
200.0   150.0   50.0
150.0   120.0   50.0
150.0   150.0   50.0
200.0   150.0   50.0
150.0   150.0   33.333333333333336
150.0   120.0   50.0
200.0   150.0   50.0
200.0   120.0   50.0
200.0   120.0   33.333333333333336
150.0   120.0   50.0
200.0   150.0   50.0
200.0   120.0   33.333333333333336
150.0   150.0   33.333333333333336
200.0   0.0   0.0
250.0   0.0   0.0
200.0   30.0   0.0
200.0   0.0   16.666666666666668
250.0   0.0   0.0
250.0   30.0   0.0
200.0   30.0   0.0
250.0   30.0   16.666666666666668
200.0   0.0   16.666666666666668
200.0   30.0   16.666666666666668
250.0   30.0   16.666666666666668
200.0   30.0   0.0
200.0   0.0   16.666666666666668
250.0   30.0   16.666666666666668
250.0   0.0   16.666666666666668
250.0   0.0   0.0
200.0   0.0   16.666666666666668
250.0   30.0   16.666666666666668
250.0   0.0   0.0
200.0   30.0   0.0
200.0   0.0   16.666666666666668
250.0   0.0   16.666666666666668
200.0   30.0   16.666666666666668
200.0   0.0   33.333333333333336
250.0   0.0   16.666666666666668
250.0   30.0   16.666666666666668
200.0   30.0   16.666666666666668
250.0   30.0   33.333333333333336
200.0   0.0   33.333333333333336
200.0   30.0   33.333333333333336
250.0   30.0   33.333333333333336
200.0   30.0   16.666666666666668
200.0   0.0   33.333333333333336
250.0   30.0   33.333333333333336
250.0   0.0   33.333333333333336
250.0   0.0   16.666666666666668
200.0   0.0   33.333333333333336
250.0   30.0   33.333333333333336
250.0   0.0   16.666666666666668
200.0   30.0   16.666666666666668
200.0   0.0   33.333333333333336
250.0   0.0   33.333333333333336
200.0   30.0   33.333333333333336
200.0   0.0   50.0
250.0   0.0   33.333333333333336
250.0   30.0   33.333333333333336
200.0   30.0   33.333333333333336
250.0   30.0   50.0
200.0   0.0   50.0
200.0   30.0   50.0
250.0   30.0   50.0
200.0   30.0   33.333333333333336
200.0   0.0   50.0
250.0   30.0   50.0
250.0   0.0   50.0
250.0   0.0   33.333333333333336
200.0   0.0   50.0
250.0   30.0   50.0
250.0   0.0   33.333333333333336
200.0   30.0   33.333333333333336
200.0   30.0   0.0
250.0   30.0   0.0
200.0   60.0   0.0
200.0   30.0   16.666666666666668
250.0   30.0   0.0
250.0   60.0   0.0
200.0   60.0   0.0
250.0   60.0   16.666666666666668
200.0   30.0   16.666666666666668
200.0   60.0   16.666666666666668
250.0   60.0   16.666666666666668
200.0   60.0   0.0
200.0   30.0   16.666666666666668
250.0   60.0   16.666666666666668
250.0   30.0   16.666666666666668
250.0   30.0   0.0
200.0   30.0   16.666666666666668
250.0   60.0   16.666666666666668
250.0   30.0   0.0
200.0   60.0   0.0
200.0   30.0   16.666666666666668
250.0   30.0   16.666666666666668
200.0   60.0   16.666666666666668
200.0   30.0   33.333333333333336
250.0   30.0   16.666666666666668
250.0   60.0   16.666666666666668
200.0   60.0   16.666666666666668
250.0   60.0   33.333333333333336
200.0   30.0   33.333333333333336
200.0   60.0   33.333333333333336
250.0   60.0   33.333333333333336
200.0   60.0   16.666666666666668
200.0   30.0   33.333333333333336
250.0   60.0   33.333333333333336
250.0   30.0   33.333333333333336
250.0   30.0   16.666666666666668
200.0   30.0   33.333333333333336
250.0   60.0   33.333333333333336
250.0   30.0   16.666666666666668
200.0   60.0   16.666666666666668
200.0   30.0   33.333333333333336
250.0   30.0   33.333333333333336
200.0   60.0   33.333333333333336
200.0   30.0   50.0
250.0   30.0   33.333333333333336
250.0   60.0   33.333333333333336
200.0   60.0   33.333333333333336
250.0   60.0   50.0
200.0   30.0   50.0
200.0   60.0   50.0
250.0   60.0   50.0
200.0   60.0   33.333333333333336
200.0   30.0   50.0
250.0   60.0   50.0
250.0   30.0   50.0
250.0   30.0   33.333333333333336
200.0   30.0   50.0
250.0   60.0   50.0
250.0   30.0   33.333333333333336
200.0   60.0   33.333333333333336
200.0   60.0   0.0
250.0   60.0   0.0
200.0   90.0   0.0
200.0   60.0   16.666666666666668
250.0   60.0   0.0
250.0   90.0   0.0
200.0   90.0   0.0
250.0   90.0   16.666666666666668
200.0   60.0   16.666666666666668
200.0   90.0   16.666666666666668
250.0   90.0   16.666666666666668
200.0   90.0   0.0
200.0   60.0   16.666666666666668
250.0   90.0   16.666666666666668
250.0   60.0   16.666666666666668
250.0   60.0   0.0
200.0   60.0   16.666666666666668
250.0   90.0   16.666666666666668
250.0   60.0   0.0
200.0   90.0   0.0
200.0   60.0   16.666666666666668
250.0   60.0   16.666666666666668
200.0   90.0   16.666666666666668
200.0   60.0   33.333333333333336
250.0   60.0   16.666666666666668
250.0   90.0   16.666666666666668
200.0   90.0   16.666666666666668
250.0   90.0   33.333333333333336
200.0   60.0   33.333333333333336
200.0   90.0   33.333333333333336
250.0   90.0   33.333333333333336
200.0   90.0   16.666666666666668
200.0   60.0   33.333333333333336
250.0   90.0   33.333333333333336
250.0   60.0   33.333333333333336
250.0   60.0   16.666666666666668
200.0   60.0   33.333333333333336
250.0   90.0   33.333333333333336
250.0   60.0   16.666666666666668
200.0   90.0   16.666666666666668
200.0   60.0   33.333333333333336
250.0   60.0   33.333333333333336
200.0   90.0   33.333333333333336
200.0   60.0   50.0
250.0   60.0   33.333333333333336
250.0   90.0   33.333333333333336
200.0   90.0   33.333333333333336
250.0   90.0   50.0
200.0   60.0   50.0
200.0   90.0   50.0
250.0   90.0   50.0
200.0   90.0   33.333333333333336
200.0   60.0   50.0
250.0   90.0   50.0
250.0   60.0   50.0
250.0   60.0   33.333333333333336
200.0   60.0   50.0
250.0   90.0   50.0
250.0   60.0   33.333333333333336
200.0   90.0   33.333333333333336
200.0   90.0   0.0
250.0   90.0   0.0
200.0   120.0   0.0
200.0   90.0   16.666666666666668
250.0   90.0   0.0
250.0   120.0   0.0
200.0   120.0   0.0
250.0   120.0   16.666666666666668
200.0   90.0   16.666666666666668
200.0   120.0   16.666666666666668
250.0   120.0   16.666666666666668
200.0   120.0   0.0
200.0   90.0   16.666666666666668
250.0   120.0   16.666666666666668
250.0   90.0   16.666666666666668
250.0   90.0   0.0
200.0   90.0   16.666666666666668
250.0   120.0   16.666666666666668
250.0   90.0   0.0
200.0   120.0   0.0
200.0   90.0   16.666666666666668
250.0   90.0   16.666666666666668
200.0   120.0   16.666666666666668
200.0   90.0   33.333333333333336
250.0   90.0   16.666666666666668
250.0   120.0   16.666666666666668
200.0   120.0   16.666666666666668
250.0   120.0   33.333333333333336
200.0   90.0   33.333333333333336
200.0   120.0   33.333333333333336
250.0   120.0   33.333333333333336
200.0   120.0   16.666666666666668
200.0   90.0   33.333333333333336
250.0   120.0   33.333333333333336
250.0   90.0   33.333333333333336
250.0   90.0   16.666666666666668
200.0   90.0   33.333333333333336
250.0   120.0   33.333333333333336
250.0   90.0   16.666666666666668
200.0   120.0   16.666666666666668
200.0   90.0   33.333333333333336
250.0   90.0   33.333333333333336
200.0   120.0   33.333333333333336
200.0   90.0   50.0
250.0   90.0   33.333333333333336
250.0   120.0   33.333333333333336
200.0   120.0   33.333333333333336
250.0   120.0   50.0
200.0   90.0   50.0
200.0   120.0   50.0
250.0   120.0   50.0
200.0   120.0   33.333333333333336
200.0   90.0   50.0
250.0   120.0   50.0
250.0   90.0   50.0
250.0   90.0   33.333333333333336
200.0   90.0   50.0
250.0   120.0   50.0
250.0   90.0   33.333333333333336
200.0   120.0   33.333333333333336
200.0   120.0   0.0
250.0   120.0   0.0
200.0   150.0   0.0
200.0   120.0   16.666666666666668
250.0   120.0   0.0
250.0   150.0   0.0
200.0   150.0   0.0
250.0   150.0   16.666666666666668
200.0   120.0   16.666666666666668
200.0   150.0   16.666666666666668
250.0   150.0   16.666666666666668
200.0   150.0   0.0
200.0   120.0   16.666666666666668
250.0   150.0   16.666666666666668
250.0   120.0   16.666666666666668
250.0   120.0   0.0
200.0   120.0   16.666666666666668
250.0   150.0   16.666666666666668
250.0   120.0   0.0
200.0   150.0   0.0
200.0   120.0   16.666666666666668
250.0   120.0   16.666666666666668
200.0   150.0   16.666666666666668
200.0   120.0   33.333333333333336
250.0   120.0   16.666666666666668
250.0   150.0   16.666666666666668
200.0   150.0   16.666666666666668
250.0   150.0   33.333333333333336
200.0   120.0   33.333333333333336
200.0   150.0   33.333333333333336
250.0   150.0   33.333333333333336
200.0   150.0   16.666666666666668
200.0   120.0   33.333333333333336
250.0   150.0   33.333333333333336
250.0   120.0   33.333333333333336
250.0   120.0   16.666666666666668
200.0   120.0   33.333333333333336
250.0   150.0   33.333333333333336
250.0   120.0   16.666666666666668
200.0   150.0   16.666666666666668
200.0   120.0   33.333333333333336
250.0   120.0   33.333333333333336
200.0   150.0   33.333333333333336
200.0   120.0   50.0
250.0   120.0   33.333333333333336
250.0   150.0   33.333333333333336
200.0   150.0   33.333333333333336
250.0   150.0   50.0
200.0   120.0   50.0
200.0   150.0   50.0
250.0   150.0   50.0
200.0   150.0   33.333333333333336
200.0   120.0   50.0
250.0   150.0   50.0
250.0   120.0   50.0
250.0   120.0   33.333333333333336
200.0   120.0   50.0
250.0   150.0   50.0
250.0   120.0   33.333333333333336
200.0   150.0   33.333333333333336
250.0   0.0   0.0
300.0   0.0   0.0
250.0   30.0   0.0
250.0   0.0   16.666666666666668
300.0   0.0   0.0
300.0   30.0   0.0
250.0   30.0   0.0
300.0   30.0   16.666666666666668
250.0   0.0   16.666666666666668
250.0   30.0   16.666666666666668
300.0   30.0   16.666666666666668
250.0   30.0   0.0
250.0   0.0   16.666666666666668
300.0   30.0   16.666666666666668
300.0   0.0   16.666666666666668
300.0   0.0   0.0
250.0   0.0   16.666666666666668
300.0   30.0   16.666666666666668
300.0   0.0   0.0
250.0   30.0   0.0
250.0   0.0   16.666666666666668
300.0   0.0   16.666666666666668
250.0   30.0   16.666666666666668
250.0   0.0   33.333333333333336
300.0   0.0   16.666666666666668
300.0   30.0   16.666666666666668
250.0   30.0   16.666666666666668
300.0   30.0   33.333333333333336
250.0   0.0   33.333333333333336
250.0   30.0   33.333333333333336
300.0   30.0   33.333333333333336
250.0   30.0   16.666666666666668
250.0   0.0   33.333333333333336
300.0   30.0   33.333333333333336
300.0   0.0   33.333333333333336
300.0   0.0   16.666666666666668
250.0   0.0   33.333333333333336
300.0   30.0   33.333333333333336
300.0   0.0   16.666666666666668
250.0   30.0   16.666666666666668
250.0   0.0   33.333333333333336
300.0   0.0   33.333333333333336
250.0   30.0   33.333333333333336
250.0   0.0   50.0
300.0   0.0   33.333333333333336
300.0   30.0   33.333333333333336
250.0   30.0   33.333333333333336
300.0   30.0   50.0
250.0   0.0   50.0
250.0   30.0   50.0
300.0   30.0   50.0
250.0   30.0   33.333333333333336
250.0   0.0   50.0
300.0   30.0   50.0
300.0   0.0   50.0
300.0   0.0   33.333333333333336
250.0   0.0   50.0
300.0   30.0   50.0
300.0   0.0   33.333333333333336
250.0   30.0   33.333333333333336
250.0   30.0   0.0
300.0   30.0   0.0
250.0   60.0   0.0
250.0   30.0   16.666666666666668
300.0   30.0   0.0
300.0   60.0   0.0
250.0   60.0   0.0
300.0   60.0   16.666666666666668
250.0   30.0   16.666666666666668
250.0   60.0   16.666666666666668
300.0   60.0   16.666666666666668
250.0   60.0   0.0
250.0   30.0   16.666666666666668
300.0   60.0   16.666666666666668
300.0   30.0   16.666666666666668
300.0   30.0   0.0
250.0   30.0   16.666666666666668
300.0   60.0   16.666666666666668
300.0   30.0   0.0
250.0   60.0   0.0
250.0   30.0   16.666666666666668
300.0   30.0   16.666666666666668
250.0   60.0   16.666666666666668
250.0   30.0   33.333333333333336
300.0   30.0   16.666666666666668
300.0   60.0   16.666666666666668
250.0   60.0   16.666666666666668
300.0   60.0   33.333333333333336
250.0   30.0   33.333333333333336
250.0   60.0   33.333333333333336
300.0   60.0   33.333333333333336
250.0   60.0   16.666666666666668
250.0   30.0   33.333333333333336
300.0   60.0   33.333333333333336
300.0   30.0   33.333333333333336
300.0   30.0   16.666666666666668
250.0   30.0   33.333333333333336
300.0   60.0   33.333333333333336
300.0   30.0   16.666666666666668
250.0   60.0   16.666666666666668
250.0   30.0   33.333333333333336
300.0   30.0   33.333333333333336
250.0   60.0   33.333333333333336
250.0   30.0   50.0
300.0   30.0   33.333333333333336
300.0   60.0   33.333333333333336
250.0   60.0   33.333333333333336
300.0   60.0   50.0
250.0   30.0   50.0
250.0   60.0   50.0
300.0   60.0   50.0
250.0   60.0   33.333333333333336
250.0   30.0   50.0
300.0   60.0   50.0
300.0   30.0   50.0
300.0   30.0   33.333333333333336
250.0   30.0   50.0
300.0   60.0   50.0
300.0   30.0   33.333333333333336
250.0   60.0   33.333333333333336
250.0   60.0   0.0
300.0   60.0   0.0
250.0   90.0   0.0
250.0   60.0   16.666666666666668
300.0   60.0   0.0
300.0   90.0   0.0
250.0   90.0   0.0
300.0   90.0   16.666666666666668
250.0   60.0   16.666666666666668
250.0   90.0   16.666666666666668
300.0   90.0   16.666666666666668
250.0   90.0   0.0
250.0   60.0   16.666666666666668
300.0   90.0   16.666666666666668
300.0   60.0   16.666666666666668
300.0   60.0   0.0
250.0   60.0   16.666666666666668
300.0   90.0   16.666666666666668
300.0   60.0   0.0
250.0   90.0   0.0
250.0   60.0   16.666666666666668
300.0   60.0   16.666666666666668
250.0   90.0   16.666666666666668
250.0   60.0   33.333333333333336
300.0   60.0   16.666666666666668
300.0   90.0   16.666666666666668
250.0   90.0   16.666666666666668
300.0   90.0   33.333333333333336
250.0   60.0   33.333333333333336
250.0   90.0   33.333333333333336
300.0   90.0   33.333333333333336
250.0   90.0   16.666666666666668
250.0   60.0   33.333333333333336
300.0   90.0   33.333333333333336
300.0   60.0   33.333333333333336
300.0   60.0   16.666666666666668
250.0   60.0   33.333333333333336
300.0   90.0   33.333333333333336
300.0   60.0   16.666666666666668
250.0   90.0   16.666666666666668
250.0   60.0   33.333333333333336
300.0   60.0   33.333333333333336
250.0   90.0   33.333333333333336
250.0   60.0   50.0
300.0   60.0   33.333333333333336
300.0   90.0   33.333333333333336
250.0   90.0   33.333333333333336
300.0   90.0   50.0
250.0   60.0   50.0
250.0   90.0   50.0
300.0   90.0   50.0
250.0   90.0   33.333333333333336
250.0   60.0   50.0
300.0   90.0   50.0
300.0   60.0   50.0
300.0   60.0   33.333333333333336
250.0   60.0   50.0
300.0   90.0   50.0
300.0   60.0   33.333333333333336
250.0   90.0   33.333333333333336
250.0   90.0   0.0
300.0   90.0   0.0
250.0   120.0   0.0
250.0   90.0   16.666666666666668
300.0   90.0   0.0
300.0   120.0   0.0
250.0   120.0   0.0
300.0   120.0   16.666666666666668
250.0   90.0   16.666666666666668
250.0   120.0   16.666666666666668
300.0   120.0   16.666666666666668
250.0   120.0   0.0
250.0   90.0   16.666666666666668
300.0   120.0   16.666666666666668
300.0   90.0   16.666666666666668
300.0   90.0   0.0
250.0   90.0   16.666666666666668
300.0   120.0   16.666666666666668
300.0   90.0   0.0
250.0   120.0   0.0
250.0   90.0   16.666666666666668
300.0   90.0   16.666666666666668
250.0   120.0   16.666666666666668
250.0   90.0   33.333333333333336
300.0   90.0   16.666666666666668
300.0   120.0   16.666666666666668
250.0   120.0   16.666666666666668
300.0   120.0   33.333333333333336
250.0   90.0   33.333333333333336
250.0   120.0   33.333333333333336
300.0   120.0   33.333333333333336
250.0   120.0   16.666666666666668
250.0   90.0   33.333333333333336
300.0   120.0   33.333333333333336
300.0   90.0   33.333333333333336
300.0   90.0   16.666666666666668
250.0   90.0   33.333333333333336
300.0   120.0   33.333333333333336
300.0   90.0   16.666666666666668
250.0   120.0   16.666666666666668
250.0   90.0   33.333333333333336
300.0   90.0   33.333333333333336
250.0   120.0   33.333333333333336
250.0   90.0   50.0
300.0   90.0   33.333333333333336
300.0   120.0   33.333333333333336
250.0   120.0   33.333333333333336
300.0   120.0   50.0
250.0   90.0   50.0
250.0   120.0   50.0
300.0   120.0   50.0
250.0   120.0   33.333333333333336
250.0   90.0   50.0
300.0   120.0   50.0
300.0   90.0   50.0
300.0   90.0   33.333333333333336
250.0   90.0   50.0
300.0   120.0   50.0
300.0   90.0   33.333333333333336
250.0   120.0   33.333333333333336
250.0   120.0   0.0
300.0   120.0   0.0
250.0   150.0   0.0
250.0   120.0   16.666666666666668
300.0   120.0   0.0
300.0   150.0   0.0
250.0   150.0   0.0
300.0   150.0   16.666666666666668
250.0   120.0   16.666666666666668
250.0   150.0   16.666666666666668
300.0   150.0   16.666666666666668
250.0   150.0   0.0
250.0   120.0   16.666666666666668
300.0   150.0   16.666666666666668
300.0   120.0   16.666666666666668
300.0   120.0   0.0
250.0   120.0   16.666666666666668
300.0   150.0   16.666666666666668
300.0   120.0   0.0
250.0   150.0   0.0
250.0   120.0   16.666666666666668
300.0   120.0   16.666666666666668
250.0   150.0   16.666666666666668
250.0   120.0   33.333333333333336
300.0   120.0   16.666666666666668
300.0   150.0   16.666666666666668
250.0   150.0   16.666666666666668
300.0   150.0   33.333333333333336
250.0   120.0   33.333333333333336
250.0   150.0   33.333333333333336
300.0   150.0   33.333333333333336
250.0   150.0   16.666666666666668
250.0   120.0   33.333333333333336
300.0   150.0   33.333333333333336
300.0   120.0   33.333333333333336
300.0   120.0   16.666666666666668
250.0   120.0   33.333333333333336
300.0   150.0   33.333333333333336
300.0   120.0   16.666666666666668
250.0   150.0   16.666666666666668
250.0   120.0   33.333333333333336
300.0   120.0   33.333333333333336
250.0   150.0   33.333333333333336
250.0   120.0   50.0
300.0   120.0   33.333333333333336
300.0   150.0   33.333333333333336
250.0   150.0   33.333333333333336
300.0   150.0   50.0
250.0   120.0   50.0
250.0   150.0   50.0
300.0   150.0   50.0
250.0   150.0   33.333333333333336
250.0   120.0   50.0
300.0   150.0   50.0
300.0   120.0   50.0
300.0   120.0   33.333333333333336
250.0   120.0   50.0
300.0   150.0   50.0
300.0   120.0   33.333333333333336
250.0   150.0   33.333333333333336
300.0   0.0   0.0
350.0   0.0   0.0
300.0   30.0   0.0
300.0   0.0   16.666666666666668
350.0   0.0   0.0
350.0   30.0   0.0
300.0   30.0   0.0
350.0   30.0   16.666666666666668
300.0   0.0   16.666666666666668
300.0   30.0   16.666666666666668
350.0   30.0   16.666666666666668
300.0   30.0   0.0
300.0   0.0   16.666666666666668
350.0   30.0   16.666666666666668
350.0   0.0   16.666666666666668
350.0   0.0   0.0
300.0   0.0   16.666666666666668
350.0   30.0   16.666666666666668
350.0   0.0   0.0
300.0   30.0   0.0
300.0   0.0   16.666666666666668
350.0   0.0   16.666666666666668
300.0   30.0   16.666666666666668
300.0   0.0   33.333333333333336
350.0   0.0   16.666666666666668
350.0   30.0   16.666666666666668
300.0   30.0   16.666666666666668
350.0   30.0   33.333333333333336
300.0   0.0   33.333333333333336
300.0   30.0   33.333333333333336
350.0   30.0   33.333333333333336
300.0   30.0   16.666666666666668
300.0   0.0   33.333333333333336
350.0   30.0   33.333333333333336
350.0   0.0   33.333333333333336
350.0   0.0   16.666666666666668
300.0   0.0   33.333333333333336
350.0   30.0   33.333333333333336
350.0   0.0   16.666666666666668
300.0   30.0   16.666666666666668
300.0   0.0   33.333333333333336
350.0   0.0   33.333333333333336
300.0   30.0   33.333333333333336
300.0   0.0   50.0
350.0   0.0   33.333333333333336
350.0   30.0   33.333333333333336
300.0   30.0   33.333333333333336
350.0   30.0   50.0
300.0   0.0   50.0
300.0   30.0   50.0
350.0   30.0   50.0
300.0   30.0   33.333333333333336
300.0   0.0   50.0
350.0   30.0   50.0
350.0   0.0   50.0
350.0   0.0   33.333333333333336
300.0   0.0   50.0
350.0   30.0   50.0
350.0   0.0   33.333333333333336
300.0   30.0   33.333333333333336
300.0   30.0   0.0
350.0   30.0   0.0
300.0   60.0   0.0
300.0   30.0   16.666666666666668
350.0   30.0   0.0
350.0   60.0   0.0
300.0   60.0   0.0
350.0   60.0   16.666666666666668
300.0   30.0   16.666666666666668
300.0   60.0   16.666666666666668
350.0   60.0   16.666666666666668
300.0   60.0   0.0
300.0   30.0   16.666666666666668
350.0   60.0   16.666666666666668
350.0   30.0   16.666666666666668
350.0   30.0   0.0
300.0   30.0   16.666666666666668
350.0   60.0   16.666666666666668
350.0   30.0   0.0
300.0   60.0   0.0
300.0   30.0   16.666666666666668
350.0   30.0   16.666666666666668
300.0   60.0   16.666666666666668
300.0   30.0   33.333333333333336
350.0   30.0   16.666666666666668
350.0   60.0   16.666666666666668
300.0   60.0   16.666666666666668
350.0   60.0   33.333333333333336
300.0   30.0   33.333333333333336
300.0   60.0   33.333333333333336
350.0   60.0   33.333333333333336
300.0   60.0   16.666666666666668
300.0   30.0   33.333333333333336
350.0   60.0   33.333333333333336
350.0   30.0   33.333333333333336
350.0   30.0   16.666666666666668
300.0   30.0   33.333333333333336
350.0   60.0   33.333333333333336
350.0   30.0   16.666666666666668
300.0   60.0   16.666666666666668
300.0   30.0   33.333333333333336
350.0   30.0   33.333333333333336
300.0   60.0   33.333333333333336
300.0   30.0   50.0
350.0   30.0   33.333333333333336
350.0   60.0   33.333333333333336
300.0   60.0   33.333333333333336
350.0   60.0   50.0
300.0   30.0   50.0
300.0   60.0   50.0
350.0   60.0   50.0
300.0   60.0   33.333333333333336
300.0   30.0   50.0
350.0   60.0   50.0
350.0   30.0   50.0
350.0   30.0   33.333333333333336
300.0   30.0   50.0
350.0   60.0   50.0
350.0   30.0   33.333333333333336
300.0   60.0   33.333333333333336
300.0   60.0   0.0
350.0   60.0   0.0
300.0   90.0   0.0
300.0   60.0   16.666666666666668
350.0   60.0   0.0
350.0   90.0   0.0
300.0   90.0   0.0
350.0   90.0   16.666666666666668
300.0   60.0   16.666666666666668
300.0   90.0   16.666666666666668
350.0   90.0   16.666666666666668
300.0   90.0   0.0
300.0   60.0   16.666666666666668
350.0   90.0   16.666666666666668
350.0   60.0   16.666666666666668
350.0   60.0   0.0
300.0   60.0   16.666666666666668
350.0   90.0   16.666666666666668
350.0   60.0   0.0
300.0   90.0   0.0
300.0   60.0   16.666666666666668
350.0   60.0   16.666666666666668
300.0   90.0   16.666666666666668
300.0   60.0   33.333333333333336
350.0   60.0   16.666666666666668
350.0   90.0   16.666666666666668
300.0   90.0   16.666666666666668
350.0   90.0   33.333333333333336
300.0   60.0   33.333333333333336
300.0   90.0   33.333333333333336
350.0   90.0   33.333333333333336
300.0   90.0   16.666666666666668
300.0   60.0   33.333333333333336
350.0   90.0   33.333333333333336
350.0   60.0   33.333333333333336
350.0   60.0   16.666666666666668
300.0   60.0   33.333333333333336
350.0   90.0   33.333333333333336
350.0   60.0   16.666666666666668
300.0   90.0   16.666666666666668
300.0   60.0   33.333333333333336
350.0   60.0   33.333333333333336
300.0   90.0   33.333333333333336
300.0   60.0   50.0
350.0   60.0   33.333333333333336
350.0   90.0   33.333333333333336
300.0   90.0   33.333333333333336
350.0   90.0   50.0
300.0   60.0   50.0
300.0   90.0   50.0
350.0   90.0   50.0
300.0   90.0   33.333333333333336
300.0   60.0   50.0
350.0   90.0   50.0
350.0   60.0   50.0
350.0   60.0   33.333333333333336
300.0   60.0   50.0
350.0   90.0   50.0
350.0   60.0   33.333333333333336
300.0   90.0   33.333333333333336
300.0   90.0   0.0
350.0   90.0   0.0
300.0   120.0   0.0
300.0   90.0   16.666666666666668
350.0   90.0   0.0
350.0   120.0   0.0
300.0   120.0   0.0
350.0   120.0   16.666666666666668
300.0   90.0   16.666666666666668
300.0   120.0   16.666666666666668
350.0   120.0   16.666666666666668
300.0   120.0   0.0
300.0   90.0   16.666666666666668
350.0   120.0   16.666666666666668
350.0   90.0   16.666666666666668
350.0   90.0   0.0
300.0   90.0   16.666666666666668
350.0   120.0   16.666666666666668
350.0   90.0   0.0
300.0   120.0   0.0
300.0   90.0   16.666666666666668
350.0   90.0   16.666666666666668
300.0   120.0   16.666666666666668
300.0   90.0   33.333333333333336
350.0   90.0   16.666666666666668
350.0   120.0   16.666666666666668
300.0   120.0   16.666666666666668
350.0   120.0   33.333333333333336
300.0   90.0   33.333333333333336
300.0   120.0   33.333333333333336
350.0   120.0   33.333333333333336
300.0   120.0   16.666666666666668
300.0   90.0   33.333333333333336
350.0   120.0   33.333333333333336
350.0   90.0   33.333333333333336
350.0   90.0   16.666666666666668
300.0   90.0   33.333333333333336
350.0   120.0   33.333333333333336
350.0   90.0   16.666666666666668
300.0   120.0   16.666666666666668
300.0   90.0   33.333333333333336
350.0   90.0   33.333333333333336
300.0   120.0   33.333333333333336
300.0   90.0   50.0
350.0   90.0   33.333333333333336
350.0   120.0   33.333333333333336
300.0   120.0   33.333333333333336
350.0   120.0   50.0
300.0   90.0   50.0
300.0   120.0   50.0
350.0   120.0   50.0
300.0   120.0   33.333333333333336
300.0   90.0   50.0
350.0   120.0   50.0
350.0   90.0   50.0
350.0   90.0   33.333333333333336
300.0   90.0   50.0
350.0   120.0   50.0
350.0   90.0   33.333333333333336
300.0   120.0   33.333333333333336
300.0   120.0   0.0
350.0   120.0   0.0
300.0   150.0   0.0
300.0   120.0   16.666666666666668
350.0   120.0   0.0
350.0   150.0   0.0
300.0   150.0   0.0
350.0   150.0   16.666666666666668
300.0   120.0   16.666666666666668
300.0   150.0   16.666666666666668
350.0   150.0   16.666666666666668
300.0   150.0   0.0
300.0   120.0   16.666666666666668
350.0   150.0   16.666666666666668
350.0   120.0   16.666666666666668
350.0   120.0   0.0
300.0   120.0   16.666666666666668
350.0   150.0   16.666666666666668
350.0   120.0   0.0
300.0   150.0   0.0
300.0   120.0   16.666666666666668
350.0   120.0   16.666666666666668
300.0   150.0   16.666666666666668
300.0   120.0   33.333333333333336
350.0   120.0   16.666666666666668
350.0   150.0   16.666666666666668
300.0   150.0   16.666666666666668
350.0   150.0   33.333333333333336
300.0   120.0   33.333333333333336
300.0   150.0   33.333333333333336
350.0   150.0   33.333333333333336
300.0   150.0   16.666666666666668
300.0   120.0   33.333333333333336
350.0   150.0   33.333333333333336
350.0   120.0   33.333333333333336
350.0   120.0   16.666666666666668
300.0   120.0   33.333333333333336
350.0   150.0   33.333333333333336
350.0   120.0   16.666666666666668
300.0   150.0   16.666666666666668
300.0   120.0   33.333333333333336
350.0   120.0   33.333333333333336
300.0   150.0   33.333333333333336
300.0   120.0   50.0
350.0   120.0   33.333333333333336
350.0   150.0   33.333333333333336
300.0   150.0   33.333333333333336
350.0   150.0   50.0
300.0   120.0   50.0
300.0   150.0   50.0
350.0   150.0   50.0
300.0   150.0   33.333333333333336
300.0   120.0   50.0
350.0   150.0   50.0
350.0   120.0   50.0
350.0   120.0   33.333333333333336
300.0   120.0   50.0
350.0   150.0   50.0
350.0   120.0   33.333333333333336
300.0   150.0   33.333333333333336
350.0   0.0   0.0
400.0   0.0   0.0
350.0   30.0   0.0
350.0   0.0   16.666666666666668
400.0   0.0   0.0
400.0   30.0   0.0
350.0   30.0   0.0
400.0   30.0   16.666666666666668
350.0   0.0   16.666666666666668
350.0   30.0   16.666666666666668
400.0   30.0   16.666666666666668
350.0   30.0   0.0
350.0   0.0   16.666666666666668
400.0   30.0   16.666666666666668
400.0   0.0   16.666666666666668
400.0   0.0   0.0
350.0   0.0   16.666666666666668
400.0   30.0   16.666666666666668
400.0   0.0   0.0
350.0   30.0   0.0
350.0   0.0   16.666666666666668
400.0   0.0   16.666666666666668
350.0   30.0   16.666666666666668
350.0   0.0   33.333333333333336
400.0   0.0   16.666666666666668
400.0   30.0   16.666666666666668
350.0   30.0   16.666666666666668
400.0   30.0   33.333333333333336
350.0   0.0   33.333333333333336
350.0   30.0   33.333333333333336
400.0   30.0   33.333333333333336
350.0   30.0   16.666666666666668
350.0   0.0   33.333333333333336
400.0   30.0   33.333333333333336
400.0   0.0   33.333333333333336
400.0   0.0   16.666666666666668
350.0   0.0   33.333333333333336
400.0   30.0   33.333333333333336
400.0   0.0   16.666666666666668
350.0   30.0   16.666666666666668
350.0   0.0   33.333333333333336
400.0   0.0   33.333333333333336
350.0   30.0   33.333333333333336
350.0   0.0   50.0
400.0   0.0   33.333333333333336
400.0   30.0   33.333333333333336
350.0   30.0   33.333333333333336
400.0   30.0   50.0
350.0   0.0   50.0
350.0   30.0   50.0
400.0   30.0   50.0
350.0   30.0   33.333333333333336
350.0   0.0   50.0
400.0   30.0   50.0
400.0   0.0   50.0
400.0   0.0   33.333333333333336
350.0   0.0   50.0
400.0   30.0   50.0
400.0   0.0   33.333333333333336
350.0   30.0   33.333333333333336
350.0   30.0   0.0
400.0   30.0   0.0
350.0   60.0   0.0
350.0   30.0   16.666666666666668
400.0   30.0   0.0
400.0   60.0   0.0
350.0   60.0   0.0
400.0   60.0   16.666666666666668
350.0   30.0   16.666666666666668
350.0   60.0   16.666666666666668
400.0   60.0   16.666666666666668
350.0   60.0   0.0
350.0   30.0   16.666666666666668
400.0   60.0   16.666666666666668
400.0   30.0   16.666666666666668
400.0   30.0   0.0
350.0   30.0   16.666666666666668
400.0   60.0   16.666666666666668
400.0   30.0   0.0
350.0   60.0   0.0
350.0   30.0   16.666666666666668
400.0   30.0   16.666666666666668
350.0   60.0   16.666666666666668
350.0   30.0   33.333333333333336
400.0   30.0   16.666666666666668
400.0   60.0   16.666666666666668
350.0   60.0   16.666666666666668
400.0   60.0   33.333333333333336
350.0   30.0   33.333333333333336
350.0   60.0   33.333333333333336
400.0   60.0   33.333333333333336
350.0   60.0   16.666666666666668
350.0   30.0   33.333333333333336
400.0   60.0   33.333333333333336
400.0   30.0   33.333333333333336
400.0   30.0   16.666666666666668
350.0   30.0   33.333333333333336
400.0   60.0   33.333333333333336
400.0   30.0   16.666666666666668
350.0   60.0   16.666666666666668
350.0   30.0   33.333333333333336
400.0   30.0   33.333333333333336
350.0   60.0   33.333333333333336
350.0   30.0   50.0
400.0   30.0   33.333333333333336
400.0   60.0   33.333333333333336
350.0   60.0   33.333333333333336
400.0   60.0   50.0
350.0   30.0   50.0
350.0   60.0   50.0
400.0   60.0   50.0
350.0   60.0   33.333333333333336
350.0   30.0   50.0
400.0   60.0   50.0
400.0   30.0   50.0
400.0   30.0   33.333333333333336
350.0   30.0   50.0
400.0   60.0   50.0
400.0   30.0   33.333333333333336
350.0   60.0   33.333333333333336
350.0   60.0   0.0
400.0   60.0   0.0
350.0   90.0   0.0
350.0   60.0   16.666666666666668
400.0   60.0   0.0
400.0   90.0   0.0
350.0   90.0   0.0
400.0   90.0   16.666666666666668
350.0   60.0   16.666666666666668
350.0   90.0   16.666666666666668
400.0   90.0   16.666666666666668
350.0   90.0   0.0
350.0   60.0   16.666666666666668
400.0   90.0   16.666666666666668
400.0   60.0   16.666666666666668
400.0   60.0   0.0
350.0   60.0   16.666666666666668
400.0   90.0   16.666666666666668
400.0   60.0   0.0
350.0   90.0   0.0
350.0   60.0   16.666666666666668
400.0   60.0   16.666666666666668
350.0   90.0   16.666666666666668
350.0   60.0   33.333333333333336
400.0   60.0   16.666666666666668
400.0   90.0   16.666666666666668
350.0   90.0   16.666666666666668
400.0   90.0   33.333333333333336
350.0   60.0   33.333333333333336
350.0   90.0   33.333333333333336
400.0   90.0   33.333333333333336
350.0   90.0   16.666666666666668
350.0   60.0   33.333333333333336
400.0   90.0   33.333333333333336
400.0   60.0   33.333333333333336
400.0   60.0   16.666666666666668
350.0   60.0   33.333333333333336
400.0   90.0   33.333333333333336
400.0   60.0   16.666666666666668
350.0   90.0   16.666666666666668
350.0   60.0   33.333333333333336
400.0   60.0   33.333333333333336
350.0   90.0   33.333333333333336
350.0   60.0   50.0
400.0   60.0   33.333333333333336
400.0   90.0   33.333333333333336
350.0   90.0   33.333333333333336
400.0   90.0   50.0
350.0   60.0   50.0
350.0   90.0   50.0
400.0   90.0   50.0
350.0   90.0   33.333333333333336
350.0   60.0   50.0
400.0   90.0   50.0
400.0   60.0   50.0
400.0   60.0   33.333333333333336
350.0   60.0   50.0
400.0   90.0   50.0
400.0   60.0   33.333333333333336
350.0   90.0   33.333333333333336
350.0   90.0   0.0
400.0   90.0   0.0
350.0   120.0   0.0
350.0   90.0   16.666666666666668
400.0   90.0   0.0
400.0   120.0   0.0
350.0   120.0   0.0
400.0   120.0   16.666666666666668
350.0   90.0   16.666666666666668
350.0   120.0   16.666666666666668
400.0   120.0   16.666666666666668
350.0   120.0   0.0
350.0   90.0   16.666666666666668
400.0   120.0   16.666666666666668
400.0   90.0   16.666666666666668
400.0   90.0   0.0
350.0   90.0   16.666666666666668
400.0   120.0   16.666666666666668
400.0   90.0   0.0
350.0   120.0   0.0
350.0   90.0   16.666666666666668
400.0   90.0   16.666666666666668
350.0   120.0   16.666666666666668
350.0   90.0   33.333333333333336
400.0   90.0   16.666666666666668
400.0   120.0   16.666666666666668
350.0   120.0   16.666666666666668
400.0   120.0   33.333333333333336
350.0   90.0   33.333333333333336
350.0   120.0   33.333333333333336
400.0   120.0   33.333333333333336
350.0   120.0   16.666666666666668
350.0   90.0   33.333333333333336
400.0   120.0   33.333333333333336
400.0   90.0   33.333333333333336
400.0   90.0   16.666666666666668
350.0   90.0   33.333333333333336
400.0   120.0   33.333333333333336
400.0   90.0   16.666666666666668
350.0   120.0   16.666666666666668
350.0   90.0   33.333333333333336
400.0   90.0   33.333333333333336
350.0   120.0   33.333333333333336
350.0   90.0   50.0
400.0   90.0   33.333333333333336
400.0   120.0   33.333333333333336
350.0   120.0   33.333333333333336
400.0   120.0   50.0
350.0   90.0   50.0
350.0   120.0   50.0
400.0   120.0   50.0
350.0   120.0   33.333333333333336
350.0   90.0   50.0
400.0   120.0   50.0
400.0   90.0   50.0
400.0   90.0   33.333333333333336
350.0   90.0   50.0
400.0   120.0   50.0
400.0   90.0   33.333333333333336
350.0   120.0   33.333333333333336
350.0   120.0   0.0
400.0   120.0   0.0
350.0   150.0   0.0
350.0   120.0   16.666666666666668
400.0   120.0   0.0
400.0   150.0   0.0
350.0   150.0   0.0
400.0   150.0   16.666666666666668
350.0   120.0   16.666666666666668
350.0   150.0   16.666666666666668
400.0   150.0   16.666666666666668
350.0   150.0   0.0
350.0   120.0   16.666666666666668
400.0   150.0   16.666666666666668
400.0   120.0   16.666666666666668
400.0   120.0   0.0
350.0   120.0   16.666666666666668
400.0   150.0   16.666666666666668
400.0   120.0   0.0
350.0   150.0   0.0
350.0   120.0   16.666666666666668
400.0   120.0   16.666666666666668
350.0   150.0   16.666666666666668
350.0   120.0   33.333333333333336
400.0   120.0   16.666666666666668
400.0   150.0   16.666666666666668
350.0   150.0   16.666666666666668
400.0   150.0   33.333333333333336
350.0   120.0   33.333333333333336
350.0   150.0   33.333333333333336
400.0   150.0   33.333333333333336
350.0   150.0   16.666666666666668
350.0   120.0   33.333333333333336
400.0   150.0   33.333333333333336
400.0   120.0   33.333333333333336
400.0   120.0   16.666666666666668
350.0   120.0   33.333333333333336
400.0   150.0   33.333333333333336
400.0   120.0   16.666666666666668
350.0   150.0   16.666666666666668
350.0   120.0   33.333333333333336
400.0   120.0   33.333333333333336
350.0   150.0   33.333333333333336
350.0   120.0   50.0
400.0   120.0   33.333333333333336
400.0   150.0   33.333333333333336
350.0   150.0   33.333333333333336
400.0   150.0   50.0
350.0   120.0   50.0
350.0   150.0   50.0
400.0   150.0   50.0
350.0   150.0   33.333333333333336
350.0   120.0   50.0
400.0   150.0   50.0
400.0   120.0   50.0
400.0   120.0   33.333333333333336
350.0   120.0   50.0
400.0   150.0   50.0
400.0   120.0   33.333333333333336
350.0   150.0   33.333333333333336
400.0   0.0   0.0
450.0   0.0   0.0
400.0   30.0   0.0
400.0   0.0   16.666666666666668
450.0   0.0   0.0
450.0   30.0   0.0
400.0   30.0   0.0
450.0   30.0   16.666666666666668
400.0   0.0   16.666666666666668
400.0   30.0   16.666666666666668
450.0   30.0   16.666666666666668
400.0   30.0   0.0
400.0   0.0   16.666666666666668
450.0   30.0   16.666666666666668
450.0   0.0   16.666666666666668
450.0   0.0   0.0
400.0   0.0   16.666666666666668
450.0   30.0   16.666666666666668
450.0   0.0   0.0
400.0   30.0   0.0
400.0   0.0   16.666666666666668
450.0   0.0   16.666666666666668
400.0   30.0   16.666666666666668
400.0   0.0   33.333333333333336
450.0   0.0   16.666666666666668
450.0   30.0   16.666666666666668
400.0   30.0   16.666666666666668
450.0   30.0   33.333333333333336
400.0   0.0   33.333333333333336
400.0   30.0   33.333333333333336
450.0   30.0   33.333333333333336
400.0   30.0   16.666666666666668
400.0   0.0   33.333333333333336
450.0   30.0   33.333333333333336
450.0   0.0   33.333333333333336
450.0   0.0   16.666666666666668
400.0   0.0   33.333333333333336
450.0   30.0   33.333333333333336
450.0   0.0   16.666666666666668
400.0   30.0   16.666666666666668
400.0   0.0   33.333333333333336
450.0   0.0   33.333333333333336
400.0   30.0   33.333333333333336
400.0   0.0   50.0
450.0   0.0   33.333333333333336
450.0   30.0   33.333333333333336
400.0   30.0   33.333333333333336
450.0   30.0   50.0
400.0   0.0   50.0
400.0   30.0   50.0
450.0   30.0   50.0
400.0   30.0   33.333333333333336
400.0   0.0   50.0
450.0   30.0   50.0
450.0   0.0   50.0
450.0   0.0   33.333333333333336
400.0   0.0   50.0
450.0   30.0   50.0
450.0   0.0   33.333333333333336
400.0   30.0   33.333333333333336
400.0   30.0   0.0
450.0   30.0   0.0
400.0   60.0   0.0
400.0   30.0   16.666666666666668
450.0   30.0   0.0
450.0   60.0   0.0
400.0   60.0   0.0
450.0   60.0   16.666666666666668
400.0   30.0   16.666666666666668
400.0   60.0   16.666666666666668
450.0   60.0   16.666666666666668
400.0   60.0   0.0
400.0   30.0   16.666666666666668
450.0   60.0   16.666666666666668
450.0   30.0   16.666666666666668
450.0   30.0   0.0
400.0   30.0   16.666666666666668
450.0   60.0   16.666666666666668
450.0   30.0   0.0
400.0   60.0   0.0
400.0   30.0   16.666666666666668
450.0   30.0   16.666666666666668
400.0   60.0   16.666666666666668
400.0   30.0   33.333333333333336
450.0   30.0   16.666666666666668
450.0   60.0   16.666666666666668
400.0   60.0   16.666666666666668
450.0   60.0   33.333333333333336
400.0   30.0   33.333333333333336
400.0   60.0   33.333333333333336
450.0   60.0   33.333333333333336
400.0   60.0   16.666666666666668
400.0   30.0   33.333333333333336
450.0   60.0   33.333333333333336
450.0   30.0   33.333333333333336
450.0   30.0   16.666666666666668
400.0   30.0   33.333333333333336
450.0   60.0   33.333333333333336
450.0   30.0   16.666666666666668
400.0   60.0   16.666666666666668
400.0   30.0   33.333333333333336
450.0   30.0   33.333333333333336
400.0   60.0   33.333333333333336
400.0   30.0   50.0
450.0   30.0   33.333333333333336
450.0   60.0   33.333333333333336
400.0   60.0   33.333333333333336
450.0   60.0   50.0
400.0   30.0   50.0
400.0   60.0   50.0
450.0   60.0   50.0
400.0   60.0   33.333333333333336
400.0   30.0   50.0
450.0   60.0   50.0
450.0   30.0   50.0
450.0   30.0   33.333333333333336
400.0   30.0   50.0
450.0   60.0   50.0
450.0   30.0   33.333333333333336
400.0   60.0   33.333333333333336
400.0   60.0   0.0
450.0   60.0   0.0
400.0   90.0   0.0
400.0   60.0   16.666666666666668
450.0   60.0   0.0
450.0   90.0   0.0
400.0   90.0   0.0
450.0   90.0   16.666666666666668
400.0   60.0   16.666666666666668
400.0   90.0   16.666666666666668
450.0   90.0   16.666666666666668
400.0   90.0   0.0
400.0   60.0   16.666666666666668
450.0   90.0   16.666666666666668
450.0   60.0   16.666666666666668
450.0   60.0   0.0
400.0   60.0   16.666666666666668
450.0   90.0   16.666666666666668
450.0   60.0   0.0
400.0   90.0   0.0
400.0   60.0   16.666666666666668
450.0   60.0   16.666666666666668
400.0   90.0   16.666666666666668
400.0   60.0   33.333333333333336
450.0   60.0   16.666666666666668
450.0   90.0   16.666666666666668
400.0   90.0   16.666666666666668
450.0   90.0   33.333333333333336
400.0   60.0   33.333333333333336
400.0   90.0   33.333333333333336
450.0   90.0   33.333333333333336
400.0   90.0   16.666666666666668
400.0   60.0   33.333333333333336
450.0   90.0   33.333333333333336
450.0   60.0   33.333333333333336
450.0   60.0   16.666666666666668
400.0   60.0   33.333333333333336
450.0   90.0   33.333333333333336
450.0   60.0   16.666666666666668
400.0   90.0   16.666666666666668
400.0   60.0   33.333333333333336
450.0   60.0   33.333333333333336
400.0   90.0   33.333333333333336
400.0   60.0   50.0
450.0   60.0   33.333333333333336
450.0   90.0   33.333333333333336
400.0   90.0   33.333333333333336
450.0   90.0   50.0
400.0   60.0   50.0
400.0   90.0   50.0
450.0   90.0   50.0
400.0   90.0   33.333333333333336
400.0   60.0   50.0
450.0   90.0   50.0
450.0   60.0   50.0
450.0   60.0   33.333333333333336
400.0   60.0   50.0
450.0   90.0   50.0
450.0   60.0   33.333333333333336
400.0   90.0   33.333333333333336
400.0   90.0   0.0
450.0   90.0   0.0
400.0   120.0   0.0
400.0   90.0   16.666666666666668
450.0   90.0   0.0
450.0   120.0   0.0
400.0   120.0   0.0
450.0   120.0   16.666666666666668
400.0   90.0   16.666666666666668
400.0   120.0   16.666666666666668
450.0   120.0   16.666666666666668
400.0   120.0   0.0
400.0   90.0   16.666666666666668
450.0   120.0   16.666666666666668
450.0   90.0   16.666666666666668
450.0   90.0   0.0
400.0   90.0   16.666666666666668
450.0   120.0   16.666666666666668
450.0   90.0   0.0
400.0   120.0   0.0
400.0   90.0   16.666666666666668
450.0   90.0   16.666666666666668
400.0   120.0   16.666666666666668
400.0   90.0   33.333333333333336
450.0   90.0   16.666666666666668
450.0   120.0   16.666666666666668
400.0   120.0   16.666666666666668
450.0   120.0   33.333333333333336
400.0   90.0   33.333333333333336
400.0   120.0   33.333333333333336
450.0   120.0   33.333333333333336
400.0   120.0   16.666666666666668
400.0   90.0   33.333333333333336
450.0   120.0   33.333333333333336
450.0   90.0   33.333333333333336
450.0   90.0   16.666666666666668
400.0   90.0   33.333333333333336
450.0   120.0   33.333333333333336
450.0   90.0   16.666666666666668
400.0   120.0   16.666666666666668
400.0   90.0   33.333333333333336
450.0   90.0   33.333333333333336
400.0   120.0   33.333333333333336
400.0   90.0   50.0
450.0   90.0   33.333333333333336
450.0   120.0   33.333333333333336
400.0   120.0   33.333333333333336
450.0   120.0   50.0
400.0   90.0   50.0
400.0   120.0   50.0
450.0   120.0   50.0
400.0   120.0   33.333333333333336
400.0   90.0   50.0
450.0   120.0   50.0
450.0   90.0   50.0
450.0   90.0   33.333333333333336
400.0   90.0   50.0
450.0   120.0   50.0
450.0   90.0   33.333333333333336
400.0   120.0   33.333333333333336
400.0   120.0   0.0
450.0   120.0   0.0
400.0   150.0   0.0
400.0   120.0   16.666666666666668
450.0   120.0   0.0
450.0   150.0   0.0
400.0   150.0   0.0
450.0   150.0   16.666666666666668
400.0   120.0   16.666666666666668
400.0   150.0   16.666666666666668
450.0   150.0   16.666666666666668
400.0   150.0   0.0
400.0   120.0   16.666666666666668
450.0   150.0   16.666666666666668
450.0   120.0   16.666666666666668
450.0   120.0   0.0
400.0   120.0   16.666666666666668
450.0   150.0   16.666666666666668
450.0   120.0   0.0
400.0   150.0   0.0
400.0   120.0   16.666666666666668
450.0   120.0   16.666666666666668
400.0   150.0   16.666666666666668
400.0   120.0   33.333333333333336
450.0   120.0   16.666666666666668
450.0   150.0   16.666666666666668
400.0   150.0   16.666666666666668
450.0   150.0   33.333333333333336
400.0   120.0   33.333333333333336
400.0   150.0   33.333333333333336
450.0   150.0   33.333333333333336
400.0   150.0   16.666666666666668
400.0   120.0   33.333333333333336
450.0   150.0   33.333333333333336
450.0   120.0   33.333333333333336
450.0   120.0   16.666666666666668
400.0   120.0   33.333333333333336
450.0   150.0   33.333333333333336
450.0   120.0   16.666666666666668
400.0   150.0   16.666666666666668
400.0   120.0   33.333333333333336
450.0   120.0   33.333333333333336
400.0   150.0   33.333333333333336
400.0   120.0   50.0
450.0   120.0   33.333333333333336
450.0   150.0   33.333333333333336
400.0   150.0   33.333333333333336
450.0   150.0   50.0
400.0   120.0   50.0
400.0   150.0   50.0
450.0   150.0   50.0
400.0   150.0   33.333333333333336
400.0   120.0   50.0
450.0   150.0   50.0
450.0   120.0   50.0
450.0   120.0   33.333333333333336
400.0   120.0   50.0
450.0   150.0   50.0
450.0   120.0   33.333333333333336
400.0   150.0   33.333333333333336
450.0   0.0   0.0
500.0   0.0   0.0
450.0   30.0   0.0
450.0   0.0   16.666666666666668
500.0   0.0   0.0
500.0   30.0   0.0
450.0   30.0   0.0
500.0   30.0   16.666666666666668
450.0   0.0   16.666666666666668
450.0   30.0   16.666666666666668
500.0   30.0   16.666666666666668
450.0   30.0   0.0
450.0   0.0   16.666666666666668
500.0   30.0   16.666666666666668
500.0   0.0   16.666666666666668
500.0   0.0   0.0
450.0   0.0   16.666666666666668
500.0   30.0   16.666666666666668
500.0   0.0   0.0
450.0   30.0   0.0
450.0   0.0   16.666666666666668
500.0   0.0   16.666666666666668
450.0   30.0   16.666666666666668
450.0   0.0   33.333333333333336
500.0   0.0   16.666666666666668
500.0   30.0   16.666666666666668
450.0   30.0   16.666666666666668
500.0   30.0   33.333333333333336
450.0   0.0   33.333333333333336
450.0   30.0   33.333333333333336
500.0   30.0   33.333333333333336
450.0   30.0   16.666666666666668
450.0   0.0   33.333333333333336
500.0   30.0   33.333333333333336
500.0   0.0   33.333333333333336
500.0   0.0   16.666666666666668
450.0   0.0   33.333333333333336
500.0   30.0   33.333333333333336
500.0   0.0   16.666666666666668
450.0   30.0   16.666666666666668
450.0   0.0   33.333333333333336
500.0   0.0   33.333333333333336
450.0   30.0   33.333333333333336
450.0   0.0   50.0
500.0   0.0   33.333333333333336
500.0   30.0   33.333333333333336
450.0   30.0   33.333333333333336
500.0   30.0   50.0
450.0   0.0   50.0
450.0   30.0   50.0
500.0   30.0   50.0
450.0   30.0   33.333333333333336
450.0   0.0   50.0
500.0   30.0   50.0
500.0   0.0   50.0
500.0   0.0   33.333333333333336
450.0   0.0   50.0
500.0   30.0   50.0
500.0   0.0   33.333333333333336
450.0   30.0   33.333333333333336
450.0   30.0   0.0
500.0   30.0   0.0
450.0   60.0   0.0
450.0   30.0   16.666666666666668
500.0   30.0   0.0
500.0   60.0   0.0
450.0   60.0   0.0
500.0   60.0   16.666666666666668
450.0   30.0   16.666666666666668
450.0   60.0   16.666666666666668
500.0   60.0   16.666666666666668
450.0   60.0   0.0
450.0   30.0   16.666666666666668
500.0   60.0   16.666666666666668
500.0   30.0   16.666666666666668
500.0   30.0   0.0
450.0   30.0   16.666666666666668
500.0   60.0   16.666666666666668
500.0   30.0   0.0
450.0   60.0   0.0
450.0   30.0   16.666666666666668
500.0   30.0   16.666666666666668
450.0   60.0   16.666666666666668
450.0   30.0   33.333333333333336
500.0   30.0   16.666666666666668
500.0   60.0   16.666666666666668
450.0   60.0   16.666666666666668
500.0   60.0   33.333333333333336
450.0   30.0   33.333333333333336
450.0   60.0   33.333333333333336
500.0   60.0   33.333333333333336
450.0   60.0   16.666666666666668
450.0   30.0   33.333333333333336
500.0   60.0   33.333333333333336
500.0   30.0   33.333333333333336
500.0   30.0   16.666666666666668
450.0   30.0   33.333333333333336
500.0   60.0   33.333333333333336
500.0   30.0   16.666666666666668
450.0   60.0   16.666666666666668
450.0   30.0   33.333333333333336
500.0   30.0   33.333333333333336
450.0   60.0   33.333333333333336
450.0   30.0   50.0
500.0   30.0   33.333333333333336
500.0   60.0   33.333333333333336
450.0   60.0   33.333333333333336
500.0   60.0   50.0
450.0   30.0   50.0
450.0   60.0   50.0
500.0   60.0   50.0
450.0   60.0   33.333333333333336
450.0   30.0   50.0
500.0   60.0   50.0
500.0   30.0   50.0
500.0   30.0   33.333333333333336
450.0   30.0   50.0
500.0   60.0   50.0
500.0   30.0   33.333333333333336
450.0   60.0   33.333333333333336
450.0   60.0   0.0
500.0   60.0   0.0
450.0   90.0   0.0
450.0   60.0   16.666666666666668
500.0   60.0   0.0
500.0   90.0   0.0
450.0   90.0   0.0
500.0   90.0   16.666666666666668
450.0   60.0   16.666666666666668
450.0   90.0   16.666666666666668
500.0   90.0   16.666666666666668
450.0   90.0   0.0
450.0   60.0   16.666666666666668
500.0   90.0   16.666666666666668
500.0   60.0   16.666666666666668
500.0   60.0   0.0
450.0   60.0   16.666666666666668
500.0   90.0   16.666666666666668
500.0   60.0   0.0
450.0   90.0   0.0
450.0   60.0   16.666666666666668
500.0   60.0   16.666666666666668
450.0   90.0   16.666666666666668
450.0   60.0   33.333333333333336
500.0   60.0   16.666666666666668
500.0   90.0   16.666666666666668
450.0   90.0   16.666666666666668
500.0   90.0   33.333333333333336
450.0   60.0   33.333333333333336
450.0   90.0   33.333333333333336
500.0   90.0   33.333333333333336
450.0   90.0   16.666666666666668
450.0   60.0   33.333333333333336
500.0   90.0   33.333333333333336
500.0   60.0   33.333333333333336
500.0   60.0   16.666666666666668
450.0   60.0   33.333333333333336
500.0   90.0   33.333333333333336
500.0   60.0   16.666666666666668
450.0   90.0   16.666666666666668
450.0   60.0   33.333333333333336
500.0   60.0   33.333333333333336
450.0   90.0   33.333333333333336
450.0   60.0   50.0
500.0   60.0   33.333333333333336
500.0   90.0   33.333333333333336
450.0   90.0   33.333333333333336
500.0   90.0   50.0
450.0   60.0   50.0
450.0   90.0   50.0
500.0   90.0   50.0
450.0   90.0   33.333333333333336
450.0   60.0   50.0
500.0   90.0   50.0
500.0   60.0   50.0
500.0   60.0   33.333333333333336
450.0   60.0   50.0
500.0   90.0   50.0
500.0   60.0   33.333333333333336
450.0   90.0   33.333333333333336
450.0   90.0   0.0
500.0   90.0   0.0
450.0   120.0   0.0
450.0   90.0   16.666666666666668
500.0   90.0   0.0
500.0   120.0   0.0
450.0   120.0   0.0
500.0   120.0   16.666666666666668
450.0   90.0   16.666666666666668
450.0   120.0   16.666666666666668
500.0   120.0   16.666666666666668
450.0   120.0   0.0
450.0   90.0   16.666666666666668
500.0   120.0   16.666666666666668
500.0   90.0   16.666666666666668
500.0   90.0   0.0
450.0   90.0   16.666666666666668
500.0   120.0   16.666666666666668
500.0   90.0   0.0
450.0   120.0   0.0
450.0   90.0   16.666666666666668
500.0   90.0   16.666666666666668
450.0   120.0   16.666666666666668
450.0   90.0   33.333333333333336
500.0   90.0   16.666666666666668
500.0   120.0   16.666666666666668
450.0   120.0   16.666666666666668
500.0   120.0   33.333333333333336
450.0   90.0   33.333333333333336
450.0   120.0   33.333333333333336
500.0   120.0   33.333333333333336
450.0   120.0   16.666666666666668
450.0   90.0   33.333333333333336
500.0   120.0   33.333333333333336
500.0   90.0   33.333333333333336
500.0   90.0   16.666666666666668
450.0   90.0   33.333333333333336
500.0   120.0   33.333333333333336
500.0   90.0   16.666666666666668
450.0   120.0   16.666666666666668
450.0   90.0   33.333333333333336
500.0   90.0   33.333333333333336
450.0   120.0   33.333333333333336
450.0   90.0   50.0
500.0   90.0   33.333333333333336
500.0   120.0   33.333333333333336
450.0   120.0   33.333333333333336
500.0   120.0   50.0
450.0   90.0   50.0
450.0   120.0   50.0
500.0   120.0   50.0
450.0   120.0   33.333333333333336
450.0   90.0   50.0
500.0   120.0   50.0
500.0   90.0   50.0
500.0   90.0   33.333333333333336
450.0   90.0   50.0
500.0   120.0   50.0
500.0   90.0   33.333333333333336
450.0   120.0   33.333333333333336
450.0   120.0   0.0
500.0   120.0   0.0
450.0   150.0   0.0
450.0   120.0   16.666666666666668
500.0   120.0   0.0
500.0   150.0   0.0
450.0   150.0   0.0
500.0   150.0   16.666666666666668
450.0   120.0   16.666666666666668
450.0   150.0   16.666666666666668
500.0   150.0   16.666666666666668
450.0   150.0   0.0
450.0   120.0   16.666666666666668
500.0   150.0   16.666666666666668
500.0   120.0   16.666666666666668
500.0   120.0   0.0
450.0   120.0   16.666666666666668
500.0   150.0   16.666666666666668
500.0   120.0   0.0
450.0   150.0   0.0
450.0   120.0   16.666666666666668
500.0   120.0   16.666666666666668
450.0   150.0   16.666666666666668
450.0   120.0   33.333333333333336
500.0   120.0   16.666666666666668
500.0   150.0   16.666666666666668
450.0   150.0   16.666666666666668
500.0   150.0   33.333333333333336
450.0   120.0   33.333333333333336
450.0   150.0   33.333333333333336
500.0   150.0   33.333333333333336
450.0   150.0   16.666666666666668
450.0   120.0   33.333333333333336
500.0   150.0   33.333333333333336
500.0   120.0   33.333333333333336
500.0   120.0   16.666666666666668
450.0   120.0   33.333333333333336
500.0   150.0   33.333333333333336
500.0   120.0   16.666666666666668
450.0   150.0   16.666666666666668
450.0   120.0   33.333333333333336
500.0   120.0   33.333333333333336
450.0   150.0   33.333333333333336
450.0   120.0   50.0
500.0   120.0   33.333333333333336
500.0   150.0   33.333333333333336
450.0   150.0   33.333333333333336
500.0   150.0   50.0
450.0   120.0   50.0
450.0   150.0   50.0
500.0   150.0   50.0
450.0   150.0   33.333333333333336
450.0   120.0   50.0
500.0   150.0   50.0
500.0   120.0   50.0
500.0   120.0   33.333333333333336
450.0   120.0   50.0
500.0   150.0   50.0
500.0   120.0   33.333333333333336
450.0   150.0   33.333333333333336
             </DataArray>   
          </Points>  
          <Cells>  
             <DataArray type="Int32" Name="connectivity" format="ascii">   
0   1   2   3
4   5   6   7
8   9   10   11
12   13   14   15
16   17   18   19
20   21   22   23
24   25   26   27
28   29   30   31
32   33   34   35
36   37   38   39
40   41   42   43
44   45   46   47
48   49   50   51
52   53   54   55
56   57   58   59
60   61   62   63
64   65   66   67
68   69   70   71
72   73   74   75
76   77   78   79
80   81   82   83
84   85   86   87
88   89   90   91
92   93   94   95
96   97   98   99
100   101   102   103
104   105   106   107
108   109   110   111
112   113   114   115
116   117   118   119
120   121   122   123
124   125   126   127
128   129   130   131
132   133   134   135
136   137   138   139
140   141   142   143
144   145   146   147
148   149   150   151
152   153   154   155
156   157   158   159
160   161   162   163
164   165   166   167
168   169   170   171
172   173   174   175
176   177   178   179
180   181   182   183
184   185   186   187
188   189   190   191
192   193   194   195
196   197   198   199
200   201   202   203
204   205   206   207
208   209   210   211
212   213   214   215
216   217   218   219
220   221   222   223
224   225   226   227
228   229   230   231
232   233   234   235
236   237   238   239
240   241   242   243
244   245   246   247
248   249   250   251
252   253   254   255
256   257   258   259
260   261   262   263
264   265   266   267
268   269   270   271
272   273   274   275
276   277   278   279
280   281   282   283
284   285   286   287
288   289   290   291
292   293   294   295
296   297   298   299
300   301   302   303
304   305   306   307
308   309   310   311
312   313   314   315
316   317   318   319
320   321   322   323
324   325   326   327
328   329   330   331
332   333   334   335
336   337   338   339
340   341   342   343
344   345   346   347
348   349   350   351
352   353   354   355
356   357   358   359
360   361   362   363
364   365   366   367
368   369   370   371
372   373   374   375
376   377   378   379
380   381   382   383
384   385   386   387
388   389   390   391
392   393   394   395
396   397   398   399
400   401   402   403
404   405   406   407
408   409   410   411
412   413   414   415
416   417   418   419
420   421   422   423
424   425   426   427
428   429   430   431
432   433   434   435
436   437   438   439
440   441   442   443
444   445   446   447
448   449   450   451
452   453   454   455
456   457   458   459
460   461   462   463
464   465   466   467
468   469   470   471
472   473   474   475
476   477   478   479
480   481   482   483
484   485   486   487
488   489   490   491
492   493   494   495
496   497   498   499
500   501   502   503
504   505   506   507
508   509   510   511
512   513   514   515
516   517   518   519
520   521   522   523
524   525   526   527
528   529   530   531
532   533   534   535
536   537   538   539
540   541   542   543
544   545   546   547
548   549   550   551
552   553   554   555
556   557   558   559
560   561   562   563
564   565   566   567
568   569   570   571
572   573   574   575
576   577   578   579
580   581   582   583
584   585   586   587
588   589   590   591
592   593   594   595
596   597   598   599
600   601   602   603
604   605   606   607
608   609   610   611
612   613   614   615
616   617   618   619
620   621   622   623
624   625   626   627
628   629   630   631
632   633   634   635
636   637   638   639
640   641   642   643
644   645   646   647
648   649   650   651
652   653   654   655
656   657   658   659
660   661   662   663
664   665   666   667
668   669   670   671
672   673   674   675
676   677   678   679
680   681   682   683
684   685   686   687
688   689   690   691
692   693   694   695
696   697   698   699
700   701   702   703
704   705   706   707
708   709   710   711
712   713   714   715
716   717   718   719
720   721   722   723
724   725   726   727
728   729   730   731
732   733   734   735
736   737   738   739
740   741   742   743
744   745   746   747
748   749   750   751
752   753   754   755
756   757   758   759
760   761   762   763
764   765   766   767
768   769   770   771
772   773   774   775
776   777   778   779
780   781   782   783
784   785   786   787
788   789   790   791
792   793   794   795
796   797   798   799
800   801   802   803
804   805   806   807
808   809   810   811
812   813   814   815
816   817   818   819
820   821   822   823
824   825   826   827
828   829   830   831
832   833   834   835
836   837   838   839
840   841   842   843
844   845   846   847
848   849   850   851
852   853   854   855
856   857   858   859
860   861   862   863
864   865   866   867
868   869   870   871
872   873   874   875
876   877   878   879
880   881   882   883
884   885   886   887
888   889   890   891
892   893   894   895
896   897   898   899
900   901   902   903
904   905   906   907
908   909   910   911
912   913   914   915
916   917   918   919
920   921   922   923
924   925   926   927
928   929   930   931
932   933   934   935
936   937   938   939
940   941   942   943
944   945   946   947
948   949   950   951
952   953   954   955
956   957   958   959
960   961   962   963
964   965   966   967
968   969   970   971
972   973   974   975
976   977   978   979
980   981   982   983
984   985   986   987
988   989   990   991
992   993   994   995
996   997   998   999
1000   1001   1002   1003
1004   1005   1006   1007
1008   1009   1010   1011
1012   1013   1014   1015
1016   1017   1018   1019
1020   1021   1022   1023
1024   1025   1026   1027
1028   1029   1030   1031
1032   1033   1034   1035
1036   1037   1038   1039
1040   1041   1042   1043
1044   1045   1046   1047
1048   1049   1050   1051
1052   1053   1054   1055
1056   1057   1058   1059
1060   1061   1062   1063
1064   1065   1066   1067
1068   1069   1070   1071
1072   1073   1074   1075
1076   1077   1078   1079
1080   1081   1082   1083
1084   1085   1086   1087
1088   1089   1090   1091
1092   1093   1094   1095
1096   1097   1098   1099
1100   1101   1102   1103
1104   1105   1106   1107
1108   1109   1110   1111
1112   1113   1114   1115
1116   1117   1118   1119
1120   1121   1122   1123
1124   1125   1126   1127
1128   1129   1130   1131
1132   1133   1134   1135
1136   1137   1138   1139
1140   1141   1142   1143
1144   1145   1146   1147
1148   1149   1150   1151
1152   1153   1154   1155
1156   1157   1158   1159
1160   1161   1162   1163
1164   1165   1166   1167
1168   1169   1170   1171
1172   1173   1174   1175
1176   1177   1178   1179
1180   1181   1182   1183
1184   1185   1186   1187
1188   1189   1190   1191
1192   1193   1194   1195
1196   1197   1198   1199
1200   1201   1202   1203
1204   1205   1206   1207
1208   1209   1210   1211
1212   1213   1214   1215
1216   1217   1218   1219
1220   1221   1222   1223
1224   1225   1226   1227
1228   1229   1230   1231
1232   1233   1234   1235
1236   1237   1238   1239
1240   1241   1242   1243
1244   1245   1246   1247
1248   1249   1250   1251
1252   1253   1254   1255
1256   1257   1258   1259
1260   1261   1262   1263
1264   1265   1266   1267
1268   1269   1270   1271
1272   1273   1274   1275
1276   1277   1278   1279
1280   1281   1282   1283
1284   1285   1286   1287
1288   1289   1290   1291
1292   1293   1294   1295
1296   1297   1298   1299
1300   1301   1302   1303
1304   1305   1306   1307
1308   1309   1310   1311
1312   1313   1314   1315
1316   1317   1318   1319
1320   1321   1322   1323
1324   1325   1326   1327
1328   1329   1330   1331
1332   1333   1334   1335
1336   1337   1338   1339
1340   1341   1342   1343
1344   1345   1346   1347
1348   1349   1350   1351
1352   1353   1354   1355
1356   1357   1358   1359
1360   1361   1362   1363
1364   1365   1366   1367
1368   1369   1370   1371
1372   1373   1374   1375
1376   1377   1378   1379
1380   1381   1382   1383
1384   1385   1386   1387
1388   1389   1390   1391
1392   1393   1394   1395
1396   1397   1398   1399
1400   1401   1402   1403
1404   1405   1406   1407
1408   1409   1410   1411
1412   1413   1414   1415
1416   1417   1418   1419
1420   1421   1422   1423
1424   1425   1426   1427
1428   1429   1430   1431
1432   1433   1434   1435
1436   1437   1438   1439
1440   1441   1442   1443
1444   1445   1446   1447
1448   1449   1450   1451
1452   1453   1454   1455
1456   1457   1458   1459
1460   1461   1462   1463
1464   1465   1466   1467
1468   1469   1470   1471
1472   1473   1474   1475
1476   1477   1478   1479
1480   1481   1482   1483
1484   1485   1486   1487
1488   1489   1490   1491
1492   1493   1494   1495
1496   1497   1498   1499
1500   1501   1502   1503
1504   1505   1506   1507
1508   1509   1510   1511
1512   1513   1514   1515
1516   1517   1518   1519
1520   1521   1522   1523
1524   1525   1526   1527
1528   1529   1530   1531
1532   1533   1534   1535
1536   1537   1538   1539
1540   1541   1542   1543
1544   1545   1546   1547
1548   1549   1550   1551
1552   1553   1554   1555
1556   1557   1558   1559
1560   1561   1562   1563
1564   1565   1566   1567
1568   1569   1570   1571
1572   1573   1574   1575
1576   1577   1578   1579
1580   1581   1582   1583
1584   1585   1586   1587
1588   1589   1590   1591
1592   1593   1594   1595
1596   1597   1598   1599
1600   1601   1602   1603
1604   1605   1606   1607
1608   1609   1610   1611
1612   1613   1614   1615
1616   1617   1618   1619
1620   1621   1622   1623
1624   1625   1626   1627
1628   1629   1630   1631
1632   1633   1634   1635
1636   1637   1638   1639
1640   1641   1642   1643
1644   1645   1646   1647
1648   1649   1650   1651
1652   1653   1654   1655
1656   1657   1658   1659
1660   1661   1662   1663
1664   1665   1666   1667
1668   1669   1670   1671
1672   1673   1674   1675
1676   1677   1678   1679
1680   1681   1682   1683
1684   1685   1686   1687
1688   1689   1690   1691
1692   1693   1694   1695
1696   1697   1698   1699
1700   1701   1702   1703
1704   1705   1706   1707
1708   1709   1710   1711
1712   1713   1714   1715
1716   1717   1718   1719
1720   1721   1722   1723
1724   1725   1726   1727
1728   1729   1730   1731
1732   1733   1734   1735
1736   1737   1738   1739
1740   1741   1742   1743
1744   1745   1746   1747
1748   1749   1750   1751
1752   1753   1754   1755
1756   1757   1758   1759
1760   1761   1762   1763
1764   1765   1766   1767
1768   1769   1770   1771
1772   1773   1774   1775
1776   1777   1778   1779
1780   1781   1782   1783
1784   1785   1786   1787
1788   1789   1790   1791
1792   1793   1794   1795
1796   1797   1798   1799
1800   1801   1802   1803
1804   1805   1806   1807
1808   1809   1810   1811
1812   1813   1814   1815
1816   1817   1818   1819
1820   1821   1822   1823
1824   1825   1826   1827
1828   1829   1830   1831
1832   1833   1834   1835
1836   1837   1838   1839
1840   1841   1842   1843
1844   1845   1846   1847
1848   1849   1850   1851
1852   1853   1854   1855
1856   1857   1858   1859
1860   1861   1862   1863
1864   1865   1866   1867
1868   1869   1870   1871
1872   1873   1874   1875
1876   1877   1878   1879
1880   1881   1882   1883
1884   1885   1886   1887
1888   1889   1890   1891
1892   1893   1894   1895
1896   1897   1898   1899
1900   1901   1902   1903
1904   1905   1906   1907
1908   1909   1910   1911
1912   1913   1914   1915
1916   1917   1918   1919
1920   1921   1922   1923
1924   1925   1926   1927
1928   1929   1930   1931
1932   1933   1934   1935
1936   1937   1938   1939
1940   1941   1942   1943
1944   1945   1946   1947
1948   1949   1950   1951
1952   1953   1954   1955
1956   1957   1958   1959
1960   1961   1962   1963
1964   1965   1966   1967
1968   1969   1970   1971
1972   1973   1974   1975
1976   1977   1978   1979
1980   1981   1982   1983
1984   1985   1986   1987
1988   1989   1990   1991
1992   1993   1994   1995
1996   1997   1998   1999
2000   2001   2002   2003
2004   2005   2006   2007
2008   2009   2010   2011
2012   2013   2014   2015
2016   2017   2018   2019
2020   2021   2022   2023
2024   2025   2026   2027
2028   2029   2030   2031
2032   2033   2034   2035
2036   2037   2038   2039
2040   2041   2042   2043
2044   2045   2046   2047
2048   2049   2050   2051
2052   2053   2054   2055
2056   2057   2058   2059
2060   2061   2062   2063
2064   2065   2066   2067
2068   2069   2070   2071
2072   2073   2074   2075
2076   2077   2078   2079
2080   2081   2082   2083
2084   2085   2086   2087
2088   2089   2090   2091
2092   2093   2094   2095
2096   2097   2098   2099
2100   2101   2102   2103
2104   2105   2106   2107
2108   2109   2110   2111
2112   2113   2114   2115
2116   2117   2118   2119
2120   2121   2122   2123
2124   2125   2126   2127
2128   2129   2130   2131
2132   2133   2134   2135
2136   2137   2138   2139
2140   2141   2142   2143
2144   2145   2146   2147
2148   2149   2150   2151
2152   2153   2154   2155
2156   2157   2158   2159
2160   2161   2162   2163
2164   2165   2166   2167
2168   2169   2170   2171
2172   2173   2174   2175
2176   2177   2178   2179
2180   2181   2182   2183
2184   2185   2186   2187
2188   2189   2190   2191
2192   2193   2194   2195
2196   2197   2198   2199
2200   2201   2202   2203
2204   2205   2206   2207
2208   2209   2210   2211
2212   2213   2214   2215
2216   2217   2218   2219
2220   2221   2222   2223
2224   2225   2226   2227
2228   2229   2230   2231
2232   2233   2234   2235
2236   2237   2238   2239
2240   2241   2242   2243
2244   2245   2246   2247
2248   2249   2250   2251
2252   2253   2254   2255
2256   2257   2258   2259
2260   2261   2262   2263
2264   2265   2266   2267
2268   2269   2270   2271
2272   2273   2274   2275
2276   2277   2278   2279
2280   2281   2282   2283
2284   2285   2286   2287
2288   2289   2290   2291
2292   2293   2294   2295
2296   2297   2298   2299
2300   2301   2302   2303
2304   2305   2306   2307
2308   2309   2310   2311
2312   2313   2314   2315
2316   2317   2318   2319
2320   2321   2322   2323
2324   2325   2326   2327
2328   2329   2330   2331
2332   2333   2334   2335
2336   2337   2338   2339
2340   2341   2342   2343
2344   2345   2346   2347
2348   2349   2350   2351
2352   2353   2354   2355
2356   2357   2358   2359
2360   2361   2362   2363
2364   2365   2366   2367
2368   2369   2370   2371
2372   2373   2374   2375
2376   2377   2378   2379
2380   2381   2382   2383
2384   2385   2386   2387
2388   2389   2390   2391
2392   2393   2394   2395
2396   2397   2398   2399
2400   2401   2402   2403
2404   2405   2406   2407
2408   2409   2410   2411
2412   2413   2414   2415
2416   2417   2418   2419
2420   2421   2422   2423
2424   2425   2426   2427
2428   2429   2430   2431
2432   2433   2434   2435
2436   2437   2438   2439
2440   2441   2442   2443
2444   2445   2446   2447
2448   2449   2450   2451
2452   2453   2454   2455
2456   2457   2458   2459
2460   2461   2462   2463
2464   2465   2466   2467
2468   2469   2470   2471
2472   2473   2474   2475
2476   2477   2478   2479
2480   2481   2482   2483
2484   2485   2486   2487
2488   2489   2490   2491
2492   2493   2494   2495
2496   2497   2498   2499
2500   2501   2502   2503
2504   2505   2506   2507
2508   2509   2510   2511
2512   2513   2514   2515
2516   2517   2518   2519
2520   2521   2522   2523
2524   2525   2526   2527
2528   2529   2530   2531
2532   2533   2534   2535
2536   2537   2538   2539
2540   2541   2542   2543
2544   2545   2546   2547
2548   2549   2550   2551
2552   2553   2554   2555
2556   2557   2558   2559
2560   2561   2562   2563
2564   2565   2566   2567
2568   2569   2570   2571
2572   2573   2574   2575
2576   2577   2578   2579
2580   2581   2582   2583
2584   2585   2586   2587
2588   2589   2590   2591
2592   2593   2594   2595
2596   2597   2598   2599
2600   2601   2602   2603
2604   2605   2606   2607
2608   2609   2610   2611
2612   2613   2614   2615
2616   2617   2618   2619
2620   2621   2622   2623
2624   2625   2626   2627
2628   2629   2630   2631
2632   2633   2634   2635
2636   2637   2638   2639
2640   2641   2642   2643
2644   2645   2646   2647
2648   2649   2650   2651
2652   2653   2654   2655
2656   2657   2658   2659
2660   2661   2662   2663
2664   2665   2666   2667
2668   2669   2670   2671
2672   2673   2674   2675
2676   2677   2678   2679
2680   2681   2682   2683
2684   2685   2686   2687
2688   2689   2690   2691
2692   2693   2694   2695
2696   2697   2698   2699
2700   2701   2702   2703
2704   2705   2706   2707
2708   2709   2710   2711
2712   2713   2714   2715
2716   2717   2718   2719
2720   2721   2722   2723
2724   2725   2726   2727
2728   2729   2730   2731
2732   2733   2734   2735
2736   2737   2738   2739
2740   2741   2742   2743
2744   2745   2746   2747
2748   2749   2750   2751
2752   2753   2754   2755
2756   2757   2758   2759
2760   2761   2762   2763
2764   2765   2766   2767
2768   2769   2770   2771
2772   2773   2774   2775
2776   2777   2778   2779
2780   2781   2782   2783
2784   2785   2786   2787
2788   2789   2790   2791
2792   2793   2794   2795
2796   2797   2798   2799
2800   2801   2802   2803
2804   2805   2806   2807
2808   2809   2810   2811
2812   2813   2814   2815
2816   2817   2818   2819
2820   2821   2822   2823
2824   2825   2826   2827
2828   2829   2830   2831
2832   2833   2834   2835
2836   2837   2838   2839
2840   2841   2842   2843
2844   2845   2846   2847
2848   2849   2850   2851
2852   2853   2854   2855
2856   2857   2858   2859
2860   2861   2862   2863
2864   2865   2866   2867
2868   2869   2870   2871
2872   2873   2874   2875
2876   2877   2878   2879
2880   2881   2882   2883
2884   2885   2886   2887
2888   2889   2890   2891
2892   2893   2894   2895
2896   2897   2898   2899
2900   2901   2902   2903
2904   2905   2906   2907
2908   2909   2910   2911
2912   2913   2914   2915
2916   2917   2918   2919
2920   2921   2922   2923
2924   2925   2926   2927
2928   2929   2930   2931
2932   2933   2934   2935
2936   2937   2938   2939
2940   2941   2942   2943
2944   2945   2946   2947
2948   2949   2950   2951
2952   2953   2954   2955
2956   2957   2958   2959
2960   2961   2962   2963
2964   2965   2966   2967
2968   2969   2970   2971
2972   2973   2974   2975
2976   2977   2978   2979
2980   2981   2982   2983
2984   2985   2986   2987
2988   2989   2990   2991
2992   2993   2994   2995
2996   2997   2998   2999
3000   3001   3002   3003
3004   3005   3006   3007
3008   3009   3010   3011
3012   3013   3014   3015
3016   3017   3018   3019
3020   3021   3022   3023
3024   3025   3026   3027
3028   3029   3030   3031
3032   3033   3034   3035
3036   3037   3038   3039
3040   3041   3042   3043
3044   3045   3046   3047
3048   3049   3050   3051
3052   3053   3054   3055
3056   3057   3058   3059
3060   3061   3062   3063
3064   3065   3066   3067
3068   3069   3070   3071
3072   3073   3074   3075
3076   3077   3078   3079
3080   3081   3082   3083
3084   3085   3086   3087
3088   3089   3090   3091
3092   3093   3094   3095
3096   3097   3098   3099
3100   3101   3102   3103
3104   3105   3106   3107
3108   3109   3110   3111
3112   3113   3114   3115
3116   3117   3118   3119
3120   3121   3122   3123
3124   3125   3126   3127
3128   3129   3130   3131
3132   3133   3134   3135
3136   3137   3138   3139
3140   3141   3142   3143
3144   3145   3146   3147
3148   3149   3150   3151
3152   3153   3154   3155
3156   3157   3158   3159
3160   3161   3162   3163
3164   3165   3166   3167
3168   3169   3170   3171
3172   3173   3174   3175
3176   3177   3178   3179
3180   3181   3182   3183
3184   3185   3186   3187
3188   3189   3190   3191
3192   3193   3194   3195
3196   3197   3198   3199
3200   3201   3202   3203
3204   3205   3206   3207
3208   3209   3210   3211
3212   3213   3214   3215
3216   3217   3218   3219
3220   3221   3222   3223
3224   3225   3226   3227
3228   3229   3230   3231
3232   3233   3234   3235
3236   3237   3238   3239
3240   3241   3242   3243
3244   3245   3246   3247
3248   3249   3250   3251
3252   3253   3254   3255
3256   3257   3258   3259
3260   3261   3262   3263
3264   3265   3266   3267
3268   3269   3270   3271
3272   3273   3274   3275
3276   3277   3278   3279
3280   3281   3282   3283
3284   3285   3286   3287
3288   3289   3290   3291
3292   3293   3294   3295
3296   3297   3298   3299
3300   3301   3302   3303
3304   3305   3306   3307
3308   3309   3310   3311
3312   3313   3314   3315
3316   3317   3318   3319
3320   3321   3322   3323
3324   3325   3326   3327
3328   3329   3330   3331
3332   3333   3334   3335
3336   3337   3338   3339
3340   3341   3342   3343
3344   3345   3346   3347
3348   3349   3350   3351
3352   3353   3354   3355
3356   3357   3358   3359
3360   3361   3362   3363
3364   3365   3366   3367
3368   3369   3370   3371
3372   3373   3374   3375
3376   3377   3378   3379
3380   3381   3382   3383
3384   3385   3386   3387
3388   3389   3390   3391
3392   3393   3394   3395
3396   3397   3398   3399
3400   3401   3402   3403
3404   3405   3406   3407
3408   3409   3410   3411
3412   3413   3414   3415
3416   3417   3418   3419
3420   3421   3422   3423
3424   3425   3426   3427
3428   3429   3430   3431
3432   3433   3434   3435
3436   3437   3438   3439
3440   3441   3442   3443
3444   3445   3446   3447
3448   3449   3450   3451
3452   3453   3454   3455
3456   3457   3458   3459
3460   3461   3462   3463
3464   3465   3466   3467
3468   3469   3470   3471
3472   3473   3474   3475
3476   3477   3478   3479
3480   3481   3482   3483
3484   3485   3486   3487
3488   3489   3490   3491
3492   3493   3494   3495
3496   3497   3498   3499
3500   3501   3502   3503
3504   3505   3506   3507
3508   3509   3510   3511
3512   3513   3514   3515
3516   3517   3518   3519
3520   3521   3522   3523
3524   3525   3526   3527
3528   3529   3530   3531
3532   3533   3534   3535
3536   3537   3538   3539
3540   3541   3542   3543
3544   3545   3546   3547
3548   3549   3550   3551
3552   3553   3554   3555
3556   3557   3558   3559
3560   3561   3562   3563
3564   3565   3566   3567
3568   3569   3570   3571
3572   3573   3574   3575
3576   3577   3578   3579
3580   3581   3582   3583
3584   3585   3586   3587
3588   3589   3590   3591
3592   3593   3594   3595
3596   3597   3598   3599
3600   3601   3602   3603
3604   3605   3606   3607
3608   3609   3610   3611
3612   3613   3614   3615
3616   3617   3618   3619
3620   3621   3622   3623
3624   3625   3626   3627
3628   3629   3630   3631
3632   3633   3634   3635
3636   3637   3638   3639
3640   3641   3642   3643
3644   3645   3646   3647
3648   3649   3650   3651
3652   3653   3654   3655
3656   3657   3658   3659
3660   3661   3662   3663
3664   3665   3666   3667
3668   3669   3670   3671
3672   3673   3674   3675
3676   3677   3678   3679
3680   3681   3682   3683
3684   3685   3686   3687
3688   3689   3690   3691
3692   3693   3694   3695
3696   3697   3698   3699
3700   3701   3702   3703
3704   3705   3706   3707
3708   3709   3710   3711
3712   3713   3714   3715
3716   3717   3718   3719
3720   3721   3722   3723
3724   3725   3726   3727
3728   3729   3730   3731
3732   3733   3734   3735
3736   3737   3738   3739
3740   3741   3742   3743
3744   3745   3746   3747
3748   3749   3750   3751
3752   3753   3754   3755
3756   3757   3758   3759
3760   3761   3762   3763
3764   3765   3766   3767
3768   3769   3770   3771
3772   3773   3774   3775
3776   3777   3778   3779
3780   3781   3782   3783
3784   3785   3786   3787
3788   3789   3790   3791
3792   3793   3794   3795
3796   3797   3798   3799
3800   3801   3802   3803
3804   3805   3806   3807
3808   3809   3810   3811
3812   3813   3814   3815
3816   3817   3818   3819
3820   3821   3822   3823
3824   3825   3826   3827
3828   3829   3830   3831
3832   3833   3834   3835
3836   3837   3838   3839
3840   3841   3842   3843
3844   3845   3846   3847
3848   3849   3850   3851
3852   3853   3854   3855
3856   3857   3858   3859
3860   3861   3862   3863
3864   3865   3866   3867
3868   3869   3870   3871
3872   3873   3874   3875
3876   3877   3878   3879
3880   3881   3882   3883
3884   3885   3886   3887
3888   3889   3890   3891
3892   3893   3894   3895
3896   3897   3898   3899
3900   3901   3902   3903
3904   3905   3906   3907
3908   3909   3910   3911
3912   3913   3914   3915
3916   3917   3918   3919
3920   3921   3922   3923
3924   3925   3926   3927
3928   3929   3930   3931
3932   3933   3934   3935
3936   3937   3938   3939
3940   3941   3942   3943
3944   3945   3946   3947
3948   3949   3950   3951
3952   3953   3954   3955
3956   3957   3958   3959
3960   3961   3962   3963
3964   3965   3966   3967
3968   3969   3970   3971
3972   3973   3974   3975
3976   3977   3978   3979
3980   3981   3982   3983
3984   3985   3986   3987
3988   3989   3990   3991
3992   3993   3994   3995
3996   3997   3998   3999
4000   4001   4002   4003
4004   4005   4006   4007
4008   4009   4010   4011
4012   4013   4014   4015
4016   4017   4018   4019
4020   4021   4022   4023
4024   4025   4026   4027
4028   4029   4030   4031
4032   4033   4034   4035
4036   4037   4038   4039
4040   4041   4042   4043
4044   4045   4046   4047
4048   4049   4050   4051
4052   4053   4054   4055
4056   4057   4058   4059
4060   4061   4062   4063
4064   4065   4066   4067
4068   4069   4070   4071
4072   4073   4074   4075
4076   4077   4078   4079
4080   4081   4082   4083
4084   4085   4086   4087
4088   4089   4090   4091
4092   4093   4094   4095
4096   4097   4098   4099
4100   4101   4102   4103
4104   4105   4106   4107
4108   4109   4110   4111
4112   4113   4114   4115
4116   4117   4118   4119
4120   4121   4122   4123
4124   4125   4126   4127
4128   4129   4130   4131
4132   4133   4134   4135
4136   4137   4138   4139
4140   4141   4142   4143
4144   4145   4146   4147
4148   4149   4150   4151
4152   4153   4154   4155
4156   4157   4158   4159
4160   4161   4162   4163
4164   4165   4166   4167
4168   4169   4170   4171
4172   4173   4174   4175
4176   4177   4178   4179
4180   4181   4182   4183
4184   4185   4186   4187
4188   4189   4190   4191
4192   4193   4194   4195
4196   4197   4198   4199
4200   4201   4202   4203
4204   4205   4206   4207
4208   4209   4210   4211
4212   4213   4214   4215
4216   4217   4218   4219
4220   4221   4222   4223
4224   4225   4226   4227
4228   4229   4230   4231
4232   4233   4234   4235
4236   4237   4238   4239
4240   4241   4242   4243
4244   4245   4246   4247
4248   4249   4250   4251
4252   4253   4254   4255
4256   4257   4258   4259
4260   4261   4262   4263
4264   4265   4266   4267
4268   4269   4270   4271
4272   4273   4274   4275
4276   4277   4278   4279
4280   4281   4282   4283
4284   4285   4286   4287
4288   4289   4290   4291
4292   4293   4294   4295
4296   4297   4298   4299
4300   4301   4302   4303
4304   4305   4306   4307
4308   4309   4310   4311
4312   4313   4314   4315
4316   4317   4318   4319
4320   4321   4322   4323
4324   4325   4326   4327
4328   4329   4330   4331
4332   4333   4334   4335
4336   4337   4338   4339
4340   4341   4342   4343
4344   4345   4346   4347
4348   4349   4350   4351
4352   4353   4354   4355
4356   4357   4358   4359
4360   4361   4362   4363
4364   4365   4366   4367
4368   4369   4370   4371
4372   4373   4374   4375
4376   4377   4378   4379
4380   4381   4382   4383
4384   4385   4386   4387
4388   4389   4390   4391
4392   4393   4394   4395
4396   4397   4398   4399
4400   4401   4402   4403
4404   4405   4406   4407
4408   4409   4410   4411
4412   4413   4414   4415
4416   4417   4418   4419
4420   4421   4422   4423
4424   4425   4426   4427
4428   4429   4430   4431
4432   4433   4434   4435
4436   4437   4438   4439
4440   4441   4442   4443
4444   4445   4446   4447
4448   4449   4450   4451
4452   4453   4454   4455
4456   4457   4458   4459
4460   4461   4462   4463
4464   4465   4466   4467
4468   4469   4470   4471
4472   4473   4474   4475
4476   4477   4478   4479
4480   4481   4482   4483
4484   4485   4486   4487
4488   4489   4490   4491
4492   4493   4494   4495
4496   4497   4498   4499
4500   4501   4502   4503
4504   4505   4506   4507
4508   4509   4510   4511
4512   4513   4514   4515
4516   4517   4518   4519
4520   4521   4522   4523
4524   4525   4526   4527
4528   4529   4530   4531
4532   4533   4534   4535
4536   4537   4538   4539
4540   4541   4542   4543
4544   4545   4546   4547
4548   4549   4550   4551
4552   4553   4554   4555
4556   4557   4558   4559
4560   4561   4562   4563
4564   4565   4566   4567
4568   4569   4570   4571
4572   4573   4574   4575
4576   4577   4578   4579
4580   4581   4582   4583
4584   4585   4586   4587
4588   4589   4590   4591
4592   4593   4594   4595
4596   4597   4598   4599
4600   4601   4602   4603
4604   4605   4606   4607
4608   4609   4610   4611
4612   4613   4614   4615
4616   4617   4618   4619
4620   4621   4622   4623
4624   4625   4626   4627
4628   4629   4630   4631
4632   4633   4634   4635
4636   4637   4638   4639
4640   4641   4642   4643
4644   4645   4646   4647
4648   4649   4650   4651
4652   4653   4654   4655
4656   4657   4658   4659
4660   4661   4662   4663
4664   4665   4666   4667
4668   4669   4670   4671
4672   4673   4674   4675
4676   4677   4678   4679
4680   4681   4682   4683
4684   4685   4686   4687
4688   4689   4690   4691
4692   4693   4694   4695
4696   4697   4698   4699
4700   4701   4702   4703
4704   4705   4706   4707
4708   4709   4710   4711
4712   4713   4714   4715
4716   4717   4718   4719
4720   4721   4722   4723
4724   4725   4726   4727
4728   4729   4730   4731
4732   4733   4734   4735
4736   4737   4738   4739
4740   4741   4742   4743
4744   4745   4746   4747
4748   4749   4750   4751
4752   4753   4754   4755
4756   4757   4758   4759
4760   4761   4762   4763
4764   4765   4766   4767
4768   4769   4770   4771
4772   4773   4774   4775
4776   4777   4778   4779
4780   4781   4782   4783
4784   4785   4786   4787
4788   4789   4790   4791
4792   4793   4794   4795
4796   4797   4798   4799
4800   4801   4802   4803
4804   4805   4806   4807
4808   4809   4810   4811
4812   4813   4814   4815
4816   4817   4818   4819
4820   4821   4822   4823
4824   4825   4826   4827
4828   4829   4830   4831
4832   4833   4834   4835
4836   4837   4838   4839
4840   4841   4842   4843
4844   4845   4846   4847
4848   4849   4850   4851
4852   4853   4854   4855
4856   4857   4858   4859
4860   4861   4862   4863
4864   4865   4866   4867
4868   4869   4870   4871
4872   4873   4874   4875
4876   4877   4878   4879
4880   4881   4882   4883
4884   4885   4886   4887
4888   4889   4890   4891
4892   4893   4894   4895
4896   4897   4898   4899
4900   4901   4902   4903
4904   4905   4906   4907
4908   4909   4910   4911
4912   4913   4914   4915
4916   4917   4918   4919
4920   4921   4922   4923
4924   4925   4926   4927
4928   4929   4930   4931
4932   4933   4934   4935
4936   4937   4938   4939
4940   4941   4942   4943
4944   4945   4946   4947
4948   4949   4950   4951
4952   4953   4954   4955
4956   4957   4958   4959
4960   4961   4962   4963
4964   4965   4966   4967
4968   4969   4970   4971
4972   4973   4974   4975
4976   4977   4978   4979
4980   4981   4982   4983
4984   4985   4986   4987
4988   4989   4990   4991
4992   4993   4994   4995
4996   4997   4998   4999
5000   5001   5002   5003
5004   5005   5006   5007
5008   5009   5010   5011
5012   5013   5014   5015
5016   5017   5018   5019
5020   5021   5022   5023
5024   5025   5026   5027
5028   5029   5030   5031
5032   5033   5034   5035
5036   5037   5038   5039
5040   5041   5042   5043
5044   5045   5046   5047
5048   5049   5050   5051
5052   5053   5054   5055
5056   5057   5058   5059
5060   5061   5062   5063
5064   5065   5066   5067
5068   5069   5070   5071
5072   5073   5074   5075
5076   5077   5078   5079
5080   5081   5082   5083
5084   5085   5086   5087
5088   5089   5090   5091
5092   5093   5094   5095
5096   5097   5098   5099
5100   5101   5102   5103
5104   5105   5106   5107
5108   5109   5110   5111
5112   5113   5114   5115
5116   5117   5118   5119
5120   5121   5122   5123
5124   5125   5126   5127
5128   5129   5130   5131
5132   5133   5134   5135
5136   5137   5138   5139
5140   5141   5142   5143
5144   5145   5146   5147
5148   5149   5150   5151
5152   5153   5154   5155
5156   5157   5158   5159
5160   5161   5162   5163
5164   5165   5166   5167
5168   5169   5170   5171
5172   5173   5174   5175
5176   5177   5178   5179
5180   5181   5182   5183
5184   5185   5186   5187
5188   5189   5190   5191
5192   5193   5194   5195
5196   5197   5198   5199
5200   5201   5202   5203
5204   5205   5206   5207
5208   5209   5210   5211
5212   5213   5214   5215
5216   5217   5218   5219
5220   5221   5222   5223
5224   5225   5226   5227
5228   5229   5230   5231
5232   5233   5234   5235
5236   5237   5238   5239
5240   5241   5242   5243
5244   5245   5246   5247
5248   5249   5250   5251
5252   5253   5254   5255
5256   5257   5258   5259
5260   5261   5262   5263
5264   5265   5266   5267
5268   5269   5270   5271
5272   5273   5274   5275
5276   5277   5278   5279
5280   5281   5282   5283
5284   5285   5286   5287
5288   5289   5290   5291
5292   5293   5294   5295
5296   5297   5298   5299
5300   5301   5302   5303
5304   5305   5306   5307
5308   5309   5310   5311
5312   5313   5314   5315
5316   5317   5318   5319
5320   5321   5322   5323
5324   5325   5326   5327
5328   5329   5330   5331
5332   5333   5334   5335
5336   5337   5338   5339
5340   5341   5342   5343
5344   5345   5346   5347
5348   5349   5350   5351
5352   5353   5354   5355
5356   5357   5358   5359
5360   5361   5362   5363
5364   5365   5366   5367
5368   5369   5370   5371
5372   5373   5374   5375
5376   5377   5378   5379
5380   5381   5382   5383
5384   5385   5386   5387
5388   5389   5390   5391
5392   5393   5394   5395
5396   5397   5398   5399
5400   5401   5402   5403
5404   5405   5406   5407
5408   5409   5410   5411
5412   5413   5414   5415
5416   5417   5418   5419
5420   5421   5422   5423
5424   5425   5426   5427
5428   5429   5430   5431
5432   5433   5434   5435
5436   5437   5438   5439
5440   5441   5442   5443
5444   5445   5446   5447
5448   5449   5450   5451
5452   5453   5454   5455
5456   5457   5458   5459
5460   5461   5462   5463
5464   5465   5466   5467
5468   5469   5470   5471
5472   5473   5474   5475
5476   5477   5478   5479
5480   5481   5482   5483
5484   5485   5486   5487
5488   5489   5490   5491
5492   5493   5494   5495
5496   5497   5498   5499
5500   5501   5502   5503
5504   5505   5506   5507
5508   5509   5510   5511
5512   5513   5514   5515
5516   5517   5518   5519
5520   5521   5522   5523
5524   5525   5526   5527
5528   5529   5530   5531
5532   5533   5534   5535
5536   5537   5538   5539
5540   5541   5542   5543
5544   5545   5546   5547
5548   5549   5550   5551
5552   5553   5554   5555
5556   5557   5558   5559
5560   5561   5562   5563
5564   5565   5566   5567
5568   5569   5570   5571
5572   5573   5574   5575
5576   5577   5578   5579
5580   5581   5582   5583
5584   5585   5586   5587
5588   5589   5590   5591
5592   5593   5594   5595
5596   5597   5598   5599
5600   5601   5602   5603
5604   5605   5606   5607
5608   5609   5610   5611
5612   5613   5614   5615
5616   5617   5618   5619
5620   5621   5622   5623
5624   5625   5626   5627
5628   5629   5630   5631
5632   5633   5634   5635
5636   5637   5638   5639
5640   5641   5642   5643
5644   5645   5646   5647
5648   5649   5650   5651
5652   5653   5654   5655
5656   5657   5658   5659
5660   5661   5662   5663
5664   5665   5666   5667
5668   5669   5670   5671
5672   5673   5674   5675
5676   5677   5678   5679
5680   5681   5682   5683
5684   5685   5686   5687
5688   5689   5690   5691
5692   5693   5694   5695
5696   5697   5698   5699
5700   5701   5702   5703
5704   5705   5706   5707
5708   5709   5710   5711
5712   5713   5714   5715
5716   5717   5718   5719
5720   5721   5722   5723
5724   5725   5726   5727
5728   5729   5730   5731
5732   5733   5734   5735
5736   5737   5738   5739
5740   5741   5742   5743
5744   5745   5746   5747
5748   5749   5750   5751
5752   5753   5754   5755
5756   5757   5758   5759
5760   5761   5762   5763
5764   5765   5766   5767
5768   5769   5770   5771
5772   5773   5774   5775
5776   5777   5778   5779
5780   5781   5782   5783
5784   5785   5786   5787
5788   5789   5790   5791
5792   5793   5794   5795
5796   5797   5798   5799
5800   5801   5802   5803
5804   5805   5806   5807
5808   5809   5810   5811
5812   5813   5814   5815
5816   5817   5818   5819
5820   5821   5822   5823
5824   5825   5826   5827
5828   5829   5830   5831
5832   5833   5834   5835
5836   5837   5838   5839
5840   5841   5842   5843
5844   5845   5846   5847
5848   5849   5850   5851
5852   5853   5854   5855
5856   5857   5858   5859
5860   5861   5862   5863
5864   5865   5866   5867
5868   5869   5870   5871
5872   5873   5874   5875
5876   5877   5878   5879
5880   5881   5882   5883
5884   5885   5886   5887
5888   5889   5890   5891
5892   5893   5894   5895
5896   5897   5898   5899
5900   5901   5902   5903
5904   5905   5906   5907
5908   5909   5910   5911
5912   5913   5914   5915
5916   5917   5918   5919
5920   5921   5922   5923
5924   5925   5926   5927
5928   5929   5930   5931
5932   5933   5934   5935
5936   5937   5938   5939
5940   5941   5942   5943
5944   5945   5946   5947
5948   5949   5950   5951
5952   5953   5954   5955
5956   5957   5958   5959
5960   5961   5962   5963
5964   5965   5966   5967
5968   5969   5970   5971
5972   5973   5974   5975
5976   5977   5978   5979
5980   5981   5982   5983
5984   5985   5986   5987
5988   5989   5990   5991
5992   5993   5994   5995
5996   5997   5998   5999
              </DataArray>   
              <DataArray type="Int32" Name="offsets" format="ascii">   
4
8
12
16
20
24
28
32
36
40
44
48
52
56
60
64
68
72
76
80
84
88
92
96
100
104
108
112
116
120
124
128
132
136
140
144
148
152
156
160
164
168
172
176
180
184
188
192
196
200
204
208
212
216
220
224
228
232
236
240
244
248
252
256
260
264
268
272
276
280
284
288
292
296
300
304
308
312
316
320
324
328
332
336
340
344
348
352
356
360
364
368
372
376
380
384
388
392
396
400
404
408
412
416
420
424
428
432
436
440
444
448
452
456
460
464
468
472
476
480
484
488
492
496
500
504
508
512
516
520
524
528
532
536
540
544
548
552
556
560
564
568
572
576
580
584
588
592
596
600
604
608
612
616
620
624
628
632
636
640
644
648
652
656
660
664
668
672
676
680
684
688
692
696
700
704
708
712
716
720
724
728
732
736
740
744
748
752
756
760
764
768
772
776
780
784
788
792
796
800
804
808
812
816
820
824
828
832
836
840
844
848
852
856
860
864
868
872
876
880
884
888
892
896
900
904
908
912
916
920
924
928
932
936
940
944
948
952
956
960
964
968
972
976
980
984
988
992
996
1000
1004
1008
1012
1016
1020
1024
1028
1032
1036
1040
1044
1048
1052
1056
1060
1064
1068
1072
1076
1080
1084
1088
1092
1096
1100
1104
1108
1112
1116
1120
1124
1128
1132
1136
1140
1144
1148
1152
1156
1160
1164
1168
1172
1176
1180
1184
1188
1192
1196
1200
1204
1208
1212
1216
1220
1224
1228
1232
1236
1240
1244
1248
1252
1256
1260
1264
1268
1272
1276
1280
1284
1288
1292
1296
1300
1304
1308
1312
1316
1320
1324
1328
1332
1336
1340
1344
1348
1352
1356
1360
1364
1368
1372
1376
1380
1384
1388
1392
1396
1400
1404
1408
1412
1416
1420
1424
1428
1432
1436
1440
1444
1448
1452
1456
1460
1464
1468
1472
1476
1480
1484
1488
1492
1496
1500
1504
1508
1512
1516
1520
1524
1528
1532
1536
1540
1544
1548
1552
1556
1560
1564
1568
1572
1576
1580
1584
1588
1592
1596
1600
1604
1608
1612
1616
1620
1624
1628
1632
1636
1640
1644
1648
1652
1656
1660
1664
1668
1672
1676
1680
1684
1688
1692
1696
1700
1704
1708
1712
1716
1720
1724
1728
1732
1736
1740
1744
1748
1752
1756
1760
1764
1768
1772
1776
1780
1784
1788
1792
1796
1800
1804
1808
1812
1816
1820
1824
1828
1832
1836
1840
1844
1848
1852
1856
1860
1864
1868
1872
1876
1880
1884
1888
1892
1896
1900
1904
1908
1912
1916
1920
1924
1928
1932
1936
1940
1944
1948
1952
1956
1960
1964
1968
1972
1976
1980
1984
1988
1992
1996
2000
2004
2008
2012
2016
2020
2024
2028
2032
2036
2040
2044
2048
2052
2056
2060
2064
2068
2072
2076
2080
2084
2088
2092
2096
2100
2104
2108
2112
2116
2120
2124
2128
2132
2136
2140
2144
2148
2152
2156
2160
2164
2168
2172
2176
2180
2184
2188
2192
2196
2200
2204
2208
2212
2216
2220
2224
2228
2232
2236
2240
2244
2248
2252
2256
2260
2264
2268
2272
2276
2280
2284
2288
2292
2296
2300
2304
2308
2312
2316
2320
2324
2328
2332
2336
2340
2344
2348
2352
2356
2360
2364
2368
2372
2376
2380
2384
2388
2392
2396
2400
2404
2408
2412
2416
2420
2424
2428
2432
2436
2440
2444
2448
2452
2456
2460
2464
2468
2472
2476
2480
2484
2488
2492
2496
2500
2504
2508
2512
2516
2520
2524
2528
2532
2536
2540
2544
2548
2552
2556
2560
2564
2568
2572
2576
2580
2584
2588
2592
2596
2600
2604
2608
2612
2616
2620
2624
2628
2632
2636
2640
2644
2648
2652
2656
2660
2664
2668
2672
2676
2680
2684
2688
2692
2696
2700
2704
2708
2712
2716
2720
2724
2728
2732
2736
2740
2744
2748
2752
2756
2760
2764
2768
2772
2776
2780
2784
2788
2792
2796
2800
2804
2808
2812
2816
2820
2824
2828
2832
2836
2840
2844
2848
2852
2856
2860
2864
2868
2872
2876
2880
2884
2888
2892
2896
2900
2904
2908
2912
2916
2920
2924
2928
2932
2936
2940
2944
2948
2952
2956
2960
2964
2968
2972
2976
2980
2984
2988
2992
2996
3000
3004
3008
3012
3016
3020
3024
3028
3032
3036
3040
3044
3048
3052
3056
3060
3064
3068
3072
3076
3080
3084
3088
3092
3096
3100
3104
3108
3112
3116
3120
3124
3128
3132
3136
3140
3144
3148
3152
3156
3160
3164
3168
3172
3176
3180
3184
3188
3192
3196
3200
3204
3208
3212
3216
3220
3224
3228
3232
3236
3240
3244
3248
3252
3256
3260
3264
3268
3272
3276
3280
3284
3288
3292
3296
3300
3304
3308
3312
3316
3320
3324
3328
3332
3336
3340
3344
3348
3352
3356
3360
3364
3368
3372
3376
3380
3384
3388
3392
3396
3400
3404
3408
3412
3416
3420
3424
3428
3432
3436
3440
3444
3448
3452
3456
3460
3464
3468
3472
3476
3480
3484
3488
3492
3496
3500
3504
3508
3512
3516
3520
3524
3528
3532
3536
3540
3544
3548
3552
3556
3560
3564
3568
3572
3576
3580
3584
3588
3592
3596
3600
3604
3608
3612
3616
3620
3624
3628
3632
3636
3640
3644
3648
3652
3656
3660
3664
3668
3672
3676
3680
3684
3688
3692
3696
3700
3704
3708
3712
3716
3720
3724
3728
3732
3736
3740
3744
3748
3752
3756
3760
3764
3768
3772
3776
3780
3784
3788
3792
3796
3800
3804
3808
3812
3816
3820
3824
3828
3832
3836
3840
3844
3848
3852
3856
3860
3864
3868
3872
3876
3880
3884
3888
3892
3896
3900
3904
3908
3912
3916
3920
3924
3928
3932
3936
3940
3944
3948
3952
3956
3960
3964
3968
3972
3976
3980
3984
3988
3992
3996
4000
4004
4008
4012
4016
4020
4024
4028
4032
4036
4040
4044
4048
4052
4056
4060
4064
4068
4072
4076
4080
4084
4088
4092
4096
4100
4104
4108
4112
4116
4120
4124
4128
4132
4136
4140
4144
4148
4152
4156
4160
4164
4168
4172
4176
4180
4184
4188
4192
4196
4200
4204
4208
4212
4216
4220
4224
4228
4232
4236
4240
4244
4248
4252
4256
4260
4264
4268
4272
4276
4280
4284
4288
4292
4296
4300
4304
4308
4312
4316
4320
4324
4328
4332
4336
4340
4344
4348
4352
4356
4360
4364
4368
4372
4376
4380
4384
4388
4392
4396
4400
4404
4408
4412
4416
4420
4424
4428
4432
4436
4440
4444
4448
4452
4456
4460
4464
4468
4472
4476
4480
4484
4488
4492
4496
4500
4504
4508
4512
4516
4520
4524
4528
4532
4536
4540
4544
4548
4552
4556
4560
4564
4568
4572
4576
4580
4584
4588
4592
4596
4600
4604
4608
4612
4616
4620
4624
4628
4632
4636
4640
4644
4648
4652
4656
4660
4664
4668
4672
4676
4680
4684
4688
4692
4696
4700
4704
4708
4712
4716
4720
4724
4728
4732
4736
4740
4744
4748
4752
4756
4760
4764
4768
4772
4776
4780
4784
4788
4792
4796
4800
4804
4808
4812
4816
4820
4824
4828
4832
4836
4840
4844
4848
4852
4856
4860
4864
4868
4872
4876
4880
4884
4888
4892
4896
4900
4904
4908
4912
4916
4920
4924
4928
4932
4936
4940
4944
4948
4952
4956
4960
4964
4968
4972
4976
4980
4984
4988
4992
4996
5000
5004
5008
5012
5016
5020
5024
5028
5032
5036
5040
5044
5048
5052
5056
5060
5064
5068
5072
5076
5080
5084
5088
5092
5096
5100
5104
5108
5112
5116
5120
5124
5128
5132
5136
5140
5144
5148
5152
5156
5160
5164
5168
5172
5176
5180
5184
5188
5192
5196
5200
5204
5208
5212
5216
5220
5224
5228
5232
5236
5240
5244
5248
5252
5256
5260
5264
5268
5272
5276
5280
5284
5288
5292
5296
5300
5304
5308
5312
5316
5320
5324
5328
5332
5336
5340
5344
5348
5352
5356
5360
5364
5368
5372
5376
5380
5384
5388
5392
5396
5400
5404
5408
5412
5416
5420
5424
5428
5432
5436
5440
5444
5448
5452
5456
5460
5464
5468
5472
5476
5480
5484
5488
5492
5496
5500
5504
5508
5512
5516
5520
5524
5528
5532
5536
5540
5544
5548
5552
5556
5560
5564
5568
5572
5576
5580
5584
5588
5592
5596
5600
5604
5608
5612
5616
5620
5624
5628
5632
5636
5640
5644
5648
5652
5656
5660
5664
5668
5672
5676
5680
5684
5688
5692
5696
5700
5704
5708
5712
5716
5720
5724
5728
5732
5736
5740
5744
5748
5752
5756
5760
5764
5768
5772
5776
5780
5784
5788
5792
5796
5800
5804
5808
5812
5816
5820
5824
5828
5832
5836
5840
5844
5848
5852
5856
5860
5864
5868
5872
5876
5880
5884
5888
5892
5896
5900
5904
5908
5912
5916
5920
5924
5928
5932
5936
5940
5944
5948
5952
5956
5960
5964
5968
5972
5976
5980
5984
5988
5992
5996
6000
              </DataArray>   
              <DataArray type="UInt8" Name="types" format="ascii">   
10
10
10
10
10
10
10
10
10
10
10
10
10
10
10
10
10
10
10
10
10
10
10
10
10
10
10
10
10
10
10
10
10
10
10
10
10
10
10
10
10
10
10
10
10
10
10
10
10
10
10
10
10
10
10
10
10
10
10
10
10
10
10
10
10
10
10
10
10
10
10
10
10
10
10
10
10
10
10
10
10
10
10
10
10
10
10
10
10
10
10
10
10
10
10
10
10
10
10
10
10
10
10
10
10
10
10
10
10
10
10
10
10
10
10
10
10
10
10
10
10
10
10
10
10
10
10
10
10
10
10
10
10
10
10
10
10
10
10
10
10
10
10
10
10
10
10
10
10
10
10
10
10
10
10
10
10
10
10
10
10
10
10
10
10
10
10
10
10
10
10
10
10
10
10
10
10
10
10
10
10
10
10
10
10
10
10
10
10
10
10
10
10
10
10
10
10
10
10
10
10
10
10
10
10
10
10
10
10
10
10
10
10
10
10
10
10
10
10
10
10
10
10
10
10
10
10
10
10
10
10
10
10
10
10
10
10
10
10
10
10
10
10
10
10
10
10
10
10
10
10
10
10
10
10
10
10
10
10
10
10
10
10
10
10
10
10
10
10
10
10
10
10
10
10
10
10
10
10
10
10
10
10
10
10
10
10
10
10
10
10
10
10
10
10
10
10
10
10
10
10
10
10
10
10
10
10
10
10
10
10
10
10
10
10
10
10
10
10
10
10
10
10
10
10
10
10
10
10
10
10
10
10
10
10
10
10
10
10
10
10
10
10
10
10
10
10
10
10
10
10
10
10
10
10
10
10
10
10
10
10
10
10
10
10
10
10
10
10
10
10
10
10
10
10
10
10
10
10
10
10
10
10
10
10
10
10
10
10
10
10
10
10
10
10
10
10
10
10
10
10
10
10
10
10
10
10
10
10
10
10
10
10
10
10
10
10
10
10
10
10
10
10
10
10
10
10
10
10
10
10
10
10
10
10
10
10
10
10
10
10
10
10
10
10
10
10
10
10
10
10
10
10
10
10
10
10
10
10
10
10
10
10
10
10
10
10
10
10
10
10
10
10
10
10
10
10
10
10
10
10
10
10
10
10
10
10
10
10
10
10
10
10
10
10
10
10
10
10
10
10
10
10
10
10
10
10
10
10
10
10
10
10
10
10
10
10
10
10
10
10
10
10
10
10
10
10
10
10
10
10
10
10
10
10
10
10
10
10
10
10
10
10
10
10
10
10
10
10
10
10
10
10
10
10
10
10
10
10
10
10
10
10
10
10
10
10
10
10
10
10
10
10
10
10
10
10
10
10
10
10
10
10
10
10
10
10
10
10
10
10
10
10
10
10
10
10
10
10
10
10
10
10
10
10
10
10
10
10
10
10
10
10
10
10
10
10
10
10
10
10
10
10
10
10
10
10
10
10
10
10
10
10
10
10
10
10
10
10
10
10
10
10
10
10
10
10
10
10
10
10
10
10
10
10
10
10
10
10
10
10
10
10
10
10
10
10
10
10
10
10
10
10
10
10
10
10
10
10
10
10
10
10
10
10
10
10
10
10
10
10
10
10
10
10
10
10
10
10
10
10
10
10
10
10
10
10
10
10
10
10
10
10
10
10
10
10
10
10
10
10
10
10
10
10
10
10
10
10
10
10
10
10
10
10
10
10
10
10
10
10
10
10
10
10
10
10
10
10
10
10
10
10
10
10
10
10
10
10
10
10
10
10
10
10
10
10
10
10
10
10
10
10
10
10
10
10
10
10
10
10
10
10
10
10
10
10
10
10
10
10
10
10
10
10
10
10
10
10
10
10
10
10
10
10
10
10
10
10
10
10
10
10
10
10
10
10
10
10
10
10
10
10
10
10
10
10
10
10
10
10
10
10
10
10
10
10
10
10
10
10
10
10
10
10
10
10
10
10
10
10
10
10
10
10
10
10
10
10
10
10
10
10
10
10
10
10
10
10
10
10
10
10
10
10
10
10
10
10
10
10
10
10
10
10
10
10
10
10
10
10
10
10
10
10
10
10
10
10
10
10
10
10
10
10
10
10
10
10
10
10
10
10
10
10
10
10
10
10
10
10
10
10
10
10
10
10
10
10
10
10
10
10
10
10
10
10
10
10
10
10
10
10
10
10
10
10
10
10
10
10
10
10
10
10
10
10
10
10
10
10
10
10
10
10
10
10
10
10
10
10
10
10
10
10
10
10
10
10
10
10
10
10
10
10
10
10
10
10
10
10
10
10
10
10
10
10
10
10
10
10
10
10
10
10
10
10
10
10
10
10
10
10
10
10
10
10
10
10
10
10
10
10
10
10
10
10
10
10
10
10
10
10
10
10
10
10
10
10
10
10
10
10
10
10
10
10
10
10
10
10
10
10
10
10
10
10
10
10
10
10
10
10
10
10
10
10
10
10
10
10
10
10
10
10
10
10
10
10
10
10
10
10
10
10
10
10
10
10
10
10
10
10
10
10
10
10
10
10
10
10
10
10
10
10
10
10
10
10
10
10
10
10
10
10
10
10
10
10
10
10
10
10
10
10
10
10
10
10
10
10
10
10
10
10
10
10
10
10
10
10
10
10
10
10
10
10
10
10
10
10
10
10
10
10
10
10
10
10
10
10
10
10
10
10
10
10
10
10
10
10
10
10
10
10
10
10
10
10
10
10
10
10
10
10
10
10
10
10
10
10
10
10
10
10
10
10
10
10
10
10
10
10
10
10
10
10
10
10
10
10
10
10
10
10
10
10
10
10
10
10
10
10
10
10
10
10
10
10
10
10
10
10
10
10
10
10
10
10
10
10
10
10
10
10
10
10
10
10
10
10
10
10
10
10
10
10
10
10
10
10
10
10
10
10
10
10
10
10
10
10
10
10
10
10
10
10
10
10
10
10
10
10
10
10
10
10
10
10
10
10
10
10
10
10
10
10
10
10
10
10
10
10
10
10
10
10
10
10
10
10
10
10
10
10
10
10
10
10
10
10
10
10
10
10
10
10
10
10
10
10
10
10
10
10
10
10
10
10
10
10
10
10
10
10
10
10
10
10
10
10
10
10
10
10
10
10
10
10
10
10
10
10
10
10
10
10
10
10
10
10
10
10
10
10
10
10
10
10
10
10
10
10
10
10
10
10
10
10
10
10
10
10
10
10
10
10
10
10
10
10
10
10
10
10
10
10
10
10
10
10
10
10
10
10
10
10
10
10
10
10
10
10
10
10
10
10
10
10
10
10
10
10
10
10
10
10
10
10
10
10
10
10
10
10
10
10
10
10
10
10
10
10
10
10
10
10
10
10
10
10
10
10
10
10
10
10
10
10
10
10
10
10
10
10
10
10
10
10
10
10
10
10
10
10
10
10
10
10
10
10
10
10
10
10
10
10
10
10
10
              </DataArray>   
          </Cells>  
          <PointData>  
             <DataArray type="Float64" NumberOfComponents="3" Name="Strains" format="ascii">   
-7.55975179459729e-05   0.0   -4.9667250200050894e-05
-7.55975179459729e-05   0.0   -4.9667250200050894e-05
-7.55975179459729e-05   0.0   -4.9667250200050894e-05
-7.55975179459729e-05   0.0   -4.9667250200050894e-05
-4.8098975547871196e-05   8.367793695234749e-06   1.1843300139260249e-06
-4.8098975547871196e-05   8.367793695234749e-06   1.1843300139260249e-06
-4.8098975547871196e-05   8.367793695234749e-06   1.1843300139260249e-06
-4.8098975547871196e-05   8.367793695234749e-06   1.1843300139260249e-06
-4.71442809267322e-05   0.0   -4.688299571180971e-05
-4.71442809267322e-05   0.0   -4.688299571180971e-05
-4.71442809267322e-05   0.0   -4.688299571180971e-05
-4.71442809267322e-05   0.0   -4.688299571180971e-05
-7.91121108639183e-05   1.0045100136217802e-05   3.696607684366667e-07
-7.91121108639183e-05   1.0045100136217802e-05   3.696607684366667e-07
-7.91121108639183e-05   1.0045100136217802e-05   3.696607684366667e-07
-7.91121108639183e-05   1.0045100136217802e-05   3.696607684366667e-07
-6.137089943635245e-05   2.3202120735343163e-06   -2.456409210656298e-05
-6.137089943635245e-05   2.3202120735343163e-06   -2.456409210656298e-05
-6.137089943635245e-05   2.3202120735343163e-06   -2.456409210656298e-05
-6.137089943635245e-05   2.3202120735343163e-06   -2.456409210656298e-05
-7.911211086391844e-05   0.0   -5.291005579354041e-05
-7.911211086391844e-05   0.0   -5.291005579354041e-05
-7.911211086391844e-05   0.0   -5.291005579354041e-05
-7.911211086391844e-05   0.0   -5.291005579354041e-05
-4.71442809267322e-05   1.004510013621783e-05   6.396720850167356e-06
-4.71442809267322e-05   1.004510013621783e-05   6.396720850167356e-06
-4.71442809267322e-05   1.004510013621783e-05   6.396720850167356e-06
-4.71442809267322e-05   1.004510013621783e-05   6.396720850167356e-06
-4.727350281216336e-05   0.0   -4.802952184765884e-05
-4.727350281216336e-05   0.0   -4.802952184765884e-05
-4.727350281216336e-05   0.0   -4.802952184765884e-05
-4.727350281216336e-05   0.0   -4.802952184765884e-05
-8.15786611359831e-05   1.0762715138609873e-05   2.6881129422083594e-06
-8.15786611359831e-05   1.0762715138609873e-05   2.6881129422083594e-06
-8.15786611359831e-05   1.0762715138609873e-05   2.6881129422083594e-06
-8.15786611359831e-05   1.0762715138609873e-05   2.6881129422083594e-06
-6.319280683804078e-05   4.067111621567973e-06   -2.393761544413699e-05
-6.319280683804078e-05   4.067111621567973e-06   -2.393761544413699e-05
-6.319280683804078e-05   4.067111621567973e-06   -2.393761544413699e-05
-6.319280683804078e-05   4.067111621567973e-06   -2.393761544413699e-05
-8.157866113598324e-05   0.0   -5.448715093082477e-05
-8.157866113598324e-05   0.0   -5.448715093082477e-05
-8.157866113598324e-05   0.0   -5.448715093082477e-05
-8.157866113598324e-05   0.0   -5.448715093082477e-05
-4.727350281216336e-05   1.0762715138609887e-05   9.1457420253743e-06
-4.727350281216336e-05   1.0762715138609887e-05   9.1457420253743e-06
-4.727350281216336e-05   1.0762715138609887e-05   9.1457420253743e-06
-4.727350281216336e-05   1.0762715138609887e-05   9.1457420253743e-06
-4.7244446310249206e-05   0.0   -4.832472204489137e-05
-4.7244446310249206e-05   0.0   -4.832472204489137e-05
-4.7244446310249206e-05   0.0   -4.832472204489137e-05
-4.7244446310249206e-05   0.0   -4.832472204489137e-05
-8.689599485992511e-05   1.2263762306799933e-05   1.0402934820488745e-05
-8.689599485992511e-05   1.2263762306799933e-05   1.0402934820488745e-05
-8.689599485992511e-05   1.2263762306799933e-05   1.0402934820488745e-05
-8.689599485992511e-05   1.2263762306799933e-05   1.0402934820488745e-05
-6.441155372311611e-05   5.135357404944491e-06   -2.2794090799746308e-05
-6.441155372311611e-05   5.135357404944491e-06   -2.2794090799746308e-05
-6.441155372311611e-05   5.135357404944491e-06   -2.2794090799746308e-05
-6.441155372311611e-05   5.135357404944491e-06   -2.2794090799746308e-05
-4.809897554787128e-05   0.0   -4.464657398291004e-05
-4.809897554787128e-05   0.0   -4.464657398291004e-05
-4.809897554787128e-05   0.0   -4.464657398291004e-05
-4.809897554787128e-05   0.0   -4.464657398291004e-05
-2.1908850886840385e-05   3.0676345000517184e-06   8.442144855057865e-07
-2.1908850886840385e-05   3.0676345000517184e-06   8.442144855057865e-07
-2.1908850886840385e-05   3.0676345000517184e-06   8.442144855057865e-07
-2.1908850886840385e-05   3.0676345000517184e-06   8.442144855057865e-07
-2.1067984187189397e-05   0.0   -4.42612029423528e-05
-2.1067984187189397e-05   0.0   -4.42612029423528e-05
-2.1067984187189397e-05   0.0   -4.42612029423528e-05
-2.1067984187189397e-05   0.0   -4.42612029423528e-05
-4.71442809267322e-05   4.3696546157615115e-06   -3.422501145905043e-06
-4.71442809267322e-05   4.3696546157615115e-06   -3.422501145905043e-06
-4.71442809267322e-05   4.3696546157615115e-06   -3.422501145905043e-06
-4.71442809267322e-05   4.3696546157615115e-06   -3.422501145905043e-06
-3.458347986753028e-05   3.211425337977045e-07   -2.192806232872979e-05
-3.458347986753028e-05   3.211425337977045e-07   -2.192806232872979e-05
-3.458347986753028e-05   3.211425337977045e-07   -2.192806232872979e-05
-3.458347986753028e-05   3.211425337977045e-07   -2.192806232872979e-05
-4.714428092673216e-05   0.0   -4.688299571180967e-05
-4.714428092673216e-05   0.0   -4.688299571180967e-05
-4.714428092673216e-05   0.0   -4.688299571180967e-05
-4.714428092673216e-05   0.0   -4.688299571180967e-05
-2.1067984187189397e-05   4.3696546157615115e-06   -8.00708376448136e-07
-2.1067984187189397e-05   4.3696546157615115e-06   -8.00708376448136e-07
-2.1067984187189397e-05   4.3696546157615115e-06   -8.00708376448136e-07
-2.1067984187189397e-05   4.3696546157615115e-06   -8.00708376448136e-07
-2.0594201467593127e-05   0.0   -4.4816028391267425e-05
-2.0594201467593127e-05   0.0   -4.4816028391267425e-05
-2.0594201467593127e-05   0.0   -4.4816028391267425e-05
-2.0594201467593127e-05   0.0   -4.4816028391267425e-05
-4.727350281216336e-05   5.355822427319015e-06   -3.5640196067084773e-06
-4.727350281216336e-05   5.355822427319015e-06   -3.5640196067084773e-06
-4.727350281216336e-05   5.355822427319015e-06   -3.5640196067084773e-06
-4.727350281216336e-05   5.355822427319015e-06   -3.5640196067084773e-06
-3.3869241197162595e-05   1.7224727671185728e-06   -2.3724445835589264e-05
-3.3869241197162595e-05   1.7224727671185728e-06   -2.3724445835589264e-05
-3.3869241197162595e-05   1.7224727671185728e-06   -2.3724445835589264e-05
-3.3869241197162595e-05   1.7224727671185728e-06   -2.3724445835589264e-05
-4.727350281216336e-05   0.0   -4.802952184765884e-05
-4.727350281216336e-05   0.0   -4.802952184765884e-05
-4.727350281216336e-05   0.0   -4.802952184765884e-05
-4.727350281216336e-05   0.0   -4.802952184765884e-05
-2.0594201467593127e-05   5.355822427319015e-06   -3.5052615031705593e-07
-2.0594201467593127e-05   5.355822427319015e-06   -3.5052615031705593e-07
-2.0594201467593127e-05   5.355822427319015e-06   -3.5052615031705593e-07
-2.0594201467593127e-05   5.355822427319015e-06   -3.5052615031705593e-07
-2.0162168465862856e-05   0.0   -4.4584916035511915e-05
-2.0162168465862856e-05   0.0   -4.4584916035511915e-05
-2.0162168465862856e-05   0.0   -4.4584916035511915e-05
-2.0162168465862856e-05   0.0   -4.4584916035511915e-05
-4.7244446310249084e-05   6.2330100156323456e-06   -3.1875923042474325e-06
-4.7244446310249084e-05   6.2330100156323456e-06   -3.1875923042474325e-06
-4.7244446310249084e-05   6.2330100156323456e-06   -3.1875923042474325e-06
-4.7244446310249084e-05   6.2330100156323456e-06   -3.1875923042474325e-06
-3.3717835639013094e-05   2.8705048434557408e-06   -2.3714440319668293e-05
-3.3717835639013094e-05   2.8705048434557408e-06   -2.3714440319668293e-05
-3.3717835639013094e-05   2.8705048434557408e-06   -2.3714440319668293e-05
-3.3717835639013094e-05   2.8705048434557408e-06   -2.3714440319668293e-05
-2.1908850886840426e-05   0.0   -4.280599328287901e-05
-2.1908850886840426e-05   0.0   -4.280599328287901e-05
-2.1908850886840426e-05   0.0   -4.280599328287901e-05
-2.1908850886840426e-05   0.0   -4.280599328287901e-05
2.8327063272859276e-06   -3.940200081490377e-07   -1.806476597557806e-06
2.8327063272859276e-06   -3.940200081490377e-07   -1.806476597557806e-06
2.8327063272859276e-06   -3.940200081490377e-07   -1.806476597557806e-06
2.8327063272859276e-06   -3.940200081490377e-07   -1.806476597557806e-06
3.37116076188169e-06   0.0   -4.379613021914075e-05
3.37116076188169e-06   0.0   -4.379613021914075e-05
3.37116076188169e-06   0.0   -4.379613021914075e-05
3.37116076188169e-06   0.0   -4.379613021914075e-05
-2.106798418718936e-05   7.751212053531731e-07   -3.529294693900968e-06
-2.106798418718936e-05   7.751212053531731e-07   -3.529294693900968e-06
-2.106798418718936e-05   7.751212053531731e-07   -3.529294693900968e-06
-2.106798418718936e-05   7.751212053531731e-07   -3.529294693900968e-06
-9.268845062479329e-06   -8.251141135515682e-07   -2.223438537707476e-05
-9.268845062479329e-06   -8.251141135515682e-07   -2.223438537707476e-05
-9.268845062479329e-06   -8.251141135515682e-07   -2.223438537707476e-05
-9.268845062479329e-06   -8.251141135515682e-07   -2.223438537707476e-05
-2.1067984187189397e-05   0.0   -4.42612029423528e-05
-2.1067984187189397e-05   0.0   -4.42612029423528e-05
-2.1067984187189397e-05   0.0   -4.42612029423528e-05
-2.1067984187189397e-05   0.0   -4.42612029423528e-05
3.371160761881696e-06   7.751212053531731e-07   -3.0642219706890665e-06
3.371160761881696e-06   7.751212053531731e-07   -3.0642219706890665e-06
3.371160761881696e-06   7.751212053531731e-07   -3.0642219706890665e-06
3.371160761881696e-06   7.751212053531731e-07   -3.0642219706890665e-06
3.796636583590442e-06   0.0   -4.373318655434421e-05
3.796636583590442e-06   0.0   -4.373318655434421e-05
3.796636583590442e-06   0.0   -4.373318655434421e-05
3.796636583590442e-06   0.0   -4.373318655434421e-05
-2.0594201467593056e-05   1.8047363948718912e-06   -4.164631639294799e-06
-2.0594201467593056e-05   1.8047363948718912e-06   -4.164631639294799e-06
-2.0594201467593056e-05   1.8047363948718912e-06   -4.164631639294799e-06
-2.0594201467593056e-05   1.8047363948718912e-06   -4.164631639294799e-06
-8.635673801799459e-06   4.400136566737626e-07   -2.3276677439365284e-05
-8.635673801799459e-06   4.400136566737626e-07   -2.3276677439365284e-05
-8.635673801799459e-06   4.400136566737626e-07   -2.3276677439365284e-05
-8.635673801799459e-06   4.400136566737626e-07   -2.3276677439365284e-05
-2.0594201467593127e-05   0.0   -4.4816028391267425e-05
-2.0594201467593127e-05   0.0   -4.4816028391267425e-05
-2.0594201467593127e-05   0.0   -4.4816028391267425e-05
-2.0594201467593127e-05   0.0   -4.4816028391267425e-05
3.796636583590449e-06   1.8047363948719047e-06   -3.0817898023716644e-06
3.796636583590449e-06   1.8047363948719047e-06   -3.0817898023716644e-06
3.796636583590449e-06   1.8047363948719047e-06   -3.0817898023716644e-06
3.796636583590449e-06   1.8047363948719047e-06   -3.0817898023716644e-06
4.367877033092692e-06   0.0   -4.278667330203484e-05
4.367877033092692e-06   0.0   -4.278667330203484e-05
4.367877033092692e-06   0.0   -4.278667330203484e-05
4.367877033092692e-06   0.0   -4.278667330203484e-05
-2.0162168465862802e-05   2.997071222461724e-06   -3.701506870585994e-06
-2.0162168465862802e-05   2.997071222461724e-06   -3.701506870585994e-06
-2.0162168465862802e-05   2.997071222461724e-06   -3.701506870585994e-06
-2.0162168465862802e-05   2.997071222461724e-06   -3.701506870585994e-06
-8.113162217250198e-06   1.6911292410270952e-06   -2.299961876274626e-05
-8.113162217250198e-06   1.6911292410270952e-06   -2.299961876274626e-05
-8.113162217250198e-06   1.6911292410270952e-06   -2.299961876274626e-05
-8.113162217250198e-06   1.6911292410270952e-06   -2.299961876274626e-05
2.8327063272859323e-06   0.0   -4.304240528776843e-05
2.8327063272859323e-06   0.0   -4.304240528776843e-05
2.8327063272859323e-06   0.0   -4.304240528776843e-05
2.8327063272859323e-06   0.0   -4.304240528776843e-05
2.9692468548141312e-05   -3.4826429502911977e-06   -3.657206898508223e-07
2.9692468548141312e-05   -3.4826429502911977e-06   -3.657206898508223e-07
2.9692468548141312e-05   -3.4826429502911977e-06   -3.657206898508223e-07
2.9692468548141312e-05   -3.4826429502911977e-06   -3.657206898508223e-07
2.9749502752519855e-05   0.0   -4.537076997999169e-05
2.9749502752519855e-05   0.0   -4.537076997999169e-05
2.9749502752519855e-05   0.0   -4.537076997999169e-05
2.9749502752519855e-05   0.0   -4.537076997999169e-05
3.371160761881702e-06   -2.624399601417989e-06   1.677730985893553e-07
3.371160761881702e-06   -2.624399601417989e-06   1.677730985893553e-07
3.371160761881702e-06   -2.624399601417989e-06   1.677730985893553e-07
3.371160761881702e-06   -2.624399601417989e-06   1.677730985893553e-07
1.6291104539902895e-05   -1.9403039101860507e-06   -2.1775923946185112e-05
1.6291104539902895e-05   -1.9403039101860507e-06   -2.1775923946185112e-05
1.6291104539902895e-05   -1.9403039101860507e-06   -2.1775923946185112e-05
1.6291104539902895e-05   -1.9403039101860507e-06   -2.1775923946185112e-05
3.371160761881702e-06   0.0   -4.3796130219140896e-05
3.371160761881702e-06   0.0   -4.3796130219140896e-05
3.371160761881702e-06   0.0   -4.3796130219140896e-05
3.371160761881702e-06   0.0   -4.3796130219140896e-05
2.9749502752519855e-05   -2.624399601417989e-06   -1.4068666622614397e-06
2.9749502752519855e-05   -2.624399601417989e-06   -1.4068666622614397e-06
2.9749502752519855e-05   -2.624399601417989e-06   -1.4068666622614397e-06
2.9749502752519855e-05   -2.624399601417989e-06   -1.4068666622614397e-06
2.96257404508079e-05   0.0   -4.472292286245288e-05
2.96257404508079e-05   0.0   -4.472292286245288e-05
2.96257404508079e-05   0.0   -4.472292286245288e-05
2.96257404508079e-05   0.0   -4.472292286245288e-05
3.796636583590449e-06   -1.64956051351433e-06   -6.846801089818719e-07
3.796636583590449e-06   -1.64956051351433e-06   -6.846801089818719e-07
3.796636583590449e-06   -1.64956051351433e-06   -6.846801089818719e-07
3.796636583590449e-06   -1.64956051351433e-06   -6.846801089818719e-07
1.6498450606344803e-05   -7.723272027599889e-07   -2.2380710133358376e-05
1.6498450606344803e-05   -7.723272027599889e-07   -2.2380710133358376e-05
1.6498450606344803e-05   -7.723272027599889e-07   -2.2380710133358376e-05
1.6498450606344803e-05   -7.723272027599889e-07   -2.2380710133358376e-05
3.7966365835904455e-06   0.0   -4.373318655434425e-05
3.7966365835904455e-06   0.0   -4.373318655434425e-05
3.7966365835904455e-06   0.0   -4.373318655434425e-05
3.7966365835904455e-06   0.0   -4.373318655434425e-05
2.96257404508079e-05   -1.64956051351433e-06   -1.674416417090471e-06
2.96257404508079e-05   -1.64956051351433e-06   -1.674416417090471e-06
2.96257404508079e-05   -1.64956051351433e-06   -1.674416417090471e-06
2.96257404508079e-05   -1.64956051351433e-06   -1.674416417090471e-06
3.0203009547991526e-05   0.0   -4.299056344119603e-05
3.0203009547991526e-05   0.0   -4.299056344119603e-05
3.0203009547991526e-05   0.0   -4.299056344119603e-05
3.0203009547991526e-05   0.0   -4.299056344119603e-05
4.3678770330926994e-06   -3.398168986018616e-07   2.718808894631224e-07
4.3678770330926994e-06   -3.398168986018616e-07   2.718808894631224e-07
4.3678770330926994e-06   -3.398168986018616e-07   2.718808894631224e-07
4.3678770330926994e-06   -3.398168986018616e-07   2.718808894631224e-07
1.6999823065790972e-05   6.188525942902052e-07   -2.1356564194102563e-05
1.6999823065790972e-05   6.188525942902052e-07   -2.1356564194102563e-05
1.6999823065790972e-05   6.188525942902052e-07   -2.1356564194102563e-05
1.6999823065790972e-05   6.188525942902052e-07   -2.1356564194102563e-05
2.9692468548141312e-05   0.0   -4.5131991057943155e-05
2.9692468548141312e-05   0.0   -4.5131991057943155e-05
2.9692468548141312e-05   0.0   -4.5131991057943155e-05
2.9692468548141312e-05   0.0   -4.5131991057943155e-05
6.705738513660035e-05   -8.83133352278259e-06   1.1844069809152725e-05
6.705738513660035e-05   -8.83133352278259e-06   1.1844069809152725e-05
6.705738513660035e-05   -8.83133352278259e-06   1.1844069809152725e-05
6.705738513660035e-05   -8.83133352278259e-06   1.1844069809152725e-05
6.298320852315664e-05   0.0   -4.9877863288270646e-05
6.298320852315664e-05   0.0   -4.9877863288270646e-05
6.298320852315664e-05   0.0   -4.9877863288270646e-05
6.298320852315664e-05   0.0   -4.9877863288270646e-05
2.9749502752519855e-05   -7.511822180464921e-06   1.001873963773629e-05
2.9749502752519855e-05   -7.511822180464921e-06   1.001873963773629e-05
2.9749502752519855e-05   -7.511822180464921e-06   1.001873963773629e-05
2.9749502752519855e-05   -7.511822180464921e-06   1.001873963773629e-05
4.633783853564898e-05   -3.954893525272919e-06   -1.97626438605941e-05
4.633783853564898e-05   -3.954893525272919e-06   -1.97626438605941e-05
4.633783853564898e-05   -3.954893525272919e-06   -1.97626438605941e-05
4.633783853564898e-05   -3.954893525272919e-06   -1.97626438605941e-05
2.974950275251983e-05   0.0   -4.537076997999165e-05
2.974950275251983e-05   0.0   -4.537076997999165e-05
2.974950275251983e-05   0.0   -4.537076997999165e-05
2.974950275251983e-05   0.0   -4.537076997999165e-05
6.298320852315643e-05   -7.511822180464908e-06   5.511646329457303e-06
6.298320852315643e-05   -7.511822180464908e-06   5.511646329457303e-06
6.298320852315643e-05   -7.511822180464908e-06   5.511646329457303e-06
6.298320852315643e-05   -7.511822180464908e-06   5.511646329457303e-06
6.110609167844162e-05   0.0   -4.88409152311804e-05
6.110609167844162e-05   0.0   -4.88409152311804e-05
6.110609167844162e-05   0.0   -4.88409152311804e-05
6.110609167844162e-05   0.0   -4.88409152311804e-05
2.96257404508079e-05   -6.863320614545863e-06   7.744329183603308e-06
2.96257404508079e-05   -6.863320614545863e-06   7.744329183603308e-06
2.96257404508079e-05   -6.863320614545863e-06   7.744329183603308e-06
2.96257404508079e-05   -6.863320614545863e-06   7.744329183603308e-06
4.542779721548071e-05   -2.891787709323926e-06   -2.0975351833984542e-05
4.542779721548071e-05   -2.891787709323926e-06   -2.0975351833984542e-05
4.542779721548071e-05   -2.891787709323926e-06   -2.0975351833984542e-05
4.542779721548071e-05   -2.891787709323926e-06   -2.0975351833984542e-05
2.96257404508079e-05   0.0   -4.472292286245288e-05
2.96257404508079e-05   0.0   -4.472292286245288e-05
2.96257404508079e-05   0.0   -4.472292286245288e-05
2.96257404508079e-05   0.0   -4.472292286245288e-05
6.11060916784414e-05   -6.86332061454585e-06   3.626336814875763e-06
6.11060916784414e-05   -6.86332061454585e-06   3.626336814875763e-06
6.11060916784414e-05   -6.86332061454585e-06   3.626336814875763e-06
6.11060916784414e-05   -6.86332061454585e-06   3.626336814875763e-06
5.830904119642666e-05   0.0   -4.618958848646369e-05
5.830904119642666e-05   0.0   -4.618958848646369e-05
5.830904119642666e-05   0.0   -4.618958848646369e-05
5.830904119642666e-05   0.0   -4.618958848646369e-05
3.0203009547991526e-05   -5.331708408779561e-06   3.852822639529355e-06
3.0203009547991526e-05   -5.331708408779561e-06   3.852822639529355e-06
3.0203009547991526e-05   -5.331708408779561e-06   3.852822639529355e-06
3.0203009547991526e-05   -5.331708408779561e-06   3.852822639529355e-06
4.396739082361733e-05   -1.2222213533424103e-06   -2.1553505053109264e-05
4.396739082361733e-05   -1.2222213533424103e-06   -2.1553505053109264e-05
4.396739082361733e-05   -1.2222213533424103e-06   -2.1553505053109264e-05
4.396739082361733e-05   -1.2222213533424103e-06   -2.1553505053109264e-05
-6.55527504341252e-05   8.367793695234735e-06   -4.304596421235078e-05
-6.55527504341252e-05   8.367793695234735e-06   -4.304596421235078e-05
-6.55527504341252e-05   8.367793695234735e-06   -4.304596421235078e-05
-6.55527504341252e-05   8.367793695234735e-06   -4.304596421235078e-05
-4.198949419499206e-05   7.52266176648017e-06   -4.280949637714933e-06
-4.198949419499206e-05   7.52266176648017e-06   -4.280949637714933e-06
-4.198949419499206e-05   7.52266176648017e-06   -4.280949637714933e-06
-4.198949419499206e-05   7.52266176648017e-06   -4.280949637714933e-06
-4.304410396756477e-05   1.0045100136217789e-05   -3.615500753587772e-05
-4.304410396756477e-05   1.0045100136217789e-05   -3.615500753587772e-05
-4.304410396756477e-05   1.0045100136217789e-05   -3.615500753587772e-05
-4.304410396756477e-05   1.0045100136217789e-05   -3.615500753587772e-05
-6.625846277543064e-05   9.031043934157123e-06   3.144024198468569e-06
-6.625846277543064e-05   9.031043934157123e-06   3.144024198468569e-06
-6.625846277543064e-05   9.031043934157123e-06   3.144024198468569e-06
-6.625846277543064e-05   9.031043934157123e-06   3.144024198468569e-06
-5.2063783431302775e-05   8.741567008502965e-06   -2.0340088553019042e-05
-5.2063783431302775e-05   8.741567008502965e-06   -2.0340088553019042e-05
-5.2063783431302775e-05   8.741567008502965e-06   -2.0340088553019042e-05
-5.2063783431302775e-05   8.741567008502965e-06   -2.0340088553019042e-05
-6.625846277543064e-05   1.0045100136217789e-05   -3.5546573814641305e-05
-6.625846277543064e-05   1.0045100136217789e-05   -3.5546573814641305e-05
-6.625846277543064e-05   1.0045100136217789e-05   -3.5546573814641305e-05
-6.625846277543064e-05   1.0045100136217789e-05   -3.5546573814641305e-05
-4.304410396756492e-05   9.031043934157177e-06   2.5355904772322022e-06
-4.304410396756492e-05   9.031043934157177e-06   2.5355904772322022e-06
-4.304410396756492e-05   9.031043934157177e-06   2.5355904772322022e-06
-4.304410396756492e-05   9.031043934157177e-06   2.5355904772322022e-06
-4.3263075769527346e-05   1.076271513860986e-05   -3.25078330663927e-05
-4.3263075769527346e-05   1.076271513860986e-05   -3.25078330663927e-05
-4.3263075769527346e-05   1.076271513860986e-05   -3.25078330663927e-05
-4.3263075769527346e-05   1.076271513860986e-05   -3.25078330663927e-05
-6.672139760512528e-05   9.711900971846014e-06   7.21985849299532e-06
-6.672139760512528e-05   9.711900971846014e-06   7.21985849299532e-06
-6.672139760512528e-05   9.711900971846014e-06   7.21985849299532e-06
-6.672139760512528e-05   9.711900971846014e-06   7.21985849299532e-06
-5.3592105079162254e-05   9.689902168407696e-06   -1.4649096434879872e-05
-5.3592105079162254e-05   9.689902168407696e-06   -1.4649096434879872e-05
-5.3592105079162254e-05   9.689902168407696e-06   -1.4649096434879872e-05
-5.3592105079162254e-05   9.689902168407696e-06   -1.4649096434879872e-05
-6.672139760512515e-05   1.076271513860986e-05   -3.1877344566334415e-05
-6.672139760512515e-05   1.076271513860986e-05   -3.1877344566334415e-05
-6.672139760512515e-05   1.076271513860986e-05   -3.1877344566334415e-05
-6.672139760512515e-05   1.076271513860986e-05   -3.1877344566334415e-05
-4.3263075769527414e-05   9.711900971846014e-06   6.589369992937005e-06
-4.3263075769527414e-05   9.711900971846014e-06   6.589369992937005e-06
-4.3263075769527414e-05   9.711900971846014e-06   6.589369992937005e-06
-4.3263075769527414e-05   9.711900971846014e-06   6.589369992937005e-06
-4.3015133012324734e-05   1.226376230679992e-05   -2.4026846677518342e-05
-4.3015133012324734e-05   1.226376230679992e-05   -2.4026846677518342e-05
-4.3015133012324734e-05   1.226376230679992e-05   -2.4026846677518342e-05
-4.3015133012324734e-05   1.226376230679992e-05   -2.4026846677518342e-05
-6.486629999496295e-05   1.0254447128944317e-05   1.3597354066925151e-05
-6.486629999496295e-05   1.0254447128944317e-05   1.3597354066925151e-05
-6.486629999496295e-05   1.0254447128944317e-05   1.3597354066925151e-05
-6.486629999496295e-05   1.0254447128944317e-05   1.3597354066925151e-05
-5.219507019579697e-05   1.0629778316362541e-05   -7.746560977468976e-06
-5.219507019579697e-05   1.0629778316362541e-05   -7.746560977468976e-06
-5.219507019579697e-05   1.0629778316362541e-05   -7.746560977468976e-06
-5.219507019579697e-05   1.0629778316362541e-05   -7.746560977468976e-06
-4.198949419499206e-05   3.067634500051705e-06   -4.5733739598054814e-05
-4.198949419499206e-05   3.067634500051705e-06   -4.5733739598054814e-05
-4.198949419499206e-05   3.067634500051705e-06   -4.5733739598054814e-05
-4.198949419499206e-05   3.067634500051705e-06   -4.5733739598054814e-05
-1.990323554418356e-05   3.5004841840356694e-06   -8.66359870298352e-06
-1.990323554418356e-05   3.5004841840356694e-06   -8.66359870298352e-06
-1.990323554418356e-05   3.5004841840356694e-06   -8.66359870298352e-06
-1.990323554418356e-05   3.5004841840356694e-06   -8.66359870298352e-06
-2.037677661482611e-05   4.3696546157615115e-06   -4.566352877441351e-05
-2.037677661482611e-05   4.3696546157615115e-06   -4.566352877441351e-05
-2.037677661482611e-05   4.3696546157615115e-06   -4.566352877441351e-05
-2.037677661482611e-05   4.3696546157615115e-06   -4.566352877441351e-05
-4.304410396756477e-05   4.8874892116558e-06   -8.19535061071891e-06
-4.304410396756477e-05   4.8874892116558e-06   -8.19535061071891e-06
-4.304410396756477e-05   4.8874892116558e-06   -8.19535061071891e-06
-4.304410396756477e-05   4.8874892116558e-06   -8.19535061071891e-06
-3.124004936565317e-05   3.935247913007718e-06   -2.729743016804964e-05
-3.124004936565317e-05   3.935247913007718e-06   -2.729743016804964e-05
-3.124004936565317e-05   3.935247913007718e-06   -2.729743016804964e-05
-3.124004936565317e-05   3.935247913007718e-06   -2.729743016804964e-05
-4.304410396756473e-05   4.3696546157615115e-06   -4.597422953195002e-05
-4.304410396756473e-05   4.3696546157615115e-06   -4.597422953195002e-05
-4.304410396756473e-05   4.3696546157615115e-06   -4.597422953195002e-05
-4.304410396756473e-05   4.3696546157615115e-06   -4.597422953195002e-05
-2.0376776614826148e-05   4.8874892116558e-06   -7.884649853182318e-06
-2.0376776614826148e-05   4.8874892116558e-06   -7.884649853182318e-06
-2.0376776614826148e-05   4.8874892116558e-06   -7.884649853182318e-06
-2.0376776614826148e-05   4.8874892116558e-06   -7.884649853182318e-06
-2.0524306244772463e-05   5.355822427319002e-06   -4.480960054980635e-05
-2.0524306244772463e-05   5.355822427319002e-06   -4.480960054980635e-05
-2.0524306244772463e-05   5.355822427319002e-06   -4.480960054980635e-05
-2.0524306244772463e-05   5.355822427319002e-06   -4.480960054980635e-05
-4.3263075769527346e-05   6.035812675100763e-06   -7.3196454905506746e-06
-4.3263075769527346e-05   6.035812675100763e-06   -7.3196454905506746e-06
-4.3263075769527346e-05   6.035812675100763e-06   -7.3196454905506746e-06
-4.3263075769527346e-05   6.035812675100763e-06   -7.3196454905506746e-06
-3.148270280365494e-05   4.9957562774553355e-06   -2.6329566595083973e-05
-3.148270280365494e-05   4.9957562774553355e-06   -2.6329566595083973e-05
-3.148270280365494e-05   4.9957562774553355e-06   -2.6329566595083973e-05
-3.148270280365494e-05   4.9957562774553355e-06   -2.6329566595083973e-05
-4.3263075769527346e-05   5.355822427319002e-06   -4.5217594698475426e-05
-4.3263075769527346e-05   5.355822427319002e-06   -4.5217594698475426e-05
-4.3263075769527346e-05   5.355822427319002e-06   -4.5217594698475426e-05
-4.3263075769527346e-05   5.355822427319002e-06   -4.5217594698475426e-05
-2.0524306244772534e-05   6.03581267510079e-06   -6.911651341881623e-06
-2.0524306244772534e-05   6.03581267510079e-06   -6.911651341881623e-06
-2.0524306244772534e-05   6.03581267510079e-06   -6.911651341881623e-06
-2.0524306244772534e-05   6.03581267510079e-06   -6.911651341881623e-06
-2.0472550502338674e-05   6.2330100156323456e-06   -4.4352491685834786e-05
-2.0472550502338674e-05   6.2330100156323456e-06   -4.4352491685834786e-05
-2.0472550502338674e-05   6.2330100156323456e-06   -4.4352491685834786e-05
-2.0472550502338674e-05   6.2330100156323456e-06   -4.4352491685834786e-05
-4.301513301232469e-05   7.271575849798339e-06   -7.404660336357723e-06
-4.301513301232469e-05   7.271575849798339e-06   -7.404660336357723e-06
-4.301513301232469e-05   7.271575849798339e-06   -7.404660336357723e-06
-4.301513301232469e-05   7.271575849798339e-06   -7.404660336357723e-06
-3.1666324886024995e-05   5.955645815598244e-06   -2.552978252633726e-05
-3.1666324886024995e-05   5.955645815598244e-06   -2.552978252633726e-05
-3.1666324886024995e-05   5.955645815598244e-06   -2.552978252633726e-05
-3.1666324886024995e-05   5.955645815598244e-06   -2.552978252633726e-05
-1.9903235544183522e-05   -3.940200081490377e-07   -4.7888308865838585e-05
-1.9903235544183522e-05   -3.940200081490377e-07   -4.7888308865838585e-05
-1.9903235544183522e-05   -3.940200081490377e-07   -4.7888308865838585e-05
-1.9903235544183522e-05   -3.940200081490377e-07   -4.7888308865838585e-05
1.9040803651911634e-06   -1.0488253995467466e-07   -1.1369299869297476e-05
1.9040803651911634e-06   -1.0488253995467466e-07   -1.1369299869297476e-05
1.9040803651911634e-06   -1.0488253995467466e-07   -1.1369299869297476e-05
1.9040803651911634e-06   -1.0488253995467466e-07   -1.1369299869297476e-05
1.8159731047575256e-06   7.751212053531595e-07   -4.815329156524547e-05
1.8159731047575256e-06   7.751212053531595e-07   -4.815329156524547e-05
1.8159731047575256e-06   7.751212053531595e-07   -4.815329156524547e-05
1.8159731047575256e-06   7.751212053531595e-07   -4.815329156524547e-05
-2.037677661482611e-05   1.1731604163881372e-06   -1.1404198892560178e-05
-2.037677661482611e-05   1.1731604163881372e-06   -1.1404198892560178e-05
-2.037677661482611e-05   1.1731604163881372e-06   -1.1404198892560178e-05
-2.037677661482611e-05   1.1731604163881372e-06   -1.1404198892560178e-05
-9.194837352240628e-06   3.8974871722867715e-07   -2.9570717310707106e-05
-9.194837352240628e-06   3.8974871722867715e-07   -2.9570717310707106e-05
-9.194837352240628e-06   3.8974871722867715e-07   -2.9570717310707106e-05
-9.194837352240628e-06   3.8974871722867715e-07   -2.9570717310707106e-05
-2.037677661482611e-05   7.751212053531731e-07   -4.839211509186635e-05
-2.037677661482611e-05   7.751212053531731e-07   -4.839211509186635e-05
-2.037677661482611e-05   7.751212053531731e-07   -4.839211509186635e-05
-2.037677661482611e-05   7.751212053531731e-07   -4.839211509186635e-05
1.8159731047575256e-06   1.17316041638811e-06   -1.1165375365939245e-05
1.8159731047575256e-06   1.17316041638811e-06   -1.1165375365939245e-05
1.8159731047575256e-06   1.17316041638811e-06   -1.1165375365939245e-05
1.8159731047575256e-06   1.17316041638811e-06   -1.1165375365939245e-05
1.6956100947134612e-06   1.8047363948719047e-06   -4.8253362874586716e-05
1.6956100947134612e-06   1.8047363948719047e-06   -4.8253362874586716e-05
1.6956100947134612e-06   1.8047363948719047e-06   -4.8253362874586716e-05
1.6956100947134612e-06   1.8047363948719047e-06   -4.8253362874586716e-05
-2.0524306244772463e-05   2.421975001867582e-06   -1.159051213964096e-05
-2.0524306244772463e-05   2.421975001867582e-06   -1.159051213964096e-05
-2.0524306244772463e-05   2.421975001867582e-06   -1.159051213964096e-05
-2.0524306244772463e-05   2.421975001867582e-06   -1.159051213964096e-05
-9.364736709000086e-06   1.4726485615783054e-06   -2.962019883508792e-05
-9.364736709000086e-06   1.4726485615783054e-06   -2.962019883508792e-05
-9.364736709000086e-06   1.4726485615783054e-06   -2.962019883508792e-05
-9.364736709000086e-06   1.4726485615783054e-06   -2.962019883508792e-05
-2.0524306244772463e-05   1.8047363948719047e-06   -4.862370603878412e-05
-2.0524306244772463e-05   1.8047363948719047e-06   -4.862370603878412e-05
-2.0524306244772463e-05   1.8047363948719047e-06   -4.862370603878412e-05
-2.0524306244772463e-05   1.8047363948719047e-06   -4.862370603878412e-05
1.6956100947134638e-06   2.421975001867582e-06   -1.122016897544356e-05
1.6956100947134638e-06   2.421975001867582e-06   -1.122016897544356e-05
1.6956100947134638e-06   2.421975001867582e-06   -1.122016897544356e-05
1.6956100947134638e-06   2.421975001867582e-06   -1.122016897544356e-05
1.4512185198255909e-06   2.9970712224617376e-06   -4.8170634957598376e-05
1.4512185198255909e-06   2.9970712224617376e-06   -4.8170634957598376e-05
1.4512185198255909e-06   2.9970712224617376e-06   -4.8170634957598376e-05
1.4512185198255909e-06   2.9970712224617376e-06   -4.8170634957598376e-05
-2.047255050233869e-05   3.723033395719097e-06   -1.2066597224612364e-05
-2.047255050233869e-05   3.723033395719097e-06   -1.2066597224612364e-05
-2.047255050233869e-05   3.723033395719097e-06   -1.2066597224612364e-05
-2.047255050233869e-05   3.723033395719097e-06   -1.2066597224612364e-05
-9.466940138587438e-06   2.5851193655271364e-06   -2.97265327460826e-05
-9.466940138587438e-06   2.5851193655271364e-06   -2.97265327460826e-05
-9.466940138587438e-06   2.5851193655271364e-06   -2.97265327460826e-05
-9.466940138587438e-06   2.5851193655271364e-06   -2.97265327460826e-05
1.9040803651911634e-06   -3.4826429502911977e-06   -4.418448470704029e-05
1.9040803651911634e-06   -3.4826429502911977e-06   -4.418448470704029e-05
1.9040803651911634e-06   -3.4826429502911977e-06   -4.418448470704029e-05
1.9040803651911634e-06   -3.4826429502911977e-06   -4.418448470704029e-05
2.4376758342129366e-05   -3.580325526753112e-06   -6.7886309580203995e-06
2.4376758342129366e-05   -3.580325526753112e-06   -6.7886309580203995e-06
2.4376758342129366e-05   -3.580325526753112e-06   -6.7886309580203995e-06
2.4376758342129366e-05   -3.580325526753112e-06   -6.7886309580203995e-06
2.4578528533596545e-05   -2.624399601417989e-06   -4.47978448121288e-05
2.4578528533596545e-05   -2.624399601417989e-06   -4.47978448121288e-05
2.4578528533596545e-05   -2.624399601417989e-06   -4.47978448121288e-05
2.4578528533596545e-05   -2.624399601417989e-06   -4.47978448121288e-05
1.8159731047575256e-06   -2.418646795021177e-06   -6.983704114568409e-06
1.8159731047575256e-06   -2.418646795021177e-06   -6.983704114568409e-06
1.8159731047575256e-06   -2.418646795021177e-06   -6.983704114568409e-06
1.8159731047575256e-06   -2.418646795021177e-06   -6.983704114568409e-06
1.3000594334285263e-05   -2.8960154881267663e-06   -2.533831828125139e-05
1.3000594334285263e-05   -2.8960154881267663e-06   -2.533831828125139e-05
1.3000594334285263e-05   -2.8960154881267663e-06   -2.533831828125139e-05
1.3000594334285263e-05   -2.8960154881267663e-06   -2.533831828125139e-05
1.8159731047575222e-06   -2.624399601417989e-06   -4.492129649596696e-05
1.8159731047575222e-06   -2.624399601417989e-06   -4.492129649596696e-05
1.8159731047575222e-06   -2.624399601417989e-06   -4.492129649596696e-05
1.8159731047575222e-06   -2.624399601417989e-06   -4.492129649596696e-05
2.457852853359659e-05   -2.4186467950212042e-06   -6.860252430730316e-06
2.457852853359659e-05   -2.4186467950212042e-06   -6.860252430730316e-06
2.457852853359659e-05   -2.4186467950212042e-06   -6.860252430730316e-06
2.457852853359659e-05   -2.4186467950212042e-06   -6.860252430730316e-06
2.445908037404478e-05   -1.64956051351433e-06   -4.5635120851009476e-05
2.445908037404478e-05   -1.64956051351433e-06   -4.5635120851009476e-05
2.445908037404478e-05   -1.64956051351433e-06   -4.5635120851009476e-05
2.445908037404478e-05   -1.64956051351433e-06   -4.5635120851009476e-05
1.6956100947134612e-06   -1.2810066298687224e-06   -7.91713604897804e-06
1.6956100947134612e-06   -1.2810066298687224e-06   -7.91713604897804e-06
1.6956100947134612e-06   -1.2810066298687224e-06   -7.91713604897804e-06
1.6956100947134612e-06   -1.2810066298687224e-06   -7.91713604897804e-06
1.2862907677690821e-05   -1.9690029596950375e-06   -2.611650088937776e-05
1.2862907677690821e-05   -1.9690029596950375e-06   -2.611650088937776e-05
1.2862907677690821e-05   -1.9690029596950375e-06   -2.611650088937776e-05
1.2862907677690821e-05   -1.9690029596950375e-06   -2.611650088937776e-05
1.6956100947134591e-06   -1.64956051351433e-06   -4.5856253181196856e-05
1.6956100947134591e-06   -1.64956051351433e-06   -4.5856253181196856e-05
1.6956100947134591e-06   -1.64956051351433e-06   -4.5856253181196856e-05
1.6956100947134591e-06   -1.64956051351433e-06   -4.5856253181196856e-05
2.4459080374044867e-05   -1.2810066298687495e-06   -7.696003718790672e-06
2.4459080374044867e-05   -1.2810066298687495e-06   -7.696003718790672e-06
2.4459080374044867e-05   -1.2810066298687495e-06   -7.696003718790672e-06
2.4459080374044867e-05   -1.2810066298687495e-06   -7.696003718790672e-06
2.3745279737531808e-05   -3.398168986018616e-07   -4.571614220879729e-05
2.3745279737531808e-05   -3.398168986018616e-07   -4.571614220879729e-05
2.3745279737531808e-05   -3.398168986018616e-07   -4.571614220879729e-05
2.3745279737531808e-05   -3.398168986018616e-07   -4.571614220879729e-05
1.4512185198255909e-06   1.2576263844636172e-07   -8.838721234849242e-06
1.4512185198255909e-06   1.2576263844636172e-07   -8.838721234849242e-06
1.4512185198255909e-06   1.2576263844636172e-07   -8.838721234849242e-06
1.4512185198255909e-06   1.2576263844636172e-07   -8.838721234849242e-06
1.2723459239963342e-05   -8.863026841714737e-07   -2.701854990817473e-05
1.2723459239963342e-05   -8.863026841714737e-07   -2.701854990817473e-05
1.2723459239963342e-05   -8.863026841714737e-07   -2.701854990817473e-05
1.2723459239963342e-05   -8.863026841714737e-07   -2.701854990817473e-05
2.4376758342129366e-05   -8.83133352278259e-06   -2.673450364024433e-05
2.4376758342129366e-05   -8.83133352278259e-06   -2.673450364024433e-05
2.4376758342129366e-05   -8.83133352278259e-06   -2.673450364024433e-05
2.4376758342129366e-05   -8.83133352278259e-06   -2.673450364024433e-05
4.655221101574715e-05   -6.652621116498325e-06   1.1531811592889121e-05
4.655221101574715e-05   -6.652621116498325e-06   1.1531811592889121e-05
4.655221101574715e-05   -6.652621116498325e-06   1.1531811592889121e-05
4.655221101574715e-05   -6.652621116498325e-06   1.1531811592889121e-05
4.832683589124248e-05   -7.511822180464921e-06   -3.248511092819473e-05
4.832683589124248e-05   -7.511822180464921e-06   -3.248511092819473e-05
4.832683589124248e-05   -7.511822180464921e-06   -3.248511092819473e-05
4.832683589124248e-05   -7.511822180464921e-06   -3.248511092819473e-05
2.4578528533596633e-05   -6.033276207237408e-06   6.208273750611933e-06
2.4578528533596633e-05   -6.033276207237408e-06   6.208273750611933e-06
2.4578528533596633e-05   -6.033276207237408e-06   6.208273750611933e-06
2.4578528533596633e-05   -6.033276207237408e-06   6.208273750611933e-06
3.428619170777471e-05   -7.225957789051222e-06   -9.255555923929956e-06
3.428619170777471e-05   -7.225957789051222e-06   -9.255555923929956e-06
3.428619170777471e-05   -7.225957789051222e-06   -9.255555923929956e-06
3.428619170777471e-05   -7.225957789051222e-06   -9.255555923929956e-06
2.457852853359657e-05   -7.511822180464908e-06   -3.33722385121311e-05
2.457852853359657e-05   -7.511822180464908e-06   -3.33722385121311e-05
2.457852853359657e-05   -7.511822180464908e-06   -3.33722385121311e-05
2.457852853359657e-05   -7.511822180464908e-06   -3.33722385121311e-05
4.832683589124248e-05   -6.033276207237408e-06   7.095401334548425e-06
4.832683589124248e-05   -6.033276207237408e-06   7.095401334548425e-06
4.832683589124248e-05   -6.033276207237408e-06   7.095401334548425e-06
4.832683589124248e-05   -6.033276207237408e-06   7.095401334548425e-06
4.814787701439551e-05   -6.863320614545863e-06   -3.532557135452002e-05
4.814787701439551e-05   -6.863320614545863e-06   -3.532557135452002e-05
4.814787701439551e-05   -6.863320614545863e-06   -3.532557135452002e-05
4.814787701439551e-05   -6.863320614545863e-06   -3.532557135452002e-05
2.4459080374044867e-05   -5.378647454886093e-06   3.264952483601825e-06
2.4459080374044867e-05   -5.378647454886093e-06   3.264952483601825e-06
2.4459080374044867e-05   -5.378647454886093e-06   3.264952483601825e-06
2.4459080374044867e-05   -5.378647454886093e-06   3.264952483601825e-06
3.548652550249449e-05   -6.380134123102791e-06   -1.4513230729550823e-05
3.548652550249449e-05   -6.380134123102791e-06   -1.4513230729550823e-05
3.548652550249449e-05   -6.380134123102791e-06   -1.4513230729550823e-05
3.548652550249449e-05   -6.380134123102791e-06   -1.4513230729550823e-05
2.4459080374044823e-05   -6.86332061454585e-06   -3.621637525031581e-05
2.4459080374044823e-05   -6.86332061454585e-06   -3.621637525031581e-05
2.4459080374044823e-05   -6.86332061454585e-06   -3.621637525031581e-05
2.4459080374044823e-05   -6.86332061454585e-06   -3.621637525031581e-05
4.814787701439551e-05   -5.378647454886093e-06   4.155756379397663e-06
4.814787701439551e-05   -5.378647454886093e-06   4.155756379397663e-06
4.814787701439551e-05   -5.378647454886093e-06   4.155756379397663e-06
4.814787701439551e-05   -5.378647454886093e-06   4.155756379397663e-06
4.7858953639288815e-05   -5.3317084087795474e-06   -4.1114339820996734e-05
4.7858953639288815e-05   -5.3317084087795474e-06   -4.1114339820996734e-05
4.7858953639288815e-05   -5.3317084087795474e-06   -4.1114339820996734e-05
4.7858953639288815e-05   -5.3317084087795474e-06   -4.1114339820996734e-05
2.3745279737531893e-05   -3.970090911157296e-06   -1.7418538166419362e-06
2.3745279737531893e-05   -3.970090911157296e-06   -1.7418538166419362e-06
2.3745279737531893e-05   -3.970090911157296e-06   -1.7418538166419362e-06
2.3745279737531893e-05   -3.970090911157296e-06   -1.7418538166419362e-06
3.44718572170676e-05   -5.492596682787768e-06   -1.8705979486223118e-05
3.44718572170676e-05   -5.492596682787768e-06   -1.8705979486223118e-05
3.44718572170676e-05   -5.492596682787768e-06   -1.8705979486223118e-05
3.44718572170676e-05   -5.492596682787768e-06   -1.8705979486223118e-05
-5.2186754695754287e-05   7.522661766480197e-06   -3.604509916304839e-05
-5.2186754695754287e-05   7.522661766480197e-06   -3.604509916304839e-05
-5.2186754695754287e-05   7.522661766480197e-06   -3.604509916304839e-05
-5.2186754695754287e-05   7.522661766480197e-06   -3.604509916304839e-05
-3.422090207380859e-05   5.745292388467259e-06   -7.168433086613348e-06
-3.422090207380859e-05   5.745292388467259e-06   -7.168433086613348e-06
-3.422090207380859e-05   5.745292388467259e-06   -7.168433086613348e-06
-3.422090207380859e-05   5.745292388467259e-06   -7.168433086613348e-06
-3.4385367847655985e-05   9.031043934157123e-06   -2.9929771476099195e-05
-3.4385367847655985e-05   9.031043934157123e-06   -2.9929771476099195e-05
-3.4385367847655985e-05   9.031043934157123e-06   -2.9929771476099195e-05
-3.4385367847655985e-05   9.031043934157123e-06   -2.9929771476099195e-05
-5.1393145251855195e-05   6.9516630866798515e-06   -3.358472939474222e-07
-5.1393145251855195e-05   6.9516630866798515e-06   -3.358472939474222e-07
-5.1393145251855195e-05   6.9516630866798515e-06   -3.358472939474222e-07
-5.1393145251855195e-05   6.9516630866798515e-06   -3.358472939474222e-07
-4.122586621779652e-05   7.650195217474452e-06   -1.770043162918882e-05
-4.122586621779652e-05   7.650195217474452e-06   -1.770043162918882e-05
-4.122586621779652e-05   7.650195217474452e-06   -1.770043162918882e-05
-4.122586621779652e-05   7.650195217474452e-06   -1.770043162918882e-05
-5.1393145251855195e-05   9.031043934157123e-06   -2.86821429676128e-05
-5.1393145251855195e-05   9.031043934157123e-06   -2.86821429676128e-05
-5.1393145251855195e-05   9.031043934157123e-06   -2.86821429676128e-05
-5.1393145251855195e-05   9.031043934157123e-06   -2.86821429676128e-05
-3.4385367847655985e-05   6.9516630866798515e-06   -1.5834758024337633e-06
-3.4385367847655985e-05   6.9516630866798515e-06   -1.5834758024337633e-06
-3.4385367847655985e-05   6.9516630866798515e-06   -1.5834758024337633e-06
-3.4385367847655985e-05   6.9516630866798515e-06   -1.5834758024337633e-06
-3.434950064201934e-05   9.711900971846014e-06   -2.5606340815693225e-05
-3.434950064201934e-05   9.711900971846014e-06   -2.5606340815693225e-05
-3.434950064201934e-05   9.711900971846014e-06   -2.5606340815693225e-05
-3.434950064201934e-05   9.711900971846014e-06   -2.5606340815693225e-05
-5.0620139709330964e-05   7.481957244972516e-06   2.8493571992835244e-06
-5.0620139709330964e-05   7.481957244972516e-06   2.8493571992835244e-06
-5.0620139709330964e-05   7.481957244972516e-06   2.8493571992835244e-06
-5.0620139709330964e-05   7.481957244972516e-06   2.8493571992835244e-06
-4.158067723975446e-05   8.34951394853813e-06   -1.2736947605482968e-05
-4.158067723975446e-05   8.34951394853813e-06   -1.2736947605482968e-05
-4.158067723975446e-05   8.34951394853813e-06   -1.2736947605482968e-05
-4.158067723975446e-05   8.34951394853813e-06   -1.2736947605482968e-05
-5.0620139709330964e-05   9.711900971846014e-06   -2.4268374579569055e-05
-5.0620139709330964e-05   9.711900971846014e-06   -2.4268374579569055e-05
-5.0620139709330964e-05   9.711900971846014e-06   -2.4268374579569055e-05
-5.0620139709330964e-05   9.711900971846014e-06   -2.4268374579569055e-05
-3.43495006420194e-05   7.481957244972516e-06   1.5113909631596123e-06
-3.43495006420194e-05   7.481957244972516e-06   1.5113909631596123e-06
-3.43495006420194e-05   7.481957244972516e-06   1.5113909631596123e-06
-3.43495006420194e-05   7.481957244972516e-06   1.5113909631596123e-06
-3.438374624797483e-05   1.0254447128944317e-05   -1.9554281593830525e-05
-3.438374624797483e-05   1.0254447128944317e-05   -1.9554281593830525e-05
-3.438374624797483e-05   1.0254447128944317e-05   -1.9554281593830525e-05
-3.438374624797483e-05   1.0254447128944317e-05   -1.9554281593830525e-05
-4.9611533734122433e-05   8.004801392753251e-06   7.1751516581299e-06
-4.9611533734122433e-05   8.004801392753251e-06   7.1751516581299e-06
-4.9611533734122433e-05   8.004801392753251e-06   7.1751516581299e-06
-4.9611533734122433e-05   8.004801392753251e-06   7.1751516581299e-06
-4.063232529220468e-05   8.718202409488049e-06   -8.218236355106705e-06
-4.063232529220468e-05   8.718202409488049e-06   -8.218236355106705e-06
-4.063232529220468e-05   8.718202409488049e-06   -8.218236355106705e-06
-4.063232529220468e-05   8.718202409488049e-06   -8.218236355106705e-06
-3.422090207380859e-05   3.5004841840356423e-06   -4.175387966551505e-05
-3.422090207380859e-05   3.5004841840356423e-06   -4.175387966551505e-05
-3.422090207380859e-05   3.5004841840356423e-06   -4.175387966551505e-05
-3.422090207380859e-05   3.5004841840356423e-06   -4.175387966551505e-05
-1.7425598115549056e-05   2.8658327219174156e-06   -1.4142497279020114e-05
-1.7425598115549056e-05   2.8658327219174156e-06   -1.4142497279020114e-05
-1.7425598115549056e-05   2.8658327219174156e-06   -1.4142497279020114e-05
-1.7425598115549056e-05   2.8658327219174156e-06   -1.4142497279020114e-05
-1.7636486859113685e-05   4.8874892116558e-06   -4.11616981989616e-05
-1.7636486859113685e-05   4.8874892116558e-06   -4.11616981989616e-05
-1.7636486859113685e-05   4.8874892116558e-06   -4.11616981989616e-05
-1.7636486859113685e-05   4.8874892116558e-06   -4.11616981989616e-05
-3.438536784765592e-05   4.0525131534702315e-06   -1.2745910916479712e-05
-3.438536784765592e-05   4.0525131534702315e-06   -1.2745910916479712e-05
-3.438536784765592e-05   4.0525131534702315e-06   -1.2745910916479712e-05
-3.438536784765592e-05   4.0525131534702315e-06   -1.2745910916479712e-05
-2.5695074076240107e-05   4.038525724915198e-06   -2.722134141170658e-05
-2.5695074076240107e-05   4.038525724915198e-06   -2.722134141170658e-05
-2.5695074076240107e-05   4.038525724915198e-06   -2.722134141170658e-05
-2.5695074076240107e-05   4.038525724915198e-06   -2.722134141170658e-05
-3.4385367847655944e-05   4.8874892116558e-06   -4.066071256405017e-05
-3.4385367847655944e-05   4.8874892116558e-06   -4.066071256405017e-05
-3.4385367847655944e-05   4.8874892116558e-06   -4.066071256405017e-05
-3.4385367847655944e-05   4.8874892116558e-06   -4.066071256405017e-05
-1.7636486859113712e-05   4.0525131534702315e-06   -1.3246896551391038e-05
-1.7636486859113712e-05   4.0525131534702315e-06   -1.3246896551391038e-05
-1.7636486859113712e-05   4.0525131534702315e-06   -1.3246896551391038e-05
-1.7636486859113712e-05   4.0525131534702315e-06   -1.3246896551391038e-05
-1.7772982559211123e-05   6.035812675100763e-06   -4.007257287388173e-05
-1.7772982559211123e-05   6.035812675100763e-06   -4.007257287388173e-05
-1.7772982559211123e-05   6.035812675100763e-06   -4.007257287388173e-05
-1.7772982559211123e-05   6.035812675100763e-06   -4.007257287388173e-05
-3.434950064201934e-05   5.107118383932557e-06   -1.188782616116734e-05
-3.434950064201934e-05   5.107118383932557e-06   -1.188782616116734e-05
-3.434950064201934e-05   5.107118383932557e-06   -1.188782616116734e-05
-3.434950064201934e-05   5.107118383932557e-06   -1.188782616116734e-05
-2.574195181491172e-05   5.015035717069363e-06   -2.617849127289493e-05
-2.574195181491172e-05   5.015035717069363e-06   -2.617849127289493e-05
-2.574195181491172e-05   5.015035717069363e-06   -2.617849127289493e-05
-2.574195181491172e-05   5.015035717069363e-06   -2.617849127289493e-05
-3.434950064201934e-05   6.03581267510079e-06   -3.9515356299180864e-05
-3.434950064201934e-05   6.03581267510079e-06   -3.9515356299180864e-05
-3.434950064201934e-05   6.03581267510079e-06   -3.9515356299180864e-05
-3.434950064201934e-05   6.03581267510079e-06   -3.9515356299180864e-05
-1.7772982559211184e-05   5.107118383932557e-06   -1.2445042735868101e-05
-1.7772982559211184e-05   5.107118383932557e-06   -1.2445042735868101e-05
-1.7772982559211184e-05   5.107118383932557e-06   -1.2445042735868101e-05
-1.7772982559211184e-05   5.107118383932557e-06   -1.2445042735868101e-05
-1.7949887648582052e-05   7.271575849798366e-06   -3.9976064265487515e-05
-1.7949887648582052e-05   7.271575849798366e-06   -3.9976064265487515e-05
-1.7949887648582052e-05   7.271575849798366e-06   -3.9976064265487515e-05
-1.7949887648582052e-05   7.271575849798366e-06   -3.9976064265487515e-05
-3.4383746247974804e-05   6.229313557986065e-06   -1.1960942558078829e-05
-3.4383746247974804e-05   6.229313557986065e-06   -1.1960942558078829e-05
-3.4383746247974804e-05   6.229313557986065e-06   -1.1960942558078829e-05
-3.4383746247974804e-05   6.229313557986065e-06   -1.1960942558078829e-05
-2.6046299402777023e-05   5.98256333907306e-06   -2.5708637168727033e-05
-2.6046299402777023e-05   5.98256333907306e-06   -2.5708637168727033e-05
-2.6046299402777023e-05   5.98256333907306e-06   -2.5708637168727033e-05
-2.6046299402777023e-05   5.98256333907306e-06   -2.5708637168727033e-05
-1.7425598115549015e-05   -1.0488253995467466e-07   -4.501385419001665e-05
-1.7425598115549015e-05   -1.0488253995467466e-07   -4.501385419001665e-05
-1.7425598115549015e-05   -1.0488253995467466e-07   -4.501385419001665e-05
-1.7425598115549015e-05   -1.0488253995467466e-07   -4.501385419001665e-05
-8.17367062426549e-07   1.5278380578829381e-07   -1.717886929403342e-05
-8.17367062426549e-07   1.5278380578829381e-07   -1.717886929403342e-05
-8.17367062426549e-07   1.5278380578829381e-07   -1.717886929403342e-05
-8.17367062426549e-07   1.5278380578829381e-07   -1.717886929403342e-05
-9.86481402847231e-07   1.17316041638811e-06   -4.459241757556295e-05
-9.86481402847231e-07   1.17316041638811e-06   -4.459241757556295e-05
-9.86481402847231e-07   1.17316041638811e-06   -4.459241757556295e-05
-9.86481402847231e-07   1.17316041638811e-06   -4.459241757556295e-05
-1.7636486859113685e-05   1.3212098543488333e-06   -1.693123814456207e-05
-1.7636486859113685e-05   1.3212098543488333e-06   -1.693123814456207e-05
-1.7636486859113685e-05   1.3212098543488333e-06   -1.693123814456207e-05
-1.7636486859113685e-05   1.3212098543488333e-06   -1.693123814456207e-05
-9.164528986621278e-06   7.70028415325683e-07   -3.072045906863551e-05
-9.164528986621278e-06   7.70028415325683e-07   -3.072045906863551e-05
-9.164528986621278e-06   7.70028415325683e-07   -3.072045906863551e-05
-9.164528986621278e-06   7.70028415325683e-07   -3.072045906863551e-05
-1.7636486859113685e-05   1.1731604163881372e-06   -4.4681247238339476e-05
-1.7636486859113685e-05   1.1731604163881372e-06   -4.4681247238339476e-05
-1.7636486859113685e-05   1.1731604163881372e-06   -4.4681247238339476e-05
-1.7636486859113685e-05   1.1731604163881372e-06   -4.4681247238339476e-05
-9.864814028472327e-07   1.3212098543488333e-06   -1.684240848178552e-05
-9.864814028472327e-07   1.3212098543488333e-06   -1.684240848178552e-05
-9.864814028472327e-07   1.3212098543488333e-06   -1.684240848178552e-05
-9.864814028472327e-07   1.3212098543488333e-06   -1.684240848178552e-05
-1.108417130436628e-06   2.421975001867582e-06   -4.471290724411629e-05
-1.108417130436628e-06   2.421975001867582e-06   -4.471290724411629e-05
-1.108417130436628e-06   2.421975001867582e-06   -4.471290724411629e-05
-1.108417130436628e-06   2.421975001867582e-06   -4.471290724411629e-05
-1.7772982559211157e-05   2.4861857144088608e-06   -1.697715795701705e-05
-1.7772982559211157e-05   2.4861857144088608e-06   -1.697715795701705e-05
-1.7772982559211157e-05   2.4861857144088608e-06   -1.697715795701705e-05
-1.7772982559211157e-05   2.4861857144088608e-06   -1.697715795701705e-05
-9.383022133767776e-06   1.8005458681823508e-06   -3.054904142501985e-05
-9.383022133767776e-06   1.8005458681823508e-06   -3.054904142501985e-05
-9.383022133767776e-06   1.8005458681823508e-06   -3.054904142501985e-05
-9.383022133767776e-06   1.8005458681823508e-06   -3.054904142501985e-05
-1.7772982559211157e-05   2.421975001867582e-06   -4.475143367164118e-05
-1.7772982559211157e-05   2.421975001867582e-06   -4.475143367164118e-05
-1.7772982559211157e-05   2.421975001867582e-06   -4.475143367164118e-05
-1.7772982559211157e-05   2.421975001867582e-06   -4.475143367164118e-05
-1.1084171304366297e-06   2.4861857144088608e-06   -1.6938631529492065e-05
-1.1084171304366297e-06   2.4861857144088608e-06   -1.6938631529492065e-05
-1.1084171304366297e-06   2.4861857144088608e-06   -1.6938631529492065e-05
-1.1084171304366297e-06   2.4861857144088608e-06   -1.6938631529492065e-05
-1.3004347186410382e-06   3.723033395719097e-06   -4.528803535673394e-05
-1.3004347186410382e-06   3.723033395719097e-06   -4.528803535673394e-05
-1.3004347186410382e-06   3.723033395719097e-06   -4.528803535673394e-05
-1.3004347186410382e-06   3.723033395719097e-06   -4.528803535673394e-05
-1.794988764858204e-05   3.678208891565247e-06   -1.7512052437673498e-05
-1.794988764858204e-05   3.678208891565247e-06   -1.7512052437673498e-05
-1.794988764858204e-05   3.678208891565247e-06   -1.7512052437673498e-05
-1.794988764858204e-05   3.678208891565247e-06   -1.7512052437673498e-05
-9.615178573700918e-06   2.843308168923959e-06   -3.090229379555701e-05
-9.615178573700918e-06   2.843308168923959e-06   -3.090229379555701e-05
-9.615178573700918e-06   2.843308168923959e-06   -3.090229379555701e-05
-9.615178573700918e-06   2.843308168923959e-06   -3.090229379555701e-05
-8.173670624265499e-07   -3.580325526753112e-06   -4.021997592541663e-05
-8.173670624265499e-07   -3.580325526753112e-06   -4.021997592541663e-05
-8.173670624265499e-07   -3.580325526753112e-06   -4.021997592541663e-05
-8.173670624265499e-07   -3.580325526753112e-06   -4.021997592541663e-05
1.570520677302087e-05   -2.3988715372844256e-06   -1.1973480472656428e-05
1.570520677302087e-05   -2.3988715372844256e-06   -1.1973480472656428e-05
1.570520677302087e-05   -2.3988715372844256e-06   -1.1973480472656428e-05
1.570520677302087e-05   -2.3988715372844256e-06   -1.1973480472656428e-05
1.5693909895807503e-05   -2.418646795021177e-06   -3.975600408253461e-05
1.5693909895807503e-05   -2.418646795021177e-06   -3.975600408253461e-05
1.5693909895807503e-05   -2.418646795021177e-06   -3.975600408253461e-05
1.5693909895807503e-05   -2.418646795021177e-06   -3.975600408253461e-05
-9.864814028472327e-07   -1.3274097255916938e-06   -1.261009415976772e-05
-9.864814028472327e-07   -1.3274097255916938e-06   -1.261009415976772e-05
-9.864814028472327e-07   -1.3274097255916938e-06   -1.261009415976772e-05
-9.864814028472327e-07   -1.3274097255916938e-06   -1.261009415976772e-05
7.342500027532282e-06   -2.346811321934895e-06   -2.5880088919260995e-05
7.342500027532282e-06   -2.346811321934895e-06   -2.5880088919260995e-05
7.342500027532282e-06   -2.346811321934895e-06   -2.5880088919260995e-05
7.342500027532282e-06   -2.346811321934895e-06   -2.5880088919260995e-05
-9.864814028472327e-07   -2.4186467950212042e-06   -4.0410746324192254e-05
-9.864814028472327e-07   -2.4186467950212042e-06   -4.0410746324192254e-05
-9.864814028472327e-07   -2.4186467950212042e-06   -4.0410746324192254e-05
-9.864814028472327e-07   -2.4186467950212042e-06   -4.0410746324192254e-05
1.5693909895807503e-05   -1.3274097255916938e-06   -1.1955351918109959e-05
1.5693909895807503e-05   -1.3274097255916938e-06   -1.1955351918109959e-05
1.5693909895807503e-05   -1.3274097255916938e-06   -1.1955351918109959e-05
1.5693909895807503e-05   -1.3274097255916938e-06   -1.1955351918109959e-05
1.576929074540818e-05   -1.2810066298687224e-06   -4.08062392857546e-05
1.576929074540818e-05   -1.2810066298687224e-06   -4.08062392857546e-05
1.576929074540818e-05   -1.2810066298687224e-06   -4.08062392857546e-05
1.576929074540818e-05   -1.2810066298687224e-06   -4.08062392857546e-05
-1.1084171304366314e-06   -2.749482433748573e-07   -1.3280361191243005e-05
-1.1084171304366314e-06   -2.749482433748573e-07   -1.3280361191243005e-05
-1.1084171304366314e-06   -2.749482433748573e-07   -1.3280361191243005e-05
-1.1084171304366314e-06   -2.749482433748573e-07   -1.3280361191243005e-05
7.117243034816257e-06   -1.417844079123847e-06   -2.63040572985482e-05
7.117243034816257e-06   -1.417844079123847e-06   -2.63040572985482e-05
7.117243034816257e-06   -1.417844079123847e-06   -2.63040572985482e-05
7.117243034816257e-06   -1.417844079123847e-06   -2.63040572985482e-05
-1.108417130436629e-06   -1.2810066298687495e-06   -4.1409874317650705e-05
-1.108417130436629e-06   -1.2810066298687495e-06   -4.1409874317650705e-05
-1.108417130436629e-06   -1.2810066298687495e-06   -4.1409874317650705e-05
-1.108417130436629e-06   -1.2810066298687495e-06   -4.1409874317650705e-05
1.576929074540818e-05   -2.7494824337480307e-07   -1.2676726159346452e-05
1.576929074540818e-05   -2.7494824337480307e-07   -1.2676726159346452e-05
1.576929074540818e-05   -2.7494824337480307e-07   -1.2676726159346452e-05
1.576929074540818e-05   -2.7494824337480307e-07   -1.2676726159346452e-05
1.56490891856537e-05   1.2576263844636172e-07   -4.1998066871792514e-05
1.56490891856537e-05   1.2576263844636172e-07   -4.1998066871792514e-05
1.56490891856537e-05   1.2576263844636172e-07   -4.1998066871792514e-05
1.56490891856537e-05   1.2576263844636172e-07   -4.1998066871792514e-05
-1.3004347186410407e-06   9.552123036677762e-07   -1.4246530163767575e-05
-1.3004347186410407e-06   9.552123036677762e-07   -1.4246530163767575e-05
-1.3004347186410407e-06   9.552123036677762e-07   -1.4246530163767575e-05
-1.3004347186410407e-06   9.552123036677762e-07   -1.4246530163767575e-05
7.0386458206366355e-06   -4.2419854924047925e-07   -2.7317351217485226e-05
7.0386458206366355e-06   -4.2419854924047925e-07   -2.7317351217485226e-05
7.0386458206366355e-06   -4.2419854924047925e-07   -2.7317351217485226e-05
7.0386458206366355e-06   -4.2419854924047925e-07   -2.7317351217485226e-05
1.5705206773020845e-05   -6.652621116498325e-06   -2.249788842459649e-05
1.5705206773020845e-05   -6.652621116498325e-06   -2.249788842459649e-05
1.5705206773020845e-05   -6.652621116498325e-06   -2.249788842459649e-05
1.5705206773020845e-05   -6.652621116498325e-06   -2.249788842459649e-05
3.116877759954607e-05   -4.347846621528557e-06   4.657594316594181e-06
3.116877759954607e-05   -4.347846621528557e-06   4.657594316594181e-06
3.116877759954607e-05   -4.347846621528557e-06   4.657594316594181e-06
3.116877759954607e-05   -4.347846621528557e-06   4.657594316594181e-06
3.222322289036787e-05   -6.033276207237381e-06   -2.5305324938710564e-05
3.222322289036787e-05   -6.033276207237381e-06   -2.5305324938710564e-05
3.222322289036787e-05   -6.033276207237381e-06   -2.5305324938710564e-05
3.222322289036787e-05   -6.033276207237381e-06   -2.5305324938710564e-05
1.5693909895807476e-05   -3.729687936434602e-06   8.613770897418282e-07
1.5693909895807476e-05   -3.729687936434602e-06   8.613770897418282e-07
1.5693909895807476e-05   -3.729687936434602e-06   8.613770897418282e-07
1.5693909895807476e-05   -3.729687936434602e-06   8.613770897418282e-07
2.268503676479717e-05   -5.129206682248611e-06   -9.950789777752689e-06
2.268503676479717e-05   -5.129206682248611e-06   -9.950789777752689e-06
2.268503676479717e-05   -5.129206682248611e-06   -9.950789777752689e-06
2.268503676479717e-05   -5.129206682248611e-06   -9.950789777752689e-06
1.569390989580747e-05   -6.033276207237381e-06   -2.6687477901192127e-05
1.569390989580747e-05   -6.033276207237381e-06   -2.6687477901192127e-05
1.569390989580747e-05   -6.033276207237381e-06   -2.6687477901192127e-05
1.569390989580747e-05   -6.033276207237381e-06   -2.6687477901192127e-05
3.222322289036787e-05   -3.729687936434602e-06   2.2435300522236014e-06
3.222322289036787e-05   -3.729687936434602e-06   2.2435300522236014e-06
3.222322289036787e-05   -3.729687936434602e-06   2.2435300522236014e-06
3.222322289036787e-05   -3.729687936434602e-06   2.2435300522236014e-06
3.303440325529336e-05   -5.378647454886093e-06   -2.853831338299304e-05
3.303440325529336e-05   -5.378647454886093e-06   -2.853831338299304e-05
3.303440325529336e-05   -5.378647454886093e-06   -2.853831338299304e-05
3.303440325529336e-05   -5.378647454886093e-06   -2.853831338299304e-05
1.5769290745408127e-05   -3.2003646209377958e-06   -1.0700955668867896e-06
1.5769290745408127e-05   -3.2003646209377958e-06   -1.0700955668867896e-06
1.5769290745408127e-05   -3.2003646209377958e-06   -1.0700955668867896e-06
1.5769290745408127e-05   -3.2003646209377958e-06   -1.0700955668867896e-06
2.345772394540123e-05   -4.730456315481268e-06   -1.2966095883482385e-05
2.345772394540123e-05   -4.730456315481268e-06   -1.2966095883482385e-05
2.345772394540123e-05   -4.730456315481268e-06   -1.2966095883482385e-05
2.345772394540123e-05   -4.730456315481268e-06   -1.2966095883482385e-05
1.5769290745408154e-05   -5.378647454886093e-06   -2.9845283083362005e-05
1.5769290745408154e-05   -5.378647454886093e-06   -2.9845283083362005e-05
1.5769290745408154e-05   -5.378647454886093e-06   -2.9845283083362005e-05
1.5769290745408154e-05   -5.378647454886093e-06   -2.9845283083362005e-05
3.30344032552933e-05   -3.2003646209377958e-06   2.3687413348242453e-07
3.30344032552933e-05   -3.2003646209377958e-06   2.3687413348242453e-07
3.30344032552933e-05   -3.2003646209377958e-06   2.3687413348242453e-07
3.30344032552933e-05   -3.2003646209377958e-06   2.3687413348242453e-07
3.3899440230416284e-05   -3.970090911157296e-06   -3.4040689518224905e-05
3.3899440230416284e-05   -3.970090911157296e-06   -3.4040689518224905e-05
3.3899440230416284e-05   -3.970090911157296e-06   -3.4040689518224905e-05
3.3899440230416284e-05   -3.970090911157296e-06   -3.4040689518224905e-05
1.5649089185653646e-05   -2.0703281485086496e-06   -4.76329543454313e-06
1.5649089185653646e-05   -2.0703281485086496e-06   -4.76329543454313e-06
1.5649089185653646e-05   -2.0703281485086496e-06   -4.76329543454313e-06
1.5649089185653646e-05   -2.0703281485086496e-06   -4.76329543454313e-06
2.335964432901612e-05   -4.074093548473616e-06   -1.64119614335015e-05
2.335964432901612e-05   -4.074093548473616e-06   -1.64119614335015e-05
2.335964432901612e-05   -4.074093548473616e-06   -1.64119614335015e-05
2.335964432901612e-05   -4.074093548473616e-06   -1.64119614335015e-05
-3.7473840698077666e-05   5.745292388467259e-06   -2.8528358552540084e-05
-3.7473840698077666e-05   5.745292388467259e-06   -2.8528358552540084e-05
-3.7473840698077666e-05   5.745292388467259e-06   -2.8528358552540084e-05
-3.7473840698077666e-05   5.745292388467259e-06   -2.8528358552540084e-05
-2.5527062245114975e-05   3.6520757033549735e-06   -9.872991142002946e-06
-2.5527062245114975e-05   3.6520757033549735e-06   -9.872991142002946e-06
-2.5527062245114975e-05   3.6520757033549735e-06   -9.872991142002946e-06
-2.5527062245114975e-05   3.6520757033549735e-06   -9.872991142002946e-06
-2.5433921213982672e-05   6.9516630866798515e-06   -2.4236556516393152e-05
-2.5433921213982672e-05   6.9516630866798515e-06   -2.4236556516393152e-05
-2.5433921213982672e-05   6.9516630866798515e-06   -2.4236556516393152e-05
-2.5433921213982672e-05   6.9516630866798515e-06   -2.4236556516393152e-05
-3.635032337489556e-05   4.650013582768947e-06   -4.6615632125251625e-06
-3.635032337489556e-05   4.650013582768947e-06   -4.6615632125251625e-06
-3.635032337489556e-05   4.650013582768947e-06   -4.6615632125251625e-06
-3.635032337489556e-05   4.650013582768947e-06   -4.6615632125251625e-06
-2.9872723510994742e-05   5.5328754203753374e-06   -1.598728008825697e-05
-2.9872723510994742e-05   5.5328754203753374e-06   -1.598728008825697e-05
-2.9872723510994742e-05   5.5328754203753374e-06   -1.598728008825697e-05
-2.9872723510994742e-05   5.5328754203753374e-06   -1.598728008825697e-05
-3.635032337489556e-05   6.9516630866798515e-06   -2.2855566814046664e-05
-3.635032337489556e-05   6.9516630866798515e-06   -2.2855566814046664e-05
-3.635032337489556e-05   6.9516630866798515e-06   -2.2855566814046664e-05
-3.635032337489556e-05   6.9516630866798515e-06   -2.2855566814046664e-05
-2.5433921213982726e-05   4.650013582769056e-06   -6.042552914871732e-06
-2.5433921213982726e-05   4.650013582769056e-06   -6.042552914871732e-06
-2.5433921213982726e-05   4.650013582769056e-06   -6.042552914871732e-06
-2.5433921213982726e-05   4.650013582769056e-06   -6.042552914871732e-06
-2.5240886855750047e-05   7.481957244972516e-06   -2.1134383339620265e-05
-2.5240886855750047e-05   7.481957244972516e-06   -2.1134383339620265e-05
-2.5240886855750047e-05   7.481957244972516e-06   -2.1134383339620265e-05
-2.5240886855750047e-05   7.481957244972516e-06   -2.1134383339620265e-05
-3.551094300599815e-05   5.115386373707098e-06   -2.5976805664474517e-06
-3.551094300599815e-05   5.115386373707098e-06   -2.5976805664474517e-06
-3.551094300599815e-05   5.115386373707098e-06   -2.5976805664474517e-06
-3.551094300599815e-05   5.115386373707098e-06   -2.5976805664474517e-06
-2.9873528576583833e-05   6.089806009128827e-06   -1.2578023063391055e-05
-2.9873528576583833e-05   6.089806009128827e-06   -1.2578023063391055e-05
-2.9873528576583833e-05   6.089806009128827e-06   -1.2578023063391055e-05
-2.9873528576583833e-05   6.089806009128827e-06   -1.2578023063391055e-05
-3.551094300599815e-05   7.481957244972516e-06   -1.9714440816861036e-05
-3.551094300599815e-05   7.481957244972516e-06   -1.9714440816861036e-05
-3.551094300599815e-05   7.481957244972516e-06   -1.9714440816861036e-05
-3.551094300599815e-05   7.481957244972516e-06   -1.9714440816861036e-05
-2.5240886855750074e-05   5.115386373707098e-06   -4.01762308920662e-06
-2.5240886855750074e-05   5.115386373707098e-06   -4.01762308920662e-06
-2.5240886855750074e-05   5.115386373707098e-06   -4.01762308920662e-06
-2.5240886855750074e-05   5.115386373707098e-06   -4.01762308920662e-06
-2.5163927431261267e-05   8.004801392753197e-06   -1.6841691847185522e-05
-2.5163927431261267e-05   8.004801392753197e-06   -1.6841691847185522e-05
-2.5163927431261267e-05   8.004801392753197e-06   -1.6841691847185522e-05
-2.5163927431261267e-05   8.004801392753197e-06   -1.6841691847185522e-05
-3.441324030600259e-05   5.701211357011745e-06   -4.401636783822518e-08
-3.441324030600259e-05   5.701211357011745e-06   -4.401636783822518e-08
-3.441324030600259e-05   5.701211357011745e-06   -4.401636783822518e-08
-3.441324030600259e-05   5.701211357011745e-06   -4.401636783822518e-08
-2.8989243322763525e-05   6.392359305075197e-06   -9.49870010874158e-06
-2.8989243322763525e-05   6.392359305075197e-06   -9.49870010874158e-06
-2.8989243322763525e-05   6.392359305075197e-06   -9.49870010874158e-06
-2.8989243322763525e-05   6.392359305075197e-06   -9.49870010874158e-06
-2.5527062245114948e-05   2.8658327219174156e-06   -3.637756187874322e-05
-2.5527062245114948e-05   2.8658327219174156e-06   -3.637756187874322e-05
-2.5527062245114948e-05   2.8658327219174156e-06   -3.637756187874322e-05
-2.5527062245114948e-05   2.8658327219174156e-06   -3.637756187874322e-05
-1.4694912779073244e-05   1.8899969625818611e-06   -1.8909480890941737e-05
-1.4694912779073244e-05   1.8899969625818611e-06   -1.8909480890941737e-05
-1.4694912779073244e-05   1.8899969625818611e-06   -1.8909480890941737e-05
-1.4694912779073244e-05   1.8899969625818611e-06   -1.8909480890941737e-05
-1.4702159557883794e-05   4.0525131534702315e-06   -3.6064202517899625e-05
-1.4702159557883794e-05   4.0525131534702315e-06   -3.6064202517899625e-05
-1.4702159557883794e-05   4.0525131534702315e-06   -3.6064202517899625e-05
-1.4702159557883794e-05   4.0525131534702315e-06   -3.6064202517899625e-05
-2.5433921213982672e-05   2.943828341036214e-06   -1.7512722203607645e-05
-2.5433921213982672e-05   2.943828341036214e-06   -1.7512722203607645e-05
-2.5433921213982672e-05   2.943828341036214e-06   -1.7512722203607645e-05
-2.5433921213982672e-05   2.943828341036214e-06   -1.7512722203607645e-05
-1.9904201996136988e-05   3.135836556834794e-06   -2.684412582949628e-05
-1.9904201996136988e-05   3.135836556834794e-06   -2.684412582949628e-05
-1.9904201996136988e-05   3.135836556834794e-06   -2.684412582949628e-05
-1.9904201996136988e-05   3.135836556834794e-06   -2.684412582949628e-05
-2.5433921213982645e-05   4.0525131534702315e-06   -3.5398991630438965e-05
-2.5433921213982645e-05   4.0525131534702315e-06   -3.5398991630438965e-05
-2.5433921213982645e-05   4.0525131534702315e-06   -3.5398991630438965e-05
-2.5433921213982645e-05   4.0525131534702315e-06   -3.5398991630438965e-05
-1.4702159557883794e-05   2.943828341036214e-06   -1.8177933091068088e-05
-1.4702159557883794e-05   2.943828341036214e-06   -1.8177933091068088e-05
-1.4702159557883794e-05   2.943828341036214e-06   -1.8177933091068088e-05
-1.4702159557883794e-05   2.943828341036214e-06   -1.8177933091068088e-05
-1.4691435363490144e-05   5.107118383932557e-06   -3.525598046996074e-05
-1.4691435363490144e-05   5.107118383932557e-06   -3.525598046996074e-05
-1.4691435363490144e-05   5.107118383932557e-06   -3.525598046996074e-05
-1.4691435363490144e-05   5.107118383932557e-06   -3.525598046996074e-05
-2.5240886855750047e-05   3.903151707242885e-06   -1.6951181310180432e-05
-2.5240886855750047e-05   3.903151707242885e-06   -1.6951181310180432e-05
-2.5240886855750047e-05   3.903151707242885e-06   -1.6951181310180432e-05
-2.5240886855750047e-05   3.903151707242885e-06   -1.6951181310180432e-05
-1.981163635308161e-05   4.001653025614599e-06   -2.6059032938983994e-05
-1.981163635308161e-05   4.001653025614599e-06   -2.6059032938983994e-05
-1.981163635308161e-05   4.001653025614599e-06   -2.6059032938983994e-05
-1.981163635308161e-05   4.001653025614599e-06   -2.6059032938983994e-05
-2.5240886855750047e-05   5.107118383932557e-06   -3.4533600463946905e-05
-2.5240886855750047e-05   5.107118383932557e-06   -3.4533600463946905e-05
-2.5240886855750047e-05   5.107118383932557e-06   -3.4533600463946905e-05
-2.5240886855750047e-05   5.107118383932557e-06   -3.4533600463946905e-05
-1.4691435363490165e-05   3.903151707242776e-06   -1.7673561316194187e-05
-1.4691435363490165e-05   3.903151707242776e-06   -1.7673561316194187e-05
-1.4691435363490165e-05   3.903151707242776e-06   -1.7673561316194187e-05
-1.4691435363490165e-05   3.903151707242776e-06   -1.7673561316194187e-05
-1.4703404965154209e-05   6.229313557986065e-06   -3.539822772737506e-05
-1.4703404965154209e-05   6.229313557986065e-06   -3.539822772737506e-05
-1.4703404965154209e-05   6.229313557986065e-06   -3.539822772737506e-05
-1.4703404965154209e-05   6.229313557986065e-06   -3.539822772737506e-05
-2.5163927431261294e-05   4.945598381827067e-06   -1.7193794511501115e-05
-2.5163927431261294e-05   4.945598381827067e-06   -1.7193794511501115e-05
-2.5163927431261294e-05   4.945598381827067e-06   -1.7193794511501115e-05
-2.5163927431261294e-05   4.945598381827067e-06   -1.7193794511501115e-05
-1.994008090963615e-05   4.858623804724943e-06   -2.584802063461503e-05
-1.994008090963615e-05   4.858623804724943e-06   -2.584802063461503e-05
-1.994008090963615e-05   4.858623804724943e-06   -2.584802063461503e-05
-1.994008090963615e-05   4.858623804724943e-06   -2.584802063461503e-05
-1.469491277907323e-05   1.5278380578829381e-07   -4.0154035156803665e-05
-1.469491277907323e-05   1.5278380578829381e-07   -4.0154035156803665e-05
-1.469491277907323e-05   1.5278380578829381e-07   -4.0154035156803665e-05
-1.469491277907323e-05   1.5278380578829381e-07   -4.0154035156803665e-05
-4.011562768596226e-06   3.2655182585479645e-07   -2.2244190993968836e-05
-4.011562768596226e-06   3.2655182585479645e-07   -2.2244190993968836e-05
-4.011562768596226e-06   3.2655182585479645e-07   -2.2244190993968836e-05
-4.011562768596226e-06   3.2655182585479645e-07   -2.2244190993968836e-05
-4.019362172255485e-06   1.3212098543488333e-06   -3.970935358701852e-05
-4.019362172255485e-06   1.3212098543488333e-06   -3.970935358701852e-05
-4.019362172255485e-06   1.3212098543488333e-06   -3.970935358701852e-05
-4.019362172255485e-06   1.3212098543488333e-06   -3.970935358701852e-05
-1.470215955788376e-05   1.3865273944354455e-06   -2.194388180169006e-05
-1.470215955788376e-05   1.3865273944354455e-06   -2.194388180169006e-05
-1.470215955788376e-05   1.3865273944354455e-06   -2.194388180169006e-05
-1.470215955788376e-05   1.3865273944354455e-06   -2.194388180169006e-05
-9.294739501515519e-06   9.342370989205359e-07   -3.068487438499478e-05
-9.294739501515519e-06   9.342370989205359e-07   -3.068487438499478e-05
-9.294739501515519e-06   9.342370989205359e-07   -3.068487438499478e-05
-9.294739501515519e-06   9.342370989205359e-07   -3.068487438499478e-05
-1.470215955788376e-05   1.3212098543488333e-06   -3.9748544111070476e-05
-1.470215955788376e-05   1.3212098543488333e-06   -3.9748544111070476e-05
-1.470215955788376e-05   1.3212098543488333e-06   -3.9748544111070476e-05
-1.470215955788376e-05   1.3212098543488333e-06   -3.9748544111070476e-05
-4.019362172255485e-06   1.3865273944354455e-06   -2.190469127763805e-05
-4.019362172255485e-06   1.3865273944354455e-06   -2.190469127763805e-05
-4.019362172255485e-06   1.3865273944354455e-06   -2.190469127763805e-05
-4.019362172255485e-06   1.3865273944354455e-06   -2.190469127763805e-05
-4.005403813454355e-06   2.486185714408915e-06   -3.980986816026267e-05
-4.005403813454355e-06   2.486185714408915e-06   -3.980986816026267e-05
-4.005403813454355e-06   2.486185714408915e-06   -3.980986816026267e-05
-4.005403813454355e-06   2.486185714408915e-06   -3.980986816026267e-05
-1.4691435363490144e-05   2.4498982658201955e-06   -2.197804310771664e-05
-1.4691435363490144e-05   2.4498982658201955e-06   -2.197804310771664e-05
-1.4691435363490144e-05   2.4498982658201955e-06   -2.197804310771664e-05
-1.4691435363490144e-05   2.4498982658201955e-06   -2.197804310771664e-05
-9.357071838407643e-06   1.8617337232147008e-06   -3.0515750257290784e-05
-9.357071838407643e-06   1.8617337232147008e-06   -3.0515750257290784e-05
-9.357071838407643e-06   1.8617337232147008e-06   -3.0515750257290784e-05
-9.357071838407643e-06   1.8617337232147008e-06   -3.0515750257290784e-05
-1.4691435363490144e-05   2.4861857144088608e-06   -3.978809569110957e-05
-1.4691435363490144e-05   2.4861857144088608e-06   -3.978809569110957e-05
-1.4691435363490144e-05   2.4861857144088608e-06   -3.978809569110957e-05
-1.4691435363490144e-05   2.4861857144088608e-06   -3.978809569110957e-05
-4.005403813454362e-06   2.4498982658201955e-06   -2.1999815576869634e-05
-4.005403813454362e-06   2.4498982658201955e-06   -2.1999815576869634e-05
-4.005403813454362e-06   2.4498982658201955e-06   -2.1999815576869634e-05
-4.005403813454362e-06   2.4498982658201955e-06   -2.1999815576869634e-05
-4.011749798852863e-06   3.6782088915653013e-06   -4.041178904049935e-05
-4.011749798852863e-06   3.6782088915653013e-06   -4.041178904049935e-05
-4.011749798852863e-06   3.6782088915653013e-06   -4.041178904049935e-05
-4.011749798852863e-06   3.6782088915653013e-06   -4.041178904049935e-05
-1.4703404965154202e-05   3.5318608772037016e-06   -2.25045549547133e-05
-1.4703404965154202e-05   3.5318608772037016e-06   -2.25045549547133e-05
-1.4703404965154202e-05   3.5318608772037016e-06   -2.25045549547133e-05
-1.4703404965154202e-05   3.5318608772037016e-06   -2.25045549547133e-05
-9.437618765363084e-06   2.80141446791656e-06   -3.084259744212637e-05
-9.437618765363084e-06   2.80141446791656e-06   -3.084259744212637e-05
-9.437618765363084e-06   2.80141446791656e-06   -3.084259744212637e-05
-9.437618765363084e-06   2.80141446791656e-06   -3.084259744212637e-05
-4.011562768596219e-06   -2.3988715372844256e-06   -3.555325791706798e-05
-4.011562768596219e-06   -2.3988715372844256e-06   -3.555325791706798e-05
-4.011562768596219e-06   -2.3988715372844256e-06   -3.555325791706798e-05
-4.011562768596219e-06   -2.3988715372844256e-06   -3.555325791706798e-05
6.513619861619576e-06   -1.1029633944232686e-06   -1.7233741980991692e-05
6.513619861619576e-06   -1.1029633944232686e-06   -1.7233741980991692e-05
6.513619861619576e-06   -1.1029633944232686e-06   -1.7233741980991692e-05
6.513619861619576e-06   -1.1029633944232686e-06   -1.7233741980991692e-05
6.599460776303312e-06   -1.3274097255916396e-06   -3.47430794148536e-05
6.599460776303312e-06   -1.3274097255916396e-06   -3.47430794148536e-05
6.599460776303312e-06   -1.3274097255916396e-06   -3.47430794148536e-05
6.599460776303312e-06   -1.3274097255916396e-06   -3.47430794148536e-05
-4.019362172255485e-06   -1.0414330868014667e-07   -1.7779001017402617e-05
-4.019362172255485e-06   -1.0414330868014667e-07   -1.7779001017402617e-05
-4.019362172255485e-06   -1.0414330868014667e-07   -1.7779001017402617e-05
-4.019362172255485e-06   -1.0414330868014667e-07   -1.7779001017402617e-05
1.2770863462990228e-06   -1.1411511641636193e-06   -2.5984210501703417e-05
1.2770863462990228e-06   -1.1411511641636193e-06   -2.5984210501703417e-05
1.2770863462990228e-06   -1.1411511641636193e-06   -2.5984210501703417e-05
1.2770863462990228e-06   -1.1411511641636193e-06   -2.5984210501703417e-05
-4.019362172255485e-06   -1.3274097255916938e-06   -3.5477039265000606e-05
-4.019362172255485e-06   -1.3274097255916938e-06   -3.5477039265000606e-05
-4.019362172255485e-06   -1.3274097255916938e-06   -3.5477039265000606e-05
-4.019362172255485e-06   -1.3274097255916938e-06   -3.5477039265000606e-05
6.599460776303325e-06   -1.0414330868014667e-07   -1.704504116725573e-05
6.599460776303325e-06   -1.0414330868014667e-07   -1.704504116725573e-05
6.599460776303325e-06   -1.0414330868014667e-07   -1.704504116725573e-05
6.599460776303325e-06   -1.0414330868014667e-07   -1.704504116725573e-05
6.80245670630745e-06   -2.749482433748573e-07   -3.5472813012303844e-05
6.80245670630745e-06   -2.749482433748573e-07   -3.5472813012303844e-05
6.80245670630745e-06   -2.749482433748573e-07   -3.5472813012303844e-05
6.80245670630745e-06   -2.749482433748573e-07   -3.5472813012303844e-05
-4.005403813454362e-06   8.563597728077164e-07   -1.8138496955743746e-05
-4.005403813454362e-06   8.563597728077164e-07   -1.8138496955743746e-05
-4.005403813454362e-06   8.563597728077164e-07   -1.8138496955743746e-05
-4.005403813454362e-06   8.563597728077164e-07   -1.8138496955743746e-05
1.2160439191568231e-06   -3.1014780759938687e-07   -2.6141005295184734e-05
1.2160439191568231e-06   -3.1014780759938687e-07   -2.6141005295184734e-05
1.2160439191568231e-06   -3.1014780759938687e-07   -2.6141005295184734e-05
1.2160439191568231e-06   -3.1014780759938687e-07   -2.6141005295184734e-05
-4.005403813454359e-06   -2.749482433748573e-07   -3.61515978220133e-05
-4.005403813454359e-06   -2.749482433748573e-07   -3.61515978220133e-05
-4.005403813454359e-06   -2.749482433748573e-07   -3.61515978220133e-05
-4.005403813454359e-06   -2.749482433748573e-07   -3.61515978220133e-05
6.802456706307464e-06   8.563597728077164e-07   -1.745971214603409e-05
6.802456706307464e-06   8.563597728077164e-07   -1.745971214603409e-05
6.802456706307464e-06   8.563597728077164e-07   -1.745971214603409e-05
6.802456706307464e-06   8.563597728077164e-07   -1.745971214603409e-05
6.901980308449414e-06   9.552123036677762e-07   -3.6518427410553976e-05
6.901980308449414e-06   9.552123036677762e-07   -3.6518427410553976e-05
6.901980308449414e-06   9.552123036677762e-07   -3.6518427410553976e-05
6.901980308449414e-06   9.552123036677762e-07   -3.6518427410553976e-05
-4.011749798852856e-06   1.9567867262462214e-06   -1.8929821885263817e-05
-4.011749798852856e-06   1.9567867262462214e-06   -1.8929821885263817e-05
-4.011749798852856e-06   1.9567867262462214e-06   -1.8929821885263817e-05
-4.011749798852856e-06   1.9567867262462214e-06   -1.8929821885263817e-05
1.2525060547505991e-06   5.782801306596563e-07   -2.6876477683917546e-05
1.2525060547505991e-06   5.782801306596563e-07   -2.6876477683917546e-05
1.2525060547505991e-06   5.782801306596563e-07   -2.6876477683917546e-05
1.2525060547505991e-06   5.782801306596563e-07   -2.6876477683917546e-05
6.513619861619563e-06   -4.347846621528557e-06   -1.9527502939082556e-05
6.513619861619563e-06   -4.347846621528557e-06   -1.9527502939082556e-05
6.513619861619563e-06   -4.347846621528557e-06   -1.9527502939082556e-05
6.513619861619563e-06   -4.347846621528557e-06   -1.9527502939082556e-05
1.58512780651239e-05   -2.024315412704953e-06   -2.570620541281145e-06
1.58512780651239e-05   -2.024315412704953e-06   -2.570620541281145e-06
1.58512780651239e-05   -2.024315412704953e-06   -2.570620541281145e-06
1.58512780651239e-05   -2.024315412704953e-06   -2.570620541281145e-06
1.6963998382073594e-05   -3.729687936434656e-06   -2.0496880804967376e-05
1.6963998382073594e-05   -3.729687936434656e-06   -2.0496880804967376e-05
1.6963998382073594e-05   -3.729687936434656e-06   -2.0496880804967376e-05
1.6963998382073594e-05   -3.729687936434656e-06   -2.0496880804967376e-05
6.599460776303312e-06   -1.3472385997103688e-06   -4.652121064051425e-06
6.599460776303312e-06   -1.3472385997103688e-06   -4.652121064051425e-06
6.599460776303312e-06   -1.3472385997103688e-06   -4.652121064051425e-06
6.599460776303312e-06   -1.3472385997103688e-06   -4.652121064051425e-06
1.0992502138966975e-05   -2.7735072147755738e-06   -1.111809549945181e-05
1.0992502138966975e-05   -2.7735072147755738e-06   -1.111809549945181e-05
1.0992502138966975e-05   -2.7735072147755738e-06   -1.111809549945181e-05
1.0992502138966975e-05   -2.7735072147755738e-06   -1.111809549945181e-05
6.599460776303312e-06   -3.729687936434602e-06   -2.192635040700172e-05
6.599460776303312e-06   -3.729687936434602e-06   -2.192635040700172e-05
6.599460776303312e-06   -3.729687936434602e-06   -2.192635040700172e-05
6.599460776303312e-06   -3.729687936434602e-06   -2.192635040700172e-05
1.6963998382073513e-05   -1.3472385997103688e-06   -3.2226514620169178e-06
1.6963998382073513e-05   -1.3472385997103688e-06   -3.2226514620169178e-06
1.6963998382073513e-05   -1.3472385997103688e-06   -3.2226514620169178e-06
1.6963998382073513e-05   -1.3472385997103688e-06   -3.2226514620169178e-06
1.782093599182215e-05   -3.2003646209377958e-06   -2.2474143884529347e-05
1.782093599182215e-05   -3.2003646209377958e-06   -2.2474143884529347e-05
1.782093599182215e-05   -3.2003646209377958e-06   -2.2474143884529347e-05
1.782093599182215e-05   -3.2003646209377958e-06   -2.2474143884529347e-05
6.802456706307464e-06   -8.803003954132747e-07   -5.5020502773196365e-06
6.802456706307464e-06   -8.803003954132747e-07   -5.5020502773196365e-06
6.802456706307464e-06   -8.803003954132747e-07   -5.5020502773196365e-06
6.802456706307464e-06   -8.803003954132747e-07   -5.5020502773196365e-06
1.1671665511575892e-05   -2.425596197495796e-06   -1.269022080485063e-05
1.1671665511575892e-05   -2.425596197495796e-06   -1.269022080485063e-05
1.1671665511575892e-05   -2.425596197495796e-06   -1.269022080485063e-05
1.1671665511575892e-05   -2.425596197495796e-06   -1.269022080485063e-05
6.802456706307464e-06   -3.2003646209377958e-06   -2.386618241984398e-05
6.802456706307464e-06   -3.2003646209377958e-06   -2.386618241984398e-05
6.802456706307464e-06   -3.2003646209377958e-06   -2.386618241984398e-05
6.802456706307464e-06   -3.2003646209377958e-06   -2.386618241984398e-05
1.782093599182207e-05   -8.803003954132747e-07   -4.1100117420048154e-06
1.782093599182207e-05   -8.803003954132747e-07   -4.1100117420048154e-06
1.782093599182207e-05   -8.803003954132747e-07   -4.1100117420048154e-06
1.782093599182207e-05   -8.803003954132747e-07   -4.1100117420048154e-06
1.8960410648190495e-05   -2.0703281485087038e-06   -2.6268649007131565e-05
1.8960410648190495e-05   -2.0703281485087038e-06   -2.6268649007131565e-05
1.8960410648190495e-05   -2.0703281485087038e-06   -2.6268649007131565e-05
1.8960410648190495e-05   -2.0703281485087038e-06   -2.6268649007131565e-05
6.9019803084494275e-06   3.669430704287321e-08   -7.435478580893935e-06
6.9019803084494275e-06   3.669430704287321e-08   -7.435478580893935e-06
6.9019803084494275e-06   3.669430704287321e-08   -7.435478580893935e-06
6.9019803084494275e-06   3.669430704287321e-08   -7.435478580893935e-06
1.1899331785791585e-05   -1.9093410645256055e-06   -1.4596776486856496e-05
1.1899331785791585e-05   -1.9093410645256055e-06   -1.4596776486856496e-05
1.1899331785791585e-05   -1.9093410645256055e-06   -1.4596776486856496e-05
1.1899331785791585e-05   -1.9093410645256055e-06   -1.4596776486856496e-05
-2.2657656065813367e-05   3.6520757033549735e-06   -2.12515714578864e-05
-2.2657656065813367e-05   3.6520757033549735e-06   -2.12515714578864e-05
-2.2657656065813367e-05   3.6520757033549735e-06   -2.12515714578864e-05
-2.2657656065813367e-05   3.6520757033549735e-06   -2.12515714578864e-05
-1.6746425719041744e-05   1.4852214736203306e-06   -1.2699633417774444e-05
-1.6746425719041744e-05   1.4852214736203306e-06   -1.2699633417774444e-05
-1.6746425719041744e-05   1.4852214736203306e-06   -1.2699633417774444e-05
-1.6746425719041744e-05   1.4852214736203306e-06   -1.2699633417774444e-05
-1.6501035239429007e-05   4.650013582768947e-06   -1.8747833443682397e-05
-1.6501035239429007e-05   4.650013582768947e-06   -1.8747833443682397e-05
-1.6501035239429007e-05   4.650013582768947e-06   -1.8747833443682397e-05
-1.6501035239429007e-05   4.650013582768947e-06   -1.8747833443682397e-05
-2.142447016212812e-05   2.315019162763953e-06   -9.141111920513926e-06
-2.142447016212812e-05   2.315019162763953e-06   -9.141111920513926e-06
-2.142447016212812e-05   2.315019162763953e-06   -9.141111920513926e-06
-2.142447016212812e-05   2.315019162763953e-06   -9.141111920513926e-06
-1.85133763536107e-05   3.2764671576465242e-06   -1.4569803731640137e-05
-1.85133763536107e-05   3.2764671576465242e-06   -1.4569803731640137e-05
-1.85133763536107e-05   3.2764671576465242e-06   -1.4569803731640137e-05
-1.85133763536107e-05   3.2764671576465242e-06   -1.4569803731640137e-05
-2.142447016212812e-05   4.650013582768947e-06   -1.7346836791679412e-05
-2.142447016212812e-05   4.650013582768947e-06   -1.7346836791679412e-05
-2.142447016212812e-05   4.650013582768947e-06   -1.7346836791679412e-05
-2.142447016212812e-05   4.650013582768947e-06   -1.7346836791679412e-05
-1.6501035239429034e-05   2.315019162763953e-06   -1.0542108572517074e-05
-1.6501035239429034e-05   2.315019162763953e-06   -1.0542108572517074e-05
-1.6501035239429034e-05   2.315019162763953e-06   -1.0542108572517074e-05
-1.6501035239429034e-05   2.315019162763953e-06   -1.0542108572517074e-05
-1.615052416099579e-05   5.115386373707098e-06   -1.6740412691741897e-05
-1.615052416099579e-05   5.115386373707098e-06   -1.6740412691741897e-05
-1.615052416099579e-05   5.115386373707098e-06   -1.6740412691741897e-05
-1.615052416099579e-05   5.115386373707098e-06   -1.6740412691741897e-05
-2.044162433431705e-05   2.7347975887074324e-06   -8.160225798539808e-06
-2.044162433431705e-05   2.7347975887074324e-06   -8.160225798539808e-06
-2.044162433431705e-05   2.7347975887074324e-06   -8.160225798539808e-06
-2.044162433431705e-05   2.7347975887074324e-06   -8.160225798539808e-06
-1.8188593628155376e-05   3.7244324687232475e-06   -1.2509057903485512e-05
-1.8188593628155376e-05   3.7244324687232475e-06   -1.2509057903485512e-05
-1.8188593628155376e-05   3.7244324687232475e-06   -1.2509057903485512e-05
-1.8188593628155376e-05   3.7244324687232475e-06   -1.2509057903485512e-05
-2.0441624334317023e-05   5.115386373707098e-06   -1.5312059420742054e-05
-2.0441624334317023e-05   5.115386373707098e-06   -1.5312059420742054e-05
-2.0441624334317023e-05   5.115386373707098e-06   -1.5312059420742054e-05
-2.0441624334317023e-05   5.115386373707098e-06   -1.5312059420742054e-05
-1.615052416099579e-05   2.7347975887074324e-06   -9.588579069539597e-06
-1.615052416099579e-05   2.7347975887074324e-06   -9.588579069539597e-06
-1.615052416099579e-05   2.7347975887074324e-06   -9.588579069539597e-06
-1.615052416099579e-05   2.7347975887074324e-06   -9.588579069539597e-06
-1.591246466802642e-05   5.701211357011745e-06   -1.416629123742884e-05
-1.591246466802642e-05   5.701211357011745e-06   -1.416629123742884e-05
-1.591246466802642e-05   5.701211357011745e-06   -1.416629123742884e-05
-1.591246466802642e-05   5.701211357011745e-06   -1.416629123742884e-05
-1.9190311919657052e-05   3.4000028938322834e-06   -7.322487406803268e-06
-1.9190311919657052e-05   3.4000028938322834e-06   -7.322487406803268e-06
-1.9190311919657052e-05   3.4000028938322834e-06   -7.322487406803268e-06
-1.9190311919657052e-05   3.4000028938322834e-06   -7.322487406803268e-06
-1.7339224243058954e-05   4.035827190029036e-06   -1.0789128112185338e-05
-1.7339224243058954e-05   4.035827190029036e-06   -1.0789128112185338e-05
-1.7339224243058954e-05   4.035827190029036e-06   -1.0789128112185338e-05
-1.7339224243058954e-05   4.035827190029036e-06   -1.0789128112185338e-05
-1.6746425719041744e-05   1.8899969625818611e-06   -3.100267228906456e-05
-1.6746425719041744e-05   1.8899969625818611e-06   -3.100267228906456e-05
-1.6746425719041744e-05   1.8899969625818611e-06   -3.100267228906456e-05
-1.6746425719041744e-05   1.8899969625818611e-06   -3.100267228906456e-05
-1.194143156535386e-05   8.555123955319467e-07   -2.3615039439814692e-05
-1.194143156535386e-05   8.555123955319467e-07   -2.3615039439814692e-05
-1.194143156535386e-05   8.555123955319467e-07   -2.3615039439814692e-05
-1.194143156535386e-05   8.555123955319467e-07   -2.3615039439814692e-05
-1.1781393085528931e-05   2.943828341036214e-06   -3.089992561481204e-05
-1.1781393085528931e-05   2.943828341036214e-06   -3.089992561481204e-05
-1.1781393085528931e-05   2.943828341036214e-06   -3.089992561481204e-05
-1.1781393085528931e-05   2.943828341036214e-06   -3.089992561481204e-05
-1.6501035239429034e-05   1.8072902037133192e-06   -2.2351932475917922e-05
-1.6501035239429034e-05   1.8072902037133192e-06   -2.2351932475917922e-05
-1.6501035239429034e-05   1.8072902037133192e-06   -2.2351932475917922e-05
-1.6501035239429034e-05   1.8072902037133192e-06   -2.2351932475917922e-05
-1.410369440189436e-05   2.0574932125994212e-06   -2.6497622343808134e-05
-1.410369440189436e-05   2.0574932125994212e-06   -2.6497622343808134e-05
-1.410369440189436e-05   2.0574932125994212e-06   -2.6497622343808134e-05
-1.410369440189436e-05   2.0574932125994212e-06   -2.6497622343808134e-05
-1.650103523942898e-05   2.943828341036214e-06   -3.021800273241812e-05
-1.650103523942898e-05   2.943828341036214e-06   -3.021800273241812e-05
-1.650103523942898e-05   2.943828341036214e-06   -3.021800273241812e-05
-1.650103523942898e-05   2.943828341036214e-06   -3.021800273241812e-05
-1.1781393085528931e-05   1.8072902037133192e-06   -2.3033855358311844e-05
-1.1781393085528931e-05   1.8072902037133192e-06   -2.3033855358311844e-05
-1.1781393085528931e-05   1.8072902037133192e-06   -2.3033855358311844e-05
-1.1781393085528931e-05   1.8072902037133192e-06   -2.3033855358311844e-05
-1.1604558480267192e-05   3.903151707242885e-06   -3.0400222035629012e-05
-1.1604558480267192e-05   3.903151707242885e-06   -3.0400222035629012e-05
-1.1604558480267192e-05   3.903151707242885e-06   -3.0400222035629012e-05
-1.1604558480267192e-05   3.903151707242885e-06   -3.0400222035629012e-05
-1.6150524160995843e-05   2.6927331690538908e-06   -2.209736144483446e-05
-1.6150524160995843e-05   2.6927331690538908e-06   -2.209736144483446e-05
-1.6150524160995843e-05   2.6927331690538908e-06   -2.209736144483446e-05
-1.6150524160995843e-05   2.6927331690538908e-06   -2.209736144483446e-05
-1.3892910006112818e-05   2.82751045553272e-06   -2.5940918074859827e-05
-1.3892910006112818e-05   2.82751045553272e-06   -2.5940918074859827e-05
-1.3892910006112818e-05   2.82751045553272e-06   -2.5940918074859827e-05
-1.3892910006112818e-05   2.82751045553272e-06   -2.5940918074859827e-05
-1.615052416099579e-05   3.903151707242776e-06   -2.9673970912715486e-05
-1.615052416099579e-05   3.903151707242776e-06   -2.9673970912715486e-05
-1.615052416099579e-05   3.903151707242776e-06   -2.9673970912715486e-05
-1.615052416099579e-05   3.903151707242776e-06   -2.9673970912715486e-05
-1.1604558480267165e-05   2.6927331690538908e-06   -2.2823612567747715e-05
-1.1604558480267165e-05   2.6927331690538908e-06   -2.2823612567747715e-05
-1.1604558480267165e-05   2.6927331690538908e-06   -2.2823612567747715e-05
-1.1604558480267165e-05   2.6927331690538908e-06   -2.2823612567747715e-05
-1.1447543588387492e-05   4.945598381827067e-06   -3.06950489997916e-05
-1.1447543588387492e-05   4.945598381827067e-06   -3.06950489997916e-05
-1.1447543588387492e-05   4.945598381827067e-06   -3.06950489997916e-05
-1.1447543588387492e-05   4.945598381827067e-06   -3.06950489997916e-05
-1.5912464668026448e-05   3.6770423149189288e-06   -2.2492380226914882e-05
-1.5912464668026448e-05   3.6770423149189288e-06   -2.2492380226914882e-05
-1.5912464668026448e-05   3.6770423149189288e-06   -2.2492380226914882e-05
-1.5912464668026448e-05   3.6770423149189288e-06   -2.2492380226914882e-05
-1.3811433386952079e-05   3.6079197282504628e-06   -2.5952625476704676e-05
-1.3811433386952079e-05   3.6079197282504628e-06   -2.5952625476704676e-05
-1.3811433386952079e-05   3.6079197282504628e-06   -2.5952625476704676e-05
-1.3811433386952079e-05   3.6079197282504628e-06   -2.5952625476704676e-05
-1.194143156535382e-05   3.2655182585468803e-07   -3.506233394436146e-05
-1.194143156535382e-05   3.2655182585468803e-07   -3.506233394436146e-05
-1.194143156535382e-05   3.2655182585468803e-07   -3.506233394436146e-05
-1.194143156535382e-05   3.2655182585468803e-07   -3.506233394436146e-05
-7.257454461033547e-06   4.921825622722061e-07   -2.715632699531057e-05
-7.257454461033547e-06   4.921825622722061e-07   -2.715632699531057e-05
-7.257454461033547e-06   4.921825622722061e-07   -2.715632699531057e-05
-7.257454461033547e-06   4.921825622722061e-07   -2.715632699531057e-05
-7.101637603068298e-06   1.386527394435554e-06   -3.4620543670627036e-05
-7.101637603068298e-06   1.386527394435554e-06   -3.4620543670627036e-05
-7.101637603068298e-06   1.386527394435554e-06   -3.4620543670627036e-05
-7.101637603068298e-06   1.386527394435554e-06   -3.4620543670627036e-05
-1.1781393085528931e-05   1.4620784857807346e-06   -2.6866281854666136e-05
-1.1781393085528931e-05   1.4620784857807346e-06   -2.6866281854666136e-05
-1.1781393085528931e-05   1.4620784857807346e-06   -2.6866281854666136e-05
-1.1781393085528931e-05   1.4620784857807346e-06   -2.6866281854666136e-05
-9.4594129224866e-06   1.0521380001331064e-06   -3.049028450168213e-05
-9.4594129224866e-06   1.0521380001331064e-06   -3.049028450168213e-05
-9.4594129224866e-06   1.0521380001331064e-06   -3.049028450168213e-05
-9.4594129224866e-06   1.0521380001331064e-06   -3.049028450168213e-05
-1.1781393085528904e-05   1.3865273944354455e-06   -3.466587432543396e-05
-1.1781393085528904e-05   1.3865273944354455e-06   -3.466587432543396e-05
-1.1781393085528904e-05   1.3865273944354455e-06   -3.466587432543396e-05
-1.1781393085528904e-05   1.3865273944354455e-06   -3.466587432543396e-05
-7.101637603068298e-06   1.4620784857806261e-06   -2.6820951199859103e-05
-7.101637603068298e-06   1.4620784857806261e-06   -2.6820951199859103e-05
-7.101637603068298e-06   1.4620784857806261e-06   -2.6820951199859103e-05
-7.101637603068298e-06   1.4620784857806261e-06   -2.6820951199859103e-05
-6.926051195118862e-06   2.449898265820304e-06   -3.471037363198459e-05
-6.926051195118862e-06   2.449898265820304e-06   -3.471037363198459e-05
-6.926051195118862e-06   2.449898265820304e-06   -3.471037363198459e-05
-6.926051195118862e-06   2.449898265820304e-06   -3.471037363198459e-05
-1.1604558480267165e-05   2.440448591098116e-06   -2.6907191685237322e-05
-1.1604558480267165e-05   2.440448591098116e-06   -2.6907191685237322e-05
-1.1604558480267165e-05   2.440448591098116e-06   -2.6907191685237322e-05
-1.1604558480267165e-05   2.440448591098116e-06   -2.6907191685237322e-05
-9.355395210858725e-06   1.8857774928212907e-06   -3.0322994475285485e-05
-9.355395210858725e-06   1.8857774928212907e-06   -3.0322994475285485e-05
-9.355395210858725e-06   1.8857774928212907e-06   -3.0322994475285485e-05
-9.355395210858725e-06   1.8857774928212907e-06   -3.0322994475285485e-05
-1.1604558480267152e-05   2.449898265820304e-06   -3.470470382715117e-05
-1.1604558480267152e-05   2.449898265820304e-06   -3.470470382715117e-05
-1.1604558480267152e-05   2.449898265820304e-06   -3.470470382715117e-05
-1.1604558480267152e-05   2.449898265820304e-06   -3.470470382715117e-05
-6.926051195118875e-06   2.440448591098008e-06   -2.6912861490070662e-05
-6.926051195118875e-06   2.440448591098008e-06   -2.6912861490070662e-05
-6.926051195118875e-06   2.440448591098008e-06   -2.6912861490070662e-05
-6.926051195118875e-06   2.440448591098008e-06   -2.6912861490070662e-05
-6.7683811178214655e-06   3.5318608772037016e-06   -3.529453085227268e-05
-6.7683811178214655e-06   3.5318608772037016e-06   -3.529453085227268e-05
-6.7683811178214655e-06   3.5318608772037016e-06   -3.529453085227268e-05
-6.7683811178214655e-06   3.5318608772037016e-06   -3.529453085227268e-05
-1.1447543588387492e-05   3.433610018929961e-06   -2.7436976219698164e-05
-1.1447543588387492e-05   3.433610018929961e-06   -2.7436976219698164e-05
-1.1447543588387492e-05   3.433610018929961e-06   -2.7436976219698164e-05
-1.1447543588387492e-05   3.433610018929961e-06   -2.7436976219698164e-05
-9.269684175103111e-06   2.7305080951851163e-06   -3.0644880754258723e-05
-9.269684175103111e-06   2.7305080951851163e-06   -3.0644880754258723e-05
-9.269684175103111e-06   2.7305080951851163e-06   -3.0644880754258723e-05
-9.269684175103111e-06   2.7305080951851163e-06   -3.0644880754258723e-05
-7.257454461033522e-06   -1.1029633944231601e-06   -3.07300513752506e-05
-7.257454461033522e-06   -1.1029633944231601e-06   -3.07300513752506e-05
-7.257454461033522e-06   -1.1029633944231601e-06   -3.07300513752506e-05
-7.257454461033522e-06   -1.1029633944231601e-06   -3.07300513752506e-05
-2.7183351021050646e-06   2.13750418343343e-07   -2.237482415604335e-05
-2.7183351021050646e-06   2.13750418343343e-07   -2.237482415604335e-05
-2.7183351021050646e-06   2.13750418343343e-07   -2.237482415604335e-05
-2.7183351021050646e-06   2.13750418343343e-07   -2.237482415604335e-05
-2.4848486337136473e-06   -1.0414330868014667e-07   -2.9740186906779275e-05
-2.4848486337136473e-06   -1.0414330868014667e-07   -2.9740186906779275e-05
-2.4848486337136473e-06   -1.0414330868014667e-07   -2.9740186906779275e-05
-2.4848486337136473e-06   -1.0414330868014667e-07   -2.9740186906779275e-05
-7.101637603068286e-06   1.1536341973401995e-06   -2.2800205128133526e-05
-7.101637603068286e-06   1.1536341973401995e-06   -2.2800205128133526e-05
-7.101637603068286e-06   1.1536341973401995e-06   -2.2800205128133526e-05
-7.101637603068286e-06   1.1536341973401995e-06   -2.2800205128133526e-05
-4.841194045756607e-06   1.3811842323780028e-07   -2.595830159252531e-05
-4.841194045756607e-06   1.3811842323780028e-07   -2.595830159252531e-05
-4.841194045756607e-06   1.3811842323780028e-07   -2.595830159252531e-05
-4.841194045756607e-06   1.3811842323780028e-07   -2.595830159252531e-05
-7.1016376030682734e-06   -1.0414330868014667e-07   -3.0494853410391505e-05
-7.1016376030682734e-06   -1.0414330868014667e-07   -3.0494853410391505e-05
-7.1016376030682734e-06   -1.0414330868014667e-07   -3.0494853410391505e-05
-7.1016376030682734e-06   -1.0414330868014667e-07   -3.0494853410391505e-05
-2.4848486337136473e-06   1.1536341973403079e-06   -2.2045538624521446e-05
-2.4848486337136473e-06   1.1536341973403079e-06   -2.2045538624521446e-05
-2.4848486337136473e-06   1.1536341973403079e-06   -2.2045538624521446e-05
-2.4848486337136473e-06   1.1536341973403079e-06   -2.2045538624521446e-05
-2.137092062867729e-06   8.563597728077164e-07   -3.013949654290623e-05
-2.137092062867729e-06   8.563597728077164e-07   -3.013949654290623e-05
-2.137092062867729e-06   8.563597728077164e-07   -3.013949654290623e-05
-2.137092062867729e-06   8.563597728077164e-07   -3.013949654290623e-05
-6.926051195118862e-06   2.038957219394782e-06   -2.286745645710656e-05
-6.926051195118862e-06   2.038957219394782e-06   -2.286745645710656e-05
-6.926051195118862e-06   2.038957219394782e-06   -2.286745645710656e-05
-6.926051195118862e-06   2.038957219394782e-06   -2.286745645710656e-05
-4.700349395235659e-06   8.971960723781975e-07   -2.589190276870197e-05
-4.700349395235659e-06   8.971960723781975e-07   -2.589190276870197e-05
-4.700349395235659e-06   8.971960723781975e-07   -2.589190276870197e-05
-4.700349395235659e-06   8.971960723781975e-07   -2.589190276870197e-05
-6.926051195118844e-06   8.563597728077164e-07   -3.084905501085834e-05
-6.926051195118844e-06   8.563597728077164e-07   -3.084905501085834e-05
-6.926051195118844e-06   8.563597728077164e-07   -3.084905501085834e-05
-6.926051195118844e-06   8.563597728077164e-07   -3.084905501085834e-05
-2.137092062867729e-06   2.0389572193948904e-06   -2.2157897989154253e-05
-2.137092062867729e-06   2.0389572193948904e-06   -2.2157897989154253e-05
-2.137092062867729e-06   2.0389572193948904e-06   -2.2157897989154253e-05
-2.137092062867729e-06   2.0389572193948904e-06   -2.2157897989154253e-05
-1.8944749591614298e-06   1.956786726246113e-06   -3.0982335414448585e-05
-1.8944749591614298e-06   1.956786726246113e-06   -3.0982335414448585e-05
-1.8944749591614298e-06   1.956786726246113e-06   -3.0982335414448585e-05
-1.8944749591614298e-06   1.956786726246113e-06   -3.0982335414448585e-05
-6.7683811178214655e-06   3.039542659175336e-06   -2.3508812043105948e-05
-6.7683811178214655e-06   3.039542659175336e-06   -2.3508812043105948e-05
-6.7683811178214655e-06   3.039542659175336e-06   -2.3508812043105948e-05
-6.7683811178214655e-06   3.039542659175336e-06   -2.3508812043105948e-05
-4.553110476116851e-06   1.6923045770256794e-06   -2.6392586929990558e-05
-4.553110476116851e-06   1.6923045770256794e-06   -2.6392586929990558e-05
-4.553110476116851e-06   1.6923045770256794e-06   -2.6392586929990558e-05
-4.553110476116851e-06   1.6923045770256794e-06   -2.6392586929990558e-05
-2.7183351021050646e-06   -2.024315412704953e-06   -1.6671020373174397e-05
-2.7183351021050646e-06   -2.024315412704953e-06   -1.6671020373174397e-05
-2.7183351021050646e-06   -2.024315412704953e-06   -1.6671020373174397e-05
-2.7183351021050646e-06   -2.024315412704953e-06   -1.6671020373174397e-05
6.2509949970752e-07   3.0016988091029033e-07   -9.70393819398421e-06
6.2509949970752e-07   3.0016988091029033e-07   -9.70393819398421e-06
6.2509949970752e-07   3.0016988091029033e-07   -9.70393819398421e-06
6.2509949970752e-07   3.0016988091029033e-07   -9.70393819398421e-06
1.8641990861799633e-06   -1.3472385997103688e-06   -1.5912813988990014e-05
1.8641990861799633e-06   -1.3472385997103688e-06   -1.5912813988990014e-05
1.8641990861799633e-06   -1.3472385997103688e-06   -1.5912813988990014e-05
1.8641990861799633e-06   -1.3472385997103688e-06   -1.5912813988990014e-05
-2.4848486337136473e-06   1.04351609126461e-06   -1.0098853937085374e-05
-2.4848486337136473e-06   1.04351609126461e-06   -1.0098853937085374e-05
-2.4848486337136473e-06   1.04351609126461e-06   -1.0098853937085374e-05
-2.4848486337136473e-06   1.04351609126461e-06   -1.0098853937085374e-05
-6.599352897091875e-07   -4.070847923140237e-07   -1.2270015646946076e-05
-6.599352897091875e-07   -4.070847923140237e-07   -1.2270015646946076e-05
-6.599352897091875e-07   -4.070847923140237e-07   -1.2270015646946076e-05
-6.599352897091875e-07   -4.070847923140237e-07   -1.2270015646946076e-05
-2.4848486337136473e-06   -1.3472385997103688e-06   -1.734726680357486e-05
-2.4848486337136473e-06   -1.3472385997103688e-06   -1.734726680357486e-05
-2.4848486337136473e-06   -1.3472385997103688e-06   -1.734726680357486e-05
-2.4848486337136473e-06   -1.3472385997103688e-06   -1.734726680357486e-05
1.8641990861799633e-06   1.04351609126461e-06   -8.664401122500474e-06
1.8641990861799633e-06   1.04351609126461e-06   -8.664401122500474e-06
1.8641990861799633e-06   1.04351609126461e-06   -8.664401122500474e-06
1.8641990861799633e-06   1.04351609126461e-06   -8.664401122500474e-06
2.8427523403721274e-06   -8.803003954132747e-07   -1.6776855214351732e-05
2.8427523403721274e-06   -8.803003954132747e-07   -1.6776855214351732e-05
2.8427523403721274e-06   -8.803003954132747e-07   -1.6776855214351732e-05
2.8427523403721274e-06   -8.803003954132747e-07   -1.6776855214351732e-05
-2.137092062867729e-06   1.4613320376534672e-06   -9.882094002125106e-06
-2.137092062867729e-06   1.4613320376534672e-06   -9.882094002125106e-06
-2.137092062867729e-06   1.4613320376534672e-06   -9.882094002125106e-06
-2.137092062867729e-06   1.4613320376534672e-06   -9.882094002125106e-06
-3.261017928538328e-08   -5.075419372421123e-08   -1.2482312069269047e-05
-3.261017928538328e-08   -5.075419372421123e-08   -1.2482312069269047e-05
-3.261017928538328e-08   -5.075419372421123e-08   -1.2482312069269047e-05
-3.261017928538328e-08   -5.075419372421123e-08   -1.2482312069269047e-05
-2.137092062867729e-06   -8.803003954132747e-07   -1.818183467419167e-05
-2.137092062867729e-06   -8.803003954132747e-07   -1.818183467419167e-05
-2.137092062867729e-06   -8.803003954132747e-07   -1.818183467419167e-05
-2.137092062867729e-06   -8.803003954132747e-07   -1.818183467419167e-05
2.8427523403721545e-06   1.4613320376534672e-06   -8.477114542285169e-06
2.8427523403721545e-06   1.4613320376534672e-06   -8.477114542285169e-06
2.8427523403721545e-06   1.4613320376534672e-06   -8.477114542285169e-06
2.8427523403721545e-06   1.4613320376534672e-06   -8.477114542285169e-06
4.078490325894413e-06   3.669430704287321e-08   -1.879026161796083e-05
4.078490325894413e-06   3.669430704287321e-08   -1.879026161796083e-05
4.078490325894413e-06   3.669430704287321e-08   -1.879026161796083e-05
4.078490325894413e-06   3.669430704287321e-08   -1.879026161796083e-05
-1.8944749591614298e-06   2.201152883151412e-06   -1.0133994621865859e-05
-1.8944749591614298e-06   2.201152883151412e-06   -1.0133994621865859e-05
-1.8944749591614298e-06   2.201152883151412e-06   -1.0133994621865859e-05
-1.8944749591614298e-06   2.201152883151412e-06   -1.0133994621865859e-05
5.085727671691318e-07   3.5485884807419203e-07   -1.3031297744704127e-05
5.085727671691318e-07   3.5485884807419203e-07   -1.3031297744704127e-05
5.085727671691318e-07   3.5485884807419203e-07   -1.3031297744704127e-05
5.085727671691318e-07   3.5485884807419203e-07   -1.3031297744704127e-05
-7.86415855429356e-06   1.4852214736203306e-06   -1.4142928335638912e-05
-7.86415855429356e-06   1.4852214736203306e-06   -1.4142928335638912e-05
-7.86415855429356e-06   1.4852214736203306e-06   -1.4142928335638912e-05
-7.86415855429356e-06   1.4852214736203306e-06   -1.4142928335638912e-05
-7.998103743536982e-06   -6.950650458391501e-07   -1.5674342229387108e-05
-7.998103743536982e-06   -6.950650458391501e-07   -1.5674342229387108e-05
-7.998103743536982e-06   -6.950650458391501e-07   -1.5674342229387108e-05
-7.998103743536982e-06   -6.950650458391501e-07   -1.5674342229387108e-05
-7.5991358400670115e-06   2.315019162763953e-06   -1.3289005529330778e-05
-7.5991358400670115e-06   2.315019162763953e-06   -1.3289005529330778e-05
-7.5991358400670115e-06   2.315019162763953e-06   -1.3289005529330778e-05
-7.5991358400670115e-06   2.315019162763953e-06   -1.3289005529330778e-05
-6.485345444787877e-06   -2.43465209902316e-08   -1.3741703444543449e-05
-6.485345444787877e-06   -2.43465209902316e-08   -1.3741703444543449e-05
-6.485345444787877e-06   -2.43465209902316e-08   -1.3741703444543449e-05
-6.485345444787877e-06   -2.43465209902316e-08   -1.3741703444543449e-05
-7.159575610206028e-06   1.0226349151864437e-06   -1.3246175363886513e-05
-7.159575610206028e-06   1.0226349151864437e-06   -1.3246175363886513e-05
-7.159575610206028e-06   1.0226349151864437e-06   -1.3246175363886513e-05
-7.159575610206028e-06   1.0226349151864437e-06   -1.3246175363886513e-05
-6.485345444787877e-06   2.315019162763953e-06   -1.1885386119078441e-05
-6.485345444787877e-06   2.315019162763953e-06   -1.1885386119078441e-05
-6.485345444787877e-06   2.315019162763953e-06   -1.1885386119078441e-05
-6.485345444787877e-06   2.315019162763953e-06   -1.1885386119078441e-05
-7.5991358400670115e-06   -2.43465209902316e-08   -1.5145322854796166e-05
-7.5991358400670115e-06   -2.43465209902316e-08   -1.5145322854796166e-05
-7.5991358400670115e-06   -2.43465209902316e-08   -1.5145322854796166e-05
-7.5991358400670115e-06   -2.43465209902316e-08   -1.5145322854796166e-05
-7.095519414543561e-06   2.7347975887074324e-06   -1.2332036173304901e-05
-7.095519414543561e-06   2.7347975887074324e-06   -1.2332036173304901e-05
-7.095519414543561e-06   2.7347975887074324e-06   -1.2332036173304901e-05
-7.095519414543561e-06   2.7347975887074324e-06   -1.2332036173304901e-05
-5.346095735523878e-06   3.5567258236876564e-07   -1.382026730120141e-05
-5.346095735523878e-06   3.5567258236876564e-07   -1.382026730120141e-05
-5.346095735523878e-06   3.5567258236876564e-07   -1.382026730120141e-05
-5.346095735523878e-06   3.5567258236876564e-07   -1.382026730120141e-05
-6.507696270948067e-06   1.367321778552753e-06   -1.2491255926538533e-05
-6.507696270948067e-06   1.367321778552753e-06   -1.2491255926538533e-05
-6.507696270948067e-06   1.367321778552753e-06   -1.2491255926538533e-05
-6.507696270948067e-06   1.367321778552753e-06   -1.2491255926538533e-05
-5.346095735523824e-06   2.7347975887074324e-06   -1.0904561169501766e-05
-5.346095735523824e-06   2.7347975887074324e-06   -1.0904561169501766e-05
-5.346095735523824e-06   2.7347975887074324e-06   -1.0904561169501766e-05
-5.346095735523824e-06   2.7347975887074324e-06   -1.0904561169501766e-05
-7.095519414543588e-06   3.5567258236876564e-07   -1.5247742305004436e-05
-7.095519414543588e-06   3.5567258236876564e-07   -1.5247742305004436e-05
-7.095519414543588e-06   3.5567258236876564e-07   -1.5247742305004436e-05
-7.095519414543588e-06   3.5567258236876564e-07   -1.5247742305004436e-05
-6.703509935077637e-06   3.400002893832392e-06   -1.1443377367739574e-05
-6.703509935077637e-06   3.400002893832392e-06   -1.1443377367739574e-05
-6.703509935077637e-06   3.400002893832392e-06   -1.1443377367739574e-05
-6.703509935077637e-06   3.400002893832392e-06   -1.1443377367739574e-05
-3.939486952088628e-06   1.113386777072678e-06   -1.4678112669332046e-05
-3.939486952088628e-06   1.113386777072678e-06   -1.4678112669332046e-05
-3.939486952088628e-06   1.113386777072678e-06   -1.4678112669332046e-05
-3.939486952088628e-06   1.113386777072678e-06   -1.4678112669332046e-05
-5.693609038033291e-06   1.6984039725510044e-06   -1.2105586176711276e-05
-5.693609038033291e-06   1.6984039725510044e-06   -1.2105586176711276e-05
-5.693609038033291e-06   1.6984039725510044e-06   -1.2105586176711276e-05
-5.693609038033291e-06   1.6984039725510044e-06   -1.2105586176711276e-05
-7.998103743536982e-06   8.555123955320551e-07   -2.5745815529124895e-05
-7.998103743536982e-06   8.555123955320551e-07   -2.5745815529124895e-05
-7.998103743536982e-06   8.555123955320551e-07   -2.5745815529124895e-05
-7.998103743536982e-06   8.555123955320551e-07   -2.5745815529124895e-05
-9.237319285649724e-06   -1.4860071194020517e-07   -2.8413642630462815e-05
-9.237319285649724e-06   -1.4860071194020517e-07   -2.8413642630462815e-05
-9.237319285649724e-06   -1.4860071194020517e-07   -2.8413642630462815e-05
-9.237319285649724e-06   -1.4860071194020517e-07   -2.8413642630462815e-05
-8.915600680468953e-06   1.8072902037134277e-06   -2.576436266682903e-05
-8.915600680468953e-06   1.8072902037134277e-06   -2.576436266682903e-05
-8.915600680468953e-06   1.8072902037134277e-06   -2.576436266682903e-05
-8.915600680468953e-06   1.8072902037134277e-06   -2.576436266682903e-05
-7.599135840067039e-06   6.980681468847678e-07   -2.729293750006835e-05
-7.599135840067039e-06   6.980681468847678e-07   -2.729293750006835e-05
-7.599135840067039e-06   6.980681468847678e-07   -2.729293750006835e-05
-7.599135840067039e-06   6.980681468847678e-07   -2.729293750006835e-05
-8.339313211505908e-06   9.894481279326163e-07   -2.623413653629931e-05
-8.339313211505908e-06   9.894481279326163e-07   -2.623413653629931e-05
-8.339313211505908e-06   9.894481279326163e-07   -2.623413653629931e-05
-8.339313211505908e-06   9.894481279326163e-07   -2.623413653629931e-05
-7.5991358400669844e-06   1.8072902037133192e-06   -2.5098829432731572e-05
-7.5991358400669844e-06   1.8072902037133192e-06   -2.5098829432731572e-05
-7.5991358400669844e-06   1.8072902037133192e-06   -2.5098829432731572e-05
-7.5991358400669844e-06   1.8072902037133192e-06   -2.5098829432731572e-05
-8.91560068046894e-06   6.980681468847678e-07   -2.7958470734165534e-05
-8.91560068046894e-06   6.980681468847678e-07   -2.7958470734165534e-05
-8.91560068046894e-06   6.980681468847678e-07   -2.7958470734165534e-05
-8.91560068046894e-06   6.980681468847678e-07   -2.7958470734165534e-05
-8.58094234322601e-06   2.6927331690538908e-06   -2.5548287315834447e-05
-8.58094234322601e-06   2.6927331690538908e-06   -2.5548287315834447e-05
-8.58094234322601e-06   2.6927331690538908e-06   -2.5548287315834447e-05
-8.58094234322601e-06   2.6927331690538908e-06   -2.5548287315834447e-05
-7.095519414543588e-06   1.5136185569962837e-06   -2.7316523429737048e-05
-7.095519414543588e-06   1.5136185569962837e-06   -2.7316523429737048e-05
-7.095519414543588e-06   1.5136185569962837e-06   -2.7316523429737048e-05
-7.095519414543588e-06   1.5136185569962837e-06   -2.7316523429737048e-05
-8.016990474496948e-06   1.6725506250488999e-06   -2.5876097570646638e-05
-8.016990474496948e-06   1.6725506250488999e-06   -2.5876097570646638e-05
-8.016990474496948e-06   1.6725506250488999e-06   -2.5876097570646638e-05
-8.016990474496948e-06   1.6725506250488999e-06   -2.5876097570646638e-05
-7.095519414543561e-06   2.6927331690538908e-06   -2.484081854859971e-05
-7.095519414543561e-06   2.6927331690538908e-06   -2.484081854859971e-05
-7.095519414543561e-06   2.6927331690538908e-06   -2.484081854859971e-05
-7.095519414543561e-06   2.6927331690538908e-06   -2.484081854859971e-05
-8.580942343225983e-06   1.5136185569960669e-06   -2.8023992196971623e-05
-8.580942343225983e-06   1.5136185569960669e-06   -2.8023992196971623e-05
-8.580942343225983e-06   1.5136185569960669e-06   -2.8023992196971623e-05
-8.580942343225983e-06   1.5136185569960669e-06   -2.8023992196971623e-05
-8.265978181381763e-06   3.677042314919037e-06   -2.5971592023009242e-05
-8.265978181381763e-06   3.677042314919037e-06   -2.5971592023009242e-05
-8.265978181381763e-06   3.677042314919037e-06   -2.5971592023009242e-05
-8.265978181381763e-06   3.677042314919037e-06   -2.5971592023009242e-05
-6.703509935077664e-06   2.44529745980983e-06   -2.78366588537837e-05
-6.703509935077664e-06   2.44529745980983e-06   -2.78366588537837e-05
-6.703509935077664e-06   2.44529745980983e-06   -2.78366588537837e-05
-6.703509935077664e-06   2.44529745980983e-06   -2.78366588537837e-05
-7.733670610767975e-06   2.3895815488823944e-06   -2.6086294847743396e-05
-7.733670610767975e-06   2.3895815488823944e-06   -2.6086294847743396e-05
-7.733670610767975e-06   2.3895815488823944e-06   -2.6086294847743396e-05
-7.733670610767975e-06   2.3895815488823944e-06   -2.6086294847743396e-05
-9.237319285649697e-06   4.921825622722061e-07   -2.9988949390954522e-05
-9.237319285649697e-06   4.921825622722061e-07   -2.9988949390954522e-05
-9.237319285649697e-06   4.921825622722061e-07   -2.9988949390954522e-05
-9.237319285649697e-06   4.921825622722061e-07   -2.9988949390954522e-05
-1.0539238238452702e-05   7.04860460915219e-07   -3.2031207573107214e-05
-1.0539238238452702e-05   7.04860460915219e-07   -3.2031207573107214e-05
-1.0539238238452702e-05   7.04860460915219e-07   -3.2031207573107214e-05
-1.0539238238452702e-05   7.04860460915219e-07   -3.2031207573107214e-05
-1.0223216874910998e-05   1.4620784857807346e-06   -2.952575103138484e-05
-1.0223216874910998e-05   1.4620784857807346e-06   -2.952575103138484e-05
-1.0223216874910998e-05   1.4620784857807346e-06   -2.952575103138484e-05
-1.0223216874910998e-05   1.4620784857807346e-06   -2.952575103138484e-05
-8.91560068046894e-06   1.580475372111841e-06   -3.1776149487253456e-05
-8.91560068046894e-06   1.580475372111841e-06   -3.1776149487253456e-05
-8.91560068046894e-06   1.580475372111841e-06   -3.1776149487253456e-05
-8.91560068046894e-06   1.580475372111841e-06   -3.1776149487253456e-05
-9.67025722948571e-06   1.1964323492379744e-06   -3.02879627585016e-05
-9.67025722948571e-06   1.1964323492379744e-06   -3.02879627585016e-05
-9.67025722948571e-06   1.1964323492379744e-06   -3.02879627585016e-05
-9.67025722948571e-06   1.1964323492379744e-06   -3.02879627585016e-05
-8.915600680468926e-06   1.4620784857807346e-06   -2.9596789163183375e-05
-8.915600680468926e-06   1.4620784857807346e-06   -2.9596789163183375e-05
-8.915600680468926e-06   1.4620784857807346e-06   -2.9596789163183375e-05
-8.915600680468926e-06   1.4620784857807346e-06   -2.9596789163183375e-05
-1.0223216874911015e-05   1.580475372111624e-06   -3.170511135545495e-05
-1.0223216874911015e-05   1.580475372111624e-06   -3.170511135545495e-05
-1.0223216874911015e-05   1.580475372111624e-06   -3.170511135545495e-05
-1.0223216874911015e-05   1.580475372111624e-06   -3.170511135545495e-05
-9.890603817515585e-06   2.440448591098008e-06   -2.9610980914824853e-05
-9.890603817515585e-06   2.440448591098008e-06   -2.9610980914824853e-05
-9.890603817515585e-06   2.440448591098008e-06   -2.9610980914824853e-05
-9.890603817515585e-06   2.440448591098008e-06   -2.9610980914824853e-05
-8.58094234322601e-06   2.4752577885965056e-06   -3.181463555713989e-05
-8.58094234322601e-06   2.4752577885965056e-06   -3.181463555713989e-05
-8.58094234322601e-06   2.4752577885965056e-06   -3.181463555713989e-05
-8.58094234322601e-06   2.4752577885965056e-06   -3.181463555713989e-05
-9.405399418183268e-06   1.945818104268299e-06   -3.0122876621614485e-05
-9.405399418183268e-06   1.945818104268299e-06   -3.0122876621614485e-05
-9.405399418183268e-06   1.945818104268299e-06   -3.0122876621614485e-05
-9.405399418183268e-06   1.945818104268299e-06   -3.0122876621614485e-05
-8.580942343225983e-06   2.440448591098008e-06   -2.9631866433323865e-05
-8.580942343225983e-06   2.440448591098008e-06   -2.9631866433323865e-05
-8.580942343225983e-06   2.440448591098008e-06   -2.9631866433323865e-05
-8.580942343225983e-06   2.440448591098008e-06   -2.9631866433323865e-05
-9.890603817515585e-06   2.4752577885965056e-06   -3.179375003864069e-05
-9.890603817515585e-06   2.4752577885965056e-06   -3.179375003864069e-05
-9.890603817515585e-06   2.4752577885965056e-06   -3.179375003864069e-05
-9.890603817515585e-06   2.4752577885965056e-06   -3.179375003864069e-05
-9.576964608068303e-06   3.433610018929961e-06   -3.0185742591698592e-05
-9.576964608068303e-06   3.433610018929961e-06   -3.0185742591698592e-05
-9.576964608068303e-06   3.433610018929961e-06   -3.0185742591698592e-05
-9.576964608068303e-06   3.433610018929961e-06   -3.0185742591698592e-05
-8.265978181381777e-06   3.382462992178358e-06   -3.2340031753458294e-05
-8.265978181381777e-06   3.382462992178358e-06   -3.2340031753458294e-05
-8.265978181381777e-06   3.382462992178358e-06   -3.2340031753458294e-05
-8.265978181381777e-06   3.382462992178358e-06   -3.2340031753458294e-05
-9.161840258997104e-06   2.7057069045628625e-06   -3.0440874638196897e-05
-9.161840258997104e-06   2.7057069045628625e-06   -3.0440874638196897e-05
-9.161840258997104e-06   2.7057069045628625e-06   -3.0440874638196897e-05
-9.161840258997104e-06   2.7057069045628625e-06   -3.0440874638196897e-05
-1.0539238238452663e-05   2.1375041834323458e-07   -2.5869868100161287e-05
-1.0539238238452663e-05   2.1375041834323458e-07   -2.5869868100161287e-05
-1.0539238238452663e-05   2.1375041834323458e-07   -2.5869868100161287e-05
-1.0539238238452663e-05   2.1375041834323458e-07   -2.5869868100161287e-05
-1.1916106667702434e-05   1.5655425615482364e-06   -2.7353573529654792e-05
-1.1916106667702434e-05   1.5655425615482364e-06   -2.7353573529654792e-05
-1.1916106667702434e-05   1.5655425615482364e-06   -2.7353573529654792e-05
-1.1916106667702434e-05   1.5655425615482364e-06   -2.7353573529654792e-05
-1.1533275545789608e-05   1.1536341973403079e-06   -2.4730554718790476e-05
-1.1533275545789608e-05   1.1536341973403079e-06   -2.4730554718790476e-05
-1.1533275545789608e-05   1.1536341973403079e-06   -2.4730554718790476e-05
-1.1533275545789608e-05   1.1536341973403079e-06   -2.4730554718790476e-05
-1.0223216874910998e-05   2.444384598788464e-06   -2.7688436077790245e-05
-1.0223216874910998e-05   2.444384598788464e-06   -2.7688436077790245e-05
-1.0223216874910998e-05   2.444384598788464e-06   -2.7688436077790245e-05
-1.0223216874910998e-05   2.444384598788464e-06   -2.7688436077790245e-05
-1.0967464585291087e-05   1.4420303844559553e-06   -2.5846610698557584e-05
-1.0967464585291087e-05   1.4420303844559553e-06   -2.5846610698557584e-05
-1.0967464585291087e-05   1.4420303844559553e-06   -2.5846610698557584e-05
-1.0967464585291087e-05   1.4420303844559553e-06   -2.5846610698557584e-05
-1.0223216874910981e-05   1.1536341973403079e-06   -2.5505004959659413e-05
-1.0223216874910981e-05   1.1536341973403079e-06   -2.5505004959659413e-05
-1.0223216874910981e-05   1.1536341973403079e-06   -2.5505004959659413e-05
-1.0223216874910981e-05   1.1536341973403079e-06   -2.5505004959659413e-05
-1.1533275545789608e-05   2.444384598788464e-06   -2.6913985836921582e-05
-1.1533275545789608e-05   2.444384598788464e-06   -2.6913985836921582e-05
-1.1533275545789608e-05   2.444384598788464e-06   -2.6913985836921582e-05
-1.1533275545789608e-05   2.444384598788464e-06   -2.6913985836921582e-05
-1.1037500275796195e-05   2.0389572193948904e-06   -2.4836068518025757e-05
-1.1037500275796195e-05   2.0389572193948904e-06   -2.4836068518025757e-05
-1.1037500275796195e-05   2.0389572193948904e-06   -2.4836068518025757e-05
-1.1037500275796195e-05   2.0389572193948904e-06   -2.4836068518025757e-05
-9.89060381751557e-06   3.2548028257865964e-06   -2.747706997899493e-05
-9.89060381751557e-06   3.2548028257865964e-06   -2.747706997899493e-05
-9.89060381751557e-06   3.2548028257865964e-06   -2.747706997899493e-05
-9.89060381751557e-06   3.2548028257865964e-06   -2.747706997899493e-05
-1.0625258056173002e-05   2.1395746342266642e-06   -2.5583509332963855e-05
-1.0625258056173002e-05   2.1395746342266642e-06   -2.5583509332963855e-05
-1.0625258056173002e-05   2.1395746342266642e-06   -2.5583509332963855e-05
-1.0625258056173002e-05   2.1395746342266642e-06   -2.5583509332963855e-05
-9.890603817515543e-06   2.0389572193948904e-06   -2.55655758818605e-05
-9.890603817515543e-06   2.0389572193948904e-06   -2.55655758818605e-05
-9.890603817515543e-06   2.0389572193948904e-06   -2.55655758818605e-05
-9.890603817515543e-06   2.0389572193948904e-06   -2.55655758818605e-05
-1.1037500275796208e-05   3.2548028257863796e-06   -2.6747562615160115e-05
-1.1037500275796208e-05   3.2548028257863796e-06   -2.6747562615160115e-05
-1.1037500275796208e-05   3.2548028257863796e-06   -2.6747562615160115e-05
-1.1037500275796208e-05   3.2548028257863796e-06   -2.6747562615160115e-05
-1.0648286121602075e-05   3.0395426591752275e-06   -2.552484264197732e-05
-1.0648286121602075e-05   3.0395426591752275e-06   -2.552484264197732e-05
-1.0648286121602075e-05   3.0395426591752275e-06   -2.552484264197732e-05
-1.0648286121602075e-05   3.0395426591752275e-06   -2.552484264197732e-05
-9.576964608068303e-06   4.1625180894498594e-06   -2.7984163756031452e-05
-9.576964608068303e-06   4.1625180894498594e-06   -2.7984163756031452e-05
-9.576964608068303e-06   4.1625180894498594e-06   -2.7984163756031452e-05
-9.576964608068303e-06   4.1625180894498594e-06   -2.7984163756031452e-05
-1.0369818855331063e-05   2.85201065522195e-06   -2.587643555005656e-05
-1.0369818855331063e-05   2.85201065522195e-06   -2.587643555005656e-05
-1.0369818855331063e-05   2.85201065522195e-06   -2.587643555005656e-05
-1.0369818855331063e-05   2.85201065522195e-06   -2.587643555005656e-05
-1.191610666770238e-05   3.0016988091029033e-07   -1.3782598028348682e-05
-1.191610666770238e-05   3.0016988091029033e-07   -1.3782598028348682e-05
-1.191610666770238e-05   3.0016988091029033e-07   -1.3782598028348682e-05
-1.191610666770238e-05   3.0016988091029033e-07   -1.3782598028348682e-05
-1.4451044042442749e-05   2.6328081202482614e-06   -1.6607910709313272e-05
-1.4451044042442749e-05   2.6328081202482614e-06   -1.6607910709313272e-05
-1.4451044042442749e-05   2.6328081202482614e-06   -1.6607910709313272e-05
-1.4451044042442749e-05   2.6328081202482614e-06   -1.6607910709313272e-05
-1.3084642973456336e-05   1.0435160912647184e-06   -1.1351970551950867e-05
-1.3084642973456336e-05   1.0435160912647184e-06   -1.1351970551950867e-05
-1.3084642973456336e-05   1.0435160912647184e-06   -1.1351970551950867e-05
-1.3084642973456336e-05   1.0435160912647184e-06   -1.1351970551950867e-05
-1.1533275545789581e-05   3.4300152236040743e-06   -1.5369482410799006e-05
-1.1533275545789581e-05   3.4300152236040743e-06   -1.5369482410799006e-05
-1.1533275545789581e-05   3.4300152236040743e-06   -1.5369482410799006e-05
-1.1533275545789581e-05   3.4300152236040743e-06   -1.5369482410799006e-05
-1.2230435543285509e-05   1.9475345572688655e-06   -1.3318060681838254e-05
-1.2230435543285509e-05   1.9475345572688655e-06   -1.3318060681838254e-05
-1.2230435543285509e-05   1.9475345572688655e-06   -1.3318060681838254e-05
-1.2230435543285509e-05   1.9475345572688655e-06   -1.3318060681838254e-05
-1.1533275545789554e-05   1.04351609126461e-06   -1.2783870031354513e-05
-1.1533275545789554e-05   1.04351609126461e-06   -1.2783870031354513e-05
-1.1533275545789554e-05   1.04351609126461e-06   -1.2783870031354513e-05
-1.1533275545789554e-05   1.04351609126461e-06   -1.2783870031354513e-05
-1.308464297345631e-05   3.4300152236040743e-06   -1.3937582931395427e-05
-1.308464297345631e-05   3.4300152236040743e-06   -1.3937582931395427e-05
-1.308464297345631e-05   3.4300152236040743e-06   -1.3937582931395427e-05
-1.308464297345631e-05   3.4300152236040743e-06   -1.3937582931395427e-05
-1.1973267590145872e-05   1.4613320376533588e-06   -1.1160068603969695e-05
-1.1973267590145872e-05   1.4613320376533588e-06   -1.1160068603969695e-05
-1.1973267590145872e-05   1.4613320376533588e-06   -1.1160068603969695e-05
-1.1973267590145872e-05   1.4613320376533588e-06   -1.1160068603969695e-05
-1.1037500275796195e-05   3.794991916031623e-06   -1.4119876721579346e-05
-1.1037500275796195e-05   3.794991916031623e-06   -1.4119876721579346e-05
-1.1037500275796195e-05   3.794991916031623e-06   -1.4119876721579346e-05
-1.1037500275796195e-05   3.794991916031623e-06   -1.4119876721579346e-05
-1.1649435258909227e-05   2.3171577287831036e-06   -1.2213284570708672e-05
-1.1649435258909227e-05   2.3171577287831036e-06   -1.2213284570708672e-05
-1.1649435258909227e-05   2.3171577287831036e-06   -1.2213284570708672e-05
-1.1649435258909227e-05   2.3171577287831036e-06   -1.2213284570708672e-05
-1.1037500275796168e-05   1.4613320376533588e-06   -1.256026453099661e-05
-1.1037500275796168e-05   1.4613320376533588e-06   -1.256026453099661e-05
-1.1037500275796168e-05   1.4613320376533588e-06   -1.256026453099661e-05
-1.1037500275796168e-05   1.4613320376533588e-06   -1.256026453099661e-05
-1.1973267590145872e-05   3.794991916031623e-06   -1.2719680794552363e-05
-1.1973267590145872e-05   3.794991916031623e-06   -1.2719680794552363e-05
-1.1973267590145872e-05   3.794991916031623e-06   -1.2719680794552363e-05
-1.1973267590145872e-05   3.794991916031623e-06   -1.2719680794552363e-05
-1.0612865529883617e-05   2.2011528831513034e-06   -1.1504806500567573e-05
-1.0612865529883617e-05   2.2011528831513034e-06   -1.1504806500567573e-05
-1.0612865529883617e-05   2.2011528831513034e-06   -1.1504806500567573e-05
-1.0612865529883617e-05   2.2011528831513034e-06   -1.1504806500567573e-05
-1.0648286121602048e-05   4.359273349696614e-06   -1.2740644460963832e-05
-1.0648286121602048e-05   4.359273349696614e-06   -1.2740644460963832e-05
-1.0648286121602048e-05   4.359273349696614e-06   -1.2740644460963832e-05
-1.0648286121602048e-05   4.359273349696614e-06   -1.2740644460963832e-05
-1.0790748826276116e-05   2.6151406064161328e-06   -1.145672697387218e-05
-1.0790748826276116e-05   2.6151406064161328e-06   -1.145672697387218e-05
-1.0790748826276116e-05   2.6151406064161328e-06   -1.145672697387218e-05
-1.0790748826276116e-05   2.6151406064161328e-06   -1.145672697387218e-05
7.031903579118274e-06   -6.950650458393669e-07   -7.13457826028482e-06
7.031903579118274e-06   -6.950650458393669e-07   -7.13457826028482e-06
7.031903579118274e-06   -6.950650458393669e-07   -7.13457826028482e-06
7.031903579118274e-06   -6.950650458393669e-07   -7.13457826028482e-06
7.26708991662735e-07   -2.9116004788358983e-06   -1.8973157165842064e-05
7.26708991662735e-07   -2.9116004788358983e-06   -1.8973157165842064e-05
7.26708991662735e-07   -2.9116004788358983e-06   -1.8973157165842064e-05
7.26708991662735e-07   -2.9116004788358983e-06   -1.8973157165842064e-05
1.2732914085485905e-06   -2.43465209902316e-08   -7.888401538941152e-06
1.2732914085485905e-06   -2.43465209902316e-08   -7.888401538941152e-06
1.2732914085485905e-06   -2.43465209902316e-08   -7.888401538941152e-06
1.2732914085485905e-06   -2.43465209902316e-08   -7.888401538941152e-06
8.564211952148129e-06   -2.393404897258356e-06   -1.861850075251289e-05
8.564211952148129e-06   -2.393404897258356e-06   -1.861850075251289e-05
8.564211952148129e-06   -2.393404897258356e-06   -1.861850075251289e-05
8.564211952148129e-06   -2.393404897258356e-06   -1.861850075251289e-05
4.234746477789833e-06   -1.2160834710625915e-06   -1.210911781763293e-05
4.234746477789833e-06   -1.2160834710625915e-06   -1.210911781763293e-05
4.234746477789833e-06   -1.2160834710625915e-06   -1.210911781763293e-05
4.234746477789833e-06   -1.2160834710625915e-06   -1.210911781763293e-05
8.564211952148129e-06   -2.43465209902316e-08   -6.466966513180147e-06
8.564211952148129e-06   -2.43465209902316e-08   -6.466966513180147e-06
8.564211952148129e-06   -2.43465209902316e-08   -6.466966513180147e-06
8.564211952148129e-06   -2.43465209902316e-08   -6.466966513180147e-06
1.2732914085485905e-06   -2.393404897258356e-06   -2.0039935778273733e-05
1.2732914085485905e-06   -2.393404897258356e-06   -2.0039935778273733e-05
1.2732914085485905e-06   -2.393404897258356e-06   -2.0039935778273733e-05
1.2732914085485905e-06   -2.393404897258356e-06   -2.0039935778273733e-05
1.9179257675275676e-06   3.5567258236876564e-07   -7.950915118489724e-06
1.9179257675275676e-06   3.5567258236876564e-07   -7.950915118489724e-06
1.9179257675275676e-06   3.5567258236876564e-07   -7.950915118489724e-06
1.9179257675275676e-06   3.5567258236876564e-07   -7.950915118489724e-06
9.85839385589008e-06   -2.0472398785437076e-06   -1.9743281122546266e-05
9.85839385589008e-06   -2.0472398785437076e-06   -1.9743281122546266e-05
9.85839385589008e-06   -2.0472398785437076e-06   -1.9743281122546266e-05
9.85839385589008e-06   -2.0472398785437076e-06   -1.9743281122546266e-05
5.205988376685226e-06   -9.73515020534282e-07   -1.2633506905344535e-05
5.205988376685226e-06   -9.73515020534282e-07   -1.2633506905344535e-05
5.205988376685226e-06   -9.73515020534282e-07   -1.2633506905344535e-05
5.205988376685226e-06   -9.73515020534282e-07   -1.2633506905344535e-05
9.85839385589008e-06   3.5567258236876564e-07   -6.509167641942132e-06
9.85839385589008e-06   3.5567258236876564e-07   -6.509167641942132e-06
9.85839385589008e-06   3.5567258236876564e-07   -6.509167641942132e-06
9.85839385589008e-06   3.5567258236876564e-07   -6.509167641942132e-06
1.9179257675275676e-06   -2.0472398785437076e-06   -2.118502859909386e-05
1.9179257675275676e-06   -2.0472398785437076e-06   -2.118502859909386e-05
1.9179257675275676e-06   -2.0472398785437076e-06   -2.118502859909386e-05
1.9179257675275676e-06   -2.0472398785437076e-06   -2.118502859909386e-05
2.447801343114734e-06   1.113386777072678e-06   -8.717663456353324e-06
2.447801343114734e-06   1.113386777072678e-06   -8.717663456353324e-06
2.447801343114734e-06   1.113386777072678e-06   -8.717663456353324e-06
2.447801343114734e-06   1.113386777072678e-06   -8.717663456353324e-06
1.1413119542870497e-05   -1.1756670501978077e-06   -2.228642815958374e-05
1.1413119542870497e-05   -1.1756670501978077e-06   -2.228642815958374e-05
1.1413119542870497e-05   -1.1756670501978077e-06   -2.228642815958374e-05
1.1413119542870497e-05   -1.1756670501978077e-06   -2.228642815958374e-05
5.9769917447852515e-06   -6.167005691857207e-07   -1.3561595051382667e-05
5.9769917447852515e-06   -6.167005691857207e-07   -1.3561595051382667e-05
5.9769917447852515e-06   -6.167005691857207e-07   -1.3561595051382667e-05
5.9769917447852515e-06   -6.167005691857207e-07   -1.3561595051382667e-05
7.267089916627079e-07   -1.4860071193998833e-07   -2.0601332056675316e-05
7.267089916627079e-07   -1.4860071193998833e-07   -2.0601332056675316e-05
7.267089916627079e-07   -1.4860071193998833e-07   -2.0601332056675316e-05
7.267089916627079e-07   -1.4860071193998833e-07   -2.0601332056675316e-05
-6.6186232617696785e-06   -1.148832482988655e-06   -3.344369154169172e-05
-6.6186232617696785e-06   -1.148832482988655e-06   -3.344369154169172e-05
-6.6186232617696785e-06   -1.148832482988655e-06   -3.344369154169172e-05
-6.6186232617696785e-06   -1.148832482988655e-06   -3.344369154169172e-05
-6.139768045644191e-06   6.980681468847678e-07   -2.0717427354894052e-05
-6.139768045644191e-06   6.980681468847678e-07   -2.0717427354894052e-05
-6.139768045644191e-06   6.980681468847678e-07   -2.0717427354894052e-05
-6.139768045644191e-06   6.980681468847678e-07   -2.0717427354894052e-05
1.2732914085485905e-06   -4.376171375830573e-07   -3.239111527453454e-05
1.2732914085485905e-06   -4.376171375830573e-07   -3.239111527453454e-05
1.2732914085485905e-06   -4.376171375830573e-07   -3.239111527453454e-05
1.2732914085485905e-06   -4.376171375830573e-07   -3.239111527453454e-05
-2.6276151756382543e-06   -4.1218895911266165e-08   -2.6127443245893035e-05
-2.6276151756382543e-06   -4.1218895911266165e-08   -2.6127443245893035e-05
-2.6276151756382543e-06   -4.1218895911266165e-08   -2.6127443245893035e-05
-2.6276151756382543e-06   -4.1218895911266165e-08   -2.6127443245893035e-05
1.2732914085485634e-06   6.980681468847678e-07   -2.0036016184213335e-05
1.2732914085485634e-06   6.980681468847678e-07   -2.0036016184213335e-05
1.2732914085485634e-06   6.980681468847678e-07   -2.0036016184213335e-05
1.2732914085485634e-06   6.980681468847678e-07   -2.0036016184213335e-05
-6.139768045644191e-06   -4.376171375830573e-07   -3.307252644521553e-05
-6.139768045644191e-06   -4.376171375830573e-07   -3.307252644521553e-05
-6.139768045644191e-06   -4.376171375830573e-07   -3.307252644521553e-05
-6.139768045644191e-06   -4.376171375830573e-07   -3.307252644521553e-05
-5.658156739757098e-06   1.5136185569960669e-06   -2.0749044031399648e-05
-5.658156739757098e-06   1.5136185569960669e-06   -2.0749044031399648e-05
-5.658156739757098e-06   1.5136185569960669e-06   -2.0749044031399648e-05
-5.658156739757098e-06   1.5136185569960669e-06   -2.0749044031399648e-05
1.9179257675275676e-06   2.9803891003353684e-07   -3.264650042203015e-05
1.9179257675275676e-06   2.9803891003353684e-07   -3.264650042203015e-05
1.9179257675275676e-06   2.9803891003353684e-07   -3.264650042203015e-05
1.9179257675275676e-06   2.9803891003353684e-07   -3.264650042203015e-05
-2.203863092594931e-06   5.434046653699908e-07   -2.5924071775027685e-05
-2.203863092594931e-06   5.434046653699908e-07   -2.5924071775027685e-05
-2.203863092594931e-06   5.434046653699908e-07   -2.5924071775027685e-05
-2.203863092594931e-06   5.434046653699908e-07   -2.5924071775027685e-05
1.9179257675275676e-06   1.5136185569962837e-06   -2.0019696243222173e-05
1.9179257675275676e-06   1.5136185569962837e-06   -2.0019696243222173e-05
1.9179257675275676e-06   1.5136185569962837e-06   -2.0019696243222173e-05
1.9179257675275676e-06   1.5136185569962837e-06   -2.0019696243222173e-05
-5.658156739757098e-06   2.980389100337537e-07   -3.337584821020757e-05
-5.658156739757098e-06   2.980389100337537e-07   -3.337584821020757e-05
-5.658156739757098e-06   2.980389100337537e-07   -3.337584821020757e-05
-5.658156739757098e-06   2.980389100337537e-07   -3.337584821020757e-05
-5.198197971157398e-06   2.44529745980983e-06   -2.1269648091833864e-05
-5.198197971157398e-06   2.44529745980983e-06   -2.1269648091833864e-05
-5.198197971157398e-06   2.44529745980983e-06   -2.1269648091833864e-05
-5.198197971157398e-06   2.44529745980983e-06   -2.1269648091833864e-05
2.447801343114761e-06   1.1696172580015225e-06   -3.324757216120272e-05
2.447801343114761e-06   1.1696172580015225e-06   -3.324757216120272e-05
2.447801343114761e-06   1.1696172580015225e-06   -3.324757216120272e-05
2.447801343114761e-06   1.1696172580015225e-06   -3.324757216120272e-05
-1.7315805734310604e-06   1.1918438890484804e-06   -2.6295271612254895e-05
-1.7315805734310604e-06   1.1918438890484804e-06   -2.6295271612254895e-05
-1.7315805734310604e-06   1.1918438890484804e-06   -2.6295271612254895e-05
-1.7315805734310604e-06   1.1918438890484804e-06   -2.6295271612254895e-05
-6.618623261769692e-06   7.04860460915219e-07   -2.494664280113456e-05
-6.618623261769692e-06   7.04860460915219e-07   -2.494664280113456e-05
-6.618623261769692e-06   7.04860460915219e-07   -2.494664280113456e-05
-6.618623261769692e-06   7.04860460915219e-07   -2.494664280113456e-05
-1.3899078789404617e-05   8.883545884845467e-07   -3.6970638870651145e-05
-1.3899078789404617e-05   8.883545884845467e-07   -3.6970638870651145e-05
-1.3899078789404617e-05   8.883545884845467e-07   -3.6970638870651145e-05
-1.3899078789404617e-05   8.883545884845467e-07   -3.6970638870651145e-05
-1.3416955320622629e-05   1.580475372111841e-06   -2.4498597628192886e-05
-1.3416955320622629e-05   1.580475372111841e-06   -2.4498597628192886e-05
-1.3416955320622629e-05   1.580475372111841e-06   -2.4498597628192886e-05
-1.3416955320622629e-05   1.580475372111841e-06   -2.4498597628192886e-05
-6.139768045644204e-06   1.6413228384271408e-06   -3.666375156627952e-05
-6.139768045644204e-06   1.6413228384271408e-06   -3.666375156627952e-05
-6.139768045644204e-06   1.6413228384271408e-06   -3.666375156627952e-05
-6.139768045644204e-06   1.6413228384271408e-06   -3.666375156627952e-05
-9.960627061221071e-06   1.357254921811749e-06   -3.0125212457015617e-05
-9.960627061221071e-06   1.357254921811749e-06   -3.0125212457015617e-05
-9.960627061221071e-06   1.357254921811749e-06   -3.0125212457015617e-05
-9.960627061221071e-06   1.357254921811749e-06   -3.0125212457015617e-05
-6.139768045644204e-06   1.580475372111624e-06   -2.453510610798211e-05
-6.139768045644204e-06   1.580475372111624e-06   -2.453510610798211e-05
-6.139768045644204e-06   1.580475372111624e-06   -2.453510610798211e-05
-6.139768045644204e-06   1.580475372111624e-06   -2.453510610798211e-05
-1.3416955320622629e-05   1.641322838426924e-06   -3.662724308649051e-05
-1.3416955320622629e-05   1.641322838426924e-06   -3.662724308649051e-05
-1.3416955320622629e-05   1.641322838426924e-06   -3.662724308649051e-05
-1.3416955320622629e-05   1.641322838426924e-06   -3.662724308649051e-05
-1.2926894025466344e-05   2.4752577885965056e-06   -2.456187033697435e-05
-1.2926894025466344e-05   2.4752577885965056e-06   -2.456187033697435e-05
-1.2926894025466344e-05   2.4752577885965056e-06   -2.456187033697435e-05
-1.2926894025466344e-05   2.4752577885965056e-06   -2.456187033697435e-05
-5.658156739757111e-06   2.4382862129192565e-06   -3.665424953441657e-05
-5.658156739757111e-06   2.4382862129192565e-06   -3.665424953441657e-05
-5.658156739757111e-06   2.4382862129192565e-06   -3.665424953441657e-05
-5.658156739757111e-06   2.4382862129192565e-06   -3.665424953441657e-05
-9.53665084467003e-06   2.014784748178601e-06   -2.993599181405133e-05
-9.53665084467003e-06   2.014784748178601e-06   -2.993599181405133e-05
-9.53665084467003e-06   2.014784748178601e-06   -2.993599181405133e-05
-9.53665084467003e-06   2.014784748178601e-06   -2.993599181405133e-05
-5.658156739757111e-06   2.4752577885965056e-06   -2.453968739156789e-05
-5.658156739757111e-06   2.4752577885965056e-06   -2.453968739156789e-05
-5.658156739757111e-06   2.4752577885965056e-06   -2.453968739156789e-05
-5.658156739757111e-06   2.4752577885965056e-06   -2.453968739156789e-05
-1.292689402546632e-05   2.4382862129190396e-06   -3.667643247982314e-05
-1.292689402546632e-05   2.4382862129190396e-06   -3.667643247982314e-05
-1.292689402546632e-05   2.4382862129190396e-06   -3.667643247982314e-05
-1.292689402546632e-05   2.4382862129190396e-06   -3.667643247982314e-05
-1.2459627874651838e-05   3.382462992178358e-06   -2.5114022073317367e-05
-1.2459627874651838e-05   3.382462992178358e-06   -2.5114022073317367e-05
-1.2459627874651838e-05   3.382462992178358e-06   -2.5114022073317367e-05
-1.2459627874651838e-05   3.382462992178358e-06   -2.5114022073317367e-05
-5.198197971157425e-06   3.2490496673876976e-06   -3.713635725093365e-05
-5.198197971157425e-06   3.2490496673876976e-06   -3.713635725093365e-05
-5.198197971157425e-06   3.2490496673876976e-06   -3.713635725093365e-05
-5.198197971157425e-06   3.2490496673876976e-06   -3.713635725093365e-05
-9.142441566752897e-06   2.6823294321188986e-06   -3.0222585783780528e-05
-9.142441566752897e-06   2.6823294321188986e-06   -3.0222585783780528e-05
-9.142441566752897e-06   2.6823294321188986e-06   -3.0222585783780528e-05
-9.142441566752897e-06   2.6823294321188986e-06   -3.0222585783780528e-05
-1.389907878940464e-05   1.5655425615480195e-06   -2.0969987567063522e-05
-1.389907878940464e-05   1.5655425615480195e-06   -2.0969987567063522e-05
-1.389907878940464e-05   1.5655425615480195e-06   -2.0969987567063522e-05
-1.389907878940464e-05   1.5655425615480195e-06   -2.0969987567063522e-05
-2.109716439870305e-05   2.8668663623358445e-06   -3.218600263542163e-05
-2.109716439870305e-05   2.8668663623358445e-06   -3.218600263542163e-05
-2.109716439870305e-05   2.8668663623358445e-06   -3.218600263542163e-05
-2.109716439870305e-05   2.8668663623358445e-06   -3.218600263542163e-05
-2.0545953183330057e-05   2.444384598788464e-06   -1.97461776169903e-05
-2.0545953183330057e-05   2.444384598788464e-06   -1.97461776169903e-05
-2.0545953183330057e-05   2.444384598788464e-06   -1.97461776169903e-05
-2.0545953183330057e-05   2.444384598788464e-06   -1.97461776169903e-05
-1.3416955320622629e-05   3.6706258213518774e-06   -3.23635854550407e-05
-1.3416955320622629e-05   3.6706258213518774e-06   -3.23635854550407e-05
-1.3416955320622629e-05   3.6706258213518774e-06   -3.23635854550407e-05
-1.3416955320622629e-05   3.6706258213518774e-06   -3.23635854550407e-05
-1.7120318800351703e-05   2.7409241329635035e-06   -2.5633491975792628e-05
-1.7120318800351703e-05   2.7409241329635035e-06   -2.5633491975792628e-05
-1.7120318800351703e-05   2.7409241329635035e-06   -2.5633491975792628e-05
-1.7120318800351703e-05   2.7409241329635035e-06   -2.5633491975792628e-05
-1.3416955320622656e-05   2.444384598788681e-06   -2.0481922350528347e-05
-1.3416955320622656e-05   2.444384598788681e-06   -2.0481922350528347e-05
-1.3416955320622656e-05   2.444384598788681e-06   -2.0481922350528347e-05
-1.3416955320622656e-05   2.444384598788681e-06   -2.0481922350528347e-05
-2.054595318333009e-05   3.6706258213518774e-06   -3.1627840721502724e-05
-2.054595318333009e-05   3.6706258213518774e-06   -3.1627840721502724e-05
-2.054595318333009e-05   3.6706258213518774e-06   -3.1627840721502724e-05
-2.054595318333009e-05   3.6706258213518774e-06   -3.1627840721502724e-05
-1.9885038790760192e-05   3.2548028257863796e-06   -1.956145969230199e-05
-1.9885038790760192e-05   3.2548028257863796e-06   -1.956145969230199e-05
-1.9885038790760192e-05   3.2548028257863796e-06   -1.956145969230199e-05
-1.9885038790760192e-05   3.2548028257863796e-06   -1.956145969230199e-05
-1.2926894025466344e-05   4.394353800830876e-06   -3.1842098219485236e-05
-1.2926894025466344e-05   4.394353800830876e-06   -3.1842098219485236e-05
-1.2926894025466344e-05   4.394353800830876e-06   -3.1842098219485236e-05
-1.2926894025466344e-05   4.394353800830876e-06   -3.1842098219485236e-05
-1.656431543021185e-05   3.375863634476556e-06   -2.51686351117638e-05
-1.656431543021185e-05   3.375863634476556e-06   -2.51686351117638e-05
-1.656431543021185e-05   3.375863634476556e-06   -2.51686351117638e-05
-1.656431543021185e-05   3.375863634476556e-06   -2.51686351117638e-05
-1.2926894025466334e-05   3.2548028257863796e-06   -2.0245190277328622e-05
-1.2926894025466334e-05   3.2548028257863796e-06   -2.0245190277328622e-05
-1.2926894025466334e-05   3.2548028257863796e-06   -2.0245190277328622e-05
-1.2926894025466334e-05   3.2548028257863796e-06   -2.0245190277328622e-05
-1.9885038790760192e-05   4.394353800830876e-06   -3.115836763445856e-05
-1.9885038790760192e-05   4.394353800830876e-06   -3.115836763445856e-05
-1.9885038790760192e-05   4.394353800830876e-06   -3.115836763445856e-05
-1.9885038790760192e-05   4.394353800830876e-06   -3.115836763445856e-05
-1.9334656828721975e-05   4.1625180894498594e-06   -2.0102863953540902e-05
-1.9334656828721975e-05   4.1625180894498594e-06   -2.0102863953540902e-05
-1.9334656828721975e-05   4.1625180894498594e-06   -2.0102863953540902e-05
-1.9334656828721975e-05   4.1625180894498594e-06   -2.0102863953540902e-05
-1.2459627874651838e-05   5.203521266614573e-06   -3.2185847449956534e-05
-1.2459627874651838e-05   5.203521266614573e-06   -3.2185847449956534e-05
-1.2459627874651838e-05   5.203521266614573e-06   -3.2185847449956534e-05
-1.2459627874651838e-05   5.203521266614573e-06   -3.2185847449956534e-05
-1.6193361840492972e-05   4.001116875770785e-06   -2.524151487238172e-05
-1.6193361840492972e-05   4.001116875770785e-06   -2.524151487238172e-05
-1.6193361840492972e-05   4.001116875770785e-06   -2.524151487238172e-05
-1.6193361840492972e-05   4.001116875770785e-06   -2.524151487238172e-05
-2.109716439870305e-05   2.6328081202482614e-06   -1.0843113409852111e-05
-2.109716439870305e-05   2.6328081202482614e-06   -1.0843113409852111e-05
-2.109716439870305e-05   2.6328081202482614e-06   -1.0843113409852111e-05
-2.109716439870305e-05   2.6328081202482614e-06   -1.0843113409852111e-05
-2.9305469223664838e-05   4.9296602164664374e-06   -2.3145510193724422e-05
-2.9305469223664838e-05   4.9296602164664374e-06   -2.3145510193724422e-05
-2.9305469223664838e-05   4.9296602164664374e-06   -2.3145510193724422e-05
-2.9305469223664838e-05   4.9296602164664374e-06   -2.3145510193724422e-05
-2.7784750692455725e-05   3.4300152236040743e-06   -6.800922311971645e-06
-2.7784750692455725e-05   3.4300152236040743e-06   -6.800922311971645e-06
-2.7784750692455725e-05   3.4300152236040743e-06   -6.800922311971645e-06
-2.7784750692455725e-05   3.4300152236040743e-06   -6.800922311971645e-06
-2.0545953183330057e-05   5.764601688431617e-06   -2.0266336706077393e-05
-2.0545953183330057e-05   5.764601688431617e-06   -2.0266336706077393e-05
-2.0545953183330057e-05   5.764601688431617e-06   -2.0266336706077393e-05
-2.0545953183330057e-05   5.764601688431617e-06   -2.0266336706077393e-05
-2.3679233294748725e-05   4.284003556741505e-06   -1.4155844308032304e-05
-2.3679233294748725e-05   4.284003556741505e-06   -1.4155844308032304e-05
-2.3679233294748725e-05   4.284003556741505e-06   -1.4155844308032304e-05
-2.3679233294748725e-05   4.284003556741505e-06   -1.4155844308032304e-05
-2.054595318333007e-05   3.4300152236040743e-06   -8.201674190867845e-06
-2.054595318333007e-05   3.4300152236040743e-06   -8.201674190867845e-06
-2.054595318333007e-05   3.4300152236040743e-06   -8.201674190867845e-06
-2.054595318333007e-05   3.4300152236040743e-06   -8.201674190867845e-06
-2.778475069245563e-05   5.764601688431617e-06   -1.886558482718111e-05
-2.778475069245563e-05   5.764601688431617e-06   -1.886558482718111e-05
-2.778475069245563e-05   5.764601688431617e-06   -1.886558482718111e-05
-2.778475069245563e-05   5.764601688431617e-06   -1.886558482718111e-05
-2.6527902805772156e-05   3.794991916031623e-06   -5.5724141337729766e-06
-2.6527902805772156e-05   3.794991916031623e-06   -5.5724141337729766e-06
-2.6527902805772156e-05   3.794991916031623e-06   -5.5724141337729766e-06
-2.6527902805772156e-05   3.794991916031623e-06   -5.5724141337729766e-06
-1.988503879076016e-05   6.063924690945504e-06   -1.800521382374132e-05
-1.988503879076016e-05   6.063924690945504e-06   -1.800521382374132e-05
-1.988503879076016e-05   6.063924690945504e-06   -1.800521382374132e-05
-1.988503879076016e-05   6.063924690945504e-06   -1.800521382374132e-05
-2.3125291628834054e-05   4.660119268182434e-06   -1.1762509173293603e-05
-2.3125291628834054e-05   4.660119268182434e-06   -1.1762509173293603e-05
-2.3125291628834054e-05   4.660119268182434e-06   -1.1762509173293603e-05
-2.3125291628834054e-05   4.660119268182434e-06   -1.1762509173293603e-05
-1.9885038790760192e-05   3.79499191603184e-06   -6.933773798721262e-06
-1.9885038790760192e-05   3.79499191603184e-06   -6.933773798721262e-06
-1.9885038790760192e-05   3.79499191603184e-06   -6.933773798721262e-06
-1.9885038790760192e-05   3.79499191603184e-06   -6.933773798721262e-06
-2.65279028057721e-05   6.063924690945504e-06   -1.6643854158793062e-05
-2.65279028057721e-05   6.063924690945504e-06   -1.6643854158793062e-05
-2.65279028057721e-05   6.063924690945504e-06   -1.6643854158793062e-05
-2.65279028057721e-05   6.063924690945504e-06   -1.6643854158793062e-05
-2.504032737119766e-05   4.359273349696614e-06   -4.2833955341523055e-06
-2.504032737119766e-05   4.359273349696614e-06   -4.2833955341523055e-06
-2.504032737119766e-05   4.359273349696614e-06   -4.2833955341523055e-06
-2.504032737119766e-05   4.359273349696614e-06   -4.2833955341523055e-06
-1.9334656828721975e-05   6.442163987172966e-06   -1.504258082076412e-05
-1.9334656828721975e-05   6.442163987172966e-06   -1.504258082076412e-05
-1.9334656828721975e-05   6.442163987172966e-06   -1.504258082076412e-05
-1.9334656828721975e-05   6.442163987172966e-06   -1.504258082076412e-05
-2.1942655051381038e-05   4.841258882232495e-06   -9.73537405336844e-06
-2.1942655051381038e-05   4.841258882232495e-06   -9.73537405336844e-06
-2.1942655051381038e-05   4.841258882232495e-06   -9.73537405336844e-06
-2.1942655051381038e-05   4.841258882232495e-06   -9.73537405336844e-06
2.2210383227027876e-05   -2.9116004788356815e-06   -1.2359324102963632e-07
2.2210383227027876e-05   -2.9116004788356815e-06   -1.2359324102963632e-07
2.2210383227027876e-05   -2.9116004788356815e-06   -1.2359324102963632e-07
2.2210383227027876e-05   -2.9116004788356815e-06   -1.2359324102963632e-07
9.45798804656415e-06   -5.246298500350506e-06   -2.2778404021378085e-05
9.45798804656415e-06   -5.246298500350506e-06   -2.2778404021378085e-05
9.45798804656415e-06   -5.246298500350506e-06   -2.2778404021378085e-05
9.45798804656415e-06   -5.246298500350506e-06   -2.2778404021378085e-05
1.0124362999762356e-05   -2.393404897258573e-06   -2.4610145749448097e-06
1.0124362999762356e-05   -2.393404897258573e-06   -2.4610145749448097e-06
1.0124362999762356e-05   -2.393404897258573e-06   -2.4610145749448097e-06
1.0124362999762356e-05   -2.393404897258573e-06   -2.4610145749448097e-06
2.388394380291065e-05   -4.879751046054509e-06   -2.3901841557580946e-05
2.388394380291065e-05   -4.879751046054509e-06   -2.3901841557580946e-05
2.388394380291065e-05   -4.879751046054509e-06   -2.3901841557580946e-05
2.388394380291065e-05   -4.879751046054509e-06   -2.3901841557580946e-05
1.575665911927949e-05   -3.4594815937663125e-06   -1.1208528756235267e-05
1.575665911927949e-05   -3.4594815937663125e-06   -1.1208528756235267e-05
1.575665911927949e-05   -3.4594815937663125e-06   -1.1208528756235267e-05
1.575665911927949e-05   -3.4594815937663125e-06   -1.1208528756235267e-05
2.3883943802910704e-05   -2.393404897258573e-06   -9.69206885666988e-07
2.3883943802910704e-05   -2.393404897258573e-06   -9.69206885666988e-07
2.3883943802910704e-05   -2.393404897258573e-06   -9.69206885666988e-07
2.3883943802910704e-05   -2.393404897258573e-06   -9.69206885666988e-07
1.0124362999762329e-05   -4.879751046054509e-06   -2.5393649246858497e-05
1.0124362999762329e-05   -4.879751046054509e-06   -2.5393649246858497e-05
1.0124362999762329e-05   -4.879751046054509e-06   -2.5393649246858497e-05
1.0124362999762329e-05   -4.879751046054509e-06   -2.5393649246858497e-05
1.0862767623109627e-05   -2.0472398785437076e-06   -3.486949198333242e-06
1.0862767623109627e-05   -2.0472398785437076e-06   -3.486949198333242e-06
1.0862767623109627e-05   -2.0472398785437076e-06   -3.486949198333242e-06
1.0862767623109627e-05   -2.0472398785437076e-06   -3.486949198333242e-06
2.5289003242596412e-05   -4.563921379168454e-06   -2.6020666330436545e-05
2.5289003242596412e-05   -4.563921379168454e-06   -2.6020666330436545e-05
2.5289003242596412e-05   -4.563921379168454e-06   -2.6020666330436545e-05
2.5289003242596412e-05   -4.563921379168454e-06   -2.6020666330436545e-05
1.7013501457476015e-05   -3.3188458275282273e-06   -1.2975208686219974e-05
1.7013501457476015e-05   -3.3188458275282273e-06   -1.2975208686219974e-05
1.7013501457476015e-05   -3.3188458275282273e-06   -1.2975208686219974e-05
1.7013501457476015e-05   -3.3188458275282273e-06   -1.2975208686219974e-05
2.5289003242596466e-05   -2.0472398785437076e-06   -1.9769402979583073e-06
2.5289003242596466e-05   -2.0472398785437076e-06   -1.9769402979583073e-06
2.5289003242596466e-05   -2.0472398785437076e-06   -1.9769402979583073e-06
2.5289003242596466e-05   -2.0472398785437076e-06   -1.9769402979583073e-06
1.08627676231096e-05   -4.563921379168454e-06   -2.753067523081137e-05
1.08627676231096e-05   -4.563921379168454e-06   -2.753067523081137e-05
1.08627676231096e-05   -4.563921379168454e-06   -2.753067523081137e-05
1.08627676231096e-05   -4.563921379168454e-06   -2.753067523081137e-05
1.1472487073286002e-05   -1.1756670501978077e-06   -5.852113677247937e-06
1.1472487073286002e-05   -1.1756670501978077e-06   -5.852113677247937e-06
1.1472487073286002e-05   -1.1756670501978077e-06   -5.852113677247937e-06
1.1472487073286002e-05   -1.1756670501978077e-06   -5.852113677247937e-06
2.69205517165733e-05   -3.566054190032872e-06   -3.0164655798825893e-05
2.69205517165733e-05   -3.566054190032872e-06   -3.0164655798825893e-05
2.69205517165733e-05   -3.566054190032872e-06   -3.0164655798825893e-05
2.69205517165733e-05   -3.566054190032872e-06   -3.0164655798825893e-05
1.7692214247527427e-05   -2.928178751518927e-06   -1.5166818613525054e-05
1.7692214247527427e-05   -2.928178751518927e-06   -1.5166818613525054e-05
1.7692214247527427e-05   -2.928178751518927e-06   -1.5166818613525054e-05
1.7692214247527427e-05   -2.928178751518927e-06   -1.5166818613525054e-05
9.457988046564176e-06   -1.148832482988655e-06   -1.5394807367159302e-05
9.457988046564176e-06   -1.148832482988655e-06   -1.5394807367159302e-05
9.457988046564176e-06   -1.148832482988655e-06   -1.5394807367159302e-05
9.457988046564176e-06   -1.148832482988655e-06   -1.5394807367159302e-05
-4.032865231109393e-06   -2.4526484664816935e-06   -3.866185242004422e-05
-4.032865231109393e-06   -2.4526484664816935e-06   -3.866185242004422e-05
-4.032865231109393e-06   -2.4526484664816935e-06   -3.866185242004422e-05
-4.032865231109393e-06   -2.4526484664816935e-06   -3.866185242004422e-05
-3.4133186081663553e-06   -4.376171375830573e-07   -1.5714947759094084e-05
-3.4133186081663553e-06   -4.376171375830573e-07   -1.5714947759094084e-05
-3.4133186081663553e-06   -4.376171375830573e-07   -1.5714947759094084e-05
-3.4133186081663553e-06   -4.376171375830573e-07   -1.5714947759094084e-05
1.0124362999762329e-05   -1.9422066173968057e-06   -3.7374996751086736e-05
1.0124362999762329e-05   -1.9422066173968057e-06   -3.7374996751086736e-05
1.0124362999762329e-05   -1.9422066173968057e-06   -3.7374996751086736e-05
1.0124362999762329e-05   -1.9422066173968057e-06   -3.7374996751086736e-05
3.0673854701711935e-06   -1.1851494451547203e-06   -2.6067601838446978e-05
3.0673854701711935e-06   -1.1851494451547203e-06   -2.6067601838446978e-05
3.0673854701711935e-06   -1.1851494451547203e-06   -2.6067601838446978e-05
3.0673854701711935e-06   -1.1851494451547203e-06   -2.6067601838446978e-05
1.0124362999762356e-05   -4.376171375830573e-07   -1.4812194071205619e-05
1.0124362999762356e-05   -4.376171375830573e-07   -1.4812194071205619e-05
1.0124362999762356e-05   -4.376171375830573e-07   -1.4812194071205619e-05
1.0124362999762356e-05   -4.376171375830573e-07   -1.4812194071205619e-05
-3.4133186081663418e-06   -1.9422066173968057e-06   -3.827775043897504e-05
-3.4133186081663418e-06   -1.9422066173968057e-06   -3.827775043897504e-05
-3.4133186081663418e-06   -1.9422066173968057e-06   -3.827775043897504e-05
-3.4133186081663418e-06   -1.9422066173968057e-06   -3.827775043897504e-05
-2.8217962520350835e-06   2.980389100337537e-07   -1.5918275217254333e-05
-2.8217962520350835e-06   2.980389100337537e-07   -1.5918275217254333e-05
-2.8217962520350835e-06   2.980389100337537e-07   -1.5918275217254333e-05
-2.8217962520350835e-06   2.980389100337537e-07   -1.5918275217254333e-05
1.08627676231096e-05   -1.3183847499410439e-06   -3.7756027479843985e-05
1.08627676231096e-05   -1.3183847499410439e-06   -3.7756027479843985e-05
1.08627676231096e-05   -1.3183847499410439e-06   -3.7756027479843985e-05
1.08627676231096e-05   -1.3183847499410439e-06   -3.7756027479843985e-05
3.55834142032701e-06   -7.333513089909528e-07   -2.5933003873108984e-05
3.55834142032701e-06   -7.333513089909528e-07   -2.5933003873108984e-05
3.55834142032701e-06   -7.333513089909528e-07   -2.5933003873108984e-05
3.55834142032701e-06   -7.333513089909528e-07   -2.5933003873108984e-05
1.0862767623109627e-05   2.9803891003353684e-07   -1.4948421021269585e-05
1.0862767623109627e-05   2.9803891003353684e-07   -1.4948421021269585e-05
1.0862767623109627e-05   2.9803891003353684e-07   -1.4948421021269585e-05
1.0862767623109627e-05   2.9803891003353684e-07   -1.4948421021269585e-05
-2.8217962520350835e-06   -1.3183847499410439e-06   -3.872588167582879e-05
-2.8217962520350835e-06   -1.3183847499410439e-06   -3.872588167582879e-05
-2.8217962520350835e-06   -1.3183847499410439e-06   -3.872588167582879e-05
-2.8217962520350835e-06   -1.3183847499410439e-06   -3.872588167582879e-05
-2.266345912391716e-06   1.1696172580017393e-06   -1.6461509209043153e-05
-2.266345912391716e-06   1.1696172580017393e-06   -1.6461509209043153e-05
-2.266345912391716e-06   1.1696172580017393e-06   -1.6461509209043153e-05
-2.266345912391716e-06   1.1696172580017393e-06   -1.6461509209043153e-05
1.1472487073285975e-05   -5.33189119562719e-07   -3.833788035863408e-05
1.1472487073285975e-05   -5.33189119562719e-07   -3.833788035863408e-05
1.1472487073285975e-05   -5.33189119562719e-07   -3.833788035863408e-05
1.1472487073285975e-05   -5.33189119562719e-07   -3.833788035863408e-05
4.171807980249057e-06   -1.7595964160038724e-07   -2.6384419557017123e-05
4.171807980249057e-06   -1.7595964160038724e-07   -2.6384419557017123e-05
4.171807980249057e-06   -1.7595964160038724e-07   -2.6384419557017123e-05
4.171807980249057e-06   -1.7595964160038724e-07   -2.6384419557017123e-05
-4.032865231109407e-06   8.883545884845467e-07   -1.9814140762755995e-05
-4.032865231109407e-06   8.883545884845467e-07   -1.9814140762755995e-05
-4.032865231109407e-06   8.883545884845467e-07   -1.9814140762755995e-05
-4.032865231109407e-06   8.883545884845467e-07   -1.9814140762755995e-05
-1.7286060662087275e-05   4.5477368719481527e-07   -4.216294835515959e-05
-1.7286060662087275e-05   4.5477368719481527e-07   -4.216294835515959e-05
-1.7286060662087275e-05   4.5477368719481527e-07   -4.216294835515959e-05
-1.7286060662087275e-05   4.5477368719481527e-07   -4.216294835515959e-05
-1.6619272397823188e-05   1.641322838426924e-06   -1.9673922003730525e-05
-1.6619272397823188e-05   1.641322838426924e-06   -1.9673922003730525e-05
-1.6619272397823188e-05   1.641322838426924e-06   -1.9673922003730525e-05
-1.6619272397823188e-05   1.641322838426924e-06   -1.9673922003730525e-05
-3.4133186081663418e-06   1.0284076324730551e-06   -4.131609586291939e-05
-3.4133186081663418e-06   1.0284076324730551e-06   -4.131609586291939e-05
-3.4133186081663418e-06   1.0284076324730551e-06   -4.131609586291939e-05
-3.4133186081663418e-06   1.0284076324730551e-06   -4.131609586291939e-05
-1.026727245816294e-05   1.2183644673565645e-06   -3.0006813547188557e-05
-1.026727245816294e-05   1.2183644673565645e-06   -3.0006813547188557e-05
-1.026727245816294e-05   1.2183644673565645e-06   -3.0006813547188557e-05
-1.026727245816294e-05   1.2183644673565645e-06   -3.0006813547188557e-05
-3.4133186081663553e-06   1.6413228384271408e-06   -1.9306172880158073e-05
-3.4133186081663553e-06   1.6413228384271408e-06   -1.9306172880158073e-05
-3.4133186081663553e-06   1.6413228384271408e-06   -1.9306172880158073e-05
-3.4133186081663553e-06   1.6413228384271408e-06   -1.9306172880158073e-05
-1.6619272397823188e-05   1.0284076324730551e-06   -4.168384498649184e-05
-1.6619272397823188e-05   1.0284076324730551e-06   -4.168384498649184e-05
-1.6619272397823188e-05   1.0284076324730551e-06   -4.168384498649184e-05
-1.6619272397823188e-05   1.0284076324730551e-06   -4.168384498649184e-05
-1.5976030451158418e-05   2.4382862129190396e-06   -1.9644325727579542e-05
-1.5976030451158418e-05   2.4382862129190396e-06   -1.9644325727579542e-05
-1.5976030451158418e-05   2.4382862129190396e-06   -1.9644325727579542e-05
-1.5976030451158418e-05   2.4382862129190396e-06   -1.9644325727579542e-05
-2.8217962520350835e-06   1.6922042360588072e-06   -4.112040020666903e-05
-2.8217962520350835e-06   1.6922042360588072e-06   -4.112040020666903e-05
-2.8217962520350835e-06   1.6922042360588072e-06   -4.112040020666903e-05
-2.8217962520350835e-06   1.6922042360588072e-06   -4.112040020666903e-05
-9.693769344142528e-06   1.7554960819333304e-06   -2.9705086827347816e-05
-9.693769344142528e-06   1.7554960819333304e-06   -2.9705086827347816e-05
-9.693769344142528e-06   1.7554960819333304e-06   -2.9705086827347816e-05
-9.693769344142528e-06   1.7554960819333304e-06   -2.9705086827347816e-05
-2.8217962520350835e-06   2.4382862129192565e-06   -1.9196676541463338e-05
-2.8217962520350835e-06   2.4382862129192565e-06   -1.9196676541463338e-05
-2.8217962520350835e-06   2.4382862129192565e-06   -1.9196676541463338e-05
-2.8217962520350835e-06   2.4382862129192565e-06   -1.9196676541463338e-05
-1.5976030451158418e-05   1.6922042360588072e-06   -4.1568049392785075e-05
-1.5976030451158418e-05   1.6922042360588072e-06   -4.1568049392785075e-05
-1.5976030451158418e-05   1.6922042360588072e-06   -4.1568049392785075e-05
-1.5976030451158418e-05   1.6922042360588072e-06   -4.1568049392785075e-05
-1.538165957690277e-05   3.2490496673874807e-06   -2.010744123850396e-05
-1.538165957690277e-05   3.2490496673874807e-06   -2.010744123850396e-05
-1.538165957690277e-05   3.2490496673874807e-06   -2.010744123850396e-05
-1.538165957690277e-05   3.2490496673874807e-06   -2.010744123850396e-05
-2.266345912391716e-06   2.378124566029729e-06   -4.1443742285207776e-05
-2.266345912391716e-06   2.378124566029729e-06   -4.1443742285207776e-05
-2.266345912391716e-06   2.378124566029729e-06   -4.1443742285207776e-05
-2.266345912391716e-06   2.378124566029729e-06   -4.1443742285207776e-05
-9.18162348290994e-06   2.3066294938434324e-06   -2.9875382624366226e-05
-9.18162348290994e-06   2.3066294938434324e-06   -2.9875382624366226e-05
-9.18162348290994e-06   2.3066294938434324e-06   -2.9875382624366226e-05
-9.18162348290994e-06   2.3066294938434324e-06   -2.9875382624366226e-05
-1.7286060662087302e-05   2.8668663623358445e-06   -1.6070447348772907e-05
-1.7286060662087302e-05   2.8668663623358445e-06   -1.6070447348772907e-05
-1.7286060662087302e-05   2.8668663623358445e-06   -1.6070447348772907e-05
-1.7286060662087302e-05   2.8668663623358445e-06   -1.6070447348772907e-05
-3.0298626947176127e-05   3.466395697478185e-06   -3.739834022283548e-05
-3.0298626947176127e-05   3.466395697478185e-06   -3.739834022283548e-05
-3.0298626947176127e-05   3.466395697478185e-06   -3.739834022283548e-05
-3.0298626947176127e-05   3.466395697478185e-06   -3.739834022283548e-05
-2.9494629796747772e-05   3.6706258213518774e-06   -1.5096094761944527e-05
-2.9494629796747772e-05   3.6706258213518774e-06   -1.5096094761944527e-05
-2.9494629796747772e-05   3.6706258213518774e-06   -1.5096094761944527e-05
-2.9494629796747772e-05   3.6706258213518774e-06   -1.5096094761944527e-05
-1.6619272397823215e-05   4.19424183857901e-06   -3.6869193370488474e-05
-1.6619272397823215e-05   4.19424183857901e-06   -3.6869193370488474e-05
-1.6619272397823215e-05   4.19424183857901e-06   -3.6869193370488474e-05
-1.6619272397823215e-05   4.19424183857901e-06   -3.6869193370488474e-05
-2.325360417010644e-05   3.700870305003122e-06   -2.5515950829871044e-05
-2.325360417010644e-05   3.700870305003122e-06   -2.5515950829871044e-05
-2.325360417010644e-05   3.700870305003122e-06   -2.5515950829871044e-05
-2.325360417010644e-05   3.700870305003122e-06   -2.5515950829871044e-05
-1.6619272397823215e-05   3.6706258213518774e-06   -1.5410264372280784e-05
-1.6619272397823215e-05   3.6706258213518774e-06   -1.5410264372280784e-05
-1.6619272397823215e-05   3.6706258213518774e-06   -1.5410264372280784e-05
-1.6619272397823215e-05   3.6706258213518774e-06   -1.5410264372280784e-05
-2.9494629796747826e-05   4.19424183857901e-06   -3.655502376015223e-05
-2.9494629796747826e-05   4.19424183857901e-06   -3.655502376015223e-05
-2.9494629796747826e-05   4.19424183857901e-06   -3.655502376015223e-05
-2.9494629796747826e-05   4.19424183857901e-06   -3.655502376015223e-05
-2.86042885078016e-05   4.394353800830876e-06   -1.4554021575639343e-05
-2.86042885078016e-05   4.394353800830876e-06   -1.4554021575639343e-05
-2.86042885078016e-05   4.394353800830876e-06   -1.4554021575639343e-05
-2.86042885078016e-05   4.394353800830876e-06   -1.4554021575639343e-05
-1.597603045115844e-05   4.8209702868346e-06   -3.585708822831359e-05
-1.597603045115844e-05   4.8209702868346e-06   -3.585708822831359e-05
-1.597603045115844e-05   4.8209702868346e-06   -3.585708822831359e-05
-1.597603045115844e-05   4.8209702868346e-06   -3.585708822831359e-05
-2.2439672278626038e-05   4.2679472133304135e-06   -2.475253800509838e-05
-2.2439672278626038e-05   4.2679472133304135e-06   -2.475253800509838e-05
-2.2439672278626038e-05   4.2679472133304135e-06   -2.475253800509838e-05
-2.2439672278626038e-05   4.2679472133304135e-06   -2.475253800509838e-05
-1.597603045115843e-05   4.394353800830876e-06   -1.4809991467241383e-05
-1.597603045115843e-05   4.394353800830876e-06   -1.4809991467241383e-05
-1.597603045115843e-05   4.394353800830876e-06   -1.4809991467241383e-05
-1.597603045115843e-05   4.394353800830876e-06   -1.4809991467241383e-05
-2.86042885078016e-05   4.8209702868346e-06   -3.560111833671143e-05
-2.86042885078016e-05   4.8209702868346e-06   -3.560111833671143e-05
-2.86042885078016e-05   4.8209702868346e-06   -3.560111833671143e-05
-2.86042885078016e-05   4.8209702868346e-06   -3.560111833671143e-05
-2.7852130734929867e-05   5.203521266614573e-06   -1.4890698466228256e-05
-2.7852130734929867e-05   5.203521266614573e-06   -1.4890698466228256e-05
-2.7852130734929867e-05   5.203521266614573e-06   -1.4890698466228256e-05
-2.7852130734929867e-05   5.203521266614573e-06   -1.4890698466228256e-05
-1.5381659576902793e-05   5.513829560654937e-06   -3.586100203936427e-05
-1.5381659576902793e-05   5.513829560654937e-06   -3.586100203936427e-05
-1.5381659576902793e-05   5.513829560654937e-06   -3.586100203936427e-05
-1.5381659576902793e-05   5.513829560654937e-06   -3.586100203936427e-05
-2.1935109100831098e-05   4.790094222863412e-06   -2.4504344963475545e-05
-2.1935109100831098e-05   4.790094222863412e-06   -2.4504344963475545e-05
-2.1935109100831098e-05   4.790094222863412e-06   -2.4504344963475545e-05
-2.1935109100831098e-05   4.790094222863412e-06   -2.4504344963475545e-05
-3.0298626947176127e-05   4.929660216466221e-06   -8.048348563720938e-06
-3.0298626947176127e-05   4.929660216466221e-06   -8.048348563720938e-06
-3.0298626947176127e-05   4.929660216466221e-06   -8.048348563720938e-06
-3.0298626947176127e-05   4.929660216466221e-06   -8.048348563720938e-06
-4.40116627005363e-05   6.8060081991211125e-06   -2.977759936306193e-05
-4.40116627005363e-05   6.8060081991211125e-06   -2.977759936306193e-05
-4.40116627005363e-05   6.8060081991211125e-06   -2.977759936306193e-05
-4.40116627005363e-05   6.8060081991211125e-06   -2.977759936306193e-05
-4.216021024733575e-05   5.764601688431617e-06   -2.5294487058213347e-06
-4.216021024733575e-05   5.764601688431617e-06   -2.5294487058213347e-06
-4.216021024733575e-05   5.764601688431617e-06   -2.5294487058213347e-06
-4.216021024733575e-05   5.764601688431617e-06   -2.5294487058213347e-06
-2.9494629796747772e-05   7.773171756261322e-06   -2.4843891497499275e-05
-2.9494629796747772e-05   7.773171756261322e-06   -2.4843891497499275e-05
-2.9494629796747772e-05   7.773171756261322e-06   -2.4843891497499275e-05
-2.9494629796747772e-05   7.773171756261322e-06   -2.4843891497499275e-05
-3.4982940688507116e-05   6.483775531951862e-06   -1.4923068943314727e-05
-3.4982940688507116e-05   6.483775531951862e-06   -1.4923068943314727e-05
-3.4982940688507116e-05   6.483775531951862e-06   -1.4923068943314727e-05
-3.4982940688507116e-05   6.483775531951862e-06   -1.4923068943314727e-05
-2.9494629796747806e-05   5.764601688431617e-06   -3.7345907465192226e-06
-2.9494629796747806e-05   5.764601688431617e-06   -3.7345907465192226e-06
-2.9494629796747806e-05   5.764601688431617e-06   -3.7345907465192226e-06
-2.9494629796747806e-05   5.764601688431617e-06   -3.7345907465192226e-06
-4.216021024733567e-05   7.773171756261322e-06   -2.3638749456801177e-05
-4.216021024733567e-05   7.773171756261322e-06   -2.3638749456801177e-05
-4.216021024733567e-05   7.773171756261322e-06   -2.3638749456801177e-05
-4.216021024733567e-05   7.773171756261322e-06   -2.3638749456801177e-05
-4.0636761927839704e-05   6.063924690945504e-06   -2.225171359022688e-07
-4.0636761927839704e-05   6.063924690945504e-06   -2.225171359022688e-07
-4.0636761927839704e-05   6.063924690945504e-06   -2.225171359022688e-07
-4.0636761927839704e-05   6.063924690945504e-06   -2.225171359022688e-07
-2.86042885078016e-05   8.027842405978819e-06   -2.1454990131652427e-05
-2.86042885078016e-05   8.027842405978819e-06   -2.1454990131652427e-05
-2.86042885078016e-05   8.027842405978819e-06   -2.1454990131652427e-05
-2.86042885078016e-05   8.027842405978819e-06   -2.1454990131652427e-05
-3.435609274951987e-05   6.869871440831014e-06   -1.1173867149699387e-05
-3.435609274951987e-05   6.869871440831014e-06   -1.1173867149699387e-05
-3.435609274951987e-05   6.869871440831014e-06   -1.1173867149699387e-05
-3.435609274951987e-05   6.869871440831014e-06   -1.1173867149699387e-05
-2.86042885078016e-05   6.063924690945504e-06   -1.4008677649222359e-06
-2.86042885078016e-05   6.063924690945504e-06   -1.4008677649222359e-06
-2.86042885078016e-05   6.063924690945504e-06   -1.4008677649222359e-06
-2.86042885078016e-05   6.063924690945504e-06   -1.4008677649222359e-06
-4.0636761927839555e-05   8.027842405978602e-06   -2.027663950263255e-05
-4.0636761927839555e-05   8.027842405978602e-06   -2.027663950263255e-05
-4.0636761927839555e-05   8.027842405978602e-06   -2.027663950263255e-05
-4.0636761927839555e-05   8.027842405978602e-06   -2.027663950263255e-05
-3.899200371177753e-05   6.442163987172966e-06   2.710110313424905e-06
-3.899200371177753e-05   6.442163987172966e-06   2.710110313424905e-06
-3.899200371177753e-05   6.442163987172966e-06   2.710110313424905e-06
-3.899200371177753e-05   6.442163987172966e-06   2.710110313424905e-06
-2.7852130734929867e-05   8.245737415105365e-06   -1.6938488704747412e-05
-2.7852130734929867e-05   8.245737415105365e-06   -1.6938488704747412e-05
-2.7852130734929867e-05   8.245737415105365e-06   -1.6938488704747412e-05
-2.7852130734929867e-05   8.245737415105365e-06   -1.6938488704747412e-05
-3.2809521343923555e-05   6.932679499164259e-06   -7.888336273527093e-06
-3.2809521343923555e-05   6.932679499164259e-06   -7.888336273527093e-06
-3.2809521343923555e-05   6.932679499164259e-06   -7.888336273527093e-06
-3.2809521343923555e-05   6.932679499164259e-06   -7.888336273527093e-06
3.764134248917885e-05   -5.246298500350506e-06   7.505112222024957e-06
3.764134248917885e-05   -5.246298500350506e-06   7.505112222024957e-06
3.764134248917885e-05   -5.246298500350506e-06   7.505112222024957e-06
3.764134248917885e-05   -5.246298500350506e-06   7.505112222024957e-06
1.813042215463058e-05   -7.761813294623714e-06   -2.6522397212119168e-05
1.813042215463058e-05   -7.761813294623714e-06   -2.6522397212119168e-05
1.813042215463058e-05   -7.761813294623714e-06   -2.6522397212119168e-05
1.813042215463058e-05   -7.761813294623714e-06   -2.6522397212119168e-05
1.88686734300556e-05   -4.879751046054509e-06   3.641627071173173e-06
1.88686734300556e-05   -4.879751046054509e-06   3.641627071173173e-06
1.88686734300556e-05   -4.879751046054509e-06   3.641627071173173e-06
1.88686734300556e-05   -4.879751046054509e-06   3.641627071173173e-06
3.9358985409204645e-05   -7.581302641800286e-06   -2.8887961936628127e-05
3.9358985409204645e-05   -7.581302641800286e-06   -2.8887961936628127e-05
3.9358985409204645e-05   -7.581302641800286e-06   -2.8887961936628127e-05
3.9358985409204645e-05   -7.581302641800286e-06   -2.8887961936628127e-05
2.7340701154159275e-05   -5.742854605974082e-06   -9.960556999714845e-06
2.7340701154159275e-05   -5.742854605974082e-06   -9.960556999714845e-06
2.7340701154159275e-05   -5.742854605974082e-06   -9.960556999714845e-06
2.7340701154159275e-05   -5.742854605974082e-06   -9.960556999714845e-06
3.93589854092047e-05   -4.879751046054509e-06   5.262558028620509e-06
3.93589854092047e-05   -4.879751046054509e-06   5.262558028620509e-06
3.93589854092047e-05   -4.879751046054509e-06   5.262558028620509e-06
3.93589854092047e-05   -4.879751046054509e-06   5.262558028620509e-06
1.8868673430055572e-05   -7.581302641800286e-06   -3.0508892894075463e-05
1.8868673430055572e-05   -7.581302641800286e-06   -3.0508892894075463e-05
1.8868673430055572e-05   -7.581302641800286e-06   -3.0508892894075463e-05
1.8868673430055572e-05   -7.581302641800286e-06   -3.0508892894075463e-05
1.9603175252397536e-05   -4.563921379168671e-06   1.7496877110349286e-06
1.9603175252397536e-05   -4.563921379168671e-06   1.7496877110349286e-06
1.9603175252397536e-05   -4.563921379168671e-06   1.7496877110349286e-06
1.9603175252397536e-05   -4.563921379168671e-06   1.7496877110349286e-06
4.06768350953251e-05   -7.3178470766522685e-06   -3.1720723275354e-05
4.06768350953251e-05   -7.3178470766522685e-06   -3.1720723275354e-05
4.06768350953251e-05   -7.3178470766522685e-06   -3.1720723275354e-05
4.06768350953251e-05   -7.3178470766522685e-06   -3.1720723275354e-05
2.8787898667097762e-05   -5.723723522534649e-06   -1.2862303360779083e-05
2.8787898667097762e-05   -5.723723522534649e-06   -1.2862303360779083e-05
2.8787898667097762e-05   -5.723723522534649e-06   -1.2862303360779083e-05
2.8787898667097762e-05   -5.723723522534649e-06   -1.2862303360779083e-05
4.06768350953251e-05   -4.563921379168671e-06   3.4020431295253475e-06
4.06768350953251e-05   -4.563921379168671e-06   3.4020431295253475e-06
4.06768350953251e-05   -4.563921379168671e-06   3.4020431295253475e-06
4.06768350953251e-05   -4.563921379168671e-06   3.4020431295253475e-06
1.9603175252397536e-05   -7.3178470766522685e-06   -3.337307869384436e-05
1.9603175252397536e-05   -7.3178470766522685e-06   -3.337307869384436e-05
1.9603175252397536e-05   -7.3178470766522685e-06   -3.337307869384436e-05
1.9603175252397536e-05   -7.3178470766522685e-06   -3.337307869384436e-05
2.0101408383025004e-05   -3.566054190032872e-06   -2.0581043867007667e-06
2.0101408383025004e-05   -3.566054190032872e-06   -2.0581043867007667e-06
2.0101408383025004e-05   -3.566054190032872e-06   -2.0581043867007667e-06
2.0101408383025004e-05   -3.566054190032872e-06   -2.0581043867007667e-06
4.2070586806950235e-05   -6.291168725714889e-06   -3.703833303850024e-05
4.2070586806950235e-05   -6.291168725714889e-06   -3.703833303850024e-05
4.2070586806950235e-05   -6.291168725714889e-06   -3.703833303850024e-05
4.2070586806950235e-05   -6.291168725714889e-06   -3.703833303850024e-05
2.918967631686107e-05   -5.2833178750284066e-06   -1.617485939876389e-05
2.918967631686107e-05   -5.2833178750284066e-06   -1.617485939876389e-05
2.918967631686107e-05   -5.2833178750284066e-06   -1.617485939876389e-05
2.918967631686107e-05   -5.2833178750284066e-06   -1.617485939876389e-05
1.8130422154630606e-05   -2.4526484664816935e-06   -9.105355463109172e-06
1.8130422154630606e-05   -2.4526484664816935e-06   -9.105355463109172e-06
1.8130422154630606e-05   -2.4526484664816935e-06   -9.105355463109172e-06
1.8130422154630606e-05   -2.4526484664816935e-06   -9.105355463109172e-06
-1.1139770755480072e-06   -5.02009188156345e-06   -4.271982022912256e-05
-1.1139770755480072e-06   -5.02009188156345e-06   -4.271982022912256e-05
-1.1139770755480072e-06   -5.02009188156345e-06   -4.271982022912256e-05
-1.1139770755480072e-06   -5.02009188156345e-06   -4.271982022912256e-05
-3.5652989588514056e-07   -1.942206617396589e-06   -1.0041426936744551e-05
-3.5652989588514056e-07   -1.942206617396589e-06   -1.0041426936744551e-05
-3.5652989588514056e-07   -1.942206617396589e-06   -1.0041426936744551e-05
-3.5652989588514056e-07   -1.942206617396589e-06   -1.0041426936744551e-05
1.88686734300556e-05   -4.778384123545892e-06   -4.0381725976289885e-05
1.88686734300556e-05   -4.778384123545892e-06   -4.0381725976289885e-05
1.88686734300556e-05   -4.778384123545892e-06   -4.0381725976289885e-05
1.88686734300556e-05   -4.778384123545892e-06   -4.0381725976289885e-05
8.908582715217459e-06   -3.0375887306486552e-06   -2.482605202063133e-05
8.908582715217459e-06   -3.0375887306486552e-06   -2.482605202063133e-05
8.908582715217459e-06   -3.0375887306486552e-06   -2.482605202063133e-05
8.908582715217459e-06   -3.0375887306486552e-06   -2.482605202063133e-05
1.8868673430055572e-05   -1.942206617396589e-06   -8.339720433055012e-06
1.8868673430055572e-05   -1.942206617396589e-06   -8.339720433055012e-06
1.8868673430055572e-05   -1.942206617396589e-06   -8.339720433055012e-06
1.8868673430055572e-05   -1.942206617396589e-06   -8.339720433055012e-06
-3.5652989588514056e-07   -4.778384123545892e-06   -4.208343247997929e-05
-3.5652989588514056e-07   -4.778384123545892e-06   -4.208343247997929e-05
-3.5652989588514056e-07   -4.778384123545892e-06   -4.208343247997929e-05
-3.5652989588514056e-07   -4.778384123545892e-06   -4.208343247997929e-05
3.1074377355212203e-07   -1.3183847499410439e-06   -1.028226556130528e-05
3.1074377355212203e-07   -1.3183847499410439e-06   -1.028226556130528e-05
3.1074377355212203e-07   -1.3183847499410439e-06   -1.028226556130528e-05
3.1074377355212203e-07   -1.3183847499410439e-06   -1.028226556130528e-05
1.9603175252397536e-05   -4.329386455453324e-06   -4.06297170027402e-05
1.9603175252397536e-05   -4.329386455453324e-06   -4.06297170027402e-05
1.9603175252397536e-05   -4.329386455453324e-06   -4.06297170027402e-05
1.9603175252397536e-05   -4.329386455453324e-06   -4.06297170027402e-05
9.423325514659214e-06   -2.7869080484754522e-06   -2.4588787817362483e-05
9.423325514659214e-06   -2.7869080484754522e-06   -2.4588787817362483e-05
9.423325514659214e-06   -2.7869080484754522e-06   -2.4588787817362483e-05
9.423325514659214e-06   -2.7869080484754522e-06   -2.4588787817362483e-05
1.9603175252397536e-05   -1.318384749940827e-06   -8.47566453799774e-06
1.9603175252397536e-05   -1.318384749940827e-06   -8.47566453799774e-06
1.9603175252397536e-05   -1.318384749940827e-06   -8.47566453799774e-06
1.9603175252397536e-05   -1.318384749940827e-06   -8.47566453799774e-06
3.1074377355212203e-07   -4.329386455453324e-06   -4.2436318026047633e-05
3.1074377355212203e-07   -4.329386455453324e-06   -4.2436318026047633e-05
3.1074377355212203e-07   -4.329386455453324e-06   -4.2436318026047633e-05
3.1074377355212203e-07   -4.329386455453324e-06   -4.2436318026047633e-05
7.855280158969969e-07   -5.33189119562719e-07   -1.0691474772234503e-05
7.855280158969969e-07   -5.33189119562719e-07   -1.0691474772234503e-05
7.855280158969969e-07   -5.33189119562719e-07   -1.0691474772234503e-05
7.855280158969969e-07   -5.33189119562719e-07   -1.0691474772234503e-05
2.010140838302506e-05   -3.69048596894064e-06   -4.0990230607821574e-05
2.010140838302506e-05   -3.69048596894064e-06   -4.0990230607821574e-05
2.010140838302506e-05   -3.69048596894064e-06   -4.0990230607821574e-05
2.010140838302506e-05   -3.69048596894064e-06   -4.0990230607821574e-05
1.0040814203770864e-05   -2.3458026011265697e-06   -2.5029383663086578e-05
1.0040814203770864e-05   -2.3458026011265697e-06   -2.5029383663086578e-05
1.0040814203770864e-05   -2.3458026011265697e-06   -2.5029383663086578e-05
1.0040814203770864e-05   -2.3458026011265697e-06   -2.5029383663086578e-05
-1.1139770755480072e-06   4.5477368719481527e-07   -1.3886768906499732e-05
-1.1139770755480072e-06   4.5477368719481527e-07   -1.3886768906499732e-05
-1.1139770755480072e-06   4.5477368719481527e-07   -1.3886768906499732e-05
-1.1139770755480072e-06   4.5477368719481527e-07   -1.3886768906499732e-05
-2.0074140151718198e-05   -2.620771001278282e-06   -4.733236751320062e-05
-2.0074140151718198e-05   -2.620771001278282e-06   -4.733236751320062e-05
-2.0074140151718198e-05   -2.620771001278282e-06   -4.733236751320062e-05
-2.0074140151718198e-05   -2.620771001278282e-06   -4.733236751320062e-05
-1.9165211709150865e-05   1.0284076324730551e-06   -1.5098146060083797e-05
-1.9165211709150865e-05   1.0284076324730551e-06   -1.5098146060083797e-05
-1.9165211709150865e-05   1.0284076324730551e-06   -1.5098146060083797e-05
-1.9165211709150865e-05   1.0284076324730551e-06   -1.5098146060083797e-05
-3.5652989588514056e-07   -2.3355485331850306e-06   -4.442757538279866e-05
-3.5652989588514056e-07   -2.3355485331850306e-06   -4.442757538279866e-05
-3.5652989588514056e-07   -2.3355485331850306e-06   -4.442757538279866e-05
-3.5652989588514056e-07   -2.3355485331850306e-06   -4.442757538279866e-05
-1.0057177215385547e-05   -4.968269041636351e-07   -2.9363062827710723e-05
-1.0057177215385547e-05   -4.968269041636351e-07   -2.9363062827710723e-05
-1.0057177215385547e-05   -4.968269041636351e-07   -2.9363062827710723e-05
-1.0057177215385547e-05   -4.968269041636351e-07   -2.9363062827710723e-05
-3.5652989588514056e-07   1.0284076324730551e-06   -1.3079772360689119e-05
-3.5652989588514056e-07   1.0284076324730551e-06   -1.3079772360689119e-05
-3.5652989588514056e-07   1.0284076324730551e-06   -1.3079772360689119e-05
-3.5652989588514056e-07   1.0284076324730551e-06   -1.3079772360689119e-05
-1.9165211709150865e-05   -2.3355485331850306e-06   -4.644594908219347e-05
-1.9165211709150865e-05   -2.3355485331850306e-06   -4.644594908219347e-05
-1.9165211709150865e-05   -2.3355485331850306e-06   -4.644594908219347e-05
-1.9165211709150865e-05   -2.3355485331850306e-06   -4.644594908219347e-05
-1.8331332554916708e-05   1.6922042360588072e-06   -1.4827893131367717e-05
-1.8331332554916708e-05   1.6922042360588072e-06   -1.4827893131367717e-05
-1.8331332554916708e-05   1.6922042360588072e-06   -1.4827893131367717e-05
-1.8331332554916708e-05   1.6922042360588072e-06   -1.4827893131367717e-05
3.1074377355212203e-07   -1.8929774959783405e-06   -4.374691130626005e-05
3.1074377355212203e-07   -1.8929774959783405e-06   -4.374691130626005e-05
3.1074377355212203e-07   -1.8929774959783405e-06   -4.374691130626005e-05
3.1074377355212203e-07   -1.8929774959783405e-06   -4.374691130626005e-05
-9.317166244614316e-06   -1.7080854348440998e-07   -2.8733695980812286e-05
-9.317166244614316e-06   -1.7080854348440998e-07   -2.8733695980812286e-05
-9.317166244614316e-06   -1.7080854348440998e-07   -2.8733695980812286e-05
-9.317166244614316e-06   -1.7080854348440998e-07   -2.8733695980812286e-05
3.1074377355212203e-07   1.6922042360588072e-06   -1.2676784092145472e-05
3.1074377355212203e-07   1.6922042360588072e-06   -1.2676784092145472e-05
3.1074377355212203e-07   1.6922042360588072e-06   -1.2676784092145472e-05
3.1074377355212203e-07   1.6922042360588072e-06   -1.2676784092145472e-05
-1.833133255491674e-05   -1.8929774959781237e-06   -4.5898020345482406e-05
-1.833133255491674e-05   -1.8929774959781237e-06   -4.5898020345482406e-05
-1.833133255491674e-05   -1.8929774959781237e-06   -4.5898020345482406e-05
-1.833133255491674e-05   -1.8929774959781237e-06   -4.5898020345482406e-05
-1.7769208468906517e-05   2.3781245660299457e-06   -1.508637940730211e-05
-1.7769208468906517e-05   2.3781245660299457e-06   -1.508637940730211e-05
-1.7769208468906517e-05   2.3781245660299457e-06   -1.508637940730211e-05
-1.7769208468906517e-05   2.3781245660299457e-06   -1.508637940730211e-05
7.855280158969969e-07   -1.4730863256912693e-06   -4.37002136802756e-05
7.855280158969969e-07   -1.4730863256912693e-06   -4.37002136802756e-05
7.855280158969969e-07   -1.4730863256912693e-06   -4.37002136802756e-05
7.855280158969969e-07   -1.4730863256912693e-06   -4.37002136802756e-05
-8.789667648812063e-06   1.9504414156511218e-07   -2.8742432519448158e-05
-8.789667648812063e-06   1.9504414156511218e-07   -2.8742432519448158e-05
-8.789667648812063e-06   1.9504414156511218e-07   -2.8742432519448158e-05
-8.789667648812063e-06   1.9504414156511218e-07   -2.8742432519448158e-05
-2.0074140151718157e-05   3.466395697478185e-06   -1.1327205188344826e-05
-2.0074140151718157e-05   3.466395697478185e-06   -1.1327205188344826e-05
-2.0074140151718157e-05   3.466395697478185e-06   -1.1327205188344826e-05
-2.0074140151718157e-05   3.466395697478185e-06   -1.1327205188344826e-05
-3.9300685463586696e-05   6.979402256274136e-07   -4.503252065790272e-05
-3.9300685463586696e-05   6.979402256274136e-07   -4.503252065790272e-05
-3.9300685463586696e-05   6.979402256274136e-07   -4.503252065790272e-05
-3.9300685463586696e-05   6.979402256274136e-07   -4.503252065790272e-05
-3.800656119817832e-05   4.19424183857901e-06   -1.2066043891874973e-05
-3.800656119817832e-05   4.19424183857901e-06   -1.2066043891874973e-05
-3.800656119817832e-05   4.19424183857901e-06   -1.2066043891874973e-05
-3.800656119817832e-05   4.19424183857901e-06   -1.2066043891874973e-05
-1.9165211709150824e-05   1.2233260922548273e-06   -4.168574359245983e-05
-1.9165211709150824e-05   1.2233260922548273e-06   -4.168574359245983e-05
-1.9165211709150824e-05   1.2233260922548273e-06   -4.168574359245983e-05
-1.9165211709150824e-05   1.2233260922548273e-06   -4.168574359245983e-05
-2.8835005172555012e-05   2.6442156751053762e-06   -2.6421954903163157e-05
-2.8835005172555012e-05   2.6442156751053762e-06   -2.6421954903163157e-05
-2.8835005172555012e-05   2.6442156751053762e-06   -2.6421954903163157e-05
-2.8835005172555012e-05   2.6442156751053762e-06   -2.6421954903163157e-05
-1.9165211709150824e-05   4.19424183857901e-06   -1.028349444408055e-05
-1.9165211709150824e-05   4.19424183857901e-06   -1.028349444408055e-05
-1.9165211709150824e-05   4.19424183857901e-06   -1.028349444408055e-05
-1.9165211709150824e-05   4.19424183857901e-06   -1.028349444408055e-05
-3.800656119817839e-05   1.2233260922548273e-06   -4.346829304025424e-05
-3.800656119817839e-05   1.2233260922548273e-06   -4.346829304025424e-05
-3.800656119817839e-05   1.2233260922548273e-06   -4.346829304025424e-05
-3.800656119817839e-05   1.2233260922548273e-06   -4.346829304025424e-05
-3.6754855161043846e-05   4.8209702868343834e-06   -1.098545402997554e-05
-3.6754855161043846e-05   4.8209702868343834e-06   -1.098545402997554e-05
-3.6754855161043846e-05   4.8209702868343834e-06   -1.098545402997554e-05
-3.6754855161043846e-05   4.8209702868343834e-06   -1.098545402997554e-05
-1.833133255491674e-05   1.7067668483681988e-06   -3.982280297710789e-05
-1.833133255491674e-05   1.7067668483681988e-06   -3.982280297710789e-05
-1.833133255491674e-05   1.7067668483681988e-06   -3.982280297710789e-05
-1.833133255491674e-05   1.7067668483681988e-06   -3.982280297710789e-05
-2.766437558977024e-05   3.1013679485524144e-06   -2.510449191246223e-05
-2.766437558977024e-05   3.1013679485524144e-06   -2.510449191246223e-05
-2.766437558977024e-05   3.1013679485524144e-06   -2.510449191246223e-05
-2.766437558977024e-05   3.1013679485524144e-06   -2.510449191246223e-05
-1.8331332554916694e-05   4.8209702868343834e-06   -9.116931966895786e-06
-1.8331332554916694e-05   4.8209702868343834e-06   -9.116931966895786e-06
-1.8331332554916694e-05   4.8209702868343834e-06   -9.116931966895786e-06
-1.8331332554916694e-05   4.8209702868343834e-06   -9.116931966895786e-06
-3.6754855161043914e-05   1.7067668483681988e-06   -4.169132504018764e-05
-3.6754855161043914e-05   1.7067668483681988e-06   -4.169132504018764e-05
-3.6754855161043914e-05   1.7067668483681988e-06   -4.169132504018764e-05
-3.6754855161043914e-05   1.7067668483681988e-06   -4.169132504018764e-05
-3.5806342378853495e-05   5.513829560654937e-06   -1.1020227859602104e-05
-3.5806342378853495e-05   5.513829560654937e-06   -1.1020227859602104e-05
-3.5806342378853495e-05   5.513829560654937e-06   -1.1020227859602104e-05
-3.5806342378853495e-05   5.513829560654937e-06   -1.1020227859602104e-05
-1.776920846890655e-05   2.115256629058298e-06   -3.904297395055586e-05
-1.776920846890655e-05   2.115256629058298e-06   -3.904297395055586e-05
-1.776920846890655e-05   2.115256629058298e-06   -3.904297395055586e-05
-1.776920846890655e-05   2.115256629058298e-06   -3.904297395055586e-05
-2.7010972525363992e-05   3.420584064486084e-06   -2.4423230317716484e-05
-2.7010972525363992e-05   3.420584064486084e-06   -2.4423230317716484e-05
-2.7010972525363992e-05   3.420584064486084e-06   -2.4423230317716484e-05
-2.7010972525363992e-05   3.420584064486084e-06   -2.4423230317716484e-05
-3.9300685463586696e-05   6.806008199121329e-06   -6.493346401274629e-06
-3.9300685463586696e-05   6.806008199121329e-06   -6.493346401274629e-06
-3.9300685463586696e-05   6.806008199121329e-06   -6.493346401274629e-06
-3.9300685463586696e-05   6.806008199121329e-06   -6.493346401274629e-06
-5.939423806385398e-05   6.431766854190059e-06   -4.020714554201247e-05
-5.939423806385398e-05   6.431766854190059e-06   -4.020714554201247e-05
-5.939423806385398e-05   6.431766854190059e-06   -4.020714554201247e-05
-5.939423806385398e-05   6.431766854190059e-06   -4.020714554201247e-05
-5.6835778455133505e-05   7.773171756261322e-06   -1.3877976276412823e-07
-5.6835778455133505e-05   7.773171756261322e-06   -1.3877976276412823e-07
-5.6835778455133505e-05   7.773171756261322e-06   -1.3877976276412823e-07
-5.6835778455133505e-05   7.773171756261322e-06   -1.3877976276412823e-07
-3.800656119817826e-05   8.133391533691331e-06   -3.1736940390814165e-05
-3.800656119817826e-05   8.133391533691331e-06   -3.1736940390814165e-05
-3.800656119817826e-05   8.133391533691331e-06   -3.1736940390814165e-05
-3.800656119817826e-05   8.133391533691331e-06   -3.1736940390814165e-05
-4.6298026399225155e-05   7.667824509408278e-06   -1.7638491507833073e-05
-4.6298026399225155e-05   7.667824509408278e-06   -1.7638491507833073e-05
-4.6298026399225155e-05   7.667824509408278e-06   -1.7638491507833073e-05
-4.6298026399225155e-05   7.667824509408278e-06   -1.7638491507833073e-05
-3.800656119817836e-05   7.773171756261322e-06   -3.5491162922191705e-07
-3.800656119817836e-05   7.773171756261322e-06   -3.5491162922191705e-07
-3.800656119817836e-05   7.773171756261322e-06   -3.5491162922191705e-07
-3.800656119817836e-05   7.773171756261322e-06   -3.5491162922191705e-07
-5.6835778455133505e-05   8.133391533691331e-06   -3.152080852435635e-05
-5.6835778455133505e-05   8.133391533691331e-06   -3.152080852435635e-05
-5.6835778455133505e-05   8.133391533691331e-06   -3.152080852435635e-05
-5.6835778455133505e-05   8.133391533691331e-06   -3.152080852435635e-05
-5.4714636912615684e-05   8.027842405978819e-06   3.4536957023846397e-06
-5.4714636912615684e-05   8.027842405978819e-06   3.4536957023846397e-06
-5.4714636912615684e-05   8.027842405978819e-06   3.4536957023846397e-06
-5.4714636912615684e-05   8.027842405978819e-06   3.4536957023846397e-06
-3.6754855161043846e-05   8.51621161814778e-06   -2.6772295410869954e-05
-3.6754855161043846e-05   8.51621161814778e-06   -2.6772295410869954e-05
-3.6754855161043846e-05   8.51621161814778e-06   -2.6772295410869954e-05
-3.6754855161043846e-05   8.51621161814778e-06   -2.6772295410869954e-05
-4.533444242734815e-05   8.223911446212252e-06   -1.2297603197200828e-05
-4.533444242734815e-05   8.223911446212252e-06   -1.2297603197200828e-05
-4.533444242734815e-05   8.223911446212252e-06   -1.2297603197200828e-05
-4.533444242734815e-05   8.223911446212252e-06   -1.2297603197200828e-05
-3.6754855161043914e-05   8.027842405978819e-06   3.1606741750834794e-06
-3.6754855161043914e-05   8.027842405978819e-06   3.1606741750834794e-06
-3.6754855161043914e-05   8.027842405978819e-06   3.1606741750834794e-06
-3.6754855161043914e-05   8.027842405978819e-06   3.1606741750834794e-06
-5.4714636912615596e-05   8.51621161814778e-06   -2.6479273883568645e-05
-5.4714636912615596e-05   8.51621161814778e-06   -2.6479273883568645e-05
-5.4714636912615596e-05   8.51621161814778e-06   -2.6479273883568645e-05
-5.4714636912615596e-05   8.51621161814778e-06   -2.6479273883568645e-05
-5.2495347854829974e-05   8.245737415105365e-06   8.271289897307348e-06
-5.2495347854829974e-05   8.245737415105365e-06   8.271289897307348e-06
-5.2495347854829974e-05   8.245737415105365e-06   8.271289897307348e-06
-5.2495347854829974e-05   8.245737415105365e-06   8.271289897307348e-06
-3.5806342378853495e-05   9.171053079633446e-06   -2.009890862803701e-05
-3.5806342378853495e-05   9.171053079633446e-06   -2.009890862803701e-05
-3.5806342378853495e-05   9.171053079633446e-06   -2.009890862803701e-05
-3.5806342378853495e-05   9.171053079633446e-06   -2.009890862803701e-05
-4.319017652047572e-05   8.40973360278054e-06   -7.335726705888631e-06
-4.319017652047572e-05   8.40973360278054e-06   -7.335726705888631e-06
-4.319017652047572e-05   8.40973360278054e-06   -7.335726705888631e-06
-4.319017652047572e-05   8.40973360278054e-06   -7.335726705888631e-06
5.170864429929732e-05   -7.761813294623714e-06   1.7673854284181974e-05
5.170864429929732e-05   -7.761813294623714e-06   1.7673854284181974e-05
5.170864429929732e-05   -7.761813294623714e-06   1.7673854284181974e-05
5.170864429929732e-05   -7.761813294623714e-06   1.7673854284181974e-05
2.598178116986998e-05   -9.811066535091867e-06   -2.6433802875810942e-05
2.598178116986998e-05   -9.811066535091867e-06   -2.6433802875810942e-05
2.598178116986998e-05   -9.811066535091867e-06   -2.6433802875810942e-05
2.598178116986998e-05   -9.811066535091867e-06   -2.6433802875810942e-05
2.661324461199991e-05   -7.581302641800286e-06   1.2685722454782757e-05
2.661324461199991e-05   -7.581302641800286e-06   1.2685722454782757e-05
2.661324461199991e-05   -7.581302641800286e-06   1.2685722454782757e-05
2.661324461199991e-05   -7.581302641800286e-06   1.2685722454782757e-05
5.2992821050175e-05   -1.005653513907502e-05   -2.97950987771442e-05
5.2992821050175e-05   -1.005653513907502e-05   -2.97950987771442e-05
5.2992821050175e-05   -1.005653513907502e-05   -2.97950987771442e-05
5.2992821050175e-05   -1.005653513907502e-05   -2.97950987771442e-05
3.775694182789028e-05   -7.928327193382559e-06   -5.678891507418353e-06
3.775694182789028e-05   -7.928327193382559e-06   -5.678891507418353e-06
3.775694182789028e-05   -7.928327193382559e-06   -5.678891507418353e-06
3.775694182789028e-05   -7.928327193382559e-06   -5.678891507418353e-06
5.2992821050175e-05   -7.581302641800286e-06   1.417086195314751e-05
5.2992821050175e-05   -7.581302641800286e-06   1.417086195314751e-05
5.2992821050175e-05   -7.581302641800286e-06   1.417086195314751e-05
5.2992821050175e-05   -7.581302641800286e-06   1.417086195314751e-05
2.661324461199991e-05   -1.005653513907502e-05   -3.128023827550909e-05
2.661324461199991e-05   -1.005653513907502e-05   -3.128023827550909e-05
2.661324461199991e-05   -1.005653513907502e-05   -3.128023827550909e-05
2.661324461199991e-05   -1.005653513907502e-05   -3.128023827550909e-05
2.714690835265877e-05   -7.3178470766522685e-06   1.0013964234649496e-05
2.714690835265877e-05   -7.3178470766522685e-06   1.0013964234649496e-05
2.714690835265877e-05   -7.3178470766522685e-06   1.0013964234649496e-05
2.714690835265877e-05   -7.3178470766522685e-06   1.0013964234649496e-05
5.3792792141248743e-05   -9.96477544052592e-06   -3.280768506134295e-05
5.3792792141248743e-05   -9.96477544052592e-06   -3.280768506134295e-05
5.3792792141248743e-05   -9.96477544052592e-06   -3.280768506134295e-05
5.3792792141248743e-05   -9.96477544052592e-06   -3.280768506134295e-05
3.90850091058243e-05   -8.177946303550765e-06   -9.366810817820672e-06
3.90850091058243e-05   -8.177946303550765e-06   -9.366810817820672e-06
3.90850091058243e-05   -8.177946303550765e-06   -9.366810817820672e-06
3.90850091058243e-05   -8.177946303550765e-06   -9.366810817820672e-06
5.3792792141248743e-05   -7.3178470766522685e-06   1.1602121252973687e-05
5.3792792141248743e-05   -7.3178470766522685e-06   1.1602121252973687e-05
5.3792792141248743e-05   -7.3178470766522685e-06   1.1602121252973687e-05
5.3792792141248743e-05   -7.3178470766522685e-06   1.1602121252973687e-05
2.714690835265877e-05   -9.96477544052592e-06   -3.439584207966717e-05
2.714690835265877e-05   -9.96477544052592e-06   -3.439584207966717e-05
2.714690835265877e-05   -9.96477544052592e-06   -3.439584207966717e-05
2.714690835265877e-05   -9.96477544052592e-06   -3.439584207966717e-05
2.770397204280755e-05   -6.291168725714889e-06   4.833641888781371e-06
2.770397204280755e-05   -6.291168725714889e-06   4.833641888781371e-06
2.770397204280755e-05   -6.291168725714889e-06   4.833641888781371e-06
2.770397204280755e-05   -6.291168725714889e-06   4.833641888781371e-06
5.458052847919363e-05   -9.408527396762359e-06   -3.809020363590028e-05
5.458052847919363e-05   -9.408527396762359e-06   -3.809020363590028e-05
5.458052847919363e-05   -9.408527396762359e-06   -3.809020363590028e-05
5.458052847919363e-05   -9.408527396762359e-06   -3.809020363590028e-05
3.9101177379215276e-05   -7.869338724641626e-06   -1.3214798339208867e-05
3.9101177379215276e-05   -7.869338724641626e-06   -1.3214798339208867e-05
3.9101177379215276e-05   -7.869338724641626e-06   -1.3214798339208867e-05
3.9101177379215276e-05   -7.869338724641626e-06   -1.3214798339208867e-05
2.598178116986998e-05   -5.02009188156345e-06   1.7873453719468094e-06
2.598178116986998e-05   -5.02009188156345e-06   1.7873453719468094e-06
2.598178116986998e-05   -5.02009188156345e-06   1.7873453719468094e-06
2.598178116986998e-05   -5.02009188156345e-06   1.7873453719468094e-06
3.0559401640438562e-06   -9.819472605962064e-06   -3.930201807240247e-05
3.0559401640438562e-06   -9.819472605962064e-06   -3.930201807240247e-05
3.0559401640438562e-06   -9.819472605962064e-06   -3.930201807240247e-05
3.0559401640438562e-06   -9.819472605962064e-06   -3.930201807240247e-05
3.7915901017586135e-06   -4.778384123545892e-06   -1.8070517041469773e-07
3.7915901017586135e-06   -4.778384123545892e-06   -1.8070517041469773e-07
3.7915901017586135e-06   -4.778384123545892e-06   -1.8070517041469773e-07
3.7915901017586135e-06   -4.778384123545892e-06   -1.8070517041469773e-07
2.661324461199995e-05   -9.767708361851316e-06   -3.5223201477833845e-05
2.661324461199995e-05   -9.767708361851316e-06   -3.5223201477833845e-05
2.661324461199995e-05   -9.767708361851316e-06   -3.5223201477833845e-05
2.661324461199995e-05   -9.767708361851316e-06   -3.5223201477833845e-05
1.4917920173777953e-05   -6.626042726643865e-06   -1.7615993461921303e-05
1.4917920173777953e-05   -6.626042726643865e-06   -1.7615993461921303e-05
1.4917920173777953e-05   -6.626042726643865e-06   -1.7615993461921303e-05
1.4917920173777953e-05   -6.626042726643865e-06   -1.7615993461921303e-05
2.661324461199991e-05   -4.778384123545892e-06   2.812889372568253e-06
2.661324461199991e-05   -4.778384123545892e-06   2.812889372568253e-06
2.661324461199991e-05   -4.778384123545892e-06   2.812889372568253e-06
2.661324461199991e-05   -4.778384123545892e-06   2.812889372568253e-06
3.7915901017586e-06   -9.767708361850883e-06   -3.821679602081696e-05
3.7915901017586e-06   -9.767708361850883e-06   -3.821679602081696e-05
3.7915901017586e-06   -9.767708361850883e-06   -3.821679602081696e-05
3.7915901017586e-06   -9.767708361850883e-06   -3.821679602081696e-05
4.4555954372845315e-06   -4.3293864554535405e-06   -4.258755989460742e-07
4.4555954372845315e-06   -4.3293864554535405e-06   -4.258755989460742e-07
4.4555954372845315e-06   -4.3293864554535405e-06   -4.258755989460742e-07
4.4555954372845315e-06   -4.3293864554535405e-06   -4.258755989460742e-07
2.714690835265877e-05   -9.634722329952914e-06   -3.506152893320349e-05
2.714690835265877e-05   -9.634722329952914e-06   -3.506152893320349e-05
2.714690835265877e-05   -9.634722329952914e-06   -3.506152893320349e-05
2.714690835265877e-05   -9.634722329952914e-06   -3.506152893320349e-05
1.533442286104529e-05   -6.697308422436632e-06   -1.7136501458356725e-05
1.533442286104529e-05   -6.697308422436632e-06   -1.7136501458356725e-05
1.533442286104529e-05   -6.697308422436632e-06   -1.7136501458356725e-05
1.533442286104529e-05   -6.697308422436632e-06   -1.7136501458356725e-05
2.714690835265877e-05   -4.329386455453324e-06   2.7573259257537668e-06
2.714690835265877e-05   -4.329386455453324e-06   2.7573259257537668e-06
2.714690835265877e-05   -4.329386455453324e-06   2.7573259257537668e-06
2.714690835265877e-05   -4.329386455453324e-06   2.7573259257537668e-06
4.4555954372845315e-06   -9.634722329952914e-06   -3.824473045790293e-05
4.4555954372845315e-06   -9.634722329952914e-06   -3.824473045790293e-05
4.4555954372845315e-06   -9.634722329952914e-06   -3.824473045790293e-05
4.4555954372845315e-06   -9.634722329952914e-06   -3.824473045790293e-05
5.446875419391818e-06   -3.69048596894064e-06   -8.910460835656088e-07
5.446875419391818e-06   -3.69048596894064e-06   -8.910460835656088e-07
5.446875419391818e-06   -3.69048596894064e-06   -8.910460835656088e-07
5.446875419391818e-06   -3.69048596894064e-06   -8.910460835656088e-07
2.7703972042807535e-05   -9.370251176331768e-06   -3.457834799815699e-05
2.7703972042807535e-05   -9.370251176331768e-06   -3.457834799815699e-05
2.7703972042807535e-05   -9.370251176331768e-06   -3.457834799815699e-05
2.7703972042807535e-05   -9.370251176331768e-06   -3.457834799815699e-05
1.6131630011507588e-05   -6.591185457413768e-06   -1.6958550710674406e-05
1.6131630011507588e-05   -6.591185457413768e-06   -1.6958550710674406e-05
1.6131630011507588e-05   -6.591185457413768e-06   -1.6958550710674406e-05
1.6131630011507588e-05   -6.591185457413768e-06   -1.6958550710674406e-05
3.0559401640438562e-06   -2.620771001278282e-06   -3.859503533686472e-06
3.0559401640438562e-06   -2.620771001278282e-06   -3.859503533686472e-06
3.0559401640438562e-06   -2.620771001278282e-06   -3.859503533686472e-06
3.0559401640438562e-06   -2.620771001278282e-06   -3.859503533686472e-06
-1.9631732817708292e-05   -1.1821193220542398e-05   -4.719254516816543e-05
-1.9631732817708292e-05   -1.1821193220542398e-05   -4.719254516816543e-05
-1.9631732817708292e-05   -1.1821193220542398e-05   -4.719254516816543e-05
-1.9631732817708292e-05   -1.1821193220542398e-05   -4.719254516816543e-05
-1.8485524820324985e-05   -2.335548533184814e-06   -8.371847109812708e-06
-1.8485524820324985e-05   -2.335548533184814e-06   -8.371847109812708e-06
-1.8485524820324985e-05   -2.335548533184814e-06   -8.371847109812708e-06
-1.8485524820324985e-05   -2.335548533184814e-06   -8.371847109812708e-06
3.7915901017586e-06   -1.208054692748272e-05   -3.965337294337321e-05
3.7915901017586e-06   -1.208054692748272e-05   -3.965337294337321e-05
3.7915901017586e-06   -1.208054692748272e-05   -3.965337294337321e-05
3.7915901017586e-06   -1.208054692748272e-05   -3.965337294337321e-05
-7.556634519724462e-06   -6.6777733262704964e-06   -2.398132940162887e-05
-7.556634519724462e-06   -6.6777733262704964e-06   -2.398132940162887e-05
-7.556634519724462e-06   -6.6777733262704964e-06   -2.398132940162887e-05
-7.556634519724462e-06   -6.6777733262704964e-06   -2.398132940162887e-05
3.7915901017586e-06   -2.335548533184814e-06   -2.524848073233877e-06
3.7915901017586e-06   -2.335548533184814e-06   -2.524848073233877e-06
3.7915901017586e-06   -2.335548533184814e-06   -2.524848073233877e-06
3.7915901017586e-06   -2.335548533184814e-06   -2.524848073233877e-06
-1.8485524820325013e-05   -1.208054692748272e-05   -4.550037197995202e-05
-1.8485524820325013e-05   -1.208054692748272e-05   -4.550037197995202e-05
-1.8485524820325013e-05   -1.208054692748272e-05   -4.550037197995202e-05
-1.8485524820325013e-05   -1.208054692748272e-05   -4.550037197995202e-05
-1.749747621433611e-05   -1.8929774959783405e-06   -7.813599130956396e-06
-1.749747621433611e-05   -1.8929774959783405e-06   -7.813599130956396e-06
-1.749747621433611e-05   -1.8929774959783405e-06   -7.813599130956396e-06
-1.749747621433611e-05   -1.8929774959783405e-06   -7.813599130956396e-06
4.4555954372845315e-06   -1.2021527915641404e-05   -3.8324921631859704e-05
4.4555954372845315e-06   -1.2021527915641404e-05   -3.8324921631859704e-05
4.4555954372845315e-06   -1.2021527915641404e-05   -3.8324921631859704e-05
4.4555954372845315e-06   -1.2021527915641404e-05   -3.8324921631859704e-05
-6.7428753331037205e-06   -6.827299238197637e-06   -2.2777340887678845e-05
-6.7428753331037205e-06   -6.827299238197637e-06   -2.2777340887678845e-05
-6.7428753331037205e-06   -6.827299238197637e-06   -2.2777340887678845e-05
-6.7428753331037205e-06   -6.827299238197637e-06   -2.2777340887678845e-05
4.4555954372845315e-06   -1.8929774959783405e-06   -1.7364688791586015e-06
4.4555954372845315e-06   -1.8929774959783405e-06   -1.7364688791586015e-06
4.4555954372845315e-06   -1.8929774959783405e-06   -1.7364688791586015e-06
4.4555954372845315e-06   -1.8929774959783405e-06   -1.7364688791586015e-06
-1.749747621433618e-05   -1.2021527915641837e-05   -4.440205188365777e-05
-1.749747621433618e-05   -1.2021527915641837e-05   -4.440205188365777e-05
-1.749747621433618e-05   -1.2021527915641837e-05   -4.440205188365777e-05
-1.749747621433618e-05   -1.2021527915641837e-05   -4.440205188365777e-05
-1.5792519696168573e-05   -1.4730863256912693e-06   -7.78103320366757e-06
-1.5792519696168573e-05   -1.4730863256912693e-06   -7.78103320366757e-06
-1.5792519696168573e-05   -1.4730863256912693e-06   -7.78103320366757e-06
-1.5792519696168573e-05   -1.4730863256912693e-06   -7.78103320366757e-06
5.446875419391818e-06   -1.159705658781594e-05   -3.710564290566022e-05
5.446875419391818e-06   -1.159705658781594e-05   -3.710564290566022e-05
5.446875419391818e-06   -1.159705658781594e-05   -3.710564290566022e-05
5.446875419391818e-06   -1.159705658781594e-05   -3.710564290566022e-05
-5.685227508744249e-06   -6.6735983498640225e-06   -2.1506212968204507e-05
-5.685227508744249e-06   -6.6735983498640225e-06   -2.1506212968204507e-05
-5.685227508744249e-06   -6.6735983498640225e-06   -2.1506212968204507e-05
-5.685227508744249e-06   -6.6735983498640225e-06   -2.1506212968204507e-05
-1.963173281770825e-05   6.979402256274136e-07   -5.418836726836995e-06
-1.963173281770825e-05   6.979402256274136e-07   -5.418836726836995e-06
-1.963173281770825e-05   6.979402256274136e-07   -5.418836726836995e-06
-1.963173281770825e-05   6.979402256274136e-07   -5.418836726836995e-06
-4.493393142095102e-05   -1.4715286426203716e-05   -5.683710372333993e-05
-4.493393142095102e-05   -1.4715286426203716e-05   -5.683710372333993e-05
-4.493393142095102e-05   -1.4715286426203716e-05   -5.683710372333993e-05
-4.493393142095102e-05   -1.4715286426203716e-05   -5.683710372333993e-05
-4.356316675823602e-05   1.2233260922548273e-06   -1.4210159786358801e-05
-4.356316675823602e-05   1.2233260922548273e-06   -1.4210159786358801e-05
-4.356316675823602e-05   1.2233260922548273e-06   -1.4210159786358801e-05
-4.356316675823602e-05   1.2233260922548273e-06   -1.4210159786358801e-05
-1.8485524820324985e-05   -1.6440870851545334e-05   -4.540771151659718e-05
-1.8485524820324985e-05   -1.6440870851545334e-05   -4.540771151659718e-05
-1.8485524820324985e-05   -1.6440870851545334e-05   -4.540771151659718e-05
-1.8485524820324985e-05   -1.6440870851545334e-05   -4.540771151659718e-05
-3.119950637415838e-05   -7.470867762365309e-06   -2.959974411371612e-05
-3.119950637415838e-05   -7.470867762365309e-06   -2.959974411371612e-05
-3.119950637415838e-05   -7.470867762365309e-06   -2.959974411371612e-05
-3.119950637415838e-05   -7.470867762365309e-06   -2.959974411371612e-05
-1.8485524820324985e-05   1.2233260922546105e-06   -3.611641620079051e-06
-1.8485524820324985e-05   1.2233260922546105e-06   -3.611641620079051e-06
-1.8485524820324985e-05   1.2233260922546105e-06   -3.611641620079051e-06
-1.8485524820324985e-05   1.2233260922546105e-06   -3.611641620079051e-06
-4.356316675823602e-05   -1.64408708515449e-05   -5.600622968287747e-05
-4.356316675823602e-05   -1.64408708515449e-05   -5.600622968287747e-05
-4.356316675823602e-05   -1.64408708515449e-05   -5.600622968287747e-05
-4.356316675823602e-05   -1.64408708515449e-05   -5.600622968287747e-05
-4.224937580678841e-05   1.7067668483684156e-06   -1.2680483459745701e-05
-4.224937580678841e-05   1.7067668483684156e-06   -1.2680483459745701e-05
-4.224937580678841e-05   1.7067668483684156e-06   -1.2680483459745701e-05
-4.224937580678841e-05   1.7067668483684156e-06   -1.2680483459745701e-05
-1.7497476214336152e-05   -1.653006931357122e-05   -4.299154775000248e-05
-1.7497476214336152e-05   -1.653006931357122e-05   -4.299154775000248e-05
-1.7497476214336152e-05   -1.653006931357122e-05   -4.299154775000248e-05
-1.7497476214336152e-05   -1.653006931357122e-05   -4.299154775000248e-05
-2.986287902677942e-05   -7.493908637125303e-06   -2.780423946846457e-05
-2.986287902677942e-05   -7.493908637125303e-06   -2.780423946846457e-05
-2.986287902677942e-05   -7.493908637125303e-06   -2.780423946846457e-05
-2.986287902677942e-05   -7.493908637125303e-06   -2.780423946846457e-05
-1.7497476214336125e-05   1.7067668483684156e-06   -1.7383817625818768e-06
-1.7497476214336125e-05   1.7067668483684156e-06   -1.7383817625818768e-06
-1.7497476214336125e-05   1.7067668483684156e-06   -1.7383817625818768e-06
-1.7497476214336125e-05   1.7067668483684156e-06   -1.7383817625818768e-06
-4.2249375806788475e-05   -1.6530069313570785e-05   -5.393364944716612e-05
-4.2249375806788475e-05   -1.6530069313570785e-05   -5.393364944716612e-05
-4.2249375806788475e-05   -1.6530069313570785e-05   -5.393364944716612e-05
-4.2249375806788475e-05   -1.6530069313570785e-05   -5.393364944716612e-05
-4.009446953130417e-05   2.115256629058298e-06   -1.1124478397579957e-05
-4.009446953130417e-05   2.115256629058298e-06   -1.1124478397579957e-05
-4.009446953130417e-05   2.115256629058298e-06   -1.1124478397579957e-05
-4.009446953130417e-05   2.115256629058298e-06   -1.1124478397579957e-05
-1.5792519696168628e-05   -1.5070429135382885e-05   -4.131631666414107e-05
-1.5792519696168628e-05   -1.5070429135382885e-05   -4.131631666414107e-05
-1.5792519696168628e-05   -1.5070429135382885e-05   -4.131631666414107e-05
-1.5792519696168628e-05   -1.5070429135382885e-05   -4.131631666414107e-05
-2.854491358320895e-05   -6.608122372705029e-06   -2.5139710910013452e-05
-2.854491358320895e-05   -6.608122372705029e-06   -2.5139710910013452e-05
-2.854491358320895e-05   -6.608122372705029e-06   -2.5139710910013452e-05
-2.854491358320895e-05   -6.608122372705029e-06   -2.5139710910013452e-05
-4.493393142095102e-05   6.431766854190059e-06   -9.616852795086553e-06
-4.493393142095102e-05   6.431766854190059e-06   -9.616852795086553e-06
-4.493393142095102e-05   6.431766854190059e-06   -9.616852795086553e-06
-4.493393142095102e-05   6.431766854190059e-06   -9.616852795086553e-06
-7.730869073421936e-05   0.0   -6.743384509638132e-05
-7.730869073421936e-05   0.0   -6.743384509638132e-05
-7.730869073421936e-05   0.0   -6.743384509638132e-05
-7.730869073421936e-05   0.0   -6.743384509638132e-05
-7.530481074161777e-05   8.133391533691331e-06   -7.358842057133934e-06
-7.530481074161777e-05   8.133391533691331e-06   -7.358842057133934e-06
-7.530481074161777e-05   8.133391533691331e-06   -7.358842057133934e-06
-7.530481074161777e-05   8.133391533691331e-06   -7.358842057133934e-06
-4.356316675823594e-05   0.0   -5.538154710922201e-05
-4.356316675823594e-05   0.0   -5.538154710922201e-05
-4.356316675823594e-05   0.0   -5.538154710922201e-05
-4.356316675823594e-05   0.0   -5.538154710922201e-05
-5.771699784949331e-05   2.490995831703948e-06   -3.328642612281541e-05
-5.771699784949331e-05   2.490995831703948e-06   -3.328642612281541e-05
-5.771699784949331e-05   2.490995831703948e-06   -3.328642612281541e-05
-5.771699784949331e-05   2.490995831703948e-06   -3.328642612281541e-05
-4.356316675823597e-05   8.133391533691331e-06   -2.4788071369189184e-06
-4.356316675823597e-05   8.133391533691331e-06   -2.4788071369189184e-06
-4.356316675823597e-05   8.133391533691331e-06   -2.4788071369189184e-06
-4.356316675823597e-05   8.133391533691331e-06   -2.4788071369189184e-06
-7.530481074161764e-05   0.0   -6.026158202943684e-05
-7.530481074161764e-05   0.0   -6.026158202943684e-05
-7.530481074161764e-05   0.0   -6.026158202943684e-05
-7.530481074161764e-05   0.0   -6.026158202943684e-05
-7.360845969290163e-05   8.51621161814778e-06   -2.8711808013168368e-06
-7.360845969290163e-05   8.51621161814778e-06   -2.8711808013168368e-06
-7.360845969290163e-05   8.51621161814778e-06   -2.8711808013168368e-06
-7.360845969290163e-05   8.51621161814778e-06   -2.8711808013168368e-06
-4.2249375806788475e-05   0.0   -5.002659364061674e-05
-4.2249375806788475e-05   0.0   -5.002659364061674e-05
-4.2249375806788475e-05   0.0   -5.002659364061674e-05
-4.2249375806788475e-05   0.0   -5.002659364061674e-05
-5.712493884482817e-05   3.939839131308822e-06   -2.7597892056001848e-05
-5.712493884482817e-05   3.939839131308822e-06   -2.7597892056001848e-05
-5.712493884482817e-05   3.939839131308822e-06   -2.7597892056001848e-05
-5.712493884482817e-05   3.939839131308822e-06   -2.7597892056001848e-05
-4.2249375806788475e-05   8.516211618147997e-06   2.2385461695719183e-06
-4.2249375806788475e-05   8.516211618147997e-06   2.2385461695719183e-06
-4.2249375806788475e-05   8.516211618147997e-06   2.2385461695719183e-06
-4.2249375806788475e-05   8.516211618147997e-06   2.2385461695719183e-06
-7.360845969290149e-05   0.0   -5.513632061150513e-05
-7.360845969290149e-05   0.0   -5.513632061150513e-05
-7.360845969290149e-05   0.0   -5.513632061150513e-05
-7.360845969290149e-05   0.0   -5.513632061150513e-05
-7.022270124002708e-05   9.171053079633446e-06   4.356098836116656e-06
-7.022270124002708e-05   9.171053079633446e-06   4.356098836116656e-06
-7.022270124002708e-05   9.171053079633446e-06   4.356098836116656e-06
-7.022270124002708e-05   9.171053079633446e-06   4.356098836116656e-06
-4.0094469531304244e-05   0.0   -4.035498883064162e-05
-4.0094469531304244e-05   0.0   -4.035498883064162e-05
-4.0094469531304244e-05   0.0   -4.035498883064162e-05
-4.0094469531304244e-05   0.0   -4.035498883064162e-05
-5.416572539814888e-05   4.857389778625213e-06   -1.981732958640872e-05
-5.416572539814888e-05   4.857389778625213e-06   -1.981732958640872e-05
-5.416572539814888e-05   4.857389778625213e-06   -1.981732958640872e-05
-5.416572539814888e-05   4.857389778625213e-06   -1.981732958640872e-05
5.720644329108306e-05   -9.811066535091867e-06   3.4125561432913915e-05
5.720644329108306e-05   -9.811066535091867e-06   3.4125561432913915e-05
5.720644329108306e-05   -9.811066535091867e-06   3.4125561432913915e-05
5.720644329108306e-05   -9.811066535091867e-06   3.4125561432913915e-05
2.9666633006919367e-05   -7.571087052826372e-06   -1.0430134684666489e-05
2.9666633006919367e-05   -7.571087052826372e-06   -1.0430134684666489e-05
2.9666633006919367e-05   -7.571087052826372e-06   -1.0430134684666489e-05
2.9666633006919367e-05   -7.571087052826372e-06   -1.0430134684666489e-05
2.892315344195136e-05   -1.005653513907502e-05   3.012650295386725e-05
2.892315344195136e-05   -1.005653513907502e-05   3.012650295386725e-05
2.892315344195136e-05   -1.005653513907502e-05   3.012650295386725e-05
2.892315344195136e-05   -1.005653513907502e-05   3.012650295386725e-05
5.659856532230339e-05   -8.322096774499715e-06   -1.7039846532131256e-05
5.659856532230339e-05   -8.322096774499715e-06   -1.7039846532131256e-05
5.659856532230339e-05   -8.322096774499715e-06   -1.7039846532131256e-05
5.659856532230339e-05   -8.322096774499715e-06   -1.7039846532131256e-05
4.1334439084384995e-05   -8.459796008143672e-06   8.482983404585768e-06
4.1334439084384995e-05   -8.459796008143672e-06   8.482983404585768e-06
4.1334439084384995e-05   -8.459796008143672e-06   8.482983404585768e-06
4.1334439084384995e-05   -8.459796008143672e-06   8.482983404585768e-06
5.659856532230339e-05   -1.005653513907502e-05   2.9085839935122197e-05
5.659856532230339e-05   -1.005653513907502e-05   2.9085839935122197e-05
5.659856532230339e-05   -1.005653513907502e-05   2.9085839935122197e-05
5.659856532230339e-05   -1.005653513907502e-05   2.9085839935122197e-05
2.892315344195136e-05   -8.322096774499715e-06   -1.5999183513386176e-05
2.892315344195136e-05   -8.322096774499715e-06   -1.5999183513386176e-05
2.892315344195136e-05   -8.322096774499715e-06   -1.5999183513386176e-05
2.892315344195136e-05   -8.322096774499715e-06   -1.5999183513386176e-05
2.8250314292219605e-05   -9.96477544052592e-06   2.70420965281929e-05
2.8250314292219605e-05   -9.96477544052592e-06   2.70420965281929e-05
2.8250314292219605e-05   -9.96477544052592e-06   2.70420965281929e-05
2.8250314292219605e-05   -9.96477544052592e-06   2.70420965281929e-05
5.589450073743992e-05   -8.390362755285492e-06   -1.997619515831857e-05
5.589450073743992e-05   -8.390362755285492e-06   -1.997619515831857e-05
5.589450073743992e-05   -8.390362755285492e-06   -1.997619515831857e-05
5.589450073743992e-05   -8.390362755285492e-06   -1.997619515831857e-05
4.130643053646147e-05   -8.608193487796758e-06   4.467953616152322e-06
4.130643053646147e-05   -8.608193487796758e-06   4.467953616152322e-06
4.130643053646147e-05   -8.608193487796758e-06   4.467953616152322e-06
4.130643053646147e-05   -8.608193487796758e-06   4.467953616152322e-06
5.5894500737440015e-05   -9.964775440525703e-06   2.60974489170486e-05
5.5894500737440015e-05   -9.964775440525703e-06   2.60974489170486e-05
5.5894500737440015e-05   -9.964775440525703e-06   2.60974489170486e-05
5.5894500737440015e-05   -9.964775440525703e-06   2.60974489170486e-05
2.8250314292219605e-05   -8.390362755285492e-06   -1.903154754717435e-05
2.8250314292219605e-05   -8.390362755285492e-06   -1.903154754717435e-05
2.8250314292219605e-05   -8.390362755285492e-06   -1.903154754717435e-05
2.8250314292219605e-05   -8.390362755285492e-06   -1.903154754717435e-05
2.7429286787869885e-05   -9.408527396762359e-06   2.2024009130622952e-05
2.7429286787869885e-05   -9.408527396762359e-06   2.2024009130622952e-05
2.7429286787869885e-05   -9.408527396762359e-06   2.2024009130622952e-05
2.7429286787869885e-05   -9.408527396762359e-06   2.2024009130622952e-05
5.479126064891815e-05   -8.212435730809136e-06   -2.4296935637362535e-05
5.479126064891815e-05   -8.212435730809136e-06   -2.4296935637362535e-05
5.479126064891815e-05   -8.212435730809136e-06   -2.4296935637362535e-05
5.479126064891815e-05   -8.212435730809136e-06   -2.4296935637362535e-05
3.989935272594401e-05   -8.185237249802232e-06   5.065918123232666e-07
3.989935272594401e-05   -8.185237249802232e-06   5.065918123232666e-07
3.989935272594401e-05   -8.185237249802232e-06   5.065918123232666e-07
3.989935272594401e-05   -8.185237249802232e-06   5.065918123232666e-07
2.9666633006919367e-05   -9.819472605962064e-06   2.5480962360320807e-05
2.9666633006919367e-05   -9.819472605962064e-06   2.5480962360320807e-05
2.9666633006919367e-05   -9.819472605962064e-06   2.5480962360320807e-05
2.9666633006919367e-05   -9.819472605962064e-06   2.5480962360320807e-05
6.2794017764894775e-06   -4.6688808832320156e-06   -1.04074013234244e-05
6.2794017764894775e-06   -4.6688808832320156e-06   -1.04074013234244e-05
6.2794017764894775e-06   -4.6688808832320156e-06   -1.04074013234244e-05
6.2794017764894775e-06   -4.6688808832320156e-06   -1.04074013234244e-05
5.102808146095677e-06   -9.767708361850883e-06   2.9073485893031008e-05
5.102808146095677e-06   -9.767708361850883e-06   2.9073485893031008e-05
5.102808146095677e-06   -9.767708361850883e-06   2.9073485893031008e-05
5.102808146095677e-06   -9.767708361850883e-06   2.9073485893031008e-05
2.892315344195136e-05   -4.9511314593703e-06   -1.3517035741550398e-05
2.892315344195136e-05   -4.9511314593703e-06   -1.3517035741550398e-05
2.892315344195136e-05   -4.9511314593703e-06   -1.3517035741550398e-05
2.892315344195136e-05   -4.9511314593703e-06   -1.3517035741550398e-05
1.7468048362263592e-05   -7.031286944859157e-06   6.822899349222776e-06
1.7468048362263592e-05   -7.031286944859157e-06   6.822899349222776e-06
1.7468048362263592e-05   -7.031286944859157e-06   6.822899349222776e-06
1.7468048362263592e-05   -7.031286944859157e-06   6.822899349222776e-06
2.8923153441951386e-05   -9.767708361851316e-06   2.618353975154266e-05
2.8923153441951386e-05   -9.767708361851316e-06   2.618353975154266e-05
2.8923153441951386e-05   -9.767708361851316e-06   2.618353975154266e-05
2.8923153441951386e-05   -9.767708361851316e-06   2.618353975154266e-05
5.102808146095677e-06   -4.9511314593703e-06   -1.0627089600061994e-05
5.102808146095677e-06   -4.9511314593703e-06   -1.0627089600061994e-05
5.102808146095677e-06   -4.9511314593703e-06   -1.0627089600061994e-05
5.102808146095677e-06   -4.9511314593703e-06   -1.0627089600061994e-05
4.263326901295485e-06   -9.634722329952914e-06   2.9111939220486174e-05
4.263326901295485e-06   -9.634722329952914e-06   2.9111939220486174e-05
4.263326901295485e-06   -9.634722329952914e-06   2.9111939220486174e-05
4.263326901295485e-06   -9.634722329952914e-06   2.9111939220486174e-05
2.8250314292219605e-05   -5.075506420237127e-06   -1.3601902643550285e-05
2.8250314292219605e-05   -5.075506420237127e-06   -1.3601902643550285e-05
2.8250314292219605e-05   -5.075506420237127e-06   -1.3601902643550285e-05
2.8250314292219605e-05   -5.075506420237127e-06   -1.3601902643550285e-05
1.6458413805459995e-05   -6.886364771327945e-06   7.137779845037772e-06
1.6458413805459995e-05   -6.886364771327945e-06   7.137779845037772e-06
1.6458413805459995e-05   -6.886364771327945e-06   7.137779845037772e-06
1.6458413805459995e-05   -6.886364771327945e-06   7.137779845037772e-06
2.8250314292219646e-05   -9.634722329952914e-06   2.637640967465666e-05
2.8250314292219646e-05   -9.634722329952914e-06   2.637640967465666e-05
2.8250314292219646e-05   -9.634722329952914e-06   2.637640967465666e-05
2.8250314292219646e-05   -9.634722329952914e-06   2.637640967465666e-05
4.263326901295485e-06   -5.075506420237127e-06   -1.0866373097720688e-05
4.263326901295485e-06   -5.075506420237127e-06   -1.0866373097720688e-05
4.263326901295485e-06   -5.075506420237127e-06   -1.0866373097720688e-05
4.263326901295485e-06   -5.075506420237127e-06   -1.0866373097720688e-05
3.329665969142566e-06   -9.370251176331768e-06   3.005300398761855e-05
3.329665969142566e-06   -9.370251176331768e-06   3.005300398761855e-05
3.329665969142566e-06   -9.370251176331768e-06   3.005300398761855e-05
3.329665969142566e-06   -9.370251176331768e-06   3.005300398761855e-05
2.742928678786987e-05   -4.959044481959041e-06   -1.2759754726883926e-05
2.742928678786987e-05   -4.959044481959041e-06   -1.2759754726883926e-05
2.742928678786987e-05   -4.959044481959041e-06   -1.2759754726883926e-05
2.742928678786987e-05   -4.959044481959041e-06   -1.2759754726883926e-05
1.584183640214264e-05   -6.582675579733851e-06   7.5268412413263775e-06
1.584183640214264e-05   -6.582675579733851e-06   7.5268412413263775e-06
1.584183640214264e-05   -6.582675579733851e-06   7.5268412413263775e-06
1.584183640214264e-05   -6.582675579733851e-06   7.5268412413263775e-06
6.279401776489491e-06   -1.1821193220542398e-05   2.620104362975476e-05
6.279401776489491e-06   -1.1821193220542398e-05   2.620104362975476e-05
6.279401776489491e-06   -1.1821193220542398e-05   2.620104362975476e-05
6.279401776489491e-06   -1.1821193220542398e-05   2.620104362975476e-05
-1.618983054588321e-05   -1.943988409313941e-06   -5.32135402079594e-06
-1.618983054588321e-05   -1.943988409313941e-06   -5.32135402079594e-06
-1.618983054588321e-05   -1.943988409313941e-06   -5.32135402079594e-06
-1.618983054588321e-05   -1.943988409313941e-06   -5.32135402079594e-06
-1.8019829048175032e-05   -1.208054692748272e-05   3.3653957364975515e-05
-1.8019829048175032e-05   -1.208054692748272e-05   3.3653957364975515e-05
-1.8019829048175032e-05   -1.208054692748272e-05   3.3653957364975515e-05
-1.8019829048175032e-05   -1.208054692748272e-05   3.3653957364975515e-05
5.102808146095677e-06   -2.0521329366480177e-06   -1.0900819686643343e-05
5.102808146095677e-06   -2.0521329366480177e-06   -1.0900819686643343e-05
5.102808146095677e-06   -2.0521329366480177e-06   -1.0900819686643343e-05
5.102808146095677e-06   -2.0521329366480177e-06   -1.0900819686643343e-05
-5.5067767975924e-06   -6.749655400913133e-06   9.600335364729384e-06
-5.5067767975924e-06   -6.749655400913133e-06   9.600335364729384e-06
-5.5067767975924e-06   -6.749655400913133e-06   9.600335364729384e-06
-5.5067767975924e-06   -6.749655400913133e-06   9.600335364729384e-06
5.102808146095677e-06   -1.208054692748272e-05   2.7636908970474564e-05
5.102808146095677e-06   -1.208054692748272e-05   2.7636908970474564e-05
5.102808146095677e-06   -1.208054692748272e-05   2.7636908970474564e-05
5.102808146095677e-06   -1.208054692748272e-05   2.7636908970474564e-05
-1.8019829048175005e-05   -2.0521329366484514e-06   -4.883771292142581e-06
-1.8019829048175005e-05   -2.0521329366484514e-06   -4.883771292142581e-06
-1.8019829048175005e-05   -2.0521329366484514e-06   -4.883771292142581e-06
-1.8019829048175005e-05   -2.0521329366484514e-06   -4.883771292142581e-06
-1.913906830191292e-05   -1.2021527915641837e-05   3.493372741067034e-05
-1.913906830191292e-05   -1.2021527915641837e-05   3.493372741067034e-05
-1.913906830191292e-05   -1.2021527915641837e-05   3.493372741067034e-05
-1.913906830191292e-05   -1.2021527915641837e-05   3.493372741067034e-05
4.263326901295485e-06   -2.1848956420740875e-06   -9.972243958817847e-06
4.263326901295485e-06   -2.1848956420740875e-06   -9.972243958817847e-06
4.263326901295485e-06   -2.1848956420740875e-06   -9.972243958817847e-06
4.263326901295485e-06   -2.1848956420740875e-06   -9.972243958817847e-06
-6.7460407194921154e-06   -6.726159161444742e-06   1.1101460187450986e-05
-6.7460407194921154e-06   -6.726159161444742e-06   1.1101460187450986e-05
-6.7460407194921154e-06   -6.726159161444742e-06   1.1101460187450986e-05
-6.7460407194921154e-06   -6.726159161444742e-06   1.1101460187450986e-05
4.263326901295485e-06   -1.2021527915641404e-05   2.903174804652956e-05
4.263326901295485e-06   -1.2021527915641404e-05   2.903174804652956e-05
4.263326901295485e-06   -1.2021527915641404e-05   2.903174804652956e-05
4.263326901295485e-06   -1.2021527915641404e-05   2.903174804652956e-05
-1.913906830191288e-05   -2.1848956420740875e-06   -4.07026459467723e-06
-1.913906830191288e-05   -2.1848956420740875e-06   -4.07026459467723e-06
-1.913906830191288e-05   -2.1848956420740875e-06   -4.07026459467723e-06
-1.913906830191288e-05   -2.1848956420740875e-06   -4.07026459467723e-06
-2.04545795423463e-05   -1.159705658781594e-05   3.658956860635911e-05
-2.04545795423463e-05   -1.159705658781594e-05   3.658956860635911e-05
-2.04545795423463e-05   -1.159705658781594e-05   3.658956860635911e-05
-2.04545795423463e-05   -1.159705658781594e-05   3.658956860635911e-05
3.329665969142566e-06   -2.1703892514671197e-06   -8.706840981264778e-06
3.329665969142566e-06   -2.1703892514671197e-06   -8.706840981264778e-06
3.329665969142566e-06   -2.1703892514671197e-06   -8.706840981264778e-06
3.329665969142566e-06   -2.1703892514671197e-06   -8.706840981264778e-06
-7.75555343179747e-06   -6.455755365003882e-06   1.2339744355090686e-05
-7.75555343179747e-06   -6.455755365003882e-06   1.2339744355090686e-05
-7.75555343179747e-06   -6.455755365003882e-06   1.2339744355090686e-05
-7.75555343179747e-06   -6.455755365003882e-06   1.2339744355090686e-05
-1.6189830545883225e-05   -1.4715286426203716e-05   3.173074395241573e-05
-1.6189830545883225e-05   -1.4715286426203716e-05   3.173074395241573e-05
-1.6189830545883225e-05   -1.4715286426203716e-05   3.173074395241573e-05
-1.6189830545883225e-05   -1.4715286426203716e-05   3.173074395241573e-05
-4.1754562699024115e-05   2.1456233340881765e-06   -7.605971133104426e-07
-4.1754562699024115e-05   2.1456233340881765e-06   -7.605971133104426e-07
-4.1754562699024115e-05   2.1456233340881765e-06   -7.605971133104426e-07
-4.1754562699024115e-05   2.1456233340881765e-06   -7.605971133104426e-07
-4.3956380758836946e-05   -1.64408708515449e-05   4.482465554596685e-05
-4.3956380758836946e-05   -1.64408708515449e-05   4.482465554596685e-05
-4.3956380758836946e-05   -1.64408708515449e-05   4.482465554596685e-05
-4.3956380758836946e-05   -1.64408708515449e-05   4.482465554596685e-05
-1.8019829048175005e-05   2.0225253445161143e-06   -9.480968356106372e-06
-1.8019829048175005e-05   2.0225253445161143e-06   -9.480968356106372e-06
-1.8019829048175005e-05   2.0225253445161143e-06   -9.480968356106372e-06
-1.8019829048175005e-05   2.0225253445161143e-06   -9.480968356106372e-06
-2.956288390588051e-05   -6.083768273358603e-06   1.4621232577460798e-05
-2.956288390588051e-05   -6.083768273358603e-06   1.4621232577460798e-05
-2.956288390588051e-05   -6.083768273358603e-06   1.4621232577460798e-05
-2.956288390588051e-05   -6.083768273358603e-06   1.4621232577460798e-05
-1.8019829048175032e-05   -1.64408708515449e-05   3.374661782833024e-05
-1.8019829048175032e-05   -1.64408708515449e-05   3.374661782833024e-05
-1.8019829048175032e-05   -1.64408708515449e-05   3.374661782833024e-05
-1.8019829048175032e-05   -1.64408708515449e-05   3.374661782833024e-05
-4.3956380758836946e-05   2.0225253445161143e-06   1.5970693615302914e-06
-4.3956380758836946e-05   2.0225253445161143e-06   1.5970693615302914e-06
-4.3956380758836946e-05   2.0225253445161143e-06   1.5970693615302914e-06
-4.3956380758836946e-05   2.0225253445161143e-06   1.5970693615302914e-06
-4.529786843320234e-05   -1.6530069313570785e-05   4.7337556554328175e-05
-4.529786843320234e-05   -1.6530069313570785e-05   4.7337556554328175e-05
-4.529786843320234e-05   -1.6530069313570785e-05   4.7337556554328175e-05
-4.529786843320234e-05   -1.6530069313570785e-05   4.7337556554328175e-05
-1.913906830191288e-05   1.792139036433868e-06   -7.253768674490141e-06
-1.913906830191288e-05   1.792139036433868e-06   -7.253768674490141e-06
-1.913906830191288e-05   1.792139036433868e-06   -7.253768674490141e-06
-1.913906830191288e-05   1.792139036433868e-06   -7.253768674490141e-06
-3.0991406281182005e-05   -7.0136946428555474e-06   1.7783628165198625e-05
-3.0991406281182005e-05   -7.0136946428555474e-06   1.7783628165198625e-05
-3.0991406281182005e-05   -7.0136946428555474e-06   1.7783628165198625e-05
-3.0991406281182005e-05   -7.0136946428555474e-06   1.7783628165198625e-05
-1.9139068301912866e-05   -1.653006931357122e-05   3.6344231544325166e-05
-1.9139068301912866e-05   -1.653006931357122e-05   3.6344231544325166e-05
-1.9139068301912866e-05   -1.653006931357122e-05   3.6344231544325166e-05
-1.9139068301912866e-05   -1.653006931357122e-05   3.6344231544325166e-05
-4.529786843320226e-05   1.792139036433868e-06   3.7395563355125967e-06
-4.529786843320226e-05   1.792139036433868e-06   3.7395563355125967e-06
-4.529786843320226e-05   1.792139036433868e-06   3.7395563355125967e-06
-4.529786843320226e-05   1.792139036433868e-06   3.7395563355125967e-06
-4.6743889328195236e-05   -1.5070429135382885e-05   4.8414038217708824e-05
-4.6743889328195236e-05   -1.5070429135382885e-05   4.8414038217708824e-05
-4.6743889328195236e-05   -1.5070429135382885e-05   4.8414038217708824e-05
-4.6743889328195236e-05   -1.5070429135382885e-05   4.8414038217708824e-05
-2.0454579542346233e-05   1.5308395522103252e-06   -5.362239304595231e-06
-2.0454579542346233e-05   1.5308395522103252e-06   -5.362239304595231e-06
-2.0454579542346233e-05   1.5308395522103252e-06   -5.362239304595231e-06
-2.0454579542346233e-05   1.5308395522103252e-06   -5.362239304595231e-06
-3.246544464678444e-05   -7.064394130739532e-06   1.9813009412571994e-05
-3.246544464678444e-05   -7.064394130739532e-06   1.9813009412571994e-05
-3.246544464678444e-05   -7.064394130739532e-06   1.9813009412571994e-05
-3.246544464678444e-05   -7.064394130739532e-06   1.9813009412571994e-05
-4.175456269902395e-05   0.0   3.510960854806347e-05
-4.175456269902395e-05   0.0   3.510960854806347e-05
-4.175456269902395e-05   0.0   3.510960854806347e-05
-4.175456269902395e-05   0.0   3.510960854806347e-05
-7.347431700144614e-05   9.641379246784921e-06   -1.197182107456939e-05
-7.347431700144614e-05   9.641379246784921e-06   -1.197182107456939e-05
-7.347431700144614e-05   9.641379246784921e-06   -1.197182107456939e-05
-7.347431700144614e-05   9.641379246784921e-06   -1.197182107456939e-05
-7.650569851962196e-05   0.0   5.1036340341738045e-05
-7.650569851962196e-05   0.0   5.1036340341738045e-05
-7.650569851962196e-05   0.0   5.1036340341738045e-05
-7.650569851962196e-05   0.0   5.1036340341738045e-05
-4.3956380758836865e-05   9.311670370193512e-06   -8.799524815020335e-06
-4.3956380758836865e-05   9.311670370193512e-06   -8.799524815020335e-06
-4.3956380758836865e-05   9.311670370193512e-06   -8.799524815020335e-06
-4.3956380758836865e-05   9.311670370193512e-06   -8.799524815020335e-06
-5.6411199712588656e-05   5.719690670466515e-06   1.4113694594402345e-05
-5.6411199712588656e-05   5.719690670466515e-06   1.4113694594402345e-05
-5.6411199712588656e-05   5.719690670466515e-06   1.4113694594402345e-05
-5.6411199712588656e-05   5.719690670466515e-06   1.4113694594402345e-05
-4.395638075883684e-05   0.0   4.544933811962185e-05
-4.395638075883684e-05   0.0   4.544933811962185e-05
-4.395638075883684e-05   0.0   4.544933811962185e-05
-4.395638075883684e-05   0.0   4.544933811962185e-05
-7.65056985196221e-05   9.311670370193512e-06   -3.2125225929041136e-06
-7.65056985196221e-05   9.311670370193512e-06   -3.2125225929041136e-06
-7.65056985196221e-05   9.311670370193512e-06   -3.2125225929041136e-06
-7.65056985196221e-05   9.311670370193512e-06   -3.2125225929041136e-06
-7.803176543079199e-05   0.0   5.668971711088994e-05
-7.803176543079199e-05   0.0   5.668971711088994e-05
-7.803176543079199e-05   0.0   5.668971711088994e-05
-7.803176543079199e-05   0.0   5.668971711088994e-05
-4.529786843320226e-05   9.075174583353732e-06   -3.311882635105665e-06
-4.529786843320226e-05   9.075174583353732e-06   -3.311882635105665e-06
-4.529786843320226e-05   9.075174583353732e-06   -3.311882635105665e-06
-4.529786843320226e-05   9.075174583353732e-06   -3.311882635105665e-06
-5.934191866543955e-05   4.777664633348871e-06   2.2673373721960243e-05
-5.934191866543955e-05   4.777664633348871e-06   2.2673373721960243e-05
-5.934191866543955e-05   4.777664633348871e-06   2.2673373721960243e-05
-5.934191866543955e-05   4.777664633348871e-06   2.2673373721960243e-05
-4.529786843320226e-05   0.0   5.1244612360877486e-05
-4.529786843320226e-05   0.0   5.1244612360877486e-05
-4.529786843320226e-05   0.0   5.1244612360877486e-05
-4.529786843320226e-05   0.0   5.1244612360877486e-05
-7.803176543079227e-05   9.075174583353732e-06   2.133222114906845e-06
-7.803176543079227e-05   9.075174583353732e-06   2.133222114906845e-06
-7.803176543079227e-05   9.075174583353732e-06   2.133222114906845e-06
-7.803176543079227e-05   9.075174583353732e-06   2.133222114906845e-06
-7.972870854269494e-05   0.0   6.422712682096327e-05
-7.972870854269494e-05   0.0   6.422712682096327e-05
-7.972870854269494e-05   0.0   6.422712682096327e-05
-7.972870854269494e-05   0.0   6.422712682096327e-05
-4.6743889328195236e-05   7.567248851817181e-06   4.712078819039977e-06
-4.6743889328195236e-05   7.567248851817181e-06   4.712078819039977e-06
-4.6743889328195236e-05   7.567248851817181e-06   4.712078819039977e-06
-4.6743889328195236e-05   7.567248851817181e-06   4.712078819039977e-06
-5.982754927399466e-05   3.3583753446435674e-06   2.9043502833009686e-05
-5.982754927399466e-05   3.3583753446435674e-06   2.9043502833009686e-05
-5.982754927399466e-05   3.3583753446435674e-06   2.9043502833009686e-05
-5.982754927399466e-05   3.3583753446435674e-06   2.9043502833009686e-05
5.036356142178541e-05   -7.571087052826372e-06   3.5714384140822075e-05
5.036356142178541e-05   -7.571087052826372e-06   3.5714384140822075e-05
5.036356142178541e-05   -7.571087052826372e-06   3.5714384140822075e-05
5.036356142178541e-05   -7.571087052826372e-06   3.5714384140822075e-05
2.5461928125260314e-05   -5.719070461778072e-06   -4.677128065424174e-06
2.5461928125260314e-05   -5.719070461778072e-06   -4.677128065424174e-06
2.5461928125260314e-05   -5.719070461778072e-06   -4.677128065424174e-06
2.5461928125260314e-05   -5.719070461778072e-06   -4.677128065424174e-06
2.4792761163946667e-05   -8.322096774499715e-06   3.1164890901314935e-05
2.4792761163946667e-05   -8.322096774499715e-06   3.1164890901314935e-05
2.4792761163946667e-05   -8.322096774499715e-06   3.1164890901314935e-05
2.4792761163946667e-05   -8.322096774499715e-06   3.1164890901314935e-05
4.917006910126093e-05   -6.479513255083173e-06   -1.0569505772525281e-05
4.917006910126093e-05   -6.479513255083173e-06   -1.0569505772525281e-05
4.917006910126093e-05   -6.479513255083173e-06   -1.0569505772525281e-05
4.917006910126093e-05   -6.479513255083173e-06   -1.0569505772525281e-05
3.5780001212639675e-05   -6.742947168178861e-06   1.190533438970103e-05
3.5780001212639675e-05   -6.742947168178861e-06   1.190533438970103e-05
3.5780001212639675e-05   -6.742947168178861e-06   1.190533438970103e-05
3.5780001212639675e-05   -6.742947168178861e-06   1.190533438970103e-05
4.917006910126085e-05   -8.322096774499715e-06   3.0059340789665183e-05
4.917006910126085e-05   -8.322096774499715e-06   3.0059340789665183e-05
4.917006910126085e-05   -8.322096774499715e-06   3.0059340789665183e-05
4.917006910126085e-05   -8.322096774499715e-06   3.0059340789665183e-05
2.4792761163946707e-05   -6.479513255083173e-06   -9.463955660875224e-06
2.4792761163946707e-05   -6.479513255083173e-06   -9.463955660875224e-06
2.4792761163946707e-05   -6.479513255083173e-06   -9.463955660875224e-06
2.4792761163946707e-05   -6.479513255083173e-06   -9.463955660875224e-06
2.3930552973071883e-05   -8.390362755285492e-06   2.7967971457363173e-05
2.3930552973071883e-05   -8.390362755285492e-06   2.7967971457363173e-05
2.3930552973071883e-05   -8.390362755285492e-06   2.7967971457363173e-05
2.3930552973071883e-05   -8.390362755285492e-06   2.7967971457363173e-05
4.796244379533894e-05   -6.5919759040986535e-06   -1.3164212023794116e-05
4.796244379533894e-05   -6.5919759040986535e-06   -1.3164212023794116e-05
4.796244379533894e-05   -6.5919759040986535e-06   -1.3164212023794116e-05
4.796244379533894e-05   -6.5919759040986535e-06   -1.3164212023794116e-05
3.5447914483932164e-05   -7.03682489393829e-06   7.960246222454208e-06
3.5447914483932164e-05   -7.03682489393829e-06   7.960246222454208e-06
3.5447914483932164e-05   -7.03682489393829e-06   7.960246222454208e-06
3.5447914483932164e-05   -7.03682489393829e-06   7.960246222454208e-06
4.796244379533894e-05   -8.390362755285492e-06   2.6888939346650896e-05
4.796244379533894e-05   -8.390362755285492e-06   2.6888939346650896e-05
4.796244379533894e-05   -8.390362755285492e-06   2.6888939346650896e-05
4.796244379533894e-05   -8.390362755285492e-06   2.6888939346650896e-05
2.3930552973071883e-05   -6.5919759040986535e-06   -1.2085179913082049e-05
2.3930552973071883e-05   -6.5919759040986535e-06   -1.2085179913082049e-05
2.3930552973071883e-05   -6.5919759040986535e-06   -1.2085179913082049e-05
2.3930552973071883e-05   -6.5919759040986535e-06   -1.2085179913082049e-05
2.302573378106055e-05   -8.212435730809136e-06   2.322370932611147e-05
2.302573378106055e-05   -8.212435730809136e-06   2.322370932611147e-05
2.302573378106055e-05   -8.212435730809136e-06   2.322370932611147e-05
2.302573378106055e-05   -8.212435730809136e-06   2.322370932611147e-05
4.645058101400707e-05   -6.547749009586101e-06   -1.6816514761533044e-05
4.645058101400707e-05   -6.547749009586101e-06   -1.6816514761533044e-05
4.645058101400707e-05   -6.547749009586101e-06   -1.6816514761533044e-05
4.645058101400707e-05   -6.547749009586101e-06   -1.6816514761533044e-05
3.3872654043574945e-05   -6.8517721917603965e-06   4.3291107651589455e-06
3.3872654043574945e-05   -6.8517721917603965e-06   4.3291107651589455e-06
3.3872654043574945e-05   -6.8517721917603965e-06   4.3291107651589455e-06
3.3872654043574945e-05   -6.8517721917603965e-06   4.3291107651589455e-06
2.5461928125260355e-05   -4.6688808832320156e-06   3.37579724230552e-05
2.5461928125260355e-05   -4.6688808832320156e-06   3.37579724230552e-05
2.5461928125260355e-05   -4.6688808832320156e-06   3.37579724230552e-05
2.5461928125260355e-05   -4.6688808832320156e-06   3.37579724230552e-05
2.7675857210127027e-06   -2.0148126579158394e-06   -2.4734906488347273e-06
2.7675857210127027e-06   -2.0148126579158394e-06   -2.4734906488347273e-06
2.7675857210127027e-06   -2.0148126579158394e-06   -2.4734906488347273e-06
2.7675857210127027e-06   -2.0148126579158394e-06   -2.4734906488347273e-06
2.1025638032589093e-06   -4.9511314593703e-06   3.516398360002408e-05
2.1025638032589093e-06   -4.9511314593703e-06   3.516398360002408e-05
2.1025638032589093e-06   -4.9511314593703e-06   3.516398360002408e-05
2.1025638032589093e-06   -4.9511314593703e-06   3.516398360002408e-05
2.4792761163946707e-05   -2.4228899145818834e-06   -4.169956927995523e-06
2.4792761163946707e-05   -2.4228899145818834e-06   -4.169956927995523e-06
2.4792761163946707e-05   -2.4228899145818834e-06   -4.169956927995523e-06
2.4792761163946707e-05   -2.4228899145818834e-06   -4.169956927995523e-06
1.3649016717302751e-05   -3.2682489489470248e-06   1.4910165903696845e-05
1.3649016717302751e-05   -3.2682489489470248e-06   1.4910165903696845e-05
1.3649016717302751e-05   -3.2682489489470248e-06   1.4910165903696845e-05
1.3649016717302751e-05   -3.2682489489470248e-06   1.4910165903696845e-05
2.4792761163946694e-05   -4.9511314593703e-06   3.3647038673150984e-05
2.4792761163946694e-05   -4.9511314593703e-06   3.3647038673150984e-05
2.4792761163946694e-05   -4.9511314593703e-06   3.3647038673150984e-05
2.4792761163946694e-05   -4.9511314593703e-06   3.3647038673150984e-05
2.1025638032589093e-06   -2.4228899145818834e-06   -2.6530120011225653e-06
2.1025638032589093e-06   -2.4228899145818834e-06   -2.6530120011225653e-06
2.1025638032589093e-06   -2.4228899145818834e-06   -2.6530120011225653e-06
2.1025638032589093e-06   -2.4228899145818834e-06   -2.6530120011225653e-06
1.253944987834074e-06   -5.075506420237127e-06   3.4829097297014956e-05
1.253944987834074e-06   -5.075506420237127e-06   3.4829097297014956e-05
1.253944987834074e-06   -5.075506420237127e-06   3.4829097297014956e-05
1.253944987834074e-06   -5.075506420237127e-06   3.4829097297014956e-05
2.3930552973071883e-05   -2.6897048601907773e-06   -4.396730281075727e-06
2.3930552973071883e-05   -2.6897048601907773e-06   -4.396730281075727e-06
2.3930552973071883e-05   -2.6897048601907773e-06   -4.396730281075727e-06
2.3930552973071883e-05   -2.6897048601907773e-06   -4.396730281075727e-06
1.2805205662192744e-05   -3.4223050485344964e-06   1.4585075350062897e-05
1.2805205662192744e-05   -3.4223050485344964e-06   1.4585075350062897e-05
1.2805205662192744e-05   -3.4223050485344964e-06   1.4585075350062897e-05
1.2805205662192744e-05   -3.4223050485344964e-06   1.4585075350062897e-05
2.3930552973071842e-05   -5.075506420236693e-06   3.3397616360987536e-05
2.3930552973071842e-05   -5.075506420236693e-06   3.3397616360987536e-05
2.3930552973071842e-05   -5.075506420236693e-06   3.3397616360987536e-05
2.3930552973071842e-05   -5.075506420236693e-06   3.3397616360987536e-05
1.253944987834074e-06   -2.6897048601907773e-06   -2.9652493450480367e-06
1.253944987834074e-06   -2.6897048601907773e-06   -2.9652493450480367e-06
1.253944987834074e-06   -2.6897048601907773e-06   -2.9652493450480367e-06
1.253944987834074e-06   -2.6897048601907773e-06   -2.9652493450480367e-06
3.165212773160867e-07   -4.959044481959041e-06   3.5336935110177404e-05
3.165212773160867e-07   -4.959044481959041e-06   3.5336935110177404e-05
3.165212773160867e-07   -4.959044481959041e-06   3.5336935110177404e-05
3.165212773160867e-07   -4.959044481959041e-06   3.5336935110177404e-05
2.3025733781060535e-05   -2.8028780266942024e-06   -3.805452269222556e-06
2.3025733781060535e-05   -2.8028780266942024e-06   -3.805452269222556e-06
2.3025733781060535e-05   -2.8028780266942024e-06   -3.805452269222556e-06
2.3025733781060535e-05   -2.8028780266942024e-06   -3.805452269222556e-06
1.2119066682753934e-05   -3.3887585977722748e-06   1.4723854570602665e-05
1.2119066682753934e-05   -3.3887585977722748e-06   1.4723854570602665e-05
1.2119066682753934e-05   -3.3887585977722748e-06   1.4723854570602665e-05
1.2119066682753934e-05   -3.3887585977722748e-06   1.4723854570602665e-05
2.7675857210127027e-06   -1.9439884093143747e-06   3.451013777413603e-05
2.7675857210127027e-06   -1.9439884093143747e-06   3.451013777413603e-05
2.7675857210127027e-06   -1.9439884093143747e-06   3.451013777413603e-05
2.7675857210127027e-06   -1.9439884093143747e-06   3.451013777413603e-05
-1.922058170009434e-05   1.7974664796257568e-06   1.0806500565490457e-07
-1.922058170009434e-05   1.7974664796257568e-06   1.0806500565490457e-07
-1.922058170009434e-05   1.7974664796257568e-06   1.0806500565490457e-07
-1.922058170009434e-05   1.7974664796257568e-06   1.0806500565490457e-07
-1.996998860185229e-05   -2.0521329366480177e-06   3.701325053623891e-05
-1.996998860185229e-05   -2.0521329366480177e-06   3.701325053623891e-05
-1.996998860185229e-05   -2.0521329366480177e-06   3.701325053623891e-05
-1.996998860185229e-05   -2.0521329366480177e-06   3.701325053623891e-05
2.1025638032589093e-06   1.4861954346790524e-06   -1.8973338284093862e-06
2.1025638032589093e-06   1.4861954346790524e-06   -1.8973338284093862e-06
2.1025638032589093e-06   1.4861954346790524e-06   -1.8973338284093862e-06
2.1025638032589093e-06   1.4861954346790524e-06   -1.8973338284093862e-06
-8.564467038118406e-06   -1.4173377621507985e-08   1.678127219459976e-05
-8.564467038118406e-06   -1.4173377621507985e-08   1.678127219459976e-05
-8.564467038118406e-06   -1.4173377621507985e-08   1.678127219459976e-05
-8.564467038118406e-06   -1.4173377621507985e-08   1.678127219459976e-05
2.102563803258923e-06   -2.0521329366480177e-06   3.4890253513442755e-05
2.102563803258923e-06   -2.0521329366480177e-06   3.4890253513442755e-05
2.102563803258923e-06   -2.0521329366480177e-06   3.4890253513442755e-05
2.102563803258923e-06   -2.0521329366480177e-06   3.4890253513442755e-05
-1.996998860185229e-05   1.4861954346788355e-06   2.2566319438695887e-07
-1.996998860185229e-05   1.4861954346788355e-06   2.2566319438695887e-07
-1.996998860185229e-05   1.4861954346788355e-06   2.2566319438695887e-07
-1.996998860185229e-05   1.4861954346788355e-06   2.2566319438695887e-07
-2.0973987026915716e-05   -2.1848956420740875e-06   3.775203165810588e-05
-2.0973987026915716e-05   -2.1848956420740875e-06   3.775203165810588e-05
-2.0973987026915716e-05   -2.1848956420740875e-06   3.775203165810588e-05
-2.0973987026915716e-05   -2.1848956420740875e-06   3.775203165810588e-05
1.253944987834074e-06   1.196446394905815e-06   -1.323326921998249e-06
1.253944987834074e-06   1.196446394905815e-06   -1.323326921998249e-06
1.253944987834074e-06   1.196446394905815e-06   -1.323326921998249e-06
1.253944987834074e-06   1.196446394905815e-06   -1.323326921998249e-06
-9.303501257880739e-06   -1.009501519959842e-07   1.705085474900097e-05
-9.303501257880739e-06   -1.009501519959842e-07   1.705085474900097e-05
-9.303501257880739e-06   -1.009501519959842e-07   1.705085474900097e-05
-9.303501257880739e-06   -1.009501519959842e-07   1.705085474900097e-05
1.253944987834074e-06   -2.1848956420740875e-06   3.572322643591807e-05
1.253944987834074e-06   -2.1848956420740875e-06   3.572322643591807e-05
1.253944987834074e-06   -2.1848956420740875e-06   3.572322643591807e-05
1.253944987834074e-06   -2.1848956420740875e-06   3.572322643591807e-05
-2.0973987026915675e-05   1.196446394905815e-06   7.054783001897522e-07
-2.0973987026915675e-05   1.196446394905815e-06   7.054783001897522e-07
-2.0973987026915675e-05   1.196446394905815e-06   7.054783001897522e-07
-2.0973987026915675e-05   1.196446394905815e-06   7.054783001897522e-07
-2.204365731290169e-05   -2.1703892514671197e-06   3.8638162160653956e-05
-2.204365731290169e-05   -2.1703892514671197e-06   3.8638162160653956e-05
-2.204365731290169e-05   -2.1703892514671197e-06   3.8638162160653956e-05
-2.204365731290169e-05   -2.1703892514671197e-06   3.8638162160653956e-05
3.1652127731607315e-07   9.880062843347585e-07   -5.238394778565815e-07
3.1652127731607315e-07   9.880062843347585e-07   -5.238394778565815e-07
3.1652127731607315e-07   9.880062843347585e-07   -5.238394778565815e-07
3.1652127731607315e-07   9.880062843347585e-07   -5.238394778565815e-07
-1.0245708427946094e-05   -1.628286055667047e-07   1.7770377631521825e-05
-1.0245708427946094e-05   -1.628286055667047e-07   1.7770377631521825e-05
-1.0245708427946094e-05   -1.628286055667047e-07   1.7770377631521825e-05
-1.0245708427946094e-05   -1.628286055667047e-07   1.7770377631521825e-05
-1.922058170009427e-05   2.1456233340881765e-06   3.119922175881052e-05
-1.922058170009427e-05   2.1456233340881765e-06   3.119922175881052e-05
-1.922058170009427e-05   2.1456233340881765e-06   3.119922175881052e-05
-1.922058170009427e-05   2.1456233340881765e-06   3.119922175881052e-05
-4.076979162357037e-05   5.846669713844167e-06   -2.4955002857962247e-06
-4.076979162357037e-05   5.846669713844167e-06   -2.4955002857962247e-06
-4.076979162357037e-05   5.846669713844167e-06   -2.4955002857962247e-06
-4.076979162357037e-05   5.846669713844167e-06   -2.4955002857962247e-06
-4.1859765474899064e-05   2.0225253445161143e-06   3.4523662900093604e-05
-4.1859765474899064e-05   2.0225253445161143e-06   3.4523662900093604e-05
-4.1859765474899064e-05   2.0225253445161143e-06   3.4523662900093604e-05
-4.1859765474899064e-05   2.0225253445161143e-06   3.4523662900093604e-05
-1.9969988601852234e-05   5.53520772421357e-06   -4.0669079828030104e-06
-1.9969988601852234e-05   5.53520772421357e-06   -4.0669079828030104e-06
-1.9969988601852234e-05   5.53520772421357e-06   -4.0669079828030104e-06
-1.9969988601852234e-05   5.53520772421357e-06   -4.0669079828030104e-06
-3.0215861619777582e-05   3.953575380040604e-06   1.3958526453576267e-05
-3.0215861619777582e-05   3.953575380040604e-06   1.3958526453576267e-05
-3.0215861619777582e-05   3.953575380040604e-06   1.3958526453576267e-05
-3.0215861619777582e-05   3.953575380040604e-06   1.3958526453576267e-05
-1.9969988601852248e-05   2.0225253445156806e-06   3.241605347227496e-05
-1.9969988601852248e-05   2.0225253445156806e-06   3.241605347227496e-05
-1.9969988601852248e-05   2.0225253445156806e-06   3.241605347227496e-05
-1.9969988601852248e-05   2.0225253445156806e-06   3.241605347227496e-05
-4.1859765474898996e-05   5.53520772421357e-06   -1.9592985549844993e-06
-4.1859765474898996e-05   5.53520772421357e-06   -1.9592985549844993e-06
-4.1859765474898996e-05   5.53520772421357e-06   -1.9592985549844993e-06
-4.1859765474898996e-05   5.53520772421357e-06   -1.9592985549844993e-06
-4.3196043977874305e-05   1.7921390364334343e-06   3.664120959876696e-05
-4.3196043977874305e-05   1.7921390364334343e-06   3.664120959876696e-05
-4.3196043977874305e-05   1.7921390364334343e-06   3.664120959876696e-05
-4.3196043977874305e-05   1.7921390364334343e-06   3.664120959876696e-05
-2.0973987026915675e-05   5.24660907055721e-06   -2.468234006638249e-06
-2.0973987026915675e-05   5.24660907055721e-06   -2.468234006638249e-06
-2.0973987026915675e-05   5.24660907055721e-06   -2.468234006638249e-06
-2.0973987026915675e-05   5.24660907055721e-06   -2.468234006638249e-06
-3.102669804067042e-05   3.8829671592378705e-06   1.5104469496411254e-05
-3.102669804067042e-05   3.8829671592378705e-06   1.5104469496411254e-05
-3.102669804067042e-05   3.8829671592378705e-06   1.5104469496411254e-05
-3.102669804067042e-05   3.8829671592378705e-06   1.5104469496411254e-05
-2.097398702691566e-05   1.792139036433868e-06   3.4568527578292913e-05
-2.097398702691566e-05   1.792139036433868e-06   3.4568527578292913e-05
-2.097398702691566e-05   1.792139036433868e-06   3.4568527578292913e-05
-2.097398702691566e-05   1.792139036433868e-06   3.4568527578292913e-05
-4.3196043977874305e-05   5.24660907055721e-06   -3.955519861639561e-07
-4.3196043977874305e-05   5.24660907055721e-06   -3.955519861639561e-07
-4.3196043977874305e-05   5.24660907055721e-06   -3.955519861639561e-07
-4.3196043977874305e-05   5.24660907055721e-06   -3.955519861639561e-07
-4.460936421160526e-05   1.5308395522103252e-06   3.832307374630295e-05
-4.460936421160526e-05   1.5308395522103252e-06   3.832307374630295e-05
-4.460936421160526e-05   1.5308395522103252e-06   3.832307374630295e-05
-4.460936421160526e-05   1.5308395522103252e-06   3.832307374630295e-05
-2.204365731290161e-05   4.85802340352429e-06   -1.2827480623249943e-06
-2.204365731290161e-05   4.85802340352429e-06   -1.2827480623249943e-06
-2.204365731290161e-05   4.85802340352429e-06   -1.2827480623249943e-06
-2.204365731290161e-05   4.85802340352429e-06   -1.2827480623249943e-06
-3.238089627827065e-05   3.6492240426924845e-06   1.6671263163123512e-05
-3.238089627827065e-05   3.6492240426924845e-06   1.6671263163123512e-05
-3.238089627827065e-05   3.6492240426924845e-06   1.6671263163123512e-05
-3.238089627827065e-05   3.6492240426924845e-06   1.6671263163123512e-05
-4.076979162357037e-05   9.641379246784921e-06   1.642379807733404e-05
-4.076979162357037e-05   9.641379246784921e-06   1.642379807733404e-05
-4.076979162357037e-05   9.641379246784921e-06   1.642379807733404e-05
-4.076979162357037e-05   9.641379246784921e-06   1.642379807733404e-05
-6.141758173182355e-05   9.508605715261888e-06   -1.8068849555335142e-05
-6.141758173182355e-05   9.508605715261888e-06   -1.8068849555335142e-05
-6.141758173182355e-05   9.508605715261888e-06   -1.8068849555335142e-05
-6.141758173182355e-05   9.508605715261888e-06   -1.8068849555335142e-05
-6.337506344275296e-05   9.311670370193512e-06   2.4356320861703643e-05
-6.337506344275296e-05   9.311670370193512e-06   2.4356320861703643e-05
-6.337506344275296e-05   9.311670370193512e-06   2.4356320861703643e-05
-6.337506344275296e-05   9.311670370193512e-06   2.4356320861703643e-05
-4.1859765474898996e-05   9.693757267128199e-06   -1.1731761222880425e-05
-4.1859765474898996e-05   9.693757267128199e-06   -1.1731761222880425e-05
-4.1859765474898996e-05   9.693757267128199e-06   -1.1731761222880425e-05
-4.1859765474898996e-05   9.693757267128199e-06   -1.1731761222880425e-05
-4.976827836560885e-05   9.686546107817023e-06   1.4534202905561026e-06
-4.976827836560885e-05   9.686546107817023e-06   1.4534202905561026e-06
-4.976827836560885e-05   9.686546107817023e-06   1.4534202905561026e-06
-4.976827836560885e-05   9.686546107817023e-06   1.4534202905561026e-06
-4.1859765474898955e-05   9.311670370193946e-06   2.4127068723543005e-05
-4.1859765474898955e-05   9.311670370193946e-06   2.4127068723543005e-05
-4.1859765474898955e-05   9.311670370193946e-06   2.4127068723543005e-05
-4.1859765474898955e-05   9.311670370193946e-06   2.4127068723543005e-05
-6.337506344275296e-05   9.693757267128416e-06   -1.1502509084719624e-05
-6.337506344275296e-05   9.693757267128416e-06   -1.1502509084719624e-05
-6.337506344275296e-05   9.693757267128416e-06   -1.1502509084719624e-05
-6.337506344275296e-05   9.693757267128416e-06   -1.1502509084719624e-05
-6.529460731868354e-05   9.075174583354165e-06   2.991955910134638e-05
-6.529460731868354e-05   9.075174583354165e-06   2.991955910134638e-05
-6.529460731868354e-05   9.075174583354165e-06   2.991955910134638e-05
-6.529460731868354e-05   9.075174583354165e-06   2.991955910134638e-05
-4.3196043977874224e-05   9.624822038682961e-06   -7.241168273200232e-06
-4.3196043977874224e-05   9.624822038682961e-06   -7.241168273200232e-06
-4.3196043977874224e-05   9.624822038682961e-06   -7.241168273200232e-06
-4.3196043977874224e-05   9.624822038682961e-06   -7.241168273200232e-06
-5.201732158581867e-05   9.687539983352714e-06   7.423330306572512e-06
-5.201732158581867e-05   9.687539983352714e-06   7.423330306572512e-06
-5.201732158581867e-05   9.687539983352714e-06   7.423330306572512e-06
-5.201732158581867e-05   9.687539983352714e-06   7.423330306572512e-06
-4.3196043977874224e-05   9.075174583353732e-06   2.9589770628148755e-05
-4.3196043977874224e-05   9.075174583353732e-06   2.9589770628148755e-05
-4.3196043977874224e-05   9.075174583353732e-06   2.9589770628148755e-05
-4.3196043977874224e-05   9.075174583353732e-06   2.9589770628148755e-05
-6.529460731868354e-05   9.624822038682961e-06   -6.911379800002716e-06
-6.529460731868354e-05   9.624822038682961e-06   -6.911379800002716e-06
-6.529460731868354e-05   9.624822038682961e-06   -6.911379800002716e-06
-6.529460731868354e-05   9.624822038682961e-06   -6.911379800002716e-06
-6.755888831746739e-05   7.567248851816748e-06   3.9214110141836496e-05
-6.755888831746739e-05   7.567248851816748e-06   3.9214110141836496e-05
-6.755888831746739e-05   7.567248851816748e-06   3.9214110141836496e-05
-6.755888831746739e-05   7.567248851816748e-06   3.9214110141836496e-05
-4.460936421160511e-05   8.86304799257412e-06   1.8742381427828535e-07
-4.460936421160511e-05   8.86304799257412e-06   1.8742381427828535e-07
-4.460936421160511e-05   8.86304799257412e-06   1.8742381427828535e-07
-4.460936421160511e-05   8.86304799257412e-06   1.8742381427828535e-07
-5.281718804217188e-05   9.22961101927286e-06   1.3647192382537404e-05
-5.281718804217188e-05   9.22961101927286e-06   1.3647192382537404e-05
-5.281718804217188e-05   9.22961101927286e-06   1.3647192382537404e-05
-5.281718804217188e-05   9.22961101927286e-06   1.3647192382537404e-05
4.0898045411032316e-05   -5.719070461778072e-06   3.15163991464341e-05
4.0898045411032316e-05   -5.719070461778072e-06   3.15163991464341e-05
4.0898045411032316e-05   -5.719070461778072e-06   3.15163991464341e-05
4.0898045411032316e-05   -5.719070461778072e-06   3.15163991464341e-05
2.024033214005674e-05   -4.199955914573495e-06   -2.001654243535605e-06
2.024033214005674e-05   -4.199955914573495e-06   -2.001654243535605e-06
2.024033214005674e-05   -4.199955914573495e-06   -2.001654243535605e-06
2.024033214005674e-05   -4.199955914573495e-06   -2.001654243535605e-06
1.9469358014916872e-05   -6.479513255082956e-06   2.7400182534504562e-05
1.9469358014916872e-05   -6.479513255082956e-06   2.7400182534504562e-05
1.9469358014916872e-05   -6.479513255082956e-06   2.7400182534504562e-05
1.9469358014916872e-05   -6.479513255082956e-06   2.7400182534504562e-05
3.94805196583548e-05   -4.8709866885825355e-06   -6.916869477791802e-06
3.94805196583548e-05   -4.8709866885825355e-06   -6.916869477791802e-06
3.94805196583548e-05   -4.8709866885825355e-06   -6.916869477791802e-06
3.94805196583548e-05   -4.8709866885825355e-06   -6.916869477791802e-06
2.8647704312353636e-05   -5.262812922202228e-06   1.1372918505715007e-05
2.8647704312353636e-05   -5.262812922202228e-06   1.1372918505715007e-05
2.8647704312353636e-05   -5.262812922202228e-06   1.1372918505715007e-05
2.8647704312353636e-05   -5.262812922202228e-06   1.1372918505715007e-05
3.948051965835473e-05   -6.479513255083173e-06   2.6435066594604614e-05
3.948051965835473e-05   -6.479513255083173e-06   2.6435066594604614e-05
3.948051965835473e-05   -6.479513255083173e-06   2.6435066594604614e-05
3.948051965835473e-05   -6.479513255083173e-06   2.6435066594604614e-05
1.9469358014916954e-05   -4.8709866885825355e-06   -5.951753537891723e-06
1.9469358014916954e-05   -4.8709866885825355e-06   -5.951753537891723e-06
1.9469358014916954e-05   -4.8709866885825355e-06   -5.951753537891723e-06
1.9469358014916954e-05   -4.8709866885825355e-06   -5.951753537891723e-06
1.8612429548949914e-05   -6.5919759040986535e-06   2.455134914101085e-05
1.8612429548949914e-05   -6.5919759040986535e-06   2.455134914101085e-05
1.8612429548949914e-05   -6.5919759040986535e-06   2.455134914101085e-05
1.8612429548949914e-05   -6.5919759040986535e-06   2.455134914101085e-05
3.8196427270243395e-05   -5.0054135576809225e-06   -9.04058446899547e-06
3.8196427270243395e-05   -5.0054135576809225e-06   -9.04058446899547e-06
3.8196427270243395e-05   -5.0054135576809225e-06   -9.04058446899547e-06
3.8196427270243395e-05   -5.0054135576809225e-06   -9.04058446899547e-06
2.8116786607941736e-05   -5.523042469500472e-06   8.069393981932236e-06
2.8116786607941736e-05   -5.523042469500472e-06   8.069393981932236e-06
2.8116786607941736e-05   -5.523042469500472e-06   8.069393981932236e-06
2.8116786607941736e-05   -5.523042469500472e-06   8.069393981932236e-06
3.819642727024326e-05   -6.591975904098437e-06   2.359941173316017e-05
3.819642727024326e-05   -6.591975904098437e-06   2.359941173316017e-05
3.819642727024326e-05   -6.591975904098437e-06   2.359941173316017e-05
3.819642727024326e-05   -6.591975904098437e-06   2.359941173316017e-05
1.8612429548949948e-05   -5.0054135576809225e-06   -8.088647061145178e-06
1.8612429548949948e-05   -5.0054135576809225e-06   -8.088647061145178e-06
1.8612429548949948e-05   -5.0054135576809225e-06   -8.088647061145178e-06
1.8612429548949948e-05   -5.0054135576809225e-06   -8.088647061145178e-06
1.778802172192617e-05   -6.547749009586101e-06   2.0575506350248296e-05
1.778802172192617e-05   -6.547749009586101e-06   2.0575506350248296e-05
1.778802172192617e-05   -6.547749009586101e-06   2.0575506350248296e-05
1.778802172192617e-05   -6.547749009586101e-06   2.0575506350248296e-05
3.674163500275758e-05   -5.0578132406882675e-06   -1.1907810579142601e-05
3.674163500275758e-05   -5.0578132406882675e-06   -1.1907810579142601e-05
3.674163500275758e-05   -5.0578132406882675e-06   -1.1907810579142601e-05
3.674163500275758e-05   -5.0578132406882675e-06   -1.1907810579142601e-05
2.6674311546120183e-05   -5.42891430381086e-06   5.093722486460483e-06
2.6674311546120183e-05   -5.42891430381086e-06   5.093722486460483e-06
2.6674311546120183e-05   -5.42891430381086e-06   5.093722486460483e-06
2.6674311546120183e-05   -5.42891430381086e-06   5.093722486460483e-06
2.024033214005674e-05   -2.0148126579158394e-06   3.303906435615659e-05
2.024033214005674e-05   -2.0148126579158394e-06   3.303906435615659e-05
2.024033214005674e-05   -2.0148126579158394e-06   3.303906435615659e-05
2.024033214005674e-05   -2.0148126579158394e-06   3.303906435615659e-05
8.495482542340632e-07   -8.04086229273587e-07   1.4475270703044087e-06
8.495482542340632e-07   -8.04086229273587e-07   1.4475270703044087e-06
8.495482542340632e-07   -8.04086229273587e-07   1.4475270703044087e-06
8.495482542340632e-07   -8.04086229273587e-07   1.4475270703044087e-06
1.0919346410116597e-07   -2.4228899145818834e-06   3.338026315562962e-05
1.0919346410116597e-07   -2.4228899145818834e-06   3.338026315562962e-05
1.0919346410116597e-07   -2.4228899145818834e-06   3.338026315562962e-05
1.0919346410116597e-07   -2.4228899145818834e-06   3.338026315562962e-05
1.9469358014916954e-05   -1.2794201008400462e-06   4.272403493584047e-07
1.9469358014916954e-05   -1.2794201008400462e-06   4.272403493584047e-07
1.9469358014916954e-05   -1.2794201008400462e-06   4.272403493584047e-07
1.9469358014916954e-05   -1.2794201008400462e-06   4.272403493584047e-07
1.0043606076902016e-05   -1.5701947167522708e-06   1.6311291682263656e-05
1.0043606076902016e-05   -1.5701947167522708e-06   1.6311291682263656e-05
1.0043606076902016e-05   -1.5701947167522708e-06   1.6311291682263656e-05
1.0043606076902016e-05   -1.5701947167522708e-06   1.6311291682263656e-05
1.9469358014916933e-05   -2.4228899145818834e-06   3.269418126738456e-05
1.9469358014916933e-05   -2.4228899145818834e-06   3.269418126738456e-05
1.9469358014916933e-05   -2.4228899145818834e-06   3.269418126738456e-05
1.9469358014916933e-05   -2.4228899145818834e-06   3.269418126738456e-05
1.0919346410116597e-07   -1.2794201008400462e-06   1.113322237603423e-06
1.0919346410116597e-07   -1.2794201008400462e-06   1.113322237603423e-06
1.0919346410116597e-07   -1.2794201008400462e-06   1.113322237603423e-06
1.0919346410116597e-07   -1.2794201008400462e-06   1.113322237603423e-06
-6.603761659413428e-07   -2.6897048601905605e-06   3.287447884192641e-05
-6.603761659413428e-07   -2.6897048601905605e-06   3.287447884192641e-05
-6.603761659413428e-07   -2.6897048601905605e-06   3.287447884192641e-05
-6.603761659413428e-07   -2.6897048601905605e-06   3.287447884192641e-05
1.8612429548949948e-05   -1.6319047453417813e-06   1.1845591486486274e-07
1.8612429548949948e-05   -1.6319047453417813e-06   1.1845591486486274e-07
1.8612429548949948e-05   -1.6319047453417813e-06   1.1845591486486274e-07
1.8612429548949948e-05   -1.6319047453417813e-06   1.1845591486486274e-07
9.193138198515137e-06   -1.81895850312171e-06   1.5929507086924726e-05
9.193138198515137e-06   -1.81895850312171e-06   1.5929507086924726e-05
9.193138198515137e-06   -1.81895850312171e-06   1.5929507086924726e-05
9.193138198515137e-06   -1.81895850312171e-06   1.5929507086924726e-05
1.8612429548949914e-05   -2.6897048601905605e-06   3.223979877301701e-05
1.8612429548949914e-05   -2.6897048601905605e-06   3.223979877301701e-05
1.8612429548949914e-05   -2.6897048601905605e-06   3.223979877301701e-05
1.8612429548949914e-05   -2.6897048601905605e-06   3.223979877301701e-05
-6.603761659413428e-07   -1.6319047453417813e-06   7.531359837741926e-07
-6.603761659413428e-07   -1.6319047453417813e-06   7.531359837741926e-07
-6.603761659413428e-07   -1.6319047453417813e-06   7.531359837741926e-07
-6.603761659413428e-07   -1.6319047453417813e-06   7.531359837741926e-07
-1.461558864277967e-06   -2.8028780266939855e-06   3.3123950435594946e-05
-1.461558864277967e-06   -2.8028780266939855e-06   3.3123950435594946e-05
-1.461558864277967e-06   -2.8028780266939855e-06   3.3123950435594946e-05
-1.461558864277967e-06   -2.8028780266939855e-06   3.3123950435594946e-05
1.778802172192622e-05   -1.9092219837445624e-06   5.051224994847138e-07
1.778802172192622e-05   -1.9092219837445624e-06   5.051224994847138e-07
1.778802172192622e-05   -1.9092219837445624e-06   5.051224994847138e-07
1.778802172192622e-05   -1.9092219837445624e-06   5.051224994847138e-07
8.554662640642566e-06   -1.9517964421449097e-06   1.5919598976665177e-05
8.554662640642566e-06   -1.9517964421449097e-06   1.5919598976665177e-05
8.554662640642566e-06   -1.9517964421449097e-06   1.5919598976665177e-05
8.554662640642566e-06   -1.9517964421449097e-06   1.5919598976665177e-05
8.495482542340632e-07   1.7974664796257568e-06   3.4102182934467535e-05
8.495482542340632e-07   1.7974664796257568e-06   3.4102182934467535e-05
8.495482542340632e-07   1.7974664796257568e-06   3.4102182934467535e-05
8.495482542340632e-07   1.7974664796257568e-06   3.4102182934467535e-05
-1.7976545758409174e-05   2.6040949973166715e-06   3.209336690676535e-06
-1.7976545758409174e-05   2.6040949973166715e-06   3.209336690676535e-06
-1.7976545758409174e-05   2.6040949973166715e-06   3.209336690676535e-06
-1.7976545758409174e-05   2.6040949973166715e-06   3.209336690676535e-06
-1.8750243922882755e-05   1.4861954346790524e-06   3.4569786215145424e-05
-1.8750243922882755e-05   1.4861954346790524e-06   3.4569786215145424e-05
-1.8750243922882755e-05   1.4861954346790524e-06   3.4569786215145424e-05
-1.8750243922882755e-05   1.4861954346790524e-06   3.4569786215145424e-05
1.0919346410116597e-07   2.209270246016949e-06   2.703545683369399e-06
1.0919346410116597e-07   2.209270246016949e-06   2.703545683369399e-06
1.0919346410116597e-07   2.209270246016949e-06   2.703545683369399e-06
1.0919346410116597e-07   2.209270246016949e-06   2.703545683369399e-06
-8.955805924025058e-06   2.0466617179971426e-06   1.790944311372511e-05
-8.955805924025058e-06   2.0466617179971426e-06   1.790944311372511e-05
-8.955805924025058e-06   2.0466617179971426e-06   1.790944311372511e-05
-8.955805924025058e-06   2.0466617179971426e-06   1.790944311372511e-05
1.0919346410116597e-07   1.4861954346790524e-06   3.4135941328342556e-05
1.0919346410116597e-07   1.4861954346790524e-06   3.4135941328342556e-05
1.0919346410116597e-07   1.4861954346790524e-06   3.4135941328342556e-05
1.0919346410116597e-07   1.4861954346790524e-06   3.4135941328342556e-05
-1.8750243922882755e-05   2.209270246017166e-06   3.1373905701722942e-06
-1.8750243922882755e-05   2.209270246017166e-06   3.1373905701722942e-06
-1.8750243922882755e-05   2.209270246017166e-06   3.1373905701722942e-06
-1.8750243922882755e-05   2.209270246017166e-06   3.1373905701722942e-06
-1.9567058737807177e-05   1.196446394905815e-06   3.489409020372334e-05
-1.9567058737807177e-05   1.196446394905815e-06   3.489409020372334e-05
-1.9567058737807177e-05   1.196446394905815e-06   3.489409020372334e-05
-1.9567058737807177e-05   1.196446394905815e-06   3.489409020372334e-05
-6.603761659413428e-07   1.825927959484431e-06   3.0052636451994923e-06
-6.603761659413428e-07   1.825927959484431e-06   3.0052636451994923e-06
-6.603761659413428e-07   1.825927959484431e-06   3.0052636451994923e-06
-6.603761659413428e-07   1.825927959484431e-06   3.0052636451994923e-06
-9.674412087724657e-06   1.821665674475335e-06   1.803121421917745e-05
-9.674412087724657e-06   1.821665674475335e-06   1.803121421917745e-05
-9.674412087724657e-06   1.821665674475335e-06   1.803121421917745e-05
-9.674412087724657e-06   1.821665674475335e-06   1.803121421917745e-05
-6.603761659413428e-07   1.196446394905815e-06   3.451640126497595e-05
-6.603761659413428e-07   1.196446394905815e-06   3.451640126497595e-05
-6.603761659413428e-07   1.196446394905815e-06   3.451640126497595e-05
-6.603761659413428e-07   1.196446394905815e-06   3.451640126497595e-05
-1.9567058737807205e-05   1.825927959484431e-06   3.3829525839468516e-06
-1.9567058737807205e-05   1.825927959484431e-06   3.3829525839468516e-06
-1.9567058737807205e-05   1.825927959484431e-06   3.3829525839468516e-06
-1.9567058737807205e-05   1.825927959484431e-06   3.3829525839468516e-06
-2.040983446721252e-05   9.880062843347585e-07   3.5409910979030844e-05
-2.040983446721252e-05   9.880062843347585e-07   3.5409910979030844e-05
-2.040983446721252e-05   9.880062843347585e-07   3.5409910979030844e-05
-2.040983446721252e-05   9.880062843347585e-07   3.5409910979030844e-05
-1.461558864277967e-06   1.4847523263836464e-06   3.531404015577155e-06
-1.461558864277967e-06   1.4847523263836464e-06   3.531404015577155e-06
-1.461558864277967e-06   1.4847523263836464e-06   3.531404015577155e-06
-1.461558864277967e-06   1.4847523263836464e-06   3.531404015577155e-06
-1.0452080869723252e-05   1.6061943045179213e-06   1.844274217110628e-05
-1.0452080869723252e-05   1.6061943045179213e-06   1.844274217110628e-05
-1.0452080869723252e-05   1.6061943045179213e-06   1.844274217110628e-05
-1.0452080869723252e-05   1.6061943045179213e-06   1.844274217110628e-05
-1.7976545758409228e-05   5.846669713844167e-06   2.9761966925777403e-05
-1.7976545758409228e-05   5.846669713844167e-06   2.9761966925777403e-05
-1.7976545758409228e-05   5.846669713844167e-06   2.9761966925777403e-05
-1.7976545758409228e-05   5.846669713844167e-06   2.9761966925777403e-05
-3.6216969583466703e-05   5.920839870661703e-06   -5.942373552280571e-07
-3.6216969583466703e-05   5.920839870661703e-06   -5.942373552280571e-07
-3.6216969583466703e-05   5.920839870661703e-06   -5.942373552280571e-07
-3.6216969583466703e-05   5.920839870661703e-06   -5.942373552280571e-07
-3.711508810126638e-05   5.53520772421357e-06   3.0282754691681292e-05
-3.711508810126638e-05   5.53520772421357e-06   3.0282754691681292e-05
-3.711508810126638e-05   5.53520772421357e-06   3.0282754691681292e-05
-3.711508810126638e-05   5.53520772421357e-06   3.0282754691681292e-05
-1.8750243922882782e-05   5.5444404804228745e-06   -3.308585926834872e-07
-1.8750243922882782e-05   5.5444404804228745e-06   -3.308585926834872e-07
-1.8750243922882782e-05   5.5444404804228745e-06   -3.308585926834872e-07
-1.8750243922882782e-05   5.5444404804228745e-06   -3.308585926834872e-07
-2.739178843690399e-05   5.697071599132693e-06   1.3980136926125682e-05
-2.739178843690399e-05   5.697071599132693e-06   1.3980136926125682e-05
-2.739178843690399e-05   5.697071599132693e-06   1.3980136926125682e-05
-2.739178843690399e-05   5.697071599132693e-06   1.3980136926125682e-05
-1.8750243922882782e-05   5.53520772421357e-06   3.0277215037955753e-05
-1.8750243922882782e-05   5.53520772421357e-06   3.0277215037955753e-05
-1.8750243922882782e-05   5.53520772421357e-06   3.0277215037955753e-05
-1.8750243922882782e-05   5.53520772421357e-06   3.0277215037955753e-05
-3.71150881012663e-05   5.5444404804228745e-06   -3.2531893895805606e-07
-3.71150881012663e-05   5.5444404804228745e-06   -3.2531893895805606e-07
-3.71150881012663e-05   5.5444404804228745e-06   -3.2531893895805606e-07
-3.71150881012663e-05   5.5444404804228745e-06   -3.2531893895805606e-07
-3.811013434396664e-05   5.24660907055721e-06   3.169055368587104e-05
-3.811013434396664e-05   5.24660907055721e-06   3.169055368587104e-05
-3.811013434396664e-05   5.24660907055721e-06   3.169055368587104e-05
-3.811013434396664e-05   5.24660907055721e-06   3.169055368587104e-05
-1.9567058737807205e-05   5.196902052182796e-06   8.152518866296485e-07
-1.9567058737807205e-05   5.196902052182796e-06   8.152518866296485e-07
-1.9567058737807205e-05   5.196902052182796e-06   8.152518866296485e-07
-1.9567058737807205e-05   5.196902052182796e-06   8.152518866296485e-07
-2.8040010923187745e-05   5.484862242212136e-06   1.4764062748246441e-05
-2.8040010923187745e-05   5.484862242212136e-06   1.4764062748246441e-05
-2.8040010923187745e-05   5.484862242212136e-06   1.4764062748246441e-05
-2.8040010923187745e-05   5.484862242212136e-06   1.4764062748246441e-05
-1.9567058737807205e-05   5.24660907055721e-06   3.172037789689547e-05
-1.9567058737807205e-05   5.24660907055721e-06   3.172037789689547e-05
-1.9567058737807205e-05   5.24660907055721e-06   3.172037789689547e-05
-1.9567058737807205e-05   5.24660907055721e-06   3.172037789689547e-05
-3.811013434396659e-05   5.196902052182796e-06   7.854276756052167e-07
-3.811013434396659e-05   5.196902052182796e-06   7.854276756052167e-07
-3.811013434396659e-05   5.196902052182796e-06   7.854276756052167e-07
-3.811013434396659e-05   5.196902052182796e-06   7.854276756052167e-07
-3.905824588752924e-05   4.858023403524073e-06   3.270434283487371e-05
-3.905824588752924e-05   4.858023403524073e-06   3.270434283487371e-05
-3.905824588752924e-05   4.858023403524073e-06   3.270434283487371e-05
-3.905824588752924e-05   4.858023403524073e-06   3.270434283487371e-05
-2.0409834467212588e-05   4.771986339844421e-06   1.6752793725538994e-06
-2.0409834467212588e-05   4.771986339844421e-06   1.6752793725538994e-06
-2.0409834467212588e-05   4.771986339844421e-06   1.6752793725538994e-06
-2.0409834467212588e-05   4.771986339844421e-06   1.6752793725538994e-06
-2.907369794555086e-05   5.208524887809034e-06   1.5853128707673614e-05
-2.907369794555086e-05   5.208524887809034e-06   1.5853128707673614e-05
-2.907369794555086e-05   5.208524887809034e-06   1.5853128707673614e-05
-2.907369794555086e-05   5.208524887809034e-06   1.5853128707673614e-05
-3.621696958346665e-05   9.508605715261888e-06   1.4312783869242568e-05
-3.621696958346665e-05   9.508605715261888e-06   1.4312783869242568e-05
-3.621696958346665e-05   9.508605715261888e-06   1.4312783869242568e-05
-3.621696958346665e-05   9.508605715261888e-06   1.4312783869242568e-05
-5.356187219915777e-05   8.53066282402947e-06   -1.5182152891648755e-05
-5.356187219915777e-05   8.53066282402947e-06   -1.5182152891648755e-05
-5.356187219915777e-05   8.53066282402947e-06   -1.5182152891648755e-05
-5.356187219915777e-05   8.53066282402947e-06   -1.5182152891648755e-05
-5.49763562691437e-05   9.693757267128416e-06   1.9867890022308042e-05
-5.49763562691437e-05   9.693757267128416e-06   1.9867890022308042e-05
-5.49763562691437e-05   9.693757267128416e-06   1.9867890022308042e-05
-5.49763562691437e-05   9.693757267128416e-06   1.9867890022308042e-05
-3.711508810126638e-05   8.62308726466655e-06   -9.258488256010599e-06
-3.711508810126638e-05   8.62308726466655e-06   -9.258488256010599e-06
-3.711508810126638e-05   8.62308726466655e-06   -9.258488256010599e-06
-3.711508810126638e-05   8.62308726466655e-06   -9.258488256010599e-06
-4.372626768855274e-05   9.034894291659384e-06   1.5130601732709584e-06
-4.372626768855274e-05   9.034894291659384e-06   1.5130601732709584e-06
-4.372626768855274e-05   9.034894291659384e-06   1.5130601732709584e-06
-4.372626768855274e-05   9.034894291659384e-06   1.5130601732709584e-06
-3.711508810126627e-05   9.693757267128416e-06   2.0510292023785204e-05
-3.711508810126627e-05   9.693757267128416e-06   2.0510292023785204e-05
-3.711508810126627e-05   9.693757267128416e-06   2.0510292023785204e-05
-3.711508810126627e-05   9.693757267128416e-06   2.0510292023785204e-05
-5.497635626914389e-05   8.62308726466655e-06   -9.900890257487707e-06
-5.497635626914389e-05   8.62308726466655e-06   -9.900890257487707e-06
-5.497635626914389e-05   8.62308726466655e-06   -9.900890257487707e-06
-5.497635626914389e-05   8.62308726466655e-06   -9.900890257487707e-06
-5.635700157980119e-05   9.624822038682744e-06   2.418727888833772e-05
-5.635700157980119e-05   9.624822038682744e-06   2.418727888833772e-05
-5.635700157980119e-05   9.624822038682744e-06   2.418727888833772e-05
-5.635700157980119e-05   9.624822038682744e-06   2.418727888833772e-05
-3.811013434396664e-05   8.528724521188105e-06   -5.56650799422311e-06
-3.811013434396664e-05   8.528724521188105e-06   -5.56650799422311e-06
-3.811013434396664e-05   8.528724521188105e-06   -5.56650799422311e-06
-3.811013434396664e-05   8.528724521188105e-06   -5.56650799422311e-06
-4.546781271603876e-05   9.200578360880462e-06   6.29317698874922e-06
-4.546781271603876e-05   9.200578360880462e-06   6.29317698874922e-06
-4.546781271603876e-05   9.200578360880462e-06   6.29317698874922e-06
-4.546781271603876e-05   9.200578360880462e-06   6.29317698874922e-06
-3.811013434396664e-05   9.624822038682961e-06   2.4844937398834765e-05
-3.811013434396664e-05   9.624822038682961e-06   2.4844937398834765e-05
-3.811013434396664e-05   9.624822038682961e-06   2.4844937398834765e-05
-3.811013434396664e-05   9.624822038682961e-06   2.4844937398834765e-05
-5.6357001579801356e-05   8.528724521188105e-06   -6.224166504720046e-06
-5.6357001579801356e-05   8.528724521188105e-06   -6.224166504720046e-06
-5.6357001579801356e-05   8.528724521188105e-06   -6.224166504720046e-06
-5.6357001579801356e-05   8.528724521188105e-06   -6.224166504720046e-06
-5.796890014220414e-05   8.86304799257412e-06   3.158386122574237e-05
-5.796890014220414e-05   8.86304799257412e-06   3.158386122574237e-05
-5.796890014220414e-05   8.86304799257412e-06   3.158386122574237e-05
-5.796890014220414e-05   8.86304799257412e-06   3.158386122574237e-05
-3.905824588752924e-05   7.872476034331008e-06   6.604473095633964e-07
-3.905824588752924e-05   7.872476034331008e-06   6.604473095633964e-07
-3.905824588752924e-05   7.872476034331008e-06   6.604473095633964e-07
-3.905824588752924e-05   7.872476034331008e-06   6.604473095633964e-07
-4.590471952011279e-05   8.92971119646215e-06   1.1436895599924765e-05
-4.590471952011279e-05   8.92971119646215e-06   1.1436895599924765e-05
-4.590471952011279e-05   8.92971119646215e-06   1.1436895599924765e-05
-4.590471952011279e-05   8.92971119646215e-06   1.1436895599924765e-05
3.1095009996319405e-05   -4.199955914573495e-06   2.6347913762886886e-05
3.1095009996319405e-05   -4.199955914573495e-06   2.6347913762886886e-05
3.1095009996319405e-05   -4.199955914573495e-06   2.6347913762886886e-05
3.1095009996319405e-05   -4.199955914573495e-06   2.6347913762886886e-05
1.4634520698893822e-05   -2.781511826139291e-06   -2.3516861309517967e-07
1.4634520698893822e-05   -2.781511826139291e-06   -2.3516861309517967e-07
1.4634520698893822e-05   -2.781511826139291e-06   -2.3516861309517967e-07
1.4634520698893822e-05   -2.781511826139291e-06   -2.3516861309517967e-07
1.3945540040867456e-05   -4.8709866885825355e-06   2.3145862837976438e-05
1.3945540040867456e-05   -4.8709866885825355e-06   2.3145862837976438e-05
1.3945540040867456e-05   -4.8709866885825355e-06   2.3145862837976438e-05
1.3945540040867456e-05   -4.8709866885825355e-06   2.3145862837976438e-05
2.9761657297945753e-05   -3.3738886925554004e-06   -4.112591388103531e-06
2.9761657297945753e-05   -3.3738886925554004e-06   -4.112591388103531e-06
2.9761657297945753e-05   -3.3738886925554004e-06   -4.112591388103531e-06
2.9761657297945753e-05   -3.3738886925554004e-06   -4.112591388103531e-06
2.1307553431741357e-05   -3.835175997747619e-06   1.0254354105352368e-05
2.1307553431741357e-05   -3.835175997747619e-06   1.0254354105352368e-05
2.1307553431741357e-05   -3.835175997747619e-06   1.0254354105352368e-05
2.1307553431741357e-05   -3.835175997747619e-06   1.0254354105352368e-05
2.9761657297945753e-05   -4.8709866885825355e-06   2.2247604040360244e-05
2.9761657297945753e-05   -4.8709866885825355e-06   2.2247604040360244e-05
2.9761657297945753e-05   -4.8709866885825355e-06   2.2247604040360244e-05
2.9761657297945753e-05   -4.8709866885825355e-06   2.2247604040360244e-05
1.394554004086748e-05   -3.3738886925554004e-06   -3.2143325904871334e-06
1.394554004086748e-05   -3.3738886925554004e-06   -3.2143325904871334e-06
1.394554004086748e-05   -3.3738886925554004e-06   -3.2143325904871334e-06
1.394554004086748e-05   -3.3738886925554004e-06   -3.2143325904871334e-06
1.318477124033224e-05   -5.0054135576809225e-06   2.08955928657393e-05
1.318477124033224e-05   -5.0054135576809225e-06   2.08955928657393e-05
1.318477124033224e-05   -5.0054135576809225e-06   2.08955928657393e-05
1.318477124033224e-05   -5.0054135576809225e-06   2.08955928657393e-05
2.8592731132838015e-05   -3.5318280913524108e-06   -5.668491568234035e-06
2.8592731132838015e-05   -3.5318280913524108e-06   -5.668491568234035e-06
2.8592731132838015e-05   -3.5318280913524108e-06   -5.668491568234035e-06
2.8592731132838015e-05   -3.5318280913524108e-06   -5.668491568234035e-06
2.0757108234500584e-05   -4.075692672430567e-06   7.717198677642501e-06
2.0757108234500584e-05   -4.075692672430567e-06   7.717198677642501e-06
2.0757108234500584e-05   -4.075692672430567e-06   7.717198677642501e-06
2.0757108234500584e-05   -4.075692672430567e-06   7.717198677642501e-06
2.8592731132837968e-05   -5.005413557681139e-06   2.001144158594241e-05
2.8592731132837968e-05   -5.005413557681139e-06   2.001144158594241e-05
2.8592731132837968e-05   -5.005413557681139e-06   2.001144158594241e-05
2.8592731132837968e-05   -5.005413557681139e-06   2.001144158594241e-05
1.318477124033226e-05   -3.5318280913524108e-06   -4.784340288436833e-06
1.318477124033226e-05   -3.5318280913524108e-06   -4.784340288436833e-06
1.318477124033226e-05   -3.5318280913524108e-06   -4.784340288436833e-06
1.318477124033226e-05   -3.5318280913524108e-06   -4.784340288436833e-06
1.2482133298948624e-05   -5.0578132406882675e-06   1.7845015932354885e-05
1.2482133298948624e-05   -5.0578132406882675e-06   1.7845015932354885e-05
1.2482133298948624e-05   -5.0578132406882675e-06   1.7845015932354885e-05
1.2482133298948624e-05   -5.0578132406882675e-06   1.7845015932354885e-05
2.728613515159066e-05   -3.6779773658931862e-06   -7.656222013591928e-06
2.728613515159066e-05   -3.6779773658931862e-06   -7.656222013591928e-06
2.728613515159066e-05   -3.6779773658931862e-06   -7.656222013591928e-06
2.728613515159066e-05   -3.6779773658931862e-06   -7.656222013591928e-06
1.9534711486159762e-05   -4.051632750135632e-06   5.487010659338629e-06
1.9534711486159762e-05   -4.051632750135632e-06   5.487010659338629e-06
1.9534711486159762e-05   -4.051632750135632e-06   5.487010659338629e-06
1.9534711486159762e-05   -4.051632750135632e-06   5.487010659338629e-06
1.4634520698893771e-05   -8.04086229273587e-07   2.9921725672602114e-05
1.4634520698893771e-05   -8.04086229273587e-07   2.9921725672602114e-05
1.4634520698893771e-05   -8.04086229273587e-07   2.9921725672602114e-05
1.4634520698893771e-05   -8.04086229273587e-07   2.9921725672602114e-05
-9.432349684455329e-07   -1.7323393065524217e-08   4.430857262094682e-06
-9.432349684455329e-07   -1.7323393065524217e-08   4.430857262094682e-06
-9.432349684455329e-07   -1.7323393065524217e-08   4.430857262094682e-06
-9.432349684455329e-07   -1.7323393065524217e-08   4.430857262094682e-06
-1.591141719848861e-06   -1.279420100840263e-06   2.9973283522543963e-05
-1.591141719848861e-06   -1.279420100840263e-06   2.9973283522543963e-05
-1.591141719848861e-06   -1.279420100840263e-06   2.9973283522543963e-05
-1.591141719848861e-06   -1.279420100840263e-06   2.9973283522543963e-05
1.394554004086748e-05   -5.320421053111278e-07   3.6303871240327788e-06
1.394554004086748e-05   -5.320421053111278e-07   3.6303871240327788e-06
1.394554004086748e-05   -5.320421053111278e-07   3.6303871240327788e-06
1.394554004086748e-05   -5.320421053111278e-07   3.6303871240327788e-06
6.405842431848995e-06   -6.769909076790627e-07   1.6283519087150833e-05
6.405842431848995e-06   -6.769909076790627e-07   1.6283519087150833e-05
6.405842431848995e-06   -6.769909076790627e-07   1.6283519087150833e-05
6.405842431848995e-06   -6.769909076790627e-07   1.6283519087150833e-05
1.3945540040867442e-05   -1.2794201008400462e-06   2.9524856725226525e-05
1.3945540040867442e-05   -1.2794201008400462e-06   2.9524856725226525e-05
1.3945540040867442e-05   -1.2794201008400462e-06   2.9524856725226525e-05
1.3945540040867442e-05   -1.2794201008400462e-06   2.9524856725226525e-05
-1.591141719848861e-06   -5.320421053111278e-07   4.078813921350047e-06
-1.591141719848861e-06   -5.320421053111278e-07   4.078813921350047e-06
-1.591141719848861e-06   -5.320421053111278e-07   4.078813921350047e-06
-1.591141719848861e-06   -5.320421053111278e-07   4.078813921350047e-06
-2.2529024129924134e-06   -1.6319047453417813e-06   2.9519484391505625e-05
-2.2529024129924134e-06   -1.6319047453417813e-06   2.9519484391505625e-05
-2.2529024129924134e-06   -1.6319047453417813e-06   2.9519484391505625e-05
-2.2529024129924134e-06   -1.6319047453417813e-06   2.9519484391505625e-05
1.318477124033226e-05   -9.37257162414093e-07   3.373239752874695e-06
1.318477124033226e-05   -9.37257162414093e-07   3.373239752874695e-06
1.318477124033226e-05   -9.37257162414093e-07   3.373239752874695e-06
1.318477124033226e-05   -9.37257162414093e-07   3.373239752874695e-06
5.678645505927118e-06   -9.943801789398e-07   1.591772312013284e-05
5.678645505927118e-06   -9.943801789398e-07   1.591772312013284e-05
5.678645505927118e-06   -9.943801789398e-07   1.591772312013284e-05
5.678645505927118e-06   -9.943801789398e-07   1.591772312013284e-05
1.318477124033224e-05   -1.6319047453415645e-06   2.9102695841749272e-05
1.318477124033224e-05   -1.6319047453415645e-06   2.9102695841749272e-05
1.318477124033224e-05   -1.6319047453415645e-06   2.9102695841749272e-05
1.318477124033224e-05   -1.6319047453415645e-06   2.9102695841749272e-05
-2.2529024129924134e-06   -9.37257162414093e-07   3.790028302631224e-06
-2.2529024129924134e-06   -9.37257162414093e-07   3.790028302631224e-06
-2.2529024129924134e-06   -9.37257162414093e-07   3.790028302631224e-06
-2.2529024129924134e-06   -9.37257162414093e-07   3.790028302631224e-06
-2.918295500492282e-06   -1.9092219837445624e-06   2.9722373933636264e-05
-2.918295500492282e-06   -1.9092219837445624e-06   2.9722373933636264e-05
-2.918295500492282e-06   -1.9092219837445624e-06   2.9722373933636264e-05
-2.918295500492282e-06   -1.9092219837445624e-06   2.9722373933636264e-05
1.2482133298948634e-05   -1.3119113437571207e-06   3.696606217242156e-06
1.2482133298948634e-05   -1.3119113437571207e-06   3.696606217242156e-06
1.2482133298948634e-05   -1.3119113437571207e-06   3.696606217242156e-06
1.2482133298948634e-05   -1.3119113437571207e-06   3.696606217242156e-06
5.12407773257012e-06   -1.2287201286648522e-06   1.5910117432151624e-05
5.12407773257012e-06   -1.2287201286648522e-06   1.5910117432151624e-05
5.12407773257012e-06   -1.2287201286648522e-06   1.5910117432151624e-05
5.12407773257012e-06   -1.2287201286648522e-06   1.5910117432151624e-05
-9.432349684455465e-07   2.6040949973164546e-06   3.167161588408488e-05
-9.432349684455465e-07   2.6040949973164546e-06   3.167161588408488e-05
-9.432349684455465e-07   2.6040949973164546e-06   3.167161588408488e-05
-9.432349684455465e-07   2.6040949973164546e-06   3.167161588408488e-05
-1.619409504959035e-05   2.6815410051257184e-06   6.299983353529222e-06
-1.619409504959035e-05   2.6815410051257184e-06   6.299983353529222e-06
-1.619409504959035e-05   2.6815410051257184e-06   6.299983353529222e-06
-1.619409504959035e-05   2.6815410051257184e-06   6.299983353529222e-06
-1.6845660719538196e-05   2.209270246017166e-06   3.157584737766158e-05
-1.6845660719538196e-05   2.209270246017166e-06   3.157584737766158e-05
-1.6845660719538196e-05   2.209270246017166e-06   3.157584737766158e-05
-1.6845660719538196e-05   2.209270246017166e-06   3.157584737766158e-05
-1.591141719848861e-06   2.229837594936628e-06   6.139308635494362e-06
-1.591141719848861e-06   2.229837594936628e-06   6.139308635494362e-06
-1.591141719848861e-06   2.229837594936628e-06   6.139308635494362e-06
-1.591141719848861e-06   2.229837594936628e-06   6.139308635494362e-06
-8.916577620862905e-06   2.388347135400372e-06   1.8253262746239618e-05
-8.916577620862905e-06   2.388347135400372e-06   1.8253262746239618e-05
-8.916577620862905e-06   2.388347135400372e-06   1.8253262746239618e-05
-8.916577620862905e-06   2.388347135400372e-06   1.8253262746239618e-05
-1.591141719848861e-06   2.209270246017166e-06   3.1563506968310074e-05
-1.591141719848861e-06   2.209270246017166e-06   3.1563506968310074e-05
-1.591141719848861e-06   2.209270246017166e-06   3.1563506968310074e-05
-1.591141719848861e-06   2.209270246017166e-06   3.1563506968310074e-05
-1.6845660719538196e-05   2.229837594936628e-06   6.15164904484611e-06
-1.6845660719538196e-05   2.229837594936628e-06   6.15164904484611e-06
-1.6845660719538196e-05   2.229837594936628e-06   6.15164904484611e-06
-1.6845660719538196e-05   2.229837594936628e-06   6.15164904484611e-06
-1.751340417697217e-05   1.8259279594846477e-06   3.174725324524351e-05
-1.751340417697217e-05   1.8259279594846477e-06   3.174725324524351e-05
-1.751340417697217e-05   1.8259279594846477e-06   3.174725324524351e-05
-1.751340417697217e-05   1.8259279594846477e-06   3.174725324524351e-05
-2.2529024129924134e-06   1.7853299466717883e-06   6.337442446298217e-06
-2.2529024129924134e-06   1.7853299466717883e-06   6.337442446298217e-06
-2.2529024129924134e-06   1.7853299466717883e-06   6.337442446298217e-06
-2.2529024129924134e-06   1.7853299466717883e-06   6.337442446298217e-06
-9.521374991723124e-06   2.08489334273124e-06   1.8271825373214424e-05
-9.521374991723124e-06   2.08489334273124e-06   1.8271825373214424e-05
-9.521374991723124e-06   2.08489334273124e-06   1.8271825373214424e-05
-9.521374991723124e-06   2.08489334273124e-06   1.8271825373214424e-05
-2.2529024129924134e-06   1.8259279594846477e-06   3.177161205293144e-05
-2.2529024129924134e-06   1.8259279594846477e-06   3.177161205293144e-05
-2.2529024129924134e-06   1.8259279594846477e-06   3.177161205293144e-05
-2.2529024129924134e-06   1.8259279594846477e-06   3.177161205293144e-05
-1.751340417697217e-05   1.7853299466717883e-06   6.313083638610664e-06
-1.751340417697217e-05   1.7853299466717883e-06   6.313083638610664e-06
-1.751340417697217e-05   1.7853299466717883e-06   6.313083638610664e-06
-1.751340417697217e-05   1.7853299466717883e-06   6.313083638610664e-06
-1.8180796810679224e-05   1.4847523263834296e-06   3.213975447704902e-05
-1.8180796810679224e-05   1.4847523263834296e-06   3.213975447704902e-05
-1.8180796810679224e-05   1.4847523263834296e-06   3.213975447704902e-05
-1.8180796810679224e-05   1.4847523263834296e-06   3.213975447704902e-05
-2.918295500492282e-06   1.3635734148671232e-06   6.774959640313936e-06
-2.918295500492282e-06   1.3635734148671232e-06   6.774959640313936e-06
-2.918295500492282e-06   1.3635734148671232e-06   6.774959640313936e-06
-2.918295500492282e-06   1.3635734148671232e-06   6.774959640313936e-06
-1.0154621680516512e-05   1.789270131590361e-06   1.858008524365434e-05
-1.0154621680516512e-05   1.789270131590361e-06   1.858008524365434e-05
-1.0154621680516512e-05   1.789270131590361e-06   1.858008524365434e-05
-1.0154621680516512e-05   1.789270131590361e-06   1.858008524365434e-05
-1.6194095049590324e-05   5.920839870661486e-06   2.7870007348775386e-05
-1.6194095049590324e-05   5.920839870661486e-06   2.7870007348775386e-05
-1.6194095049590324e-05   5.920839870661486e-06   2.7870007348775386e-05
-1.6194095049590324e-05   5.920839870661486e-06   2.7870007348775386e-05
-3.1112941914466965e-05   5.2795530147825825e-06   2.620490460453445e-06
-3.1112941914466965e-05   5.2795530147825825e-06   2.620490460453445e-06
-3.1112941914466965e-05   5.2795530147825825e-06   2.620490460453445e-06
-3.1112941914466965e-05   5.2795530147825825e-06   2.620490460453445e-06
-3.181418473226599e-05   5.5444404804228745e-06   2.7689401722973258e-05
-3.181418473226599e-05   5.5444404804228745e-06   2.7689401722973258e-05
-3.181418473226599e-05   5.5444404804228745e-06   2.7689401722973258e-05
-3.181418473226599e-05   5.5444404804228745e-06   2.7689401722973258e-05
-1.6845660719538223e-05   4.847446327368825e-06   3.1600581935928383e-06
-1.6845660719538223e-05   4.847446327368825e-06   3.1600581935928383e-06
-1.6845660719538223e-05   4.847446327368825e-06   3.1600581935928383e-06
-1.6845660719538223e-05   4.847446327368825e-06   3.1600581935928383e-06
-2.391232157465743e-05   5.3270846088440856e-06   1.4650043316572988e-05
-2.391232157465743e-05   5.3270846088440856e-06   1.4650043316572988e-05
-2.391232157465743e-05   5.3270846088440856e-06   1.4650043316572988e-05
-2.391232157465743e-05   5.3270846088440856e-06   1.4650043316572988e-05
-1.6845660719538196e-05   5.5444404804228745e-06   2.8107598214805905e-05
-1.6845660719538196e-05   5.5444404804228745e-06   2.8107598214805905e-05
-1.6845660719538196e-05   5.5444404804228745e-06   2.8107598214805905e-05
-1.6845660719538196e-05   5.5444404804228745e-06   2.8107598214805905e-05
-3.181418473226599e-05   4.847446327368825e-06   2.7418617017603e-06
-3.181418473226599e-05   4.847446327368825e-06   2.7418617017603e-06
-3.181418473226599e-05   4.847446327368825e-06   2.7418617017603e-06
-3.181418473226599e-05   4.847446327368825e-06   2.7418617017603e-06
-3.258591642363312e-05   5.196902052182796e-06   2.8728037387622946e-05
-3.258591642363312e-05   5.196902052182796e-06   2.8728037387622946e-05
-3.258591642363312e-05   5.196902052182796e-06   2.8728037387622946e-05
-3.258591642363312e-05   5.196902052182796e-06   2.8728037387622946e-05
-1.7513404176972198e-05   4.444376785010459e-06   4.058698803491724e-06
-1.7513404176972198e-05   4.444376785010459e-06   4.058698803491724e-06
-1.7513404176972198e-05   4.444376785010459e-06   4.058698803491724e-06
-1.7513404176972198e-05   4.444376785010459e-06   4.058698803491724e-06
-2.4414726075236583e-05   5.051419198237378e-06   1.5196676519330229e-05
-2.4414726075236583e-05   5.051419198237378e-06   1.5196676519330229e-05
-2.4414726075236583e-05   5.051419198237378e-06   1.5196676519330229e-05
-2.4414726075236583e-05   5.051419198237378e-06   1.5196676519330229e-05
-1.751340417697217e-05   5.196902052182796e-06   2.917955254792652e-05
-1.751340417697217e-05   5.196902052182796e-06   2.917955254792652e-05
-1.751340417697217e-05   5.196902052182796e-06   2.917955254792652e-05
-1.751340417697217e-05   5.196902052182796e-06   2.917955254792652e-05
-3.258591642363312e-05   4.444376785010459e-06   3.6071836431883107e-06
-3.258591642363312e-05   4.444376785010459e-06   3.6071836431883107e-06
-3.258591642363312e-05   4.444376785010459e-06   3.6071836431883107e-06
-3.258591642363312e-05   4.444376785010459e-06   3.6071836431883107e-06
-3.329128445883969e-05   4.771986339844421e-06   2.95071401058152e-05
-3.329128445883969e-05   4.771986339844421e-06   2.95071401058152e-05
-3.329128445883969e-05   4.771986339844421e-06   2.95071401058152e-05
-3.329128445883969e-05   4.771986339844421e-06   2.95071401058152e-05
-1.818079681067925e-05   3.974582834875753e-06   4.801436128528986e-06
-1.818079681067925e-05   3.974582834875753e-06   4.801436128528986e-06
-1.818079681067925e-05   3.974582834875753e-06   4.801436128528986e-06
-1.818079681067925e-05   3.974582834875753e-06   4.801436128528986e-06
-2.5216057857867135e-05   4.739971438592026e-06   1.606763804494688e-05
-2.5216057857867135e-05   4.739971438592026e-06   1.606763804494688e-05
-2.5216057857867135e-05   4.739971438592026e-06   1.606763804494688e-05
-2.5216057857867135e-05   4.739971438592026e-06   1.606763804494688e-05
-3.1112941914466965e-05   8.53066282402947e-06   1.348408543356671e-05
-3.1112941914466965e-05   8.53066282402947e-06   1.348408543356671e-05
-3.1112941914466965e-05   8.53066282402947e-06   1.348408543356671e-05
-3.1112941914466965e-05   8.53066282402947e-06   1.348408543356671e-05
-4.52909396775688e-05   7.281964020734158e-06   -1.0895130120246632e-05
-4.52909396775688e-05   7.281964020734158e-06   -1.0895130120246632e-05
-4.52909396775688e-05   7.281964020734158e-06   -1.0895130120246632e-05
-4.52909396775688e-05   7.281964020734158e-06   -1.0895130120246632e-05
-4.655173450006936e-05   8.62308726466655e-06   1.7930746242701516e-05
-4.655173450006936e-05   8.62308726466655e-06   1.7930746242701516e-05
-4.655173450006936e-05   8.62308726466655e-06   1.7930746242701516e-05
-4.655173450006936e-05   8.62308726466655e-06   1.7930746242701516e-05
-3.181418473226599e-05   7.247276992634281e-06   -5.80635054041838e-06
-3.181418473226599e-05   7.247276992634281e-06   -5.80635054041838e-06
-3.181418473226599e-05   7.247276992634281e-06   -5.80635054041838e-06
-3.181418473226599e-05   7.247276992634281e-06   -5.80635054041838e-06
-3.72201257456089e-05   7.80405776957334e-06   2.8694826823232175e-06
-3.72201257456089e-05   7.80405776957334e-06   2.8694826823232175e-06
-3.72201257456089e-05   7.80405776957334e-06   2.8694826823232175e-06
-3.72201257456089e-05   7.80405776957334e-06   2.8694826823232175e-06
-3.181418473226596e-05   8.62308726466655e-06   1.8756232405920878e-05
-3.181418473226596e-05   8.62308726466655e-06   1.8756232405920878e-05
-3.181418473226596e-05   8.62308726466655e-06   1.8756232405920878e-05
-3.181418473226596e-05   8.62308726466655e-06   1.8756232405920878e-05
-4.655173450006942e-05   7.247276992634281e-06   -6.6318367036376875e-06
-4.655173450006942e-05   7.247276992634281e-06   -6.6318367036376875e-06
-4.655173450006942e-05   7.247276992634281e-06   -6.6318367036376875e-06
-4.655173450006942e-05   7.247276992634281e-06   -6.6318367036376875e-06
-4.7680094330761604e-05   8.528724521187888e-06   2.1518965628164553e-05
-4.7680094330761604e-05   8.528724521187888e-06   2.1518965628164553e-05
-4.7680094330761604e-05   8.528724521187888e-06   2.1518965628164553e-05
-4.7680094330761604e-05   8.528724521187888e-06   2.1518965628164553e-05
-3.258591642363312e-05   7.1001643718042635e-06   -2.780861460753071e-06
-3.258591642363312e-05   7.1001643718042635e-06   -2.780861460753071e-06
-3.258591642363312e-05   7.1001643718042635e-06   -2.780861460753071e-06
-3.258591642363312e-05   7.1001643718042635e-06   -2.780861460753071e-06
-3.867170694099741e-05   7.890870826696974e-06   6.887698861920012e-06
-3.867170694099741e-05   7.890870826696974e-06   6.887698861920012e-06
-3.867170694099741e-05   7.890870826696974e-06   6.887698861920012e-06
-3.867170694099741e-05   7.890870826696974e-06   6.887698861920012e-06
-3.258591642363312e-05   8.528724521187888e-06   2.2376101717794944e-05
-3.258591642363312e-05   8.528724521187888e-06   2.2376101717794944e-05
-3.258591642363312e-05   8.528724521187888e-06   2.2376101717794944e-05
-3.258591642363312e-05   8.528724521187888e-06   2.2376101717794944e-05
-4.768009433076171e-05   7.1001643718042635e-06   -3.637997550383137e-06
-4.768009433076171e-05   7.1001643718042635e-06   -3.637997550383137e-06
-4.768009433076171e-05   7.1001643718042635e-06   -3.637997550383137e-06
-4.768009433076171e-05   7.1001643718042635e-06   -3.637997550383137e-06
-4.8976161271373155e-05   7.872476034331008e-06   2.769035317864814e-05
-4.8976161271373155e-05   7.872476034331008e-06   2.769035317864814e-05
-4.8976161271373155e-05   7.872476034331008e-06   2.769035317864814e-05
-4.8976161271373155e-05   7.872476034331008e-06   2.769035317864814e-05
-3.329128445883969e-05   6.4498475303572615e-06   2.402468926809636e-06
-3.329128445883969e-05   6.4498475303572615e-06   2.402468926809636e-06
-3.329128445883969e-05   6.4498475303572615e-06   2.402468926809636e-06
-3.329128445883969e-05   6.4498475303572615e-06   2.402468926809636e-06
-3.897813463395079e-05   7.621075901937269e-06   1.1177815529047903e-05
-3.897813463395079e-05   7.621075901937269e-06   1.1177815529047903e-05
-3.897813463395079e-05   7.621075901937269e-06   1.1177815529047903e-05
-3.897813463395079e-05   7.621075901937269e-06   1.1177815529047903e-05
2.1468407435700377e-05   -2.7815118261390742e-06   2.1479776692718416e-05
2.1468407435700377e-05   -2.7815118261390742e-06   2.1479776692718416e-05
2.1468407435700377e-05   -2.7815118261390742e-06   2.1479776692718416e-05
2.1468407435700377e-05   -2.7815118261390742e-06   2.1479776692718416e-05
8.910895148020969e-06   -1.3737383883080049e-06   1.3952536092847866e-06
8.910895148020969e-06   -1.3737383883080049e-06   1.3952536092847866e-06
8.910895148020969e-06   -1.3737383883080049e-06   1.3952536092847866e-06
8.910895148020969e-06   -1.3737383883080049e-06   1.3952536092847866e-06
8.356197225536208e-06   -3.3738886925554004e-06   1.9307041149310288e-05
8.356197225536208e-06   -3.3738886925554004e-06   1.9307041149310288e-05
8.356197225536208e-06   -3.3738886925554004e-06   1.9307041149310288e-05
8.356197225536208e-06   -3.3738886925554004e-06   1.9307041149310288e-05
2.028695537835379e-05   -1.9042653522862059e-06   -1.4593297762138379e-06
2.028695537835379e-05   -1.9042653522862059e-06   -1.4593297762138379e-06
2.028695537835379e-05   -1.9042653522862059e-06   -1.4593297762138379e-06
2.028695537835379e-05   -1.9042653522862059e-06   -1.4593297762138379e-06
1.4021766763939875e-05   -2.4146033047465e-06   9.28885401928599e-06
1.4021766763939875e-05   -2.4146033047465e-06   9.28885401928599e-06
1.4021766763939875e-05   -2.4146033047465e-06   9.28885401928599e-06
1.4021766763939875e-05   -2.4146033047465e-06   9.28885401928599e-06
2.0286955378353823e-05   -3.3738886925554004e-06   1.8425267145148858e-05
2.0286955378353823e-05   -3.3738886925554004e-06   1.8425267145148858e-05
2.0286955378353823e-05   -3.3738886925554004e-06   1.8425267145148858e-05
2.0286955378353823e-05   -3.3738886925554004e-06   1.8425267145148858e-05
8.356197225536178e-06   -1.9042653522862059e-06   -5.775557720523808e-07
8.356197225536178e-06   -1.9042653522862059e-06   -5.775557720523808e-07
8.356197225536178e-06   -1.9042653522862059e-06   -5.775557720523808e-07
8.356197225536178e-06   -1.9042653522862059e-06   -5.775557720523808e-07
7.732849233113363e-06   -3.5318280913524108e-06   1.7694230593693293e-05
7.732849233113363e-06   -3.5318280913524108e-06   1.7694230593693293e-05
7.732849233113363e-06   -3.5318280913524108e-06   1.7694230593693293e-05
7.732849233113363e-06   -3.5318280913524108e-06   1.7694230593693293e-05
1.9272409428646254e-05   -2.086550605413795e-06   -2.4055362237579436e-06
1.9272409428646254e-05   -2.086550605413795e-06   -2.4055362237579436e-06
1.9272409428646254e-05   -2.086550605413795e-06   -2.4055362237579436e-06
1.9272409428646254e-05   -2.086550605413795e-06   -2.4055362237579436e-06
1.3497874953381465e-05   -2.639757317187937e-06   7.550611928748335e-06
1.3497874953381465e-05   -2.639757317187937e-06   7.550611928748335e-06
1.3497874953381465e-05   -2.639757317187937e-06   7.550611928748335e-06
1.3497874953381465e-05   -2.639757317187937e-06   7.550611928748335e-06
1.9272409428646288e-05   -3.5318280913524108e-06   1.6827064102130146e-05
1.9272409428646288e-05   -3.5318280913524108e-06   1.6827064102130146e-05
1.9272409428646288e-05   -3.5318280913524108e-06   1.6827064102130146e-05
1.9272409428646288e-05   -3.5318280913524108e-06   1.6827064102130146e-05
7.73284923311335e-06   -2.086550605413795e-06   -1.5383697321947687e-06
7.73284923311335e-06   -2.086550605413795e-06   -1.5383697321947687e-06
7.73284923311335e-06   -2.086550605413795e-06   -1.5383697321947687e-06
7.73284923311335e-06   -2.086550605413795e-06   -1.5383697321947687e-06
7.173937906575034e-06   -3.6779773658931862e-06   1.5597404585033885e-05
7.173937906575034e-06   -3.6779773658931862e-06   1.5597404585033885e-05
7.173937906575034e-06   -3.6779773658931862e-06   1.5597404585033885e-05
7.173937906575034e-06   -3.6779773658931862e-06   1.5597404585033885e-05
1.8121104967173115e-05   -2.3263987443599907e-06   -3.458821022216067e-06
1.8121104967173115e-05   -2.3263987443599907e-06   -3.458821022216067e-06
1.8121104967173115e-05   -2.3263987443599907e-06   -3.458821022216067e-06
1.8121104967173115e-05   -2.3263987443599907e-06   -3.458821022216067e-06
1.252243195780899e-05   -2.6831142434203484e-06   6.086329959493846e-06
1.252243195780899e-05   -2.6831142434203484e-06   6.086329959493846e-06
1.252243195780899e-05   -2.6831142434203484e-06   6.086329959493846e-06
1.252243195780899e-05   -2.6831142434203484e-06   6.086329959493846e-06
8.910895148021002e-06   -1.7323393065524217e-08   2.65184089288823e-05
8.910895148021002e-06   -1.7323393065524217e-08   2.65184089288823e-05
8.910895148021002e-06   -1.7323393065524217e-08   2.65184089288823e-05
8.910895148021002e-06   -1.7323393065524217e-08   2.65184089288823e-05
-2.869755065787783e-06   6.983294592477918e-07   7.313383617255586e-06
-2.869755065787783e-06   6.983294592477918e-07   7.313383617255586e-06
-2.869755065787783e-06   6.983294592477918e-07   7.313383617255586e-06
-2.869755065787783e-06   6.983294592477918e-07   7.313383617255586e-06
-3.379594269633119e-06   -5.320421053111278e-07   2.6568102912692508e-05
-3.379594269633119e-06   -5.320421053111278e-07   2.6568102912692508e-05
-3.379594269633119e-06   -5.320421053111278e-07   2.6568102912692508e-05
-3.379594269633119e-06   -5.320421053111278e-07   2.6568102912692508e-05
8.356197225536178e-06   1.6186130945955966e-07   6.592108371881341e-06
8.356197225536178e-06   1.6186130945955966e-07   6.592108371881341e-06
8.356197225536178e-06   1.6186130945955966e-07   6.592108371881341e-06
8.356197225536178e-06   1.6186130945955966e-07   6.592108371881341e-06
2.6703403348319647e-06   3.147919388200339e-08   1.6146765792401962e-05
2.6703403348319647e-06   3.147919388200339e-08   1.6146765792401962e-05
2.6703403348319647e-06   3.147919388200339e-08   1.6146765792401962e-05
2.6703403348319647e-06   3.147919388200339e-08   1.6146765792401962e-05
8.356197225536198e-06   -5.32042105310911e-07   2.615176086383014e-05
8.356197225536198e-06   -5.32042105310911e-07   2.615176086383014e-05
8.356197225536198e-06   -5.32042105310911e-07   2.615176086383014e-05
8.356197225536198e-06   -5.32042105310911e-07   2.615176086383014e-05
-3.3795942696331326e-06   1.6186130945955966e-07   7.008450420743751e-06
-3.3795942696331326e-06   1.6186130945955966e-07   7.008450420743751e-06
-3.3795942696331326e-06   1.6186130945955966e-07   7.008450420743751e-06
-3.3795942696331326e-06   1.6186130945955966e-07   7.008450420743751e-06
-3.900943802172632e-06   -9.37257162414093e-07   2.6248179009725862e-05
-3.900943802172632e-06   -9.37257162414093e-07   2.6248179009725862e-05
-3.900943802172632e-06   -9.37257162414093e-07   2.6248179009725862e-05
-3.900943802172632e-06   -9.37257162414093e-07   2.6248179009725862e-05
7.73284923311335e-06   -2.7664320454584036e-07   6.462155576195115e-06
7.73284923311335e-06   -2.7664320454584036e-07   6.462155576195115e-06
7.73284923311335e-06   -2.7664320454584036e-07   6.462155576195115e-06
7.73284923311335e-06   -2.7664320454584036e-07   6.462155576195115e-06
2.10945745736721e-06   -3.260532502968958e-07   1.586412122989015e-05
2.10945745736721e-06   -3.260532502968958e-07   1.586412122989015e-05
2.10945745736721e-06   -3.260532502968958e-07   1.586412122989015e-05
2.10945745736721e-06   -3.260532502968958e-07   1.586412122989015e-05
7.732849233113376e-06   -9.37257162414093e-07   2.585181063500489e-05
7.732849233113376e-06   -9.37257162414093e-07   2.585181063500489e-05
7.732849233113376e-06   -9.37257162414093e-07   2.585181063500489e-05
7.732849233113376e-06   -9.37257162414093e-07   2.585181063500489e-05
-3.900943802172645e-06   -2.7664320454584036e-07   6.858523950916068e-06
-3.900943802172645e-06   -2.7664320454584036e-07   6.858523950916068e-06
-3.900943802172645e-06   -2.7664320454584036e-07   6.858523950916068e-06
-3.900943802172645e-06   -2.7664320454584036e-07   6.858523950916068e-06
-4.417970951979295e-06   -1.3119113437571207e-06   2.6484574061366598e-05
-4.417970951979295e-06   -1.3119113437571207e-06   2.6484574061366598e-05
-4.417970951979295e-06   -1.3119113437571207e-06   2.6484574061366598e-05
-4.417970951979295e-06   -1.3119113437571207e-06   2.6484574061366598e-05
7.173937906575003e-06   -7.081733931308884e-07   6.802483193400514e-06
7.173937906575003e-06   -7.081733931308884e-07   6.802483193400514e-06
7.173937906575003e-06   -7.081733931308884e-07   6.802483193400514e-06
7.173937906575003e-06   -7.081733931308884e-07   6.802483193400514e-06
1.6669014301590402e-06   -6.235655355397822e-07   1.5930112606205764e-05
1.6669014301590402e-06   -6.235655355397822e-07   1.5930112606205764e-05
1.6669014301590402e-06   -6.235655355397822e-07   1.5930112606205764e-05
1.6669014301590402e-06   -6.235655355397822e-07   1.5930112606205764e-05
-2.869755065787783e-06   2.6815410051259352e-06   2.8770459127018966e-05
-2.869755065787783e-06   2.6815410051259352e-06   2.8770459127018966e-05
-2.869755065787783e-06   2.6815410051259352e-06   2.8770459127018966e-05
-2.869755065787783e-06   2.6815410051259352e-06   2.8770459127018966e-05
-1.4455153542178208e-05   2.6404685774367685e-06   9.43681820975476e-06
-1.4455153542178208e-05   2.6404685774367685e-06   9.43681820975476e-06
-1.4455153542178208e-05   2.6404685774367685e-06   9.43681820975476e-06
-1.4455153542178208e-05   2.6404685774367685e-06   9.43681820975476e-06
-1.4958316781100024e-05   2.229837594936628e-06   2.858279845489929e-05
-1.4958316781100024e-05   2.229837594936628e-06   2.858279845489929e-05
-1.4958316781100024e-05   2.229837594936628e-06   2.858279845489929e-05
-1.4958316781100024e-05   2.229837594936628e-06   2.858279845489929e-05
-3.379594269633119e-06   2.153505641707505e-06   9.330726774392072e-06
-3.379594269633119e-06   2.153505641707505e-06   9.330726774392072e-06
-3.379594269633119e-06   2.153505641707505e-06   9.330726774392072e-06
-3.379594269633119e-06   2.153505641707505e-06   9.330726774392072e-06
-8.937995159587202e-06   2.365858840330283e-06   1.8467316338475744e-05
-8.937995159587202e-06   2.365858840330283e-06   1.8467316338475744e-05
-8.937995159587202e-06   2.365858840330283e-06   1.8467316338475744e-05
-8.937995159587202e-06   2.365858840330283e-06   1.8467316338475744e-05
-3.379594269633119e-06   2.229837594936628e-06   2.862859762683696e-05
-3.379594269633119e-06   2.229837594936628e-06   2.862859762683696e-05
-3.379594269633119e-06   2.229837594936628e-06   2.862859762683696e-05
-3.379594269633119e-06   2.229837594936628e-06   2.862859762683696e-05
-1.4958316781100024e-05   2.153505641707505e-06   9.284927602454729e-06
-1.4958316781100024e-05   2.153505641707505e-06   9.284927602454729e-06
-1.4958316781100024e-05   2.153505641707505e-06   9.284927602454729e-06
-1.4958316781100024e-05   2.153505641707505e-06   9.284927602454729e-06
-1.547351603657551e-05   1.7853299466717883e-06   2.8727682290095608e-05
-1.547351603657551e-05   1.7853299466717883e-06   2.8727682290095608e-05
-1.547351603657551e-05   1.7853299466717883e-06   2.8727682290095608e-05
-1.547351603657551e-05   1.7853299466717883e-06   2.8727682290095608e-05
-3.900943802172645e-06   1.6721451745096549e-06   9.5079727627216e-06
-3.900943802172645e-06   1.6721451745096549e-06   9.5079727627216e-06
-3.900943802172645e-06   1.6721451745096549e-06   9.5079727627216e-06
-3.900943802172645e-06   1.6721451745096549e-06   9.5079727627216e-06
-9.398648578562107e-06   2.0126360609036206e-06   1.8466519524868406e-05
-9.398648578562107e-06   2.0126360609036206e-06   1.8466519524868406e-05
-9.398648578562107e-06   2.0126360609036206e-06   1.8466519524868406e-05
-9.398648578562107e-06   2.0126360609036206e-06   1.8466519524868406e-05
-3.900943802172645e-06   1.7853299466717883e-06   2.87955931533928e-05
-3.900943802172645e-06   1.7853299466717883e-06   2.87955931533928e-05
-3.900943802172645e-06   1.7853299466717883e-06   2.87955931533928e-05
-3.900943802172645e-06   1.7853299466717883e-06   2.87955931533928e-05
-1.547351603657551e-05   1.6721451745098717e-06   9.440061899424488e-06
-1.547351603657551e-05   1.6721451745098717e-06   9.440061899424488e-06
-1.547351603657551e-05   1.6721451745098717e-06   9.440061899424488e-06
-1.547351603657551e-05   1.6721451745098717e-06   9.440061899424488e-06
-1.5982652325073783e-05   1.3635734148671232e-06   2.9111676709373717e-05
-1.5982652325073783e-05   1.3635734148671232e-06   2.9111676709373717e-05
-1.5982652325073783e-05   1.3635734148671232e-06   2.9111676709373717e-05
-1.5982652325073783e-05   1.3635734148671232e-06   2.9111676709373717e-05
-4.4179709519792676e-06   1.2087994297460807e-06   9.930072145288612e-06
-4.4179709519792676e-06   1.2087994297460807e-06   9.930072145288612e-06
-4.4179709519792676e-06   1.2087994297460807e-06   9.930072145288612e-06
-4.4179709519792676e-06   1.2087994297460807e-06   9.930072145288612e-06
-9.880569905407466e-06   1.6677764268207412e-06   1.8759017536090934e-05
-9.880569905407466e-06   1.6677764268207412e-06   1.8759017536090934e-05
-9.880569905407466e-06   1.6677764268207412e-06   1.8759017536090934e-05
-9.880569905407466e-06   1.6677764268207412e-06   1.8759017536090934e-05
-1.4455153542178208e-05   5.279553014782366e-06   2.545109489085712e-05
-1.4455153542178208e-05   5.279553014782366e-06   2.545109489085712e-05
-1.4455153542178208e-05   5.279553014782366e-06   2.545109489085712e-05
-1.4455153542178208e-05   5.279553014782366e-06   2.545109489085712e-05
-2.5849229003644108e-05   4.5302532066424876e-06   6.0113892368634375e-06
-2.5849229003644108e-05   4.5302532066424876e-06   6.0113892368634375e-06
-2.5849229003644108e-05   4.5302532066424876e-06   6.0113892368634375e-06
-2.5849229003644108e-05   4.5302532066424876e-06   6.0113892368634375e-06
-2.638915250185089e-05   4.847446327368825e-06   2.5115679319114015e-05
-2.638915250185089e-05   4.847446327368825e-06   2.5115679319114015e-05
-2.638915250185089e-05   4.847446327368825e-06   2.5115679319114015e-05
-2.638915250185089e-05   4.847446327368825e-06   2.5115679319114015e-05
-1.4958316781099997e-05   4.054899186481864e-06   6.539814735728115e-06
-1.4958316781099997e-05   4.054899186481864e-06   6.539814735728115e-06
-1.4958316781099997e-05   4.054899186481864e-06   6.539814735728115e-06
-1.4958316781099997e-05   4.054899186481864e-06   6.539814735728115e-06
-2.0355173279669372e-05   4.597931854775699e-06   1.5208755965701178e-05
-2.0355173279669372e-05   4.597931854775699e-06   1.5208755965701178e-05
-2.0355173279669372e-05   4.597931854775699e-06   1.5208755965701178e-05
-2.0355173279669372e-05   4.597931854775699e-06   1.5208755965701178e-05
-1.4958316781100024e-05   4.847446327368608e-06   2.5591207603646127e-05
-1.4958316781100024e-05   4.847446327368608e-06   2.5591207603646127e-05
-1.4958316781100024e-05   4.847446327368608e-06   2.5591207603646127e-05
-1.4958316781100024e-05   4.847446327368608e-06   2.5591207603646127e-05
-2.6389152501850836e-05   4.054899186481864e-06   6.064286451195949e-06
-2.6389152501850836e-05   4.054899186481864e-06   6.064286451195949e-06
-2.6389152501850836e-05   4.054899186481864e-06   6.064286451195949e-06
-2.6389152501850836e-05   4.054899186481864e-06   6.064286451195949e-06
-2.699662250953456e-05   4.444376785010459e-06   2.597548090563901e-05
-2.699662250953456e-05   4.444376785010459e-06   2.597548090563901e-05
-2.699662250953456e-05   4.444376785010459e-06   2.597548090563901e-05
-2.699662250953456e-05   4.444376785010459e-06   2.597548090563901e-05
-1.547351603657543e-05   3.6146825361145236e-06   7.2681200000449474e-06
-1.547351603657543e-05   3.6146825361145236e-06   7.2681200000449474e-06
-1.547351603657543e-05   3.6146825361145236e-06   7.2681200000449474e-06
-1.547351603657543e-05   3.6146825361145236e-06   7.2681200000449474e-06
-2.072840126593478e-05   4.274282698455648e-06   1.563050195157328e-05
-2.072840126593478e-05   4.274282698455648e-06   1.563050195157328e-05
-2.072840126593478e-05   4.274282698455648e-06   1.563050195157328e-05
-2.072840126593478e-05   4.274282698455648e-06   1.563050195157328e-05
-1.5473516036575483e-05   4.444376785010459e-06   2.6473297454976613e-05
-1.5473516036575483e-05   4.444376785010459e-06   2.6473297454976613e-05
-1.5473516036575483e-05   4.444376785010459e-06   2.6473297454976613e-05
-1.5473516036575483e-05   4.444376785010459e-06   2.6473297454976613e-05
-2.699662250953453e-05   3.6146825361145236e-06   6.770303450707397e-06
-2.699662250953453e-05   3.6146825361145236e-06   6.770303450707397e-06
-2.699662250953453e-05   3.6146825361145236e-06   6.770303450707397e-06
-2.699662250953453e-05   3.6146825361145236e-06   6.770303450707397e-06
-2.753643967245422e-05   3.974582834875753e-06   2.669943656383178e-05
-2.753643967245422e-05   3.974582834875753e-06   2.669943656383178e-05
-2.753643967245422e-05   3.974582834875753e-06   2.669943656383178e-05
-2.753643967245422e-05   3.974582834875753e-06   2.669943656383178e-05
-1.598265232507373e-05   3.122209533764622e-06   7.954548298864657e-06
-1.598265232507373e-05   3.122209533764622e-06   7.954548298864657e-06
-1.598265232507373e-05   3.122209533764622e-06   7.954548298864657e-06
-1.598265232507373e-05   3.122209533764622e-06   7.954548298864657e-06
-2.1337679095225802e-05   3.933210291519893e-06   1.6392992461131887e-05
-2.1337679095225802e-05   3.933210291519893e-06   1.6392992461131887e-05
-2.1337679095225802e-05   3.933210291519893e-06   1.6392992461131887e-05
-2.1337679095225802e-05   3.933210291519893e-06   1.6392992461131887e-05
-2.5849229003644108e-05   7.2819640207343744e-06   1.2235113707250085e-05
-2.5849229003644108e-05   7.2819640207343744e-06   1.2235113707250085e-05
-2.5849229003644108e-05   7.2819640207343744e-06   1.2235113707250085e-05
-2.5849229003644108e-05   7.2819640207343744e-06   1.2235113707250085e-05
-3.654268290788885e-05   5.9477473230693835e-06   -6.387839485090172e-06
-3.654268290788885e-05   5.9477473230693835e-06   -6.387839485090172e-06
-3.654268290788885e-05   5.9477473230693835e-06   -6.387839485090172e-06
-3.654268290788885e-05   5.9477473230693835e-06   -6.387839485090172e-06
-3.7672290091820073e-05   7.247276992634498e-06   1.5696811292334033e-05
-3.7672290091820073e-05   7.247276992634498e-06   1.5696811292334033e-05
-3.7672290091820073e-05   7.247276992634498e-06   1.5696811292334033e-05
-3.7672290091820073e-05   7.247276992634498e-06   1.5696811292334033e-05
-2.638915250185081e-05   5.796184018299049e-06   -2.2377622396803224e-06
-2.638915250185081e-05   5.796184018299049e-06   -2.2377622396803224e-06
-2.638915250185081e-05   5.796184018299049e-06   -2.2377622396803224e-06
-2.638915250185081e-05   5.796184018299049e-06   -2.2377622396803224e-06
-3.0428323088423637e-05   6.44815610728708e-06   4.1030054845491055e-06
-3.0428323088423637e-05   6.44815610728708e-06   4.1030054845491055e-06
-3.0428323088423637e-05   6.44815610728708e-06   4.1030054845491055e-06
-3.0428323088423637e-05   6.44815610728708e-06   4.1030054845491055e-06
-2.6389152501850863e-05   7.247276992634498e-06   1.6567467076935172e-05
-2.6389152501850863e-05   7.247276992634498e-06   1.6567467076935172e-05
-2.6389152501850863e-05   7.247276992634498e-06   1.6567467076935172e-05
-2.6389152501850863e-05   7.247276992634498e-06   1.6567467076935172e-05
-3.767229009182013e-05   5.796184018299266e-06   -3.1084180242812987e-06
-3.767229009182013e-05   5.796184018299266e-06   -3.1084180242812987e-06
-3.767229009182013e-05   5.796184018299266e-06   -3.1084180242812987e-06
-3.767229009182013e-05   5.796184018299266e-06   -3.1084180242812987e-06
-3.8657385644808614e-05   7.1001643718042635e-06   1.869302466045355e-05
-3.8657385644808614e-05   7.1001643718042635e-06   1.869302466045355e-05
-3.8657385644808614e-05   7.1001643718042635e-06   1.869302466045355e-05
-3.8657385644808614e-05   7.1001643718042635e-06   1.869302466045355e-05
-2.6996622509534477e-05   5.60947913639696e-06   1.5283057624087626e-07
-2.6996622509534477e-05   5.60947913639696e-06   1.5283057624087626e-07
-2.6996622509534477e-05   5.60947913639696e-06   1.5283057624087626e-07
-2.6996622509534477e-05   5.60947913639696e-06   1.5283057624087626e-07
-3.1626150552475934e-05   6.453022777224999e-06   7.36258446331435e-06
-3.1626150552475934e-05   6.453022777224999e-06   7.36258446331435e-06
-3.1626150552475934e-05   6.453022777224999e-06   7.36258446331435e-06
-3.1626150552475934e-05   6.453022777224999e-06   7.36258446331435e-06
-2.699662250953456e-05   7.1001643718042635e-06   1.9587435801697735e-05
-2.699662250953456e-05   7.1001643718042635e-06   1.9587435801697735e-05
-2.699662250953456e-05   7.1001643718042635e-06   1.9587435801697735e-05
-2.699662250953456e-05   7.1001643718042635e-06   1.9587435801697735e-05
-3.8657385644808614e-05   5.60947913639696e-06   -7.415805650035274e-07
-3.8657385644808614e-05   5.60947913639696e-06   -7.415805650035274e-07
-3.8657385644808614e-05   5.60947913639696e-06   -7.415805650035274e-07
-3.8657385644808614e-05   5.60947913639696e-06   -7.415805650035274e-07
-3.979968719051909e-05   6.4498475303572615e-06   2.3898093275635758e-05
-3.979968719051909e-05   6.4498475303572615e-06   2.3898093275635758e-05
-3.979968719051909e-05   6.4498475303572615e-06   2.3898093275635758e-05
-3.979968719051909e-05   6.4498475303572615e-06   2.3898093275635758e-05
-2.7536439672454113e-05   4.981817214593778e-06   4.340165601652104e-06
-2.7536439672454113e-05   4.981817214593778e-06   4.340165601652104e-06
-2.7536439672454113e-05   4.981817214593778e-06   4.340165601652104e-06
-2.7536439672454113e-05   4.981817214593778e-06   4.340165601652104e-06
-3.189060008917695e-05   6.1795683992237754e-06   1.0878448918745357e-05
-3.189060008917695e-05   6.1795683992237754e-06   1.0878448918745357e-05
-3.189060008917695e-05   6.1795683992237754e-06   1.0878448918745357e-05
-3.189060008917695e-05   6.1795683992237754e-06   1.0878448918745357e-05
1.1968813978128652e-05   -1.3737383883080049e-06   1.692704622172981e-05
1.1968813978128652e-05   -1.3737383883080049e-06   1.692704622172981e-05
1.1968813978128652e-05   -1.3737383883080049e-06   1.692704622172981e-05
1.1968813978128652e-05   -1.3737383883080049e-06   1.692704622172981e-05
3.1476465742419303e-06   2.1556696871982695e-08   3.062277599693306e-06
3.1476465742419303e-06   2.1556696871982695e-08   3.062277599693306e-06
3.1476465742419303e-06   2.1556696871982695e-08   3.062277599693306e-06
3.1476465742419303e-06   2.1556696871982695e-08   3.062277599693306e-06
2.7320012255755156e-06   -1.9042653522862059e-06   1.5775952264175924e-05
2.7320012255755156e-06   -1.9042653522862059e-06   1.5775952264175924e-05
2.7320012255755156e-06   -1.9042653522862059e-06   1.5775952264175924e-05
2.7320012255755156e-06   -1.9042653522862059e-06   1.5775952264175924e-05
1.0940889341739473e-05   -4.542805541901153e-07   1.2244811917118566e-06
1.0940889341739473e-05   -4.542805541901153e-07   1.2244811917118566e-06
1.0940889341739473e-05   -4.542805541901153e-07   1.2244811917118566e-06
1.0940889341739473e-05   -4.542805541901153e-07   1.2244811917118566e-06
6.773249102604566e-06   -9.950287814584988e-07   8.49499719329848e-06
6.773249102604566e-06   -9.950287814584988e-07   8.49499719329848e-06
6.773249102604566e-06   -9.950287814584988e-07   8.49499719329848e-06
6.773249102604566e-06   -9.950287814584988e-07   8.49499719329848e-06
1.0940889341739494e-05   -1.9042653522862059e-06   1.4905961385318421e-05
1.0940889341739494e-05   -1.9042653522862059e-06   1.4905961385318421e-05
1.0940889341739494e-05   -1.9042653522862059e-06   1.4905961385318421e-05
1.0940889341739494e-05   -1.9042653522862059e-06   1.4905961385318421e-05
2.7320012255755123e-06   -4.542805541901153e-07   2.094472070569603e-06
2.7320012255755123e-06   -4.542805541901153e-07   2.094472070569603e-06
2.7320012255755123e-06   -4.542805541901153e-07   2.094472070569603e-06
2.7320012255755123e-06   -4.542805541901153e-07   2.094472070569603e-06
2.2473046250565477e-06   -2.086550605413795e-06   1.4802351866457912e-05
2.2473046250565477e-06   -2.086550605413795e-06   1.4802351866457912e-05
2.2473046250565477e-06   -2.086550605413795e-06   1.4802351866457912e-05
2.2473046250565477e-06   -2.086550605413795e-06   1.4802351866457912e-05
1.0070218386123215e-05   -6.589559445732349e-07   9.076054681758097e-07
1.0070218386123215e-05   -6.589559445732349e-07   9.076054681758097e-07
1.0070218386123215e-05   -6.589559445732349e-07   9.076054681758097e-07
1.0070218386123215e-05   -6.589559445732349e-07   9.076054681758097e-07
6.2776686096882405e-06   -1.2027815398177322e-06   7.554817119380787e-06
6.2776686096882405e-06   -1.2027815398177322e-06   7.554817119380787e-06
6.2776686096882405e-06   -1.2027815398177322e-06   7.554817119380787e-06
6.2776686096882405e-06   -1.2027815398177322e-06   7.554817119380787e-06
1.0070218386123228e-05   -2.086550605413795e-06   1.3945795069953467e-05
1.0070218386123228e-05   -2.086550605413795e-06   1.3945795069953467e-05
1.0070218386123228e-05   -2.086550605413795e-06   1.3945795069953467e-05
1.0070218386123228e-05   -2.086550605413795e-06   1.3945795069953467e-05
2.2473046250565376e-06   -6.589559445732349e-07   1.764162264680227e-06
2.2473046250565376e-06   -6.589559445732349e-07   1.764162264680227e-06
2.2473046250565376e-06   -6.589559445732349e-07   1.764162264680227e-06
2.2473046250565376e-06   -6.589559445732349e-07   1.764162264680227e-06
1.8272026712998286e-06   -2.326398744359774e-06   1.3674198999960585e-05
1.8272026712998286e-06   -2.326398744359774e-06   1.3674198999960585e-05
1.8272026712998286e-06   -2.326398744359774e-06   1.3674198999960585e-05
1.8272026712998286e-06   -2.326398744359774e-06   1.3674198999960585e-05
9.050177460198435e-06   -9.989675598849612e-07   8.394489744448176e-07
9.050177460198435e-06   -9.989675598849612e-07   8.394489744448176e-07
9.050177460198435e-06   -9.989675598849612e-07   8.394489744448176e-07
9.050177460198435e-06   -9.989675598849612e-07   8.394489744448176e-07
5.544165386377263e-06   -1.3090682267295067e-06   6.868862830920416e-06
5.544165386377263e-06   -1.3090682267295067e-06   6.868862830920416e-06
5.544165386377263e-06   -1.3090682267295067e-06   6.868862830920416e-06
5.544165386377263e-06   -1.3090682267295067e-06   6.868862830920416e-06
3.147646574241937e-06   6.983294592477918e-07   2.3252961569420524e-05
3.147646574241937e-06   6.983294592477918e-07   2.3252961569420524e-05
3.147646574241937e-06   6.983294592477918e-07   2.3252961569420524e-05
3.147646574241937e-06   6.983294592477918e-07   2.3252961569420524e-05
-4.885790312931314e-06   1.3311151150293028e-06   1.0243571484267302e-05
-4.885790312931314e-06   1.3311151150293028e-06   1.0243571484267302e-05
-4.885790312931314e-06   1.3311151150293028e-06   1.0243571484267302e-05
-4.885790312931314e-06   1.3311151150293028e-06   1.0243571484267302e-05
-5.25108340016665e-06   1.6186130945955966e-07   2.3324937865394852e-05
-5.25108340016665e-06   1.6186130945955966e-07   2.3324937865394852e-05
-5.25108340016665e-06   1.6186130945955966e-07   2.3324937865394852e-05
-5.25108340016665e-06   1.6186130945955966e-07   2.3324937865394852e-05
2.7320012255755123e-06   7.940637382682775e-07   9.640475365206402e-06
2.7320012255755123e-06   7.940637382682775e-07   9.640475365206402e-06
2.7320012255755123e-06   7.940637382682775e-07   9.640475365206402e-06
2.7320012255755123e-06   7.940637382682775e-07   9.640475365206402e-06
-1.1245991580045908e-06   6.925221450063222e-07   1.6129067627130872e-05
-1.1245991580045908e-06   6.925221450063222e-07   1.6129067627130872e-05
-1.1245991580045908e-06   6.925221450063222e-07   1.6129067627130872e-05
-1.1245991580045908e-06   6.925221450063222e-07   1.6129067627130872e-05
2.7320012255755156e-06   1.6186130945955966e-07   2.2945616408109686e-05
2.7320012255755156e-06   1.6186130945955966e-07   2.2945616408109686e-05
2.7320012255755156e-06   1.6186130945955966e-07   2.2945616408109686e-05
2.7320012255755156e-06   1.6186130945955966e-07   2.2945616408109686e-05
-5.25108340016665e-06   7.940637382682775e-07   1.0019796822491561e-05
-5.25108340016665e-06   7.940637382682775e-07   1.0019796822491561e-05
-5.25108340016665e-06   7.940637382682775e-07   1.0019796822491561e-05
-5.25108340016665e-06   7.940637382682775e-07   1.0019796822491561e-05
-5.627110122202134e-06   -2.7664320454584036e-07   2.3172500618656245e-05
-5.627110122202134e-06   -2.7664320454584036e-07   2.3172500618656245e-05
-5.627110122202134e-06   -2.7664320454584036e-07   2.3172500618656245e-05
-5.627110122202134e-06   -2.7664320454584036e-07   2.3172500618656245e-05
2.2473046250565376e-06   3.3939586846845615e-07   9.678852596083243e-06
2.2473046250565376e-06   3.3939586846845615e-07   9.678852596083243e-06
2.2473046250565376e-06   3.3939586846845615e-07   9.678852596083243e-06
2.2473046250565376e-06   3.3939586846845615e-07   9.678852596083243e-06
-1.5147244726862143e-06   3.1826262894812246e-07   1.596158103603373e-05
-1.5147244726862143e-06   3.1826262894812246e-07   1.596158103603373e-05
-1.5147244726862143e-06   3.1826262894812246e-07   1.596158103603373e-05
-1.5147244726862143e-06   3.1826262894812246e-07   1.596158103603373e-05
2.2473046250565477e-06   -2.7664320454584036e-07   2.2802877174847667e-05
2.2473046250565477e-06   -2.7664320454584036e-07   2.2802877174847667e-05
2.2473046250565477e-06   -2.7664320454584036e-07   2.2802877174847667e-05
2.2473046250565477e-06   -2.7664320454584036e-07   2.2802877174847667e-05
-5.627110122202134e-06   3.3939586846845615e-07   1.004847603989199e-05
-5.627110122202134e-06   3.3939586846845615e-07   1.004847603989199e-05
-5.627110122202134e-06   3.3939586846845615e-07   1.004847603989199e-05
-5.627110122202134e-06   3.3939586846845615e-07   1.004847603989199e-05
-5.997602938379959e-06   -7.081733931311052e-07   2.3474670517766526e-05
-5.997602938379959e-06   -7.081733931311052e-07   2.3474670517766526e-05
-5.997602938379959e-06   -7.081733931311052e-07   2.3474670517766526e-05
-5.997602938379959e-06   -7.081733931311052e-07   2.3474670517766526e-05
1.8272026712998252e-06   -1.2464926794930088e-07   1.0083213359857984e-05
1.8272026712998252e-06   -1.2464926794930088e-07   1.0083213359857984e-05
1.8272026712998252e-06   -1.2464926794930088e-07   1.0083213359857984e-05
1.8272026712998252e-06   -1.2464926794930088e-07   1.0083213359857984e-05
-1.8447447787038716e-06   -1.703711851046459e-08   1.6138558486867877e-05
-1.8447447787038716e-06   -1.703711851046459e-08   1.6138558486867877e-05
-1.8447447787038716e-06   -1.703711851046459e-08   1.6138558486867877e-05
-1.8447447787038716e-06   -1.703711851046459e-08   1.6138558486867877e-05
-4.885790312931314e-06   2.6404685774367685e-06   2.5780711012002083e-05
-4.885790312931314e-06   2.6404685774367685e-06   2.5780711012002083e-05
-4.885790312931314e-06   2.6404685774367685e-06   2.5780711012002083e-05
-4.885790312931314e-06   2.6404685774367685e-06   2.5780711012002083e-05
-1.2781221968529615e-05   2.4906316717333236e-06   1.2531756109249734e-05
-1.2781221968529615e-05   2.4906316717333236e-06   1.2531756109249734e-05
-1.2781221968529615e-05   2.4906316717333236e-06   1.2531756109249734e-05
-1.2781221968529615e-05   2.4906316717333236e-06   1.2531756109249734e-05
-1.3131857425217246e-05   2.1535056417077217e-06   2.5552711140899398e-05
-1.3131857425217246e-05   2.1535056417077217e-06   2.5552711140899398e-05
-1.3131857425217246e-05   2.1535056417077217e-06   2.5552711140899398e-05
-1.3131857425217246e-05   2.1535056417077217e-06   2.5552711140899398e-05
-5.251083400166623e-06   1.99600051146759e-06   1.251259084395924e-05
-5.251083400166623e-06   1.99600051146759e-06   1.251259084395924e-05
-5.251083400166623e-06   1.99600051146759e-06   1.251259084395924e-05
-5.251083400166623e-06   1.99600051146759e-06   1.251259084395924e-05
-9.029445122755804e-06   2.264268477214287e-06   1.8648899602160683e-05
-9.029445122755804e-06   2.264268477214287e-06   1.8648899602160683e-05
-9.029445122755804e-06   2.264268477214287e-06   1.8648899602160683e-05
-9.029445122755804e-06   2.264268477214287e-06   1.8648899602160683e-05
-5.25108340016665e-06   2.153505641707505e-06   2.56472142190435e-05
-5.25108340016665e-06   2.153505641707505e-06   2.56472142190435e-05
-5.25108340016665e-06   2.153505641707505e-06   2.56472142190435e-05
-5.25108340016665e-06   2.153505641707505e-06   2.56472142190435e-05
-1.3131857425217219e-05   1.996000511467807e-06   1.2418087765815329e-05
-1.3131857425217219e-05   1.996000511467807e-06   1.2418087765815329e-05
-1.3131857425217219e-05   1.996000511467807e-06   1.2418087765815329e-05
-1.3131857425217219e-05   1.996000511467807e-06   1.2418087765815329e-05
-1.3493935038315764e-05   1.6721451745096549e-06   2.5721012240164428e-05
-1.3493935038315764e-05   1.6721451745096549e-06   2.5721012240164428e-05
-1.3493935038315764e-05   1.6721451745096549e-06   2.5721012240164428e-05
-1.3493935038315764e-05   1.6721451745096549e-06   2.5721012240164428e-05
-5.627110122202121e-06   1.5039165240139391e-06   1.2710574570272632e-05
-5.627110122202121e-06   1.5039165240139391e-06   1.2710574570272632e-05
-5.627110122202121e-06   1.5039165240139391e-06   1.2710574570272632e-05
-5.627110122202121e-06   1.5039165240139391e-06   1.2710574570272632e-05
-9.341527506166993e-06   1.8882634449477343e-06   1.867066205765369e-05
-9.341527506166993e-06   1.8882634449477343e-06   1.867066205765369e-05
-9.341527506166993e-06   1.8882634449477343e-06   1.867066205765369e-05
-9.341527506166993e-06   1.8882634449477343e-06   1.867066205765369e-05
-5.627110122202134e-06   1.6721451745096549e-06   2.582194943046175e-05
-5.627110122202134e-06   1.6721451745096549e-06   2.582194943046175e-05
-5.627110122202134e-06   1.6721451745096549e-06   2.582194943046175e-05
-5.627110122202134e-06   1.6721451745096549e-06   2.582194943046175e-05
-1.3493935038315764e-05   1.5039165240139391e-06   1.2609637379975202e-05
-1.3493935038315764e-05   1.5039165240139391e-06   1.2609637379975202e-05
-1.3493935038315764e-05   1.5039165240139391e-06   1.2609637379975202e-05
-1.3493935038315764e-05   1.5039165240139391e-06   1.2609637379975202e-05
-1.3850320675839979e-05   1.2087994297460807e-06   2.613445259066734e-05
-1.3850320675839979e-05   1.2087994297460807e-06   2.613445259066734e-05
-1.3850320675839979e-05   1.2087994297460807e-06   2.613445259066734e-05
-1.3850320675839979e-05   1.2087994297460807e-06   2.613445259066734e-05
-5.997602938379959e-06   1.0328592487266267e-06   1.315215380351246e-05
-5.997602938379959e-06   1.0328592487266267e-06   1.315215380351246e-05
-5.997602938379959e-06   1.0328592487266267e-06   1.315215380351246e-05
-5.997602938379959e-06   1.0328592487266267e-06   1.315215380351246e-05
-9.67354181015114e-06   1.5198538554387839e-06   1.8986521825770878e-05
-9.67354181015114e-06   1.5198538554387839e-06   1.8986521825770878e-05
-9.67354181015114e-06   1.5198538554387839e-06   1.8986521825770878e-05
-9.67354181015114e-06   1.5198538554387839e-06   1.8986521825770878e-05
-1.2781221968529615e-05   4.5302532066424876e-06   2.2714959780572794e-05
-1.2781221968529615e-05   4.5302532066424876e-06   2.2714959780572794e-05
-1.2781221968529615e-05   4.5302532066424876e-06   2.2714959780572794e-05
-1.2781221968529615e-05   4.5302532066424876e-06   2.2714959780572794e-05
-2.0535637437889167e-05   3.702989312761012e-06   9.294575661977908e-06
-2.0535637437889167e-05   3.702989312761012e-06   9.294575661977908e-06
-2.0535637437889167e-05   3.702989312761012e-06   9.294575661977908e-06
-2.0535637437889167e-05   3.702989312761012e-06   9.294575661977908e-06
-2.0917974613958294e-05   4.054899186481864e-06   2.2297286393632666e-05
-2.0917974613958294e-05   4.054899186481864e-06   2.2297286393632666e-05
-2.0917974613958294e-05   4.054899186481864e-06   2.2297286393632666e-05
-2.0917974613958294e-05   4.054899186481864e-06   2.2297286393632666e-05
-1.3131857425217192e-05   3.204379385581468e-06   9.830736292937758e-06
-1.3131857425217192e-05   3.204379385581468e-06   9.830736292937758e-06
-1.3131857425217192e-05   3.204379385581468e-06   9.830736292937758e-06
-1.3131857425217192e-05   3.204379385581468e-06   9.830736292937758e-06
-1.6800998678541274e-05   3.8095161166056338e-06   1.5582889676530947e-05
-1.6800998678541274e-05   3.8095161166056338e-06   1.5582889676530947e-05
-1.6800998678541274e-05   3.8095161166056338e-06   1.5582889676530947e-05
-1.6800998678541274e-05   3.8095161166056338e-06   1.5582889676530947e-05
-1.3131857425217246e-05   4.054899186481864e-06   2.2807598274172838e-05
-1.3131857425217246e-05   4.054899186481864e-06   2.2807598274172838e-05
-1.3131857425217246e-05   4.054899186481864e-06   2.2807598274172838e-05
-1.3131857425217246e-05   4.054899186481864e-06   2.2807598274172838e-05
-2.0917974613958294e-05   3.204379385581251e-06   9.32042441239764e-06
-2.0917974613958294e-05   3.204379385581251e-06   9.32042441239764e-06
-2.0917974613958294e-05   3.204379385581251e-06   9.32042441239764e-06
-2.0917974613958294e-05   3.204379385581251e-06   9.32042441239764e-06
-2.1370588384095346e-05   3.6146825361145236e-06   2.3030718450695476e-05
-2.1370588384095346e-05   3.6146825361145236e-06   2.3030718450695476e-05
-2.1370588384095346e-05   3.6146825361145236e-06   2.3030718450695476e-05
-2.1370588384095346e-05   3.6146825361145236e-06   2.3030718450695476e-05
-1.3493935038315737e-05   2.750762719298458e-06   1.0421314764485785e-05
-1.3493935038315737e-05   2.750762719298458e-06   1.0421314764485785e-05
-1.3493935038315737e-05   2.750762719298458e-06   1.0421314764485785e-05
-1.3493935038315737e-05   2.750762719298458e-06   1.0421314764485785e-05
-1.704828990137789e-05   3.4570215548491642e-06   1.59214842349255e-05
-1.704828990137789e-05   3.4570215548491642e-06   1.59214842349255e-05
-1.704828990137789e-05   3.4570215548491642e-06   1.59214842349255e-05
-1.704828990137789e-05   3.4570215548491642e-06   1.59214842349255e-05
-1.3493935038315764e-05   3.6146825361145236e-06   2.3549070340784942e-05
-1.3493935038315764e-05   3.6146825361145236e-06   2.3549070340784942e-05
-1.3493935038315764e-05   3.6146825361145236e-06   2.3549070340784942e-05
-1.3493935038315764e-05   3.6146825361145236e-06   2.3549070340784942e-05
-2.137058838409529e-05   2.750762719298458e-06   9.902962874396048e-06
-2.137058838409529e-05   2.750762719298458e-06   9.902962874396048e-06
-2.137058838409529e-05   2.750762719298458e-06   9.902962874396048e-06
-2.137058838409529e-05   2.750762719298458e-06   9.902962874396048e-06
-2.1758758557528237e-05   3.122209533764622e-06   2.373787936307348e-05
-2.1758758557528237e-05   3.122209533764622e-06   2.373787936307348e-05
-2.1758758557528237e-05   3.122209533764622e-06   2.373787936307348e-05
-2.1758758557528237e-05   3.122209533764622e-06   2.373787936307348e-05
-1.3850320675839925e-05   2.265686580027416e-06   1.1071063332502033e-05
-1.3850320675839925e-05   2.265686580027416e-06   1.1071063332502033e-05
-1.3850320675839925e-05   2.265686580027416e-06   1.1071063332502033e-05
-1.3850320675839925e-05   2.265686580027416e-06   1.1071063332502033e-05
-1.7474388475843632e-05   3.103680436629527e-06   1.660838001854765e-05
-1.7474388475843632e-05   3.103680436629527e-06   1.660838001854765e-05
-1.7474388475843632e-05   3.103680436629527e-06   1.660838001854765e-05
-1.7474388475843632e-05   3.103680436629527e-06   1.660838001854765e-05
-2.053563743788922e-05   5.9477473230693835e-06   1.0619902740889218e-05
-2.053563743788922e-05   5.9477473230693835e-06   1.0619902740889218e-05
-2.053563743788922e-05   5.9477473230693835e-06   1.0619902740889218e-05
-2.053563743788922e-05   5.9477473230693835e-06   1.0619902740889218e-05
-2.7538364291925855e-05   4.560667662316734e-06   -1.8835564789566601e-06
-2.7538364291925855e-05   4.560667662316734e-06   -1.8835564789566601e-06
-2.7538364291925855e-05   4.560667662316734e-06   -1.8835564789566601e-06
-2.7538364291925855e-05   4.560667662316734e-06   -1.8835564789566601e-06
-2.851892619735915e-05   5.796184018299266e-06   1.310085699262947e-05
-2.851892619735915e-05   5.796184018299266e-06   1.310085699262947e-05
-2.851892619735915e-05   5.796184018299266e-06   1.310085699262947e-05
-2.851892619735915e-05   5.796184018299266e-06   1.310085699262947e-05
-2.091797461395824e-05   4.305549501420949e-06   1.3269850637550196e-06
-2.091797461395824e-05   4.305549501420949e-06   1.3269850637550196e-06
-2.091797461395824e-05   4.305549501420949e-06   1.3269850637550196e-06
-2.091797461395824e-05   4.305549501420949e-06   1.3269850637550196e-06
-2.3489687201178007e-05   5.0572202792294706e-06   5.162170242437297e-06
-2.3489687201178007e-05   5.0572202792294706e-06   5.162170242437297e-06
-2.3489687201178007e-05   5.0572202792294706e-06   5.162170242437297e-06
-2.3489687201178007e-05   5.0572202792294706e-06   5.162170242437297e-06
-2.091797461395824e-05   5.796184018299266e-06   1.3995237702756286e-05
-2.091797461395824e-05   5.796184018299266e-06   1.3995237702756286e-05
-2.091797461395824e-05   5.796184018299266e-06   1.3995237702756286e-05
-2.091797461395824e-05   5.796184018299266e-06   1.3995237702756286e-05
-2.851892619735926e-05   4.3055495014211655e-06   4.326043536280401e-07
-2.851892619735926e-05   4.3055495014211655e-06   4.326043536280401e-07
-2.851892619735926e-05   4.3055495014211655e-06   4.326043536280401e-07
-2.851892619735926e-05   4.3055495014211655e-06   4.326043536280401e-07
-2.936275429567622e-05   5.60947913639696e-06   1.5502634661468482e-05
-2.936275429567622e-05   5.60947913639696e-06   1.5502634661468482e-05
-2.936275429567622e-05   5.60947913639696e-06   1.5502634661468482e-05
-2.936275429567622e-05   5.60947913639696e-06   1.5502634661468482e-05
-2.137058838409529e-05   4.091794278463e-06   3.092969056927425e-06
-2.137058838409529e-05   4.091794278463e-06   3.092969056927425e-06
-2.137058838409529e-05   4.091794278463e-06   3.092969056927425e-06
-2.137058838409529e-05   4.091794278463e-06   3.092969056927425e-06
-2.4432058706615862e-05   4.9914797423823015e-06   7.65560831611045e-06
-2.4432058706615862e-05   4.9914797423823015e-06   7.65560831611045e-06
-2.4432058706615862e-05   4.9914797423823015e-06   7.65560831611045e-06
-2.4432058706615862e-05   4.9914797423823015e-06   7.65560831611045e-06
-2.137058838409529e-05   5.60947913639696e-06   1.6413245576228793e-05
-2.137058838409529e-05   5.60947913639696e-06   1.6413245576228793e-05
-2.137058838409529e-05   5.60947913639696e-06   1.6413245576228793e-05
-2.137058838409529e-05   5.60947913639696e-06   1.6413245576228793e-05
-2.9362754295676275e-05   4.091794278463e-06   2.18235814216706e-06
-2.9362754295676275e-05   4.091794278463e-06   2.18235814216706e-06
-2.9362754295676275e-05   4.091794278463e-06   2.18235814216706e-06
-2.9362754295676275e-05   4.091794278463e-06   2.18235814216706e-06
-3.0372212870885822e-05   4.981817214593995e-06   1.97514869956551e-05
-3.0372212870885822e-05   4.981817214593995e-06   1.97514869956551e-05
-3.0372212870885822e-05   4.981817214593995e-06   1.97514869956551e-05
-3.0372212870885822e-05   4.981817214593995e-06   1.97514869956551e-05
-2.175875855752813e-05   3.5094277964730063e-06   6.279163457598516e-06
-2.175875855752813e-05   3.5094277964730063e-06   6.279163457598516e-06
-2.175875855752813e-05   3.5094277964730063e-06   6.279163457598516e-06
-2.175875855752813e-05   3.5094277964730063e-06   6.279163457598516e-06
-2.466508805803609e-05   4.726647776533187e-06   1.039271397040918e-05
-2.466508805803609e-05   4.726647776533187e-06   1.039271397040918e-05
-2.466508805803609e-05   4.726647776533187e-06   1.039271397040918e-05
-2.466508805803609e-05   4.726647776533187e-06   1.039271397040918e-05
2.4596811807886396e-06   2.1556696871982695e-08   1.2654143919020979e-05
2.4596811807886396e-06   2.1556696871982695e-08   1.2654143919020979e-05
2.4596811807886396e-06   2.1556696871982695e-08   1.2654143919020979e-05
2.4596811807886396e-06   2.1556696871982695e-08   1.2654143919020979e-05
-2.6062987639325848e-06   1.36270057585295e-06   5.01553033854091e-06
-2.6062987639325848e-06   1.36270057585295e-06   5.01553033854091e-06
-2.6062987639325848e-06   1.36270057585295e-06   5.01553033854091e-06
-2.6062987639325848e-06   1.36270057585295e-06   5.01553033854091e-06
-2.901605292945528e-06   -4.5428055418989845e-07   1.2473520624304885e-05
-2.901605292945528e-06   -4.5428055418989845e-07   1.2473520624304885e-05
-2.901605292945528e-06   -4.5428055418989845e-07   1.2473520624304885e-05
-2.901605292945528e-06   -4.5428055418989845e-07   1.2473520624304885e-05
1.561713193369766e-06   9.187410097484961e-07   4.210843542082866e-06
1.561713193369766e-06   9.187410097484961e-07   4.210843542082866e-06
1.561713193369766e-06   9.187410097484961e-07   4.210843542082866e-06
1.561713193369766e-06   9.187410097484961e-07   4.210843542082866e-06
-4.919809114645938e-07   3.859488129278471e-07   7.953342368232448e-06
-4.919809114645938e-07   3.859488129278471e-07   7.953342368232448e-06
-4.919809114645938e-07   3.859488129278471e-07   7.953342368232448e-06
-4.919809114645938e-07   3.859488129278471e-07   7.953342368232448e-06
1.561713193369766e-06   -4.5428055418989845e-07   1.164970768594161e-05
1.561713193369766e-06   -4.5428055418989845e-07   1.164970768594161e-05
1.561713193369766e-06   -4.5428055418989845e-07   1.164970768594161e-05
1.561713193369766e-06   -4.5428055418989845e-07   1.164970768594161e-05
-2.901605292945528e-06   9.187410097484961e-07   5.034656480445965e-06
-2.901605292945528e-06   9.187410097484961e-07   5.034656480445965e-06
-2.901605292945528e-06   9.187410097484961e-07   5.034656480445965e-06
-2.901605292945528e-06   9.187410097484961e-07   5.034656480445965e-06
-3.2665598783006244e-06   -6.589559445732349e-07   1.214237288230959e-05
-3.2665598783006244e-06   -6.589559445732349e-07   1.214237288230959e-05
-3.2665598783006244e-06   -6.589559445732349e-07   1.214237288230959e-05
-3.2665598783006244e-06   -6.589559445732349e-07   1.214237288230959e-05
7.82096878484056e-07   6.750409174177859e-07   4.594213503807343e-06
7.82096878484056e-07   6.750409174177859e-07   4.594213503807343e-06
7.82096878484056e-07   6.750409174177859e-07   4.594213503807343e-06
7.82096878484056e-07   6.750409174177859e-07   4.594213503807343e-06
-9.758645386265572e-07   1.96828292483805e-07   7.811076773952034e-06
-9.758645386265572e-07   1.96828292483805e-07   7.811076773952034e-06
-9.758645386265572e-07   1.96828292483805e-07   7.811076773952034e-06
-9.758645386265572e-07   1.96828292483805e-07   7.811076773952034e-06
7.82096878484056e-07   -6.589559445732349e-07   1.1341974765114978e-05
7.82096878484056e-07   -6.589559445732349e-07   1.1341974765114978e-05
7.82096878484056e-07   -6.589559445732349e-07   1.1341974765114978e-05
7.82096878484056e-07   -6.589559445732349e-07   1.1341974765114978e-05
-3.2665598783006176e-06   6.750409174177859e-07   5.39461162100182e-06
-3.2665598783006176e-06   6.750409174177859e-07   5.39461162100182e-06
-3.2665598783006176e-06   6.750409174177859e-07   5.39461162100182e-06
-3.2665598783006176e-06   6.750409174177859e-07   5.39461162100182e-06
-3.571839336899652e-06   -9.989675598849612e-07   1.2017510513052964e-05
-3.571839336899652e-06   -9.989675598849612e-07   1.2017510513052964e-05
-3.571839336899652e-06   -9.989675598849612e-07   1.2017510513052964e-05
-3.571839336899652e-06   -9.989675598849612e-07   1.2017510513052964e-05
-1.9630577974524333e-07   1.5882488531163488e-07   5.696945784011039e-06
-1.9630577974524333e-07   1.5882488531163488e-07   5.696945784011039e-06
-1.9630577974524333e-07   1.5882488531163488e-07   5.696945784011039e-06
-1.9630577974524333e-07   1.5882488531163488e-07   5.696945784011039e-06
-1.4994468854580281e-06   2.447263841424442e-08   7.949458975004041e-06
-1.4994468854580281e-06   2.447263841424442e-08   7.949458975004041e-06
-1.4994468854580281e-06   2.447263841424442e-08   7.949458975004041e-06
-1.4994468854580281e-06   2.447263841424442e-08   7.949458975004041e-06
-2.6062987639325848e-06   1.3311151150295197e-06   2.0260452737514822e-05
-2.6062987639325848e-06   1.3311151150295197e-06   2.0260452737514822e-05
-2.6062987639325848e-06   1.3311151150295197e-06   2.0260452737514822e-05
-2.6062987639325848e-06   1.3311151150295197e-06   2.0260452737514822e-05
-6.845235924977071e-06   1.5970232266573512e-06   1.3355102336084265e-05
-6.845235924977071e-06   1.5970232266573512e-06   1.3355102336084265e-05
-6.845235924977071e-06   1.5970232266573512e-06   1.3355102336084265e-05
-6.845235924977071e-06   1.5970232266573512e-06   1.3355102336084265e-05
-7.0682711129552134e-06   7.940637382682775e-07   2.0204047463942185e-05
-7.0682711129552134e-06   7.940637382682775e-07   2.0204047463942185e-05
-7.0682711129552134e-06   7.940637382682775e-07   2.0204047463942185e-05
-7.0682711129552134e-06   7.940637382682775e-07   2.0204047463942185e-05
-2.901605292945528e-06   1.101602979935827e-06   1.3075080885592135e-05
-2.901605292945528e-06   1.101602979935827e-06   1.3075080885592135e-05
-2.901605292945528e-06   1.101602979935827e-06   1.3075080885592135e-05
-2.901605292945528e-06   1.101602979935827e-06   1.3075080885592135e-05
-4.884989552770591e-06   1.1480978495789947e-06   1.635282439684801e-05
-4.884989552770591e-06   1.1480978495789947e-06   1.635282439684801e-05
-4.884989552770591e-06   1.1480978495789947e-06   1.635282439684801e-05
-4.884989552770591e-06   1.1480978495789947e-06   1.635282439684801e-05
-2.9016052929455315e-06   7.940637382682775e-07   2.001952391894146e-05
-2.9016052929455315e-06   7.940637382682775e-07   2.001952391894146e-05
-2.9016052929455315e-06   7.940637382682775e-07   2.001952391894146e-05
-2.9016052929455315e-06   7.940637382682775e-07   2.001952391894146e-05
-7.0682711129552134e-06   1.101602979935827e-06   1.3259604430592765e-05
-7.0682711129552134e-06   1.101602979935827e-06   1.3259604430592765e-05
-7.0682711129552134e-06   1.101602979935827e-06   1.3259604430592765e-05
-7.0682711129552134e-06   1.101602979935827e-06   1.3259604430592765e-05
-7.298366362149639e-06   3.3939586846845615e-07   2.0240359096868055e-05
-7.298366362149639e-06   3.3939586846845615e-07   2.0240359096868055e-05
-7.298366362149639e-06   3.3939586846845615e-07   2.0240359096868055e-05
-7.298366362149639e-06   3.3939586846845615e-07   2.0240359096868055e-05
-3.2665598783006176e-06   6.448890070606238e-07   1.3337385740631085e-05
-3.2665598783006176e-06   6.448890070606238e-07   1.3337385740631085e-05
-3.2665598783006176e-06   6.448890070606238e-07   1.3337385740631085e-05
-3.2665598783006176e-06   6.448890070606238e-07   1.3337385740631085e-05
-5.11282091267875e-06   7.864121325605166e-07   1.6329573589295024e-05
-5.11282091267875e-06   7.864121325605166e-07   1.6329573589295024e-05
-5.11282091267875e-06   7.864121325605166e-07   1.6329573589295024e-05
-5.11282091267875e-06   7.864121325605166e-07   1.6329573589295024e-05
-3.2665598783006244e-06   3.3939586846845615e-07   2.0057063213712667e-05
-3.2665598783006244e-06   3.3939586846845615e-07   2.0057063213712667e-05
-3.2665598783006244e-06   3.3939586846845615e-07   2.0057063213712667e-05
-3.2665598783006244e-06   3.3939586846845615e-07   2.0057063213712667e-05
-7.298366362149639e-06   6.448890070606238e-07   1.3520681623786378e-05
-7.298366362149639e-06   6.448890070606238e-07   1.3520681623786378e-05
-7.298366362149639e-06   6.448890070606238e-07   1.3520681623786378e-05
-7.298366362149639e-06   6.448890070606238e-07   1.3520681623786378e-05
-7.524201369296337e-06   -1.2464926794930088e-07   2.0630046883865494e-05
-7.524201369296337e-06   -1.2464926794930088e-07   2.0630046883865494e-05
-7.524201369296337e-06   -1.2464926794930088e-07   2.0630046883865494e-05
-7.524201369296337e-06   -1.2464926794930088e-07   2.0630046883865494e-05
-3.5718393368996487e-06   1.5073522552475245e-07   1.3877546133786817e-05
-3.5718393368996487e-06   1.5073522552475245e-07   1.3877546133786817e-05
-3.5718393368996487e-06   1.5073522552475245e-07   1.3877546133786817e-05
-3.5718393368996487e-06   1.5073522552475245e-07   1.3877546133786817e-05
-5.34017167705121e-06   4.3150150664454483e-07   1.665630693203408e-05
-5.34017167705121e-06   4.3150150664454483e-07   1.665630693203408e-05
-5.34017167705121e-06   4.3150150664454483e-07   1.665630693203408e-05
-5.34017167705121e-06   4.3150150664454483e-07   1.665630693203408e-05
-6.845235924977057e-06   2.4906316717333236e-06   2.279808437289613e-05
-6.845235924977057e-06   2.4906316717333236e-06   2.279808437289613e-05
-6.845235924977057e-06   2.4906316717333236e-06   2.279808437289613e-05
-6.845235924977057e-06   2.4906316717333236e-06   2.279808437289613e-05
-1.106626701188895e-05   1.9191458055669132e-06   1.542014104167637e-05
-1.106626701188895e-05   1.9191458055669132e-06   1.542014104167637e-05
-1.106626701188895e-05   1.9191458055669132e-06   1.542014104167637e-05
-1.106626701188895e-05   1.9191458055669132e-06   1.542014104167637e-05
-1.1255248786323573e-05   1.99600051146759e-06   2.2375553488870555e-05
-1.1255248786323573e-05   1.99600051146759e-06   2.2375553488870555e-05
-1.1255248786323573e-05   1.99600051146759e-06   2.2375553488870555e-05
-1.1255248786323573e-05   1.99600051146759e-06   2.2375553488870555e-05
-7.0682711129552134e-06   1.4605205172354366e-06   1.5718545363129237e-05
-7.0682711129552134e-06   1.4605205172354366e-06   1.5718545363129237e-05
-7.0682711129552134e-06   1.4605205172354366e-06   1.5718545363129237e-05
-7.0682711129552134e-06   1.4605205172354366e-06   1.5718545363129237e-05
-9.063534794058001e-06   1.928130461600723e-06   1.8763418865014786e-05
-9.063534794058001e-06   1.928130461600723e-06   1.8763418865014786e-05
-9.063534794058001e-06   1.928130461600723e-06   1.8763418865014786e-05
-9.063534794058001e-06   1.928130461600723e-06   1.8763418865014786e-05
-7.0682711129552134e-06   1.99600051146759e-06   2.269684148540989e-05
-7.0682711129552134e-06   1.99600051146759e-06   2.269684148540989e-05
-7.0682711129552134e-06   1.99600051146759e-06   2.269684148540989e-05
-7.0682711129552134e-06   1.99600051146759e-06   2.269684148540989e-05
-1.1255248786323573e-05   1.4605205172354366e-06   1.53972573665899e-05
-1.1255248786323573e-05   1.4605205172354366e-06   1.53972573665899e-05
-1.1255248786323573e-05   1.4605205172354366e-06   1.53972573665899e-05
-1.1255248786323573e-05   1.4605205172354366e-06   1.53972573665899e-05
-1.1457671427033854e-05   1.503916524014156e-06   2.2596776449320907e-05
-1.1457671427033854e-05   1.503916524014156e-06   2.2596776449320907e-05
-1.1457671427033854e-05   1.503916524014156e-06   2.2596776449320907e-05
-1.1457671427033854e-05   1.503916524014156e-06   2.2596776449320907e-05
-7.298366362149639e-06   9.944478941342543e-07   1.5970282519108312e-05
-7.298366362149639e-06   9.944478941342543e-07   1.5970282519108312e-05
-7.298366362149639e-06   9.944478941342543e-07   1.5970282519108312e-05
-7.298366362149639e-06   9.944478941342543e-07   1.5970282519108312e-05
-9.22501500245185e-06   1.561136911159243e-06   1.8841350176063756e-05
-9.22501500245185e-06   1.561136911159243e-06   1.8841350176063756e-05
-9.22501500245185e-06   1.561136911159243e-06   1.8841350176063756e-05
-9.22501500245185e-06   1.561136911159243e-06   1.8841350176063756e-05
-7.298366362149639e-06   1.503916524014156e-06   2.2902457627248587e-05
-7.298366362149639e-06   1.503916524014156e-06   2.2902457627248587e-05
-7.298366362149639e-06   1.503916524014156e-06   2.2902457627248587e-05
-7.298366362149639e-06   1.503916524014156e-06   2.2902457627248587e-05
-1.1457671427033826e-05   9.944478941342543e-07   1.566460134118055e-05
-1.1457671427033826e-05   9.944478941342543e-07   1.566460134118055e-05
-1.1457671427033826e-05   9.944478941342543e-07   1.566460134118055e-05
-1.1457671427033826e-05   9.944478941342543e-07   1.566460134118055e-05
-1.1655919666510382e-05   1.0328592487266267e-06   2.3060867545538974e-05
-1.1655919666510382e-05   1.0328592487266267e-06   2.3060867545538974e-05
-1.1655919666510382e-05   1.0328592487266267e-06   2.3060867545538974e-05
-1.1655919666510382e-05   1.0328592487266267e-06   2.3060867545538974e-05
-7.524201369296337e-06   5.528504039397763e-07   1.6462675690387803e-05
-7.524201369296337e-06   5.528504039397763e-07   1.6462675690387803e-05
-7.524201369296337e-06   5.528504039397763e-07   1.6462675690387803e-05
-7.524201369296337e-06   5.528504039397763e-07   1.6462675690387803e-05
-9.404915836133283e-06   1.1997651010658495e-06   1.920905098350698e-05
-9.404915836133283e-06   1.1997651010658495e-06   1.920905098350698e-05
-9.404915836133283e-06   1.1997651010658495e-06   1.920905098350698e-05
-9.404915836133283e-06   1.1997651010658495e-06   1.920905098350698e-05
-1.1066267011889004e-05   3.702989312761012e-06   1.9714370742253406e-05
-1.1066267011889004e-05   3.702989312761012e-06   1.9714370742253406e-05
-1.1066267011889004e-05   3.702989312761012e-06   1.9714370742253406e-05
-1.1066267011889004e-05   3.702989312761012e-06   1.9714370742253406e-05
-1.5219407038878099e-05   2.5970918029425425e-06   1.2128932191380324e-05
-1.5219407038878099e-05   2.5970918029425425e-06   1.2128932191380324e-05
-1.5219407038878099e-05   2.5970918029425425e-06   1.2128932191380324e-05
-1.5219407038878099e-05   2.5970918029425425e-06   1.2128932191380324e-05
-1.542712996500668e-05   3.204379385581468e-06   1.913435697561039e-05
-1.542712996500668e-05   3.204379385581468e-06   1.913435697561039e-05
-1.542712996500668e-05   3.204379385581468e-06   1.913435697561039e-05
-1.542712996500668e-05   3.204379385581468e-06   1.913435697561039e-05
-1.1255248786323573e-05   2.1146376516098997e-06   1.2835066718188152e-05
-1.1255248786323573e-05   2.1146376516098997e-06   1.2835066718188152e-05
-1.1255248786323573e-05   2.1146376516098997e-06   1.2835066718188152e-05
-1.1255248786323573e-05   2.1146376516098997e-06   1.2835066718188152e-05
-1.3213949735435828e-05   2.8793707852687103e-06   1.5640728419846664e-05
-1.3213949735435828e-05   2.8793707852687103e-06   1.5640728419846664e-05
-1.3213949735435828e-05   2.8793707852687103e-06   1.5640728419846664e-05
-1.3213949735435828e-05   2.8793707852687103e-06   1.5640728419846664e-05
-1.1255248786323573e-05   3.204379385581468e-06   1.9788202015993202e-05
-1.1255248786323573e-05   3.204379385581468e-06   1.9788202015993202e-05
-1.1255248786323573e-05   3.204379385581468e-06   1.9788202015993202e-05
-1.1255248786323573e-05   3.204379385581468e-06   1.9788202015993202e-05
-1.542712996500657e-05   2.1146376516098997e-06   1.2181221677805152e-05
-1.542712996500657e-05   2.1146376516098997e-06   1.2181221677805152e-05
-1.542712996500657e-05   2.1146376516098997e-06   1.2181221677805152e-05
-1.542712996500657e-05   2.1146376516098997e-06   1.2181221677805152e-05
-1.5713742235478852e-05   2.750762719298458e-06   1.9769116331551156e-05
-1.5713742235478852e-05   2.750762719298458e-06   1.9769116331551156e-05
-1.5713742235478852e-05   2.750762719298458e-06   1.9769116331551156e-05
-1.5713742235478852e-05   2.750762719298458e-06   1.9769116331551156e-05
-1.1457671427033854e-05   1.6852002154974692e-06   1.3315002486423303e-05
-1.1457671427033854e-05   1.6852002154974692e-06   1.3315002486423303e-05
-1.1457671427033854e-05   1.6852002154974692e-06   1.3315002486423303e-05
-1.1457671427033854e-05   1.6852002154974692e-06   1.3315002486423303e-05
-1.3326830586142115e-05   2.5237081910739695e-06   1.5927162966257837e-05
-1.3326830586142115e-05   2.5237081910739695e-06   1.5927162966257837e-05
-1.3326830586142115e-05   2.5237081910739695e-06   1.5927162966257837e-05
-1.3326830586142115e-05   2.5237081910739695e-06   1.5927162966257837e-05
-1.1457671427033826e-05   2.750762719298241e-06   2.040845383383138e-05
-1.1457671427033826e-05   2.750762719298241e-06   2.040845383383138e-05
-1.1457671427033826e-05   2.750762719298241e-06   2.040845383383138e-05
-1.1457671427033826e-05   2.750762719298241e-06   2.040845383383138e-05
-1.5713742235478798e-05   1.6852002154974692e-06   1.2675664984142753e-05
-1.5713742235478798e-05   1.6852002154974692e-06   1.2675664984142753e-05
-1.5713742235478798e-05   1.6852002154974692e-06   1.2675664984142753e-05
-1.5713742235478798e-05   1.6852002154974692e-06   1.2675664984142753e-05
-1.5943406330608625e-05   2.265686580027416e-06   2.0474419952965775e-05
-1.5943406330608625e-05   2.265686580027416e-06   2.0474419952965775e-05
-1.5943406330608625e-05   2.265686580027416e-06   2.0474419952965775e-05
-1.5943406330608625e-05   2.265686580027416e-06   2.0474419952965775e-05
-1.1655919666510382e-05   1.2474845297366557e-06   1.3939530076309862e-05
-1.1655919666510382e-05   1.2474845297366557e-06   1.3939530076309862e-05
-1.1655919666510382e-05   1.2474845297366557e-06   1.3939530076309862e-05
-1.1655919666510382e-05   1.2474845297366557e-06   1.3939530076309862e-05
-1.3564472824697222e-05   2.1852351541526947e-06   1.6557801631971955e-05
-1.3564472824697222e-05   2.1852351541526947e-06   1.6557801631971955e-05
-1.3564472824697222e-05   2.1852351541526947e-06   1.6557801631971955e-05
-1.3564472824697222e-05   2.1852351541526947e-06   1.6557801631971955e-05
-1.5219407038878099e-05   4.560667662316734e-06   8.70494789187925e-06
-1.5219407038878099e-05   4.560667662316734e-06   8.70494789187925e-06
-1.5219407038878099e-05   4.560667662316734e-06   8.70494789187925e-06
-1.5219407038878099e-05   4.560667662316734e-06   8.70494789187925e-06
-1.849136150737572e-05   3.072888490138789e-06   2.3590229410765717e-06
-1.849136150737572e-05   3.072888490138789e-06   2.3590229410765717e-06
-1.849136150737572e-05   3.072888490138789e-06   2.3590229410765717e-06
-1.849136150737572e-05   3.072888490138789e-06   2.3590229410765717e-06
-1.9278096837761782e-05   4.305549501420949e-06   1.0208738460531488e-05
-1.9278096837761782e-05   4.305549501420949e-06   1.0208738460531488e-05
-1.9278096837761782e-05   4.305549501420949e-06   1.0208738460531488e-05
-1.9278096837761782e-05   4.305549501420949e-06   1.0208738460531488e-05
-1.542712996500657e-05   2.751917557360659e-06   4.722639505708832e-06
-1.542712996500657e-05   2.751917557360659e-06   4.722639505708832e-06
-1.542712996500657e-05   2.751917557360659e-06   4.722639505708832e-06
-1.542712996500657e-05   2.751917557360659e-06   4.722639505708832e-06
-1.6510269686555927e-05   3.6349278008454555e-06   5.998066228866798e-06
-1.6510269686555927e-05   3.6349278008454555e-06   5.998066228866798e-06
-1.6510269686555927e-05   3.6349278008454555e-06   5.998066228866798e-06
-1.6510269686555927e-05   3.6349278008454555e-06   5.998066228866798e-06
-1.5427129965006625e-05   4.3055495014211655e-06   1.1140917626967445e-05
-1.5427129965006625e-05   4.3055495014211655e-06   1.1140917626967445e-05
-1.5427129965006625e-05   4.3055495014211655e-06   1.1140917626967445e-05
-1.5427129965006625e-05   4.3055495014211655e-06   1.1140917626967445e-05
-1.927809683776189e-05   2.751917557360659e-06   3.7904603392726597e-06
-1.927809683776189e-05   2.751917557360659e-06   3.7904603392726597e-06
-1.927809683776189e-05   2.751917557360659e-06   3.7904603392726597e-06
-1.927809683776189e-05   2.751917557360659e-06   3.7904603392726597e-06
-1.9953202098156966e-05   4.091794278462783e-06   1.2022823455961392e-05
-1.9953202098156966e-05   4.091794278462783e-06   1.2022823455961392e-05
-1.9953202098156966e-05   4.091794278462783e-06   1.2022823455961392e-05
-1.9953202098156966e-05   4.091794278462783e-06   1.2022823455961392e-05
-1.5713742235478852e-05   2.531295848261423e-06   5.893356076285407e-06
-1.5713742235478852e-05   2.531295848261423e-06   5.893356076285407e-06
-1.5713742235478852e-05   2.531295848261423e-06   5.893356076285407e-06
-1.5713742235478852e-05   2.531295848261423e-06   5.893356076285407e-06
-1.7177467447470354e-05   3.509430680461085e-06   7.74601719695186e-06
-1.7177467447470354e-05   3.509430680461085e-06   7.74601719695186e-06
-1.7177467447470354e-05   3.509430680461085e-06   7.74601719695186e-06
-1.7177467447470354e-05   3.509430680461085e-06   7.74601719695186e-06
-1.5713742235478852e-05   4.091794278463e-06   1.29591225140821e-05
-1.5713742235478852e-05   4.091794278463e-06   1.29591225140821e-05
-1.5713742235478852e-05   4.091794278463e-06   1.29591225140821e-05
-1.5713742235478852e-05   4.091794278463e-06   1.29591225140821e-05
-1.9953202098157074e-05   2.5312958482615316e-06   4.957057018164441e-06
-1.9953202098157074e-05   2.5312958482615316e-06   4.957057018164441e-06
-1.9953202098157074e-05   2.5312958482615316e-06   4.957057018164441e-06
-1.9953202098157074e-05   2.5312958482615316e-06   4.957057018164441e-06
-2.0812085226522498e-05   3.5094277964727895e-06   1.5305032402807396e-05
-2.0812085226522498e-05   3.5094277964727895e-06   1.5305032402807396e-05
-2.0812085226522498e-05   3.5094277964727895e-06   1.5305032402807396e-05
-2.0812085226522498e-05   3.5094277964727895e-06   1.5305032402807396e-05
-1.594340633060857e-05   2.0237587173112855e-06   8.081969023781307e-06
-1.594340633060857e-05   2.0237587173112855e-06   8.081969023781307e-06
-1.594340633060857e-05   2.0237587173112855e-06   8.081969023781307e-06
-1.594340633060857e-05   2.0237587173112855e-06   8.081969023781307e-06
-1.7367245362434592e-05   3.267568254277449e-06   9.70874835464462e-06
-1.7367245362434592e-05   3.267568254277449e-06   9.70874835464462e-06
-1.7367245362434592e-05   3.267568254277449e-06   9.70874835464462e-06
-1.7367245362434592e-05   3.267568254277449e-06   9.70874835464462e-06
-7.472646105469811e-06   1.36270057585295e-06   9.048769192535077e-06
-7.472646105469811e-06   1.36270057585295e-06   9.048769192535077e-06
-7.472646105469811e-06   1.36270057585295e-06   9.048769192535077e-06
-7.472646105469811e-06   1.36270057585295e-06   9.048769192535077e-06
-8.214484160640043e-06   2.5815709108712934e-06   8.543694634928966e-06
-8.214484160640043e-06   2.5815709108712934e-06   8.543694634928966e-06
-8.214484160640043e-06   2.5815709108712934e-06   8.543694634928966e-06
-8.214484160640043e-06   2.5815709108712934e-06   8.543694634928966e-06
-8.427881778058234e-06   9.187410097484961e-07   9.708742838423188e-06
-8.427881778058234e-06   9.187410097484961e-07   9.708742838423188e-06
-8.427881778058234e-06   9.187410097484961e-07   9.708742838423188e-06
-8.427881778058234e-06   9.187410097484961e-07   9.708742838423188e-06
-8.366507964218683e-06   2.0153552426466735e-06   8.948484608951705e-06
-8.366507964218683e-06   2.0153552426466735e-06   8.948484608951705e-06
-8.366507964218683e-06   2.0153552426466735e-06   8.948484608951705e-06
-8.366507964218683e-06   2.0153552426466735e-06   8.948484608951705e-06
-7.919952067947207e-06   1.6064991815497448e-06   8.449538418490754e-06
-7.919952067947207e-06   1.6064991815497448e-06   8.449538418490754e-06
-7.919952067947207e-06   1.6064991815497448e-06   8.449538418490754e-06
-7.919952067947207e-06   1.6064991815497448e-06   8.449538418490754e-06
-8.366507964218683e-06   9.187410097486045e-07   9.050774298684228e-06
-8.366507964218683e-06   9.187410097486045e-07   9.050774298684228e-06
-8.366507964218683e-06   9.187410097486045e-07   9.050774298684228e-06
-8.366507964218683e-06   9.187410097486045e-07   9.050774298684228e-06
-8.427881778058234e-06   2.0153552426466735e-06   9.606453148690557e-06
-8.427881778058234e-06   2.0153552426466735e-06   9.606453148690557e-06
-8.427881778058234e-06   2.0153552426466735e-06   9.606453148690557e-06
-8.427881778058234e-06   2.0153552426466735e-06   9.606453148690557e-06
-8.704768604842088e-06   6.750409174176774e-07   1.000908894340202e-05
-8.704768604842088e-06   6.750409174176774e-07   1.000908894340202e-05
-8.704768604842088e-06   6.750409174176774e-07   1.000908894340202e-05
-8.704768604842088e-06   6.750409174176774e-07   1.000908894340202e-05
-9.236364800613665e-06   1.6245416346429356e-06   1.0325382172685988e-05
-9.236364800613665e-06   1.6245416346429356e-06   1.0325382172685988e-05
-9.236364800613665e-06   1.6245416346429356e-06   1.0325382172685988e-05
-9.236364800613665e-06   1.6245416346429356e-06   1.0325382172685988e-05
-8.451748615926215e-06   1.3624596436132962e-06   9.174937726157741e-06
-8.451748615926215e-06   1.3624596436132962e-06   9.174937726157741e-06
-8.451748615926215e-06   1.3624596436132962e-06   9.174937726157741e-06
-8.451748615926215e-06   1.3624596436132962e-06   9.174937726157741e-06
-9.236364800613678e-06   6.750409174177859e-07   9.439388513066637e-06
-9.236364800613678e-06   6.750409174177859e-07   9.439388513066637e-06
-9.236364800613678e-06   6.750409174177859e-07   9.439388513066637e-06
-9.236364800613678e-06   6.750409174177859e-07   9.439388513066637e-06
-8.704768604842088e-06   1.6245416346429356e-06   1.089508260302118e-05
-8.704768604842088e-06   1.6245416346429356e-06   1.089508260302118e-05
-8.704768604842088e-06   1.6245416346429356e-06   1.089508260302118e-05
-8.704768604842088e-06   1.6245416346429356e-06   1.089508260302118e-05
-8.881772348013478e-06   1.588248853117433e-07   1.0988821402925031e-05
-8.881772348013478e-06   1.588248853117433e-07   1.0988821402925031e-05
-8.881772348013478e-06   1.588248853117433e-07   1.0988821402925031e-05
-8.881772348013478e-06   1.588248853117433e-07   1.0988821402925031e-05
-1.0162834826905191e-05   6.636374161641525e-07   1.2821038015899583e-05
-1.0162834826905191e-05   6.636374161641525e-07   1.2821038015899583e-05
-1.0162834826905191e-05   6.636374161641525e-07   1.2821038015899583e-05
-1.0162834826905191e-05   6.636374161641525e-07   1.2821038015899583e-05
-8.827082630748671e-06   1.0637215774545123e-06   1.0354733858864129e-05
-8.827082630748671e-06   1.0637215774545123e-06   1.0354733858864129e-05
-8.827082630748671e-06   1.0637215774545123e-06   1.0354733858864129e-05
-8.827082630748671e-06   1.0637215774545123e-06   1.0354733858864129e-05
-8.214484160640029e-06   1.5970232266573512e-06   1.7960118524112424e-05
-8.214484160640029e-06   1.5970232266573512e-06   1.7960118524112424e-05
-8.214484160640029e-06   1.5970232266573512e-06   1.7960118524112424e-05
-8.214484160640029e-06   1.5970232266573512e-06   1.7960118524112424e-05
-8.352494949830596e-06   6.686076599614127e-07   1.7173051202110632e-05
-8.352494949830596e-06   6.686076599614127e-07   1.7173051202110632e-05
-8.352494949830596e-06   6.686076599614127e-07   1.7173051202110632e-05
-8.352494949830596e-06   6.686076599614127e-07   1.7173051202110632e-05
-8.41960721088608e-06   1.1016029799357186e-06   1.727976195405685e-05
-8.41960721088608e-06   1.1016029799357186e-06   1.727976195405685e-05
-8.41960721088608e-06   1.1016029799357186e-06   1.727976195405685e-05
-8.41960721088608e-06   1.1016029799357186e-06   1.727976195405685e-05
-8.427881778058234e-06   3.192608307483113e-07   1.7762958188856205e-05
-8.427881778058234e-06   3.192608307483113e-07   1.7762958188856205e-05
-8.427881778058234e-06   3.192608307483113e-07   1.7762958188856205e-05
-8.427881778058234e-06   3.192608307483113e-07   1.7762958188856205e-05
-8.32861462957236e-06   8.144852499426813e-07   1.7300378289863126e-05
-8.32861462957236e-06   8.144852499426813e-07   1.7300378289863126e-05
-8.32861462957236e-06   8.144852499426813e-07   1.7300378289863126e-05
-8.32861462957236e-06   8.144852499426813e-07   1.7300378289863126e-05
-8.427881778058227e-06   1.101602979935827e-06   1.7749167243568992e-05
-8.427881778058227e-06   1.101602979935827e-06   1.7749167243568992e-05
-8.427881778058227e-06   1.101602979935827e-06   1.7749167243568992e-05
-8.427881778058227e-06   1.101602979935827e-06   1.7749167243568992e-05
-8.419607210886066e-06   3.192608307483113e-07   1.7293552899343807e-05
-8.419607210886066e-06   3.192608307483113e-07   1.7293552899343807e-05
-8.419607210886066e-06   3.192608307483113e-07   1.7293552899343807e-05
-8.419607210886066e-06   3.192608307483113e-07   1.7293552899343807e-05
-8.5025384001179e-06   6.448890070606238e-07   1.751414847694845e-05
-8.5025384001179e-06   6.448890070606238e-07   1.751414847694845e-05
-8.5025384001179e-06   6.448890070606238e-07   1.751414847694845e-05
-8.5025384001179e-06   6.448890070606238e-07   1.751414847694845e-05
-8.704768604842088e-06   -8.46353030774195e-08   1.8288913404238094e-05
-8.704768604842088e-06   -8.46353030774195e-08   1.8288913404238094e-05
-8.704768604842088e-06   -8.46353030774195e-08   1.8288913404238094e-05
-8.704768604842088e-06   -8.46353030774195e-08   1.8288913404238094e-05
-8.410615506138881e-06   5.257454020103245e-07   1.7432429816679893e-05
-8.410615506138881e-06   5.257454020103245e-07   1.7432429816679893e-05
-8.410615506138881e-06   5.257454020103245e-07   1.7432429816679893e-05
-8.410615506138881e-06   5.257454020103245e-07   1.7432429816679893e-05
-8.704768604842088e-06   6.448890070607323e-07   1.7951863063031027e-05
-8.704768604842088e-06   6.448890070607323e-07   1.7951863063031027e-05
-8.704768604842088e-06   6.448890070607323e-07   1.7951863063031027e-05
-8.704768604842088e-06   6.448890070607323e-07   1.7951863063031027e-05
-8.502538400117872e-06   -8.463530307752792e-08   1.7851198818155287e-05
-8.502538400117872e-06   -8.463530307752792e-08   1.7851198818155287e-05
-8.502538400117872e-06   -8.463530307752792e-08   1.7851198818155287e-05
-8.502538400117872e-06   -8.463530307752792e-08   1.7851198818155287e-05
-8.563519999382142e-06   1.5073522552475245e-07   1.8015513562210793e-05
-8.563519999382142e-06   1.5073522552475245e-07   1.8015513562210793e-05
-8.563519999382142e-06   1.5073522552475245e-07   1.8015513562210793e-05
-8.563519999382142e-06   1.5073522552475245e-07   1.8015513562210793e-05
-8.881772348013472e-06   -6.146526467618475e-07   1.9005166866634793e-05
-8.881772348013472e-06   -6.146526467618475e-07   1.9005166866634793e-05
-8.881772348013472e-06   -6.146526467618475e-07   1.9005166866634793e-05
-8.881772348013472e-06   -6.146526467618475e-07   1.9005166866634793e-05
-8.539213129638679e-06   1.8715649762672364e-07   1.795314934937664e-05
-8.539213129638679e-06   1.8715649762672364e-07   1.795314934937664e-05
-8.539213129638679e-06   1.8715649762672364e-07   1.795314934937664e-05
-8.539213129638679e-06   1.8715649762672364e-07   1.795314934937664e-05
-8.352494949830623e-06   1.9191458055669132e-06   1.9810999409386942e-05
-8.352494949830623e-06   1.9191458055669132e-06   1.9810999409386942e-05
-8.352494949830623e-06   1.9191458055669132e-06   1.9810999409386942e-05
-8.352494949830623e-06   1.9191458055669132e-06   1.9810999409386942e-05
-9.015912353234297e-06   1.8658409768244032e-07   1.766576671231667e-05
-9.015912353234297e-06   1.8658409768244032e-07   1.766576671231667e-05
-9.015912353234297e-06   1.8658409768244032e-07   1.766576671231667e-05
-9.015912353234297e-06   1.8658409768244032e-07   1.766576671231667e-05
-9.039555204595236e-06   1.4605205172354366e-06   1.8797728286016322e-05
-9.039555204595236e-06   1.4605205172354366e-06   1.8797728286016322e-05
-9.039555204595236e-06   1.4605205172354366e-06   1.8797728286016322e-05
-9.039555204595236e-06   1.4605205172354366e-06   1.8797728286016322e-05
-8.419607210886066e-06   -1.0777048372624925e-07   1.8705456230411487e-05
-8.419607210886066e-06   -1.0777048372624925e-07   1.8705456230411487e-05
-8.419607210886066e-06   -1.0777048372624925e-07   1.8705456230411487e-05
-8.419607210886066e-06   -1.0777048372624925e-07   1.8705456230411487e-05
-8.692290808848828e-06   8.350675909144477e-07   1.8594226048898328e-05
-8.692290808848828e-06   8.350675909144477e-07   1.8594226048898328e-05
-8.692290808848828e-06   8.350675909144477e-07   1.8594226048898328e-05
-8.692290808848828e-06   8.350675909144477e-07   1.8594226048898328e-05
-8.419607210886066e-06   1.4605205172354366e-06   1.973870288659327e-05
-8.419607210886066e-06   1.4605205172354366e-06   1.973870288659327e-05
-8.419607210886066e-06   1.4605205172354366e-06   1.973870288659327e-05
-8.419607210886066e-06   1.4605205172354366e-06   1.973870288659327e-05
-9.039555204595236e-06   -1.0777048372624925e-07   1.7764481629834432e-05
-9.039555204595236e-06   -1.0777048372624925e-07   1.7764481629834432e-05
-9.039555204595236e-06   -1.0777048372624925e-07   1.7764481629834432e-05
-9.039555204595236e-06   -1.0777048372624925e-07   1.7764481629834432e-05
-9.081272140489807e-06   9.944478941342543e-07   1.9090963658588075e-05
-9.081272140489807e-06   9.944478941342543e-07   1.9090963658588075e-05
-9.081272140489807e-06   9.944478941342543e-07   1.9090963658588075e-05
-9.081272140489807e-06   9.944478941342543e-07   1.9090963658588075e-05
-8.502538400117872e-06   -4.601949620031175e-07   1.8999193138317065e-05
-8.502538400117872e-06   -4.601949620031175e-07   1.8999193138317065e-05
-8.502538400117872e-06   -4.601949620031175e-07   1.8999193138317065e-05
-8.502538400117872e-06   -4.601949620031175e-07   1.8999193138317065e-05
-8.698647103903167e-06   5.43833260722125e-07   1.8723624044323598e-05
-8.698647103903167e-06   5.43833260722125e-07   1.8723624044323598e-05
-8.698647103903167e-06   5.43833260722125e-07   1.8723624044323598e-05
-8.698647103903167e-06   5.43833260722125e-07   1.8723624044323598e-05
-8.5025384001179e-06   9.944478941342543e-07   1.9963749372270195e-05
-8.5025384001179e-06   9.944478941342543e-07   1.9963749372270195e-05
-8.5025384001179e-06   9.944478941342543e-07   1.9963749372270195e-05
-8.5025384001179e-06   9.944478941342543e-07   1.9963749372270195e-05
-9.081272140489753e-06   -4.601949620030091e-07   1.8126407424634702e-05
-9.081272140489753e-06   -4.601949620030091e-07   1.8126407424634702e-05
-9.081272140489753e-06   -4.601949620030091e-07   1.8126407424634702e-05
-9.081272140489753e-06   -4.601949620030091e-07   1.8126407424634702e-05
-9.108596935984714e-06   5.528504039397763e-07   1.9615530653166327e-05
-9.108596935984714e-06   5.528504039397763e-07   1.9615530653166327e-05
-9.108596935984714e-06   5.528504039397763e-07   1.9615530653166327e-05
-9.108596935984714e-06   5.528504039397763e-07   1.9615530653166327e-05
-8.563519999382142e-06   -8.136192119953794e-07   1.95269508617229e-05
-8.563519999382142e-06   -8.136192119953794e-07   1.95269508617229e-05
-8.563519999382142e-06   -8.136192119953794e-07   1.95269508617229e-05
-8.563519999382142e-06   -8.136192119953794e-07   1.95269508617229e-05
-8.719547106019467e-06   2.4452087747249465e-07   1.9152111985770574e-05
-8.719547106019467e-06   2.4452087747249465e-07   1.9152111985770574e-05
-8.719547106019467e-06   2.4452087747249465e-07   1.9152111985770574e-05
-8.719547106019467e-06   2.4452087747249465e-07   1.9152111985770574e-05
-9.015912353234297e-06   2.5970918029425425e-06   1.6143792040251295e-05
-9.015912353234297e-06   2.5970918029425425e-06   1.6143792040251295e-05
-9.015912353234297e-06   2.5970918029425425e-06   1.6143792040251295e-05
-9.015912353234297e-06   2.5970918029425425e-06   1.6143792040251295e-05
-9.965257161704925e-06   8.541006357048499e-07   1.3515755992457614e-05
-9.965257161704925e-06   8.541006357048499e-07   1.3515755992457614e-05
-9.965257161704925e-06   8.541006357048499e-07   1.3515755992457614e-05
-9.965257161704925e-06   8.541006357048499e-07   1.3515755992457614e-05
-9.983270165818837e-06   2.114637651610008e-06   1.524638075421571e-05
-9.983270165818837e-06   2.114637651610008e-06   1.524638075421571e-05
-9.983270165818837e-06   2.114637651610008e-06   1.524638075421571e-05
-9.983270165818837e-06   2.114637651610008e-06   1.524638075421571e-05
-9.039555204595236e-06   4.660428459450725e-07   1.466267936890849e-05
-9.039555204595236e-06   4.660428459450725e-07   1.466267936890849e-05
-9.039555204595236e-06   4.660428459450725e-07   1.466267936890849e-05
-9.039555204595236e-06   4.660428459450725e-07   1.466267936890849e-05
-9.476213082361585e-06   1.5430826078992625e-06   1.4744218641346584e-05
-9.476213082361585e-06   1.5430826078992625e-06   1.4744218641346584e-05
-9.476213082361585e-06   1.5430826078992625e-06   1.4744218641346584e-05
-9.476213082361585e-06   1.5430826078992625e-06   1.4744218641346584e-05
-9.039555204595236e-06   2.1146376516098997e-06   1.623553763761441e-05
-9.039555204595236e-06   2.1146376516098997e-06   1.623553763761441e-05
-9.039555204595236e-06   2.1146376516098997e-06   1.623553763761441e-05
-9.039555204595236e-06   2.1146376516098997e-06   1.623553763761441e-05
-9.983270165818837e-06   4.6604284594518094e-07   1.3673522485509659e-05
-9.983270165818837e-06   4.6604284594518094e-07   1.3673522485509659e-05
-9.983270165818837e-06   4.6604284594518094e-07   1.3673522485509659e-05
-9.983270165818837e-06   4.6604284594518094e-07   1.3673522485509659e-05
-1.0092858743782475e-05   1.6852002154974692e-06   1.581041629334387e-05
-1.0092858743782475e-05   1.6852002154974692e-06   1.581041629334387e-05
-1.0092858743782475e-05   1.6852002154974692e-06   1.581041629334387e-05
-1.0092858743782475e-05   1.6852002154974692e-06   1.581041629334387e-05
-9.08127214048978e-06   1.3361936468576658e-07   1.50553871316762e-05
-9.08127214048978e-06   1.3361936468576658e-07   1.50553871316762e-05
-9.08127214048978e-06   1.3361936468576658e-07   1.50553871316762e-05
-9.08127214048978e-06   1.3361936468576658e-07   1.50553871316762e-05
-9.450636864310718e-06   1.2246230636659555e-06   1.5016392785322246e-05
-9.450636864310718e-06   1.2246230636659555e-06   1.5016392785322246e-05
-9.450636864310718e-06   1.2246230636659555e-06   1.5016392785322246e-05
-9.450636864310718e-06   1.2246230636659555e-06   1.5016392785322246e-05
-9.08127214048978e-06   1.6852002154973608e-06   1.674136480383034e-05
-9.08127214048978e-06   1.6852002154973608e-06   1.674136480383034e-05
-9.08127214048978e-06   1.6852002154973608e-06   1.674136480383034e-05
-9.08127214048978e-06   1.6852002154973608e-06   1.674136480383034e-05
-1.0092858743782475e-05   1.3361936468576658e-07   1.412443862118916e-05
-1.0092858743782475e-05   1.3361936468576658e-07   1.412443862118916e-05
-1.0092858743782475e-05   1.3361936468576658e-07   1.412443862118916e-05
-1.0092858743782475e-05   1.3361936468576658e-07   1.412443862118916e-05
-1.0158641347675292e-05   1.2474845297366557e-06   1.6510954885671256e-05
-1.0158641347675292e-05   1.2474845297366557e-06   1.6510954885671256e-05
-1.0158641347675292e-05   1.2474845297366557e-06   1.6510954885671256e-05
-1.0158641347675292e-05   1.2474845297366557e-06   1.6510954885671256e-05
-9.108596935984687e-06   -2.0157457074560306e-07   1.563031632647601e-05
-9.108596935984687e-06   -2.0157457074560306e-07   1.563031632647601e-05
-9.108596935984687e-06   -2.0157457074560306e-07   1.563031632647601e-05
-9.108596935984687e-06   -2.0157457074560306e-07   1.563031632647601e-05
-9.499598617785182e-06   9.400059788799899e-07   1.5597037466367797e-05
-9.499598617785182e-06   9.400059788799899e-07   1.5597037466367797e-05
-9.499598617785182e-06   9.400059788799899e-07   1.5597037466367797e-05
-9.499598617785182e-06   9.400059788799899e-07   1.5597037466367797e-05
-9.965257161704925e-06   3.072888490138789e-06   6.220755592911621e-06
-9.965257161704925e-06   3.072888490138789e-06   6.220755592911621e-06
-9.965257161704925e-06   3.072888490138789e-06   6.220755592911621e-06
-9.965257161704925e-06   3.072888490138789e-06   6.220755592911621e-06
-9.865424483014454e-06   1.410516928214184e-06   5.389720453574388e-06
-9.865424483014454e-06   1.410516928214184e-06   5.389720453574388e-06
-9.865424483014454e-06   1.410516928214184e-06   5.389720453574388e-06
-9.865424483014454e-06   1.410516928214184e-06   5.389720453574388e-06
-1.0372841651817225e-05   2.751917557360659e-06   6.81796847623302e-06
-1.0372841651817225e-05   2.751917557360659e-06   6.81796847623302e-06
-1.0372841651817225e-05   2.751917557360659e-06   6.81796847623302e-06
-1.0372841651817225e-05   2.751917557360659e-06   6.81796847623302e-06
-9.983270165818891e-06   1.1355340475500877e-06   7.1385127721221384e-06
-9.983270165818891e-06   1.1355340475500877e-06   7.1385127721221384e-06
-9.983270165818891e-06   1.1355340475500877e-06   7.1385127721221384e-06
-9.983270165818891e-06   1.1355340475500877e-06   7.1385127721221384e-06
-9.720073357125857e-06   2.1629247330864345e-06   6.083417012978771e-06
-9.720073357125857e-06   2.1629247330864345e-06   6.083417012978771e-06
-9.720073357125857e-06   2.1629247330864345e-06   6.083417012978771e-06
-9.720073357125857e-06   2.1629247330864345e-06   6.083417012978771e-06
-9.983270165818783e-06   2.751917557360659e-06   7.787798582119146e-06
-9.983270165818783e-06   2.751917557360659e-06   7.787798582119146e-06
-9.983270165818783e-06   2.751917557360659e-06   7.787798582119146e-06
-9.983270165818783e-06   2.751917557360659e-06   7.787798582119146e-06
-1.0372841651817225e-05   1.1355340475499793e-06   6.1686826662357415e-06
-1.0372841651817225e-05   1.1355340475499793e-06   6.1686826662357415e-06
-1.0372841651817225e-05   1.1355340475499793e-06   6.1686826662357415e-06
-1.0372841651817225e-05   1.1355340475499793e-06   6.1686826662357415e-06
-1.0818219798265909e-05   2.531295848261423e-06   8.082821117975881e-06
-1.0818219798265909e-05   2.531295848261423e-06   8.082821117975881e-06
-1.0818219798265909e-05   2.531295848261423e-06   8.082821117975881e-06
-1.0818219798265909e-05   2.531295848261423e-06   8.082821117975881e-06
-1.0092858743782475e-05   9.558187357438814e-07   7.819172294680314e-06
-1.0092858743782475e-05   9.558187357438814e-07   7.819172294680314e-06
-1.0092858743782475e-05   9.558187357438814e-07   7.819172294680314e-06
-1.0092858743782475e-05   9.558187357438814e-07   7.819172294680314e-06
-1.008229289289241e-05   2.0028696794969006e-06   7.173331976944816e-06
-1.008229289289241e-05   2.0028696794969006e-06   7.173331976944816e-06
-1.008229289289241e-05   2.0028696794969006e-06   7.173331976944816e-06
-1.008229289289241e-05   2.0028696794969006e-06   7.173331976944816e-06
-1.009285874378242e-05   2.531295848261423e-06   9.028107385486146e-06
-1.009285874378242e-05   2.531295848261423e-06   9.028107385486146e-06
-1.009285874378242e-05   2.531295848261423e-06   9.028107385486146e-06
-1.009285874378242e-05   2.531295848261423e-06   9.028107385486146e-06
-1.0818219798265909e-05   9.558187357438814e-07   6.873886027169941e-06
-1.0818219798265909e-05   9.558187357438814e-07   6.873886027169941e-06
-1.0818219798265909e-05   9.558187357438814e-07   6.873886027169941e-06
-1.0818219798265909e-05   9.558187357438814e-07   6.873886027169941e-06
-1.147904375708162e-05   2.0237587173112855e-06   1.0406054620193698e-05
-1.147904375708162e-05   2.0237587173112855e-06   1.0406054620193698e-05
-1.147904375708162e-05   2.0237587173112855e-06   1.0406054620193698e-05
-1.147904375708162e-05   2.0237587173112855e-06   1.0406054620193698e-05
-1.0158641347675346e-05   5.933246454394503e-07   9.06364438097297e-06
-1.0158641347675346e-05   5.933246454394503e-07   9.06364438097297e-06
-1.0158641347675346e-05   5.933246454394503e-07   9.06364438097297e-06
-1.0158641347675346e-05   5.933246454394503e-07   9.06364438097297e-06
-1.0204892398483871e-05   1.8117642785192697e-06   8.409665685805002e-06
-1.0204892398483871e-05   1.8117642785192697e-06   8.409665685805002e-06
-1.0204892398483871e-05   1.8117642785192697e-06   8.409665685805002e-06
-1.0204892398483871e-05   1.8117642785192697e-06   8.409665685805002e-06
-1.9492125836429122e-05   2.581570910871185e-06   7.584130316428859e-06
-1.9492125836429122e-05   2.581570910871185e-06   7.584130316428859e-06
-1.9492125836429122e-05   2.581570910871185e-06   7.584130316428859e-06
-1.9492125836429122e-05   2.581570910871185e-06   7.584130316428859e-06
-1.3176795642266468e-05   3.572529743182506e-06   1.8704255939420078e-05
-1.3176795642266468e-05   3.572529743182506e-06   1.8704255939420078e-05
-1.3176795642266468e-05   3.572529743182506e-06   1.8704255939420078e-05
-1.3176795642266468e-05   3.572529743182506e-06   1.8704255939420078e-05
-1.3171680420201552e-05   2.0153552426466735e-06   8.599263212837976e-06
-1.3171680420201552e-05   2.0153552426466735e-06   8.599263212837976e-06
-1.3171680420201552e-05   2.0153552426466735e-06   8.599263212837976e-06
-1.3171680420201552e-05   2.0153552426466735e-06   8.599263212837976e-06
-2.1480192176272797e-05   1.4390408351683064e-06   2.2792571450777263e-05
-2.1480192176272797e-05   1.4390408351683064e-06   2.2792571450777263e-05
-2.1480192176272797e-05   1.4390408351683064e-06   2.2792571450777263e-05
-2.1480192176272797e-05   1.4390408351683064e-06   2.2792571450777263e-05
-1.5961359133833212e-05   2.1151182835385247e-06   1.3188869911022431e-05
-1.5961359133833212e-05   2.1151182835385247e-06   1.3188869911022431e-05
-1.5961359133833212e-05   2.1151182835385247e-06   1.3188869911022431e-05
-1.5961359133833212e-05   2.1151182835385247e-06   1.3188869911022431e-05
-2.148019217627283e-05   2.0153552426466735e-06   8.945051857325024e-06
-2.148019217627283e-05   2.0153552426466735e-06   8.945051857325024e-06
-2.148019217627283e-05   2.0153552426466735e-06   8.945051857325024e-06
-2.148019217627283e-05   2.0153552426466735e-06   8.945051857325024e-06
-1.3171680420201552e-05   1.4390408351683064e-06   2.244678280629027e-05
-1.3171680420201552e-05   1.4390408351683064e-06   2.244678280629027e-05
-1.3171680420201552e-05   1.4390408351683064e-06   2.244678280629027e-05
-1.3171680420201552e-05   1.4390408351683064e-06   2.244678280629027e-05
-1.335436081120756e-05   1.6245416346429356e-06   9.61109048871987e-06
-1.335436081120756e-05   1.6245416346429356e-06   9.61109048871987e-06
-1.335436081120756e-05   1.6245416346429356e-06   9.61109048871987e-06
-1.335436081120756e-05   1.6245416346429356e-06   9.61109048871987e-06
-2.1558512768449886e-05   1.0297101985231932e-06   2.364157594579553e-05
-2.1558512768449886e-05   1.0297101985231932e-06   2.364157594579553e-05
-2.1558512768449886e-05   1.0297101985231932e-06   2.364157594579553e-05
-2.1558512768449886e-05   1.0297101985231932e-06   2.364157594579553e-05
-1.7036901820330453e-05   1.3183843164463324e-06   1.5932353228175736e-05
-1.7036901820330453e-05   1.3183843164463324e-06   1.5932353228175736e-05
-1.7036901820330453e-05   1.3183843164463324e-06   1.5932353228175736e-05
-1.7036901820330453e-05   1.3183843164463324e-06   1.5932353228175736e-05
-2.1558512768449926e-05   1.6245416346429356e-06   9.967989350391753e-06
-2.1558512768449926e-05   1.6245416346429356e-06   9.967989350391753e-06
-2.1558512768449926e-05   1.6245416346429356e-06   9.967989350391753e-06
-2.1558512768449926e-05   1.6245416346429356e-06   9.967989350391753e-06
-1.3354360811207532e-05   1.0297101985231932e-06   2.3284677084123675e-05
-1.3354360811207532e-05   1.0297101985231932e-06   2.3284677084123675e-05
-1.3354360811207532e-05   1.0297101985231932e-06   2.3284677084123675e-05
-1.3354360811207532e-05   1.0297101985231932e-06   2.3284677084123675e-05
-1.321476349084267e-05   6.636374161641525e-07   1.1380290506565868e-05
-1.321476349084267e-05   6.636374161641525e-07   1.1380290506565868e-05
-1.321476349084267e-05   6.636374161641525e-07   1.1380290506565868e-05
-1.321476349084267e-05   6.636374161641525e-07   1.1380290506565868e-05
-2.1796528018624273e-05   -7.127425239474819e-07   2.6509059350268772e-05
-2.1796528018624273e-05   -7.127425239474819e-07   2.6509059350268772e-05
-2.1796528018624273e-05   -7.127425239474819e-07   2.6509059350268772e-05
-2.1796528018624273e-05   -7.127425239474819e-07   2.6509059350268772e-05
-1.677991904452133e-05   6.356763635348645e-07   1.733899306094114e-05
-1.677991904452133e-05   6.356763635348645e-07   1.733899306094114e-05
-1.677991904452133e-05   6.356763635348645e-07   1.733899306094114e-05
-1.677991904452133e-05   6.356763635348645e-07   1.733899306094114e-05
-1.3176795642266492e-05   6.686076599615211e-07   1.736511152301487e-05
-1.3176795642266492e-05   6.686076599615211e-07   1.736511152301487e-05
-1.3176795642266492e-05   6.686076599615211e-07   1.736511152301487e-05
-1.3176795642266492e-05   6.686076599615211e-07   1.736511152301487e-05
-8.093500556449079e-06   -4.0605811652053275e-06   2.2999756704277202e-05
-8.093500556449079e-06   -4.0605811652053275e-06   2.2999756704277202e-05
-8.093500556449079e-06   -4.0605811652053275e-06   2.2999756704277202e-05
-8.093500556449079e-06   -4.0605811652053275e-06   2.2999756704277202e-05
-8.111863733440176e-06   3.192608307483113e-07   1.4567278736231739e-05
-8.111863733440176e-06   3.192608307483113e-07   1.4567278736231739e-05
-8.111863733440176e-06   3.192608307483113e-07   1.4567278736231739e-05
-8.111863733440176e-06   3.192608307483113e-07   1.4567278736231739e-05
-1.3171680420201552e-05   -3.328221697204898e-06   2.5188796064272786e-05
-1.3171680420201552e-05   -3.328221697204898e-06   2.5188796064272786e-05
-1.3171680420201552e-05   -3.328221697204898e-06   2.5188796064272786e-05
-1.3171680420201552e-05   -3.328221697204898e-06   2.5188796064272786e-05
-1.0582755953481258e-05   -2.0086312279976723e-06   2.0082167671548075e-05
-1.0582755953481258e-05   -2.0086312279976723e-06   2.0082167671548075e-05
-1.0582755953481258e-05   -2.0086312279976723e-06   2.0082167671548075e-05
-1.0582755953481258e-05   -2.0086312279976723e-06   2.0082167671548075e-05
-1.3171680420201566e-05   3.192608307483113e-07   1.6755768253003556e-05
-1.3171680420201566e-05   3.192608307483113e-07   1.6755768253003556e-05
-1.3171680420201566e-05   3.192608307483113e-07   1.6755768253003556e-05
-1.3171680420201566e-05   3.192608307483113e-07   1.6755768253003556e-05
-8.111863733440162e-06   -3.328221697204898e-06   2.300030654750086e-05
-8.111863733440162e-06   -3.328221697204898e-06   2.300030654750086e-05
-8.111863733440162e-06   -3.328221697204898e-06   2.300030654750086e-05
-8.111863733440162e-06   -3.328221697204898e-06   2.300030654750086e-05
-8.146544877848502e-06   -8.46353030774195e-08   1.5014151055257592e-05
-8.146544877848502e-06   -8.46353030774195e-08   1.5014151055257592e-05
-8.146544877848502e-06   -8.46353030774195e-08   1.5014151055257592e-05
-8.146544877848502e-06   -8.46353030774195e-08   1.5014151055257592e-05
-1.3354360811207532e-05   -3.4025856942095003e-06   2.568461451220178e-05
-1.3354360811207532e-05   -3.4025856942095003e-06   2.568461451220178e-05
-1.3354360811207532e-05   -3.4025856942095003e-06   2.568461451220178e-05
-1.3354360811207532e-05   -3.4025856942095003e-06   2.568461451220178e-05
-1.0507540247299841e-05   -1.755069350189856e-06   1.9951403765943788e-05
-1.0507540247299841e-05   -1.755069350189856e-06   1.9951403765943788e-05
-1.0507540247299841e-05   -1.755069350189856e-06   1.9951403765943788e-05
-1.0507540247299841e-05   -1.755069350189856e-06   1.9951403765943788e-05
-1.335436081120756e-05   -8.46353030774195e-08   1.700492128993685e-05
-1.335436081120756e-05   -8.46353030774195e-08   1.700492128993685e-05
-1.335436081120756e-05   -8.46353030774195e-08   1.700492128993685e-05
-1.335436081120756e-05   -8.46353030774195e-08   1.700492128993685e-05
-8.146544877848488e-06   -3.4025856942095003e-06   2.36938442775226e-05
-8.146544877848488e-06   -3.4025856942095003e-06   2.36938442775226e-05
-8.146544877848488e-06   -3.4025856942095003e-06   2.36938442775226e-05
-8.146544877848488e-06   -3.4025856942095003e-06   2.36938442775226e-05
-8.070405268787315e-06   -6.146526467618475e-07   1.5572104535532946e-05
-8.070405268787315e-06   -6.146526467618475e-07   1.5572104535532946e-05
-8.070405268787315e-06   -6.146526467618475e-07   1.5572104535532946e-05
-8.070405268787315e-06   -6.146526467618475e-07   1.5572104535532946e-05
-1.3214763490842636e-05   -3.4303648188562896e-06   2.583546220888179e-05
-1.3214763490842636e-05   -3.4303648188562896e-06   2.583546220888179e-05
-1.3214763490842636e-05   -3.4303648188562896e-06   2.583546220888179e-05
-1.3214763490842636e-05   -3.4303648188562896e-06   2.583546220888179e-05
-1.055944079557043e-05   -1.968497504775636e-06   2.0532803994979722e-05
-1.055944079557043e-05   -1.968497504775636e-06   2.0532803994979722e-05
-1.055944079557043e-05   -1.968497504775636e-06   2.0532803994979722e-05
-1.055944079557043e-05   -1.968497504775636e-06   2.0532803994979722e-05
-8.093500556449079e-06   1.8658409768244032e-07   1.605985076285157e-05
-8.093500556449079e-06   1.8658409768244032e-07   1.605985076285157e-05
-8.093500556449079e-06   1.8658409768244032e-07   1.605985076285157e-05
-8.093500556449079e-06   1.8658409768244032e-07   1.605985076285157e-05
-5.966350400056454e-06   -3.1724713584089723e-06   1.758966774985121e-05
-5.966350400056454e-06   -3.1724713584089723e-06   1.758966774985121e-05
-5.966350400056454e-06   -3.1724713584089723e-06   1.758966774985121e-05
-5.966350400056454e-06   -3.1724713584089723e-06   1.758966774985121e-05
-5.9154639405223114e-06   -1.0777048372624925e-07   1.4174392845574257e-05
-5.9154639405223114e-06   -1.0777048372624925e-07   1.4174392845574257e-05
-5.9154639405223114e-06   -1.0777048372624925e-07   1.4174392845574257e-05
-5.9154639405223114e-06   -1.0777048372624925e-07   1.4174392845574257e-05
-8.111863733440162e-06   -3.115752519934807e-06   1.9639848388829193e-05
-8.111863733440162e-06   -3.115752519934807e-06   1.9639848388829193e-05
-8.111863733440162e-06   -3.115752519934807e-06   1.9639848388829193e-05
-8.111863733440162e-06   -3.115752519934807e-06   1.9639848388829193e-05
-6.979013275274355e-06   -1.6025552718954288e-06   1.684384594306278e-05
-6.979013275274355e-06   -1.6025552718954288e-06   1.684384594306278e-05
-6.979013275274355e-06   -1.6025552718954288e-06   1.684384594306278e-05
-6.979013275274355e-06   -1.6025552718954288e-06   1.684384594306278e-05
-8.111863733440162e-06   -1.0777048372624925e-07   1.5979182067299338e-05
-8.111863733440162e-06   -1.0777048372624925e-07   1.5979182067299338e-05
-8.111863733440162e-06   -1.0777048372624925e-07   1.5979182067299338e-05
-8.111863733440162e-06   -1.0777048372624925e-07   1.5979182067299338e-05
-5.9154639405223385e-06   -3.115752519934807e-06   1.7835059167104146e-05
-5.9154639405223385e-06   -3.115752519934807e-06   1.7835059167104146e-05
-5.9154639405223385e-06   -3.115752519934807e-06   1.7835059167104146e-05
-5.9154639405223385e-06   -3.115752519934807e-06   1.7835059167104146e-05
-5.872630667863094e-06   -4.601949620031175e-07   1.4512115281601159e-05
-5.872630667863094e-06   -4.601949620031175e-07   1.4512115281601159e-05
-5.872630667863094e-06   -4.601949620031175e-07   1.4512115281601159e-05
-5.872630667863094e-06   -4.601949620031175e-07   1.4512115281601159e-05
-8.146544877848488e-06   -3.21024511836692e-06   1.9952002392061675e-05
-8.146544877848488e-06   -3.21024511836692e-06   1.9952002392061675e-05
-8.146544877848488e-06   -3.21024511836692e-06   1.9952002392061675e-05
-8.146544877848488e-06   -3.21024511836692e-06   1.9952002392061675e-05
-6.919847502198248e-06   -1.7076486510952818e-06   1.7005948885614563e-05
-6.919847502198248e-06   -1.7076486510952818e-06   1.7005948885614563e-05
-6.919847502198248e-06   -1.7076486510952818e-06   1.7005948885614563e-05
-6.919847502198248e-06   -1.7076486510952818e-06   1.7005948885614563e-05
-8.146544877848488e-06   -4.601949620030091e-07   1.6162145375419506e-05
-8.146544877848488e-06   -4.601949620030091e-07   1.6162145375419506e-05
-8.146544877848488e-06   -4.601949620030091e-07   1.6162145375419506e-05
-8.146544877848488e-06   -4.601949620030091e-07   1.6162145375419506e-05
-5.872630667863121e-06   -3.21024511836692e-06   1.8301972298243413e-05
-5.872630667863121e-06   -3.21024511836692e-06   1.8301972298243413e-05
-5.872630667863121e-06   -3.21024511836692e-06   1.8301972298243413e-05
-5.872630667863121e-06   -3.21024511836692e-06   1.8301972298243413e-05
-5.760882263446679e-06   -8.136192119954878e-07   1.5035460557933852e-05
-5.760882263446679e-06   -8.136192119954878e-07   1.5035460557933852e-05
-5.760882263446679e-06   -8.136192119954878e-07   1.5035460557933852e-05
-5.760882263446679e-06   -8.136192119954878e-07   1.5035460557933852e-05
-8.070405268787315e-06   -3.3430537054273107e-06   2.040232626289391e-05
-8.070405268787315e-06   -3.3430537054273107e-06   2.040232626289391e-05
-8.070405268787315e-06   -3.3430537054273107e-06   2.040232626289391e-05
-8.070405268787315e-06   -3.3430537054273107e-06   2.040232626289391e-05
-6.85086460673111e-06   -1.861502668005176e-06   1.7480827870347147e-05
-6.85086460673111e-06   -1.861502668005176e-06   1.7480827870347147e-05
-6.85086460673111e-06   -1.861502668005176e-06   1.7480827870347147e-05
-6.85086460673111e-06   -1.861502668005176e-06   1.7480827870347147e-05
-5.966350400056427e-06   8.541006357047414e-07   1.0940201469680267e-05
-5.966350400056427e-06   8.541006357047414e-07   1.0940201469680267e-05
-5.966350400056427e-06   8.541006357047414e-07   1.0940201469680267e-05
-5.966350400056427e-06   8.541006357047414e-07   1.0940201469680267e-05
-4.988524198953437e-06   -1.3029831937644764e-06   1.127566150717032e-05
-4.988524198953437e-06   -1.3029831937644764e-06   1.127566150717032e-05
-4.988524198953437e-06   -1.3029831937644764e-06   1.127566150717032e-05
-4.988524198953437e-06   -1.3029831937644764e-06   1.127566150717032e-05
-4.884163803487189e-06   4.660428459450725e-07   9.878485324997912e-06
-4.884163803487189e-06   4.660428459450725e-07   9.878485324997912e-06
-4.884163803487189e-06   4.660428459450725e-07   9.878485324997912e-06
-4.884163803487189e-06   4.660428459450725e-07   9.878485324997912e-06
-5.9154639405223114e-06   -1.5241325868056103e-06   1.2791424146373792e-05
-5.9154639405223114e-06   -1.5241325868056103e-06   1.2791424146373792e-05
-5.9154639405223114e-06   -1.5241325868056103e-06   1.2791424146373792e-05
-5.9154639405223114e-06   -1.5241325868056103e-06   1.2791424146373792e-05
-5.399064000983285e-06   -2.9745032637825243e-07   1.1194748224219197e-05
-5.399064000983285e-06   -2.9745032637825243e-07   1.1194748224219197e-05
-5.399064000983285e-06   -2.9745032637825243e-07   1.1194748224219197e-05
-5.399064000983285e-06   -2.9745032637825243e-07   1.1194748224219197e-05
-5.9154639405223114e-06   4.660428459450725e-07   1.1072590584648289e-05
-5.9154639405223114e-06   4.660428459450725e-07   1.1072590584648289e-05
-5.9154639405223114e-06   4.660428459450725e-07   1.1072590584648289e-05
-5.9154639405223114e-06   4.660428459450725e-07   1.1072590584648289e-05
-4.884163803487189e-06   -1.5241325868056103e-06   1.1597318886723387e-05
-4.884163803487189e-06   -1.5241325868056103e-06   1.1597318886723387e-05
-4.884163803487189e-06   -1.5241325868056103e-06   1.1597318886723387e-05
-4.884163803487189e-06   -1.5241325868056103e-06   1.1597318886723387e-05
-4.838777706942855e-06   1.3361936468576658e-07   1.0344760135822906e-05
-4.838777706942855e-06   1.3361936468576658e-07   1.0344760135822906e-05
-4.838777706942855e-06   1.3361936468576658e-07   1.0344760135822906e-05
-4.838777706942855e-06   1.3361936468576658e-07   1.0344760135822906e-05
-5.872630667863094e-06   -1.6936053900138207e-06   1.3164183256842831e-05
-5.872630667863094e-06   -1.6936053900138207e-06   1.3164183256842831e-05
-5.872630667863094e-06   -1.6936053900138207e-06   1.3164183256842831e-05
-5.872630667863094e-06   -1.6936053900138207e-06   1.3164183256842831e-05
-5.295486534888979e-06   -5.334561821606666e-07   1.1506186843840362e-05
-5.295486534888979e-06   -5.334561821606666e-07   1.1506186843840362e-05
-5.295486534888979e-06   -5.334561821606666e-07   1.1506186843840362e-05
-5.295486534888979e-06   -5.334561821606666e-07   1.1506186843840362e-05
-5.872630667863067e-06   1.3361936468576658e-07   1.1441094988642495e-05
-5.872630667863067e-06   1.3361936468576658e-07   1.1441094988642495e-05
-5.872630667863067e-06   1.3361936468576658e-07   1.1441094988642495e-05
-5.872630667863067e-06   1.3361936468576658e-07   1.1441094988642495e-05
-4.838777706942855e-06   -1.6936053900138207e-06   1.2067848404023025e-05
-4.838777706942855e-06   -1.6936053900138207e-06   1.2067848404023025e-05
-4.838777706942855e-06   -1.6936053900138207e-06   1.2067848404023025e-05
-4.838777706942855e-06   -1.6936053900138207e-06   1.2067848404023025e-05
-4.762038496848131e-06   -2.0157457074560306e-07   1.0930300344165478e-05
-4.762038496848131e-06   -2.0157457074560306e-07   1.0930300344165478e-05
-4.762038496848131e-06   -2.0157457074560306e-07   1.0930300344165478e-05
-4.762038496848131e-06   -2.0157457074560306e-07   1.0930300344165478e-05
-5.760882263446679e-06   -1.9155869842167237e-06   1.3623447403245679e-05
-5.760882263446679e-06   -1.9155869842167237e-06   1.3623447403245679e-05
-5.760882263446679e-06   -1.9155869842167237e-06   1.3623447403245679e-05
-5.760882263446679e-06   -1.9155869842167237e-06   1.3623447403245679e-05
-5.216205360257173e-06   -7.40554312589532e-07   1.2010632961620415e-05
-5.216205360257173e-06   -7.40554312589532e-07   1.2010632961620415e-05
-5.216205360257173e-06   -7.40554312589532e-07   1.2010632961620415e-05
-5.216205360257173e-06   -7.40554312589532e-07   1.2010632961620415e-05
-4.988524198953437e-06   1.410516928214184e-06   2.5173385702702386e-06
-4.988524198953437e-06   1.410516928214184e-06   2.5173385702702386e-06
-4.988524198953437e-06   1.410516928214184e-06   2.5173385702702386e-06
-4.988524198953437e-06   1.410516928214184e-06   2.5173385702702386e-06
-2.906890451840954e-06   -1.438668769743667e-07   5.054097865677906e-06
-2.906890451840954e-06   -1.438668769743667e-07   5.054097865677906e-06
-2.906890451840954e-06   -1.438668769743667e-07   5.054097865677906e-06
-2.906890451840954e-06   -1.438668769743667e-07   5.054097865677906e-06
-3.074188179503926e-06   1.1355340475499793e-06   2.54131633898951e-06
-3.074188179503926e-06   1.1355340475499793e-06   2.54131633898951e-06
-3.074188179503926e-06   1.1355340475499793e-06   2.54131633898951e-06
-3.074188179503926e-06   1.1355340475499793e-06   2.54131633898951e-06
-4.884163803487189e-06   -2.0139807348462354e-07   6.3601016515826185e-06
-4.884163803487189e-06   -2.0139807348462354e-07   6.3601016515826185e-06
-4.884163803487189e-06   -2.0139807348462354e-07   6.3601016515826185e-06
-4.884163803487189e-06   -2.0139807348462354e-07   6.3601016515826185e-06
-3.827082221937865e-06   7.255792748962027e-07   4.042112606638748e-06
-3.827082221937865e-06   7.255792748962027e-07   4.042112606638748e-06
-3.827082221937865e-06   7.255792748962027e-07   4.042112606638748e-06
-3.827082221937865e-06   7.255792748962027e-07   4.042112606638748e-06
-4.884163803487189e-06   1.1355340475500877e-06   3.343475611610315e-06
-4.884163803487189e-06   1.1355340475500877e-06   3.343475611610315e-06
-4.884163803487189e-06   1.1355340475500877e-06   3.343475611610315e-06
-4.884163803487189e-06   1.1355340475500877e-06   3.343475611610315e-06
-3.074188179503926e-06   -2.0139807348462354e-07   5.557942378961759e-06
-3.074188179503926e-06   -2.0139807348462354e-07   5.557942378961759e-06
-3.074188179503926e-06   -2.0139807348462354e-07   5.557942378961759e-06
-3.074188179503926e-06   -2.0139807348462354e-07   5.557942378961759e-06
-3.211863774638709e-06   9.558187357438814e-07   3.298596275300614e-06
-3.211863774638709e-06   9.558187357438814e-07   3.298596275300614e-06
-3.211863774638709e-06   9.558187357438814e-07   3.298596275300614e-06
-3.211863774638709e-06   9.558187357438814e-07   3.298596275300614e-06
-4.838777706942855e-06   -2.7901048761197434e-07   6.751017029820849e-06
-4.838777706942855e-06   -2.7901048761197434e-07   6.751017029820849e-06
-4.838777706942855e-06   -2.7901048761197434e-07   6.751017029820849e-06
-4.838777706942855e-06   -2.7901048761197434e-07   6.751017029820849e-06
-3.897456484155536e-06   5.900622088682848e-07   4.660704707286855e-06
-3.897456484155536e-06   5.900622088682848e-07   4.660704707286855e-06
-3.897456484155536e-06   5.900622088682848e-07   4.660704707286855e-06
-3.897456484155536e-06   5.900622088682848e-07   4.660704707286855e-06
-4.838777706942855e-06   9.55818735743773e-07   4.03949380931403e-06
-4.838777706942855e-06   9.55818735743773e-07   4.03949380931403e-06
-4.838777706942855e-06   9.55818735743773e-07   4.03949380931403e-06
-4.838777706942855e-06   9.55818735743773e-07   4.03949380931403e-06
-3.2118637746387634e-06   -2.7901048761197434e-07   6.010119495807379e-06
-3.2118637746387634e-06   -2.7901048761197434e-07   6.010119495807379e-06
-3.2118637746387634e-06   -2.7901048761197434e-07   6.010119495807379e-06
-3.2118637746387634e-06   -2.7901048761197434e-07   6.010119495807379e-06
-3.5458712822055436e-06   5.933246454394503e-07   4.652604772134236e-06
-3.5458712822055436e-06   5.933246454394503e-07   4.652604772134236e-06
-3.5458712822055436e-06   5.933246454394503e-07   4.652604772134236e-06
-3.5458712822055436e-06   5.933246454394503e-07   4.652604772134236e-06
-4.762038496848131e-06   -3.741071659230338e-07   7.260009216689188e-06
-4.762038496848131e-06   -3.741071659230338e-07   7.260009216689188e-06
-4.762038496848131e-06   -3.741071659230338e-07   7.260009216689188e-06
-4.762038496848131e-06   -3.741071659230338e-07   7.260009216689188e-06
-3.908786320087416e-06   4.978914527005765e-07   5.314723084247179e-06
-3.908786320087416e-06   4.978914527005765e-07   5.314723084247179e-06
-3.908786320087416e-06   4.978914527005765e-07   5.314723084247179e-06
-3.908786320087416e-06   4.978914527005765e-07   5.314723084247179e-06
-4.575478597352414e-05   3.572529743182506e-06   1.9712683839203407e-05
-4.575478597352414e-05   3.572529743182506e-06   1.9712683839203407e-05
-4.575478597352414e-05   3.572529743182506e-06   1.9712683839203407e-05
-4.575478597352414e-05   3.572529743182506e-06   1.9712683839203407e-05
-1.0744309144112698e-05   -2.2487462816202934e-05   6.242748301925795e-05
-1.0744309144112698e-05   -2.2487462816202934e-05   6.242748301925795e-05
-1.0744309144112698e-05   -2.2487462816202934e-05   6.242748301925795e-05
-1.0744309144112698e-05   -2.2487462816202934e-05   6.242748301925795e-05
-1.2619389288083e-05   1.4390408351683064e-06   1.0810317331992728e-05
-1.2619389288083e-05   1.4390408351683064e-06   1.0810317331992728e-05
-1.2619389288083e-05   1.4390408351683064e-06   1.0810317331992728e-05
-1.2619389288083e-05   1.4390408351683064e-06   1.0810317331992728e-05
-4.172977349425899e-05   -1.7497886965738383e-05   7.068978102282996e-05
-4.172977349425899e-05   -1.7497886965738383e-05   7.068978102282996e-05
-4.172977349425899e-05   -1.7497886965738383e-05   7.068978102282996e-05
-4.172977349425899e-05   -1.7497886965738383e-05   7.068978102282996e-05
-2.7819952855367084e-05   -8.710450065268165e-06   4.223428448439464e-05
-2.7819952855367084e-05   -8.710450065268165e-06   4.223428448439464e-05
-2.7819952855367084e-05   -8.710450065268165e-06   4.223428448439464e-05
-2.7819952855367084e-05   -8.710450065268165e-06   4.223428448439464e-05
-4.172977349425892e-05   1.4390408351683064e-06   2.2172474012536732e-05
-4.172977349425892e-05   1.4390408351683064e-06   2.2172474012536732e-05
-4.172977349425892e-05   1.4390408351683064e-06   2.2172474012536732e-05
-4.172977349425892e-05   1.4390408351683064e-06   2.2172474012536732e-05
-1.261938928808302e-05   -1.7497886965738383e-05   5.932762434228596e-05
-1.261938928808302e-05   -1.7497886965738383e-05   5.932762434228596e-05
-1.261938928808302e-05   -1.7497886965738383e-05   5.932762434228596e-05
-1.261938928808302e-05   -1.7497886965738383e-05   5.932762434228596e-05
-1.2908894320397407e-05   1.0297101985232474e-06   1.18800133931528e-05
-1.2908894320397407e-05   1.0297101985232474e-06   1.18800133931528e-05
-1.2908894320397407e-05   1.0297101985232474e-06   1.18800133931528e-05
-1.2908894320397407e-05   1.0297101985232474e-06   1.18800133931528e-05
-3.937411286883211e-05   -1.5096237358580953e-05   6.566427950813971e-05
-3.937411286883211e-05   -1.5096237358580953e-05   6.566427950813971e-05
-3.937411286883211e-05   -1.5096237358580953e-05   6.566427950813971e-05
-3.937411286883211e-05   -1.5096237358580953e-05   6.566427950813971e-05
-2.6991139133332866e-05   -8.254327149294436e-06   4.092084382340244e-05
-2.6991139133332866e-05   -8.254327149294436e-06   4.092084382340244e-05
-2.6991139133332866e-05   -8.254327149294436e-06   4.092084382340244e-05
-2.6991139133332866e-05   -8.254327149294436e-06   4.092084382340244e-05
-3.9374112868832044e-05   1.0297101985232474e-06   2.155558192741528e-05
-3.9374112868832044e-05   1.0297101985232474e-06   2.155558192741528e-05
-3.9374112868832044e-05   1.0297101985232474e-06   2.155558192741528e-05
-3.9374112868832044e-05   1.0297101985232474e-06   2.155558192741528e-05
-1.2908894320397434e-05   -1.5096237358580953e-05   5.598871097387722e-05
-1.2908894320397434e-05   -1.5096237358580953e-05   5.598871097387722e-05
-1.2908894320397434e-05   -1.5096237358580953e-05   5.598871097387722e-05
-1.2908894320397434e-05   -1.5096237358580953e-05   5.598871097387722e-05
-1.4148737945694549e-05   -7.127425239474819e-07   1.4872662738983202e-05
-1.4148737945694549e-05   -7.127425239474819e-07   1.4872662738983202e-05
-1.4148737945694549e-05   -7.127425239474819e-07   1.4872662738983202e-05
-1.4148737945694549e-05   -7.127425239474819e-07   1.4872662738983202e-05
-3.635314439819906e-05   -1.1905192417766428e-05   5.859547676278198e-05
-3.635314439819906e-05   -1.1905192417766428e-05   5.859547676278198e-05
-3.635314439819906e-05   -1.1905192417766428e-05   5.859547676278198e-05
-3.635314439819906e-05   -1.1905192417766428e-05   5.859547676278198e-05
-2.596590003686869e-05   -7.6204081819461e-06   3.871253228573921e-05
-2.596590003686869e-05   -7.6204081819461e-06   3.871253228573921e-05
-2.596590003686869e-05   -7.6204081819461e-06   3.871253228573921e-05
-2.596590003686869e-05   -7.6204081819461e-06   3.871253228573921e-05
-1.0744309144112684e-05   -4.0605811652053275e-06   1.1209702363529296e-05
-1.0744309144112684e-05   -4.0605811652053275e-06   1.1209702363529296e-05
-1.0744309144112684e-05   -4.0605811652053275e-06   1.1209702363529296e-05
-1.0744309144112684e-05   -4.0605811652053275e-06   1.1209702363529296e-05
-3.739131741225594e-06   -7.0067735400246645e-06   2.1117282610116266e-05
-3.739131741225594e-06   -7.0067735400246645e-06   2.1117282610116266e-05
-3.739131741225594e-06   -7.0067735400246645e-06   2.1117282610116266e-05
-3.739131741225594e-06   -7.0067735400246645e-06   2.1117282610116266e-05
-4.1818817297808964e-06   -3.328221697204898e-06   9.984349850228395e-06
-4.1818817297808964e-06   -3.328221697204898e-06   9.984349850228395e-06
-4.1818817297808964e-06   -3.328221697204898e-06   9.984349850228395e-06
-4.1818817297808964e-06   -3.328221697204898e-06   9.984349850228395e-06
-1.261938928808302e-05   -9.27485626344985e-06   2.76148431871454e-05
-1.261938928808302e-05   -9.27485626344985e-06   2.76148431871454e-05
-1.261938928808302e-05   -9.27485626344985e-06   2.76148431871454e-05
-1.261938928808302e-05   -9.27485626344985e-06   2.76148431871454e-05
-7.413260902102723e-06   -4.8539577890784654e-06   1.6285423459222004e-05
-7.413260902102723e-06   -4.8539577890784654e-06   1.6285423459222004e-05
-7.413260902102723e-06   -4.8539577890784654e-06   1.6285423459222004e-05
-7.413260902102723e-06   -4.8539577890784654e-06   1.6285423459222004e-05
-1.261938928808298e-05   -3.328221697204898e-06   1.3552330589975162e-05
-1.261938928808298e-05   -3.328221697204898e-06   1.3552330589975162e-05
-1.261938928808298e-05   -3.328221697204898e-06   1.3552330589975162e-05
-1.261938928808298e-05   -3.328221697204898e-06   1.3552330589975162e-05
-4.1818817297808964e-06   -9.27485626344985e-06   2.4046862447398464e-05
-4.1818817297808964e-06   -9.27485626344985e-06   2.4046862447398464e-05
-4.1818817297808964e-06   -9.27485626344985e-06   2.4046862447398464e-05
-4.1818817297808964e-06   -9.27485626344985e-06   2.4046862447398464e-05
-4.561583564053294e-06   -3.4025856942095003e-06   1.1227021877033652e-05
-4.561583564053294e-06   -3.4025856942095003e-06   1.1227021877033652e-05
-4.561583564053294e-06   -3.4025856942095003e-06   1.1227021877033652e-05
-4.561583564053294e-06   -3.4025856942095003e-06   1.1227021877033652e-05
-1.2908894320397434e-05   -8.490800601204921e-06   2.819213541513774e-05
-1.2908894320397434e-05   -8.490800601204921e-06   2.819213541513774e-05
-1.2908894320397434e-05   -8.490800601204921e-06   2.819213541513774e-05
-1.2908894320397434e-05   -8.490800601204921e-06   2.819213541513774e-05
-8.36491440104412e-06   -5.9297499148918255e-06   1.908220513776118e-05
-8.36491440104412e-06   -5.9297499148918255e-06   1.908220513776118e-05
-8.36491440104412e-06   -5.9297499148918255e-06   1.908220513776118e-05
-8.36491440104412e-06   -5.9297499148918255e-06   1.908220513776118e-05
-1.2908894320397407e-05   -3.4025856942095003e-06   1.427995082123093e-05
-1.2908894320397407e-05   -3.4025856942095003e-06   1.427995082123093e-05
-1.2908894320397407e-05   -3.4025856942095003e-06   1.427995082123093e-05
-1.2908894320397407e-05   -3.4025856942095003e-06   1.427995082123093e-05
-4.561583564053294e-06   -8.490800601204921e-06   2.5139206470940494e-05
-4.561583564053294e-06   -8.490800601204921e-06   2.5139206470940494e-05
-4.561583564053294e-06   -8.490800601204921e-06   2.5139206470940494e-05
-4.561583564053294e-06   -8.490800601204921e-06   2.5139206470940494e-05
-5.180051250276376e-06   -3.430364818856344e-06   1.2285876566610321e-05
-5.180051250276376e-06   -3.430364818856344e-06   1.2285876566610321e-05
-5.180051250276376e-06   -3.430364818856344e-06   1.2285876566610321e-05
-5.180051250276376e-06   -3.430364818856344e-06   1.2285876566610321e-05
-1.4148737945694562e-05   -7.99539314394445e-06   2.99727047206934e-05
-1.4148737945694562e-05   -7.99539314394445e-06   2.99727047206934e-05
-1.4148737945694562e-05   -7.99539314394445e-06   2.99727047206934e-05
-1.4148737945694562e-05   -7.99539314394445e-06   2.99727047206934e-05
-8.923259396561731e-06   -5.414907659758876e-06   1.9715282514960682e-05
-8.923259396561731e-06   -5.414907659758876e-06   1.9715282514960682e-05
-8.923259396561731e-06   -5.414907659758876e-06   1.9715282514960682e-05
-8.923259396561731e-06   -5.414907659758876e-06   1.9715282514960682e-05
-3.739131741225594e-06   -3.1724713584089723e-06   6.047331257866533e-06
-3.739131741225594e-06   -3.1724713584089723e-06   6.047331257866533e-06
-3.739131741225594e-06   -3.1724713584089723e-06   6.047331257866533e-06
-3.739131741225594e-06   -3.1724713584089723e-06   6.047331257866533e-06
-2.088354986908193e-06   -1.9777566454822363e-06   9.51545467615158e-06
-2.088354986908193e-06   -1.9777566454822363e-06   9.51545467615158e-06
-2.088354986908193e-06   -1.9777566454822363e-06   9.51545467615158e-06
-2.088354986908193e-06   -1.9777566454822363e-06   9.51545467615158e-06
-2.0098941816304873e-06   -3.115752519934807e-06   6.944040712606348e-06
-2.0098941816304873e-06   -3.115752519934807e-06   6.944040712606348e-06
-2.0098941816304873e-06   -3.115752519934807e-06   6.944040712606348e-06
-2.0098941816304873e-06   -3.115752519934807e-06   6.944040712606348e-06
-4.1818817297808964e-06   -2.5821708181853717e-06   1.0243870938474013e-05
-4.1818817297808964e-06   -2.5821708181853717e-06   1.0243870938474013e-05
-4.1818817297808964e-06   -2.5821708181853717e-06   1.0243870938474013e-05
-4.1818817297808964e-06   -2.5821708181853717e-06   1.0243870938474013e-05
-2.8144191699540946e-06   -2.5637812587608053e-06   7.953732936441136e-06
-2.8144191699540946e-06   -2.5637812587608053e-06   7.953732936441136e-06
-2.8144191699540946e-06   -2.5637812587608053e-06   7.953732936441136e-06
-2.8144191699540946e-06   -2.5637812587608053e-06   7.953732936441136e-06
-4.1818817297808964e-06   -3.115752519934807e-06   6.623891691556755e-06
-4.1818817297808964e-06   -3.115752519934807e-06   6.623891691556755e-06
-4.1818817297808964e-06   -3.115752519934807e-06   6.623891691556755e-06
-4.1818817297808964e-06   -3.115752519934807e-06   6.623891691556755e-06
-2.00989418163046e-06   -2.5821708181853717e-06   1.0564019959523688e-05
-2.00989418163046e-06   -2.5821708181853717e-06   1.0564019959523688e-05
-2.00989418163046e-06   -2.5821708181853717e-06   1.0564019959523688e-05
-2.00989418163046e-06   -2.5821708181853717e-06   1.0564019959523688e-05
-2.016214107954838e-06   -3.2102451183669742e-06   7.426438138859984e-06
-2.016214107954838e-06   -3.2102451183669742e-06   7.426438138859984e-06
-2.016214107954838e-06   -3.2102451183669742e-06   7.426438138859984e-06
-2.016214107954838e-06   -3.2102451183669742e-06   7.426438138859984e-06
-4.561583564053294e-06   -3.3081482062216138e-06   1.1727462418403432e-05
-4.561583564053294e-06   -3.3081482062216138e-06   1.1727462418403432e-05
-4.561583564053294e-06   -3.3081482062216138e-06   1.1727462418403432e-05
-4.561583564053294e-06   -3.3081482062216138e-06   1.1727462418403432e-05
-2.9878910118806952e-06   -2.8029792991403606e-06   8.801540153867014e-06
-2.9878910118806952e-06   -2.8029792991403606e-06   8.801540153867014e-06
-2.9878910118806952e-06   -2.8029792991403606e-06   8.801540153867014e-06
-2.9878910118806952e-06   -2.8029792991403606e-06   8.801540153867014e-06
-4.561583564053267e-06   -3.21024511836692e-06   7.485179991572753e-06
-4.561583564053267e-06   -3.21024511836692e-06   7.485179991572753e-06
-4.561583564053267e-06   -3.21024511836692e-06   7.485179991572753e-06
-4.561583564053267e-06   -3.21024511836692e-06   7.485179991572753e-06
-2.016214107954838e-06   -3.3081482062216138e-06   1.1668720565690609e-05
-2.016214107954838e-06   -3.3081482062216138e-06   1.1668720565690609e-05
-2.016214107954838e-06   -3.3081482062216138e-06   1.1668720565690609e-05
-2.016214107954838e-06   -3.3081482062216138e-06   1.1668720565690609e-05
-2.0521590249521693e-06   -3.3430537054272564e-06   8.149408657406247e-06
-2.0521590249521693e-06   -3.3430537054272564e-06   8.149408657406247e-06
-2.0521590249521693e-06   -3.3430537054272564e-06   8.149408657406247e-06
-2.0521590249521693e-06   -3.3430537054272564e-06   8.149408657406247e-06
-5.180051250276376e-06   -3.997652482882187e-06   1.3755321632752745e-05
-5.180051250276376e-06   -3.997652482882187e-06   1.3755321632752745e-05
-5.180051250276376e-06   -3.997652482882187e-06   1.3755321632752745e-05
-5.180051250276376e-06   -3.997652482882187e-06   1.3755321632752745e-05
-3.186217932908637e-06   -3.0582737503528543e-06   9.868638864288953e-06
-3.186217932908637e-06   -3.0582737503528543e-06   9.868638864288953e-06
-3.186217932908637e-06   -3.0582737503528543e-06   9.868638864288953e-06
-3.186217932908637e-06   -3.0582737503528543e-06   9.868638864288953e-06
-2.088354986908193e-06   -1.3029831937645306e-06   1.74440414062334e-06
-2.088354986908193e-06   -1.3029831937645306e-06   1.74440414062334e-06
-2.088354986908193e-06   -1.3029831937645306e-06   1.74440414062334e-06
-2.088354986908193e-06   -1.3029831937645306e-06   1.74440414062334e-06
-1.5563209119820974e-06   3.172669744327654e-07   3.6032776997517294e-06
-1.5563209119820974e-06   3.172669744327654e-07   3.6032776997517294e-06
-1.5563209119820974e-06   3.172669744327654e-07   3.6032776997517294e-06
-1.5563209119820974e-06   3.172669744327654e-07   3.6032776997517294e-06
-1.2618860263770098e-06   -1.5241325868056103e-06   2.874166568345637e-06
-1.2618860263770098e-06   -1.5241325868056103e-06   2.874166568345637e-06
-1.2618860263770098e-06   -1.5241325868056103e-06   2.874166568345637e-06
-1.2618860263770098e-06   -1.5241325868056103e-06   2.874166568345637e-06
-2.00989418163046e-06   9.880220731031293e-08   3.1470859506317053e-06
-2.00989418163046e-06   9.880220731031293e-08   3.1470859506317053e-06
-2.00989418163046e-06   9.880220731031293e-08   3.1470859506317053e-06
-2.00989418163046e-06   9.880220731031293e-08   3.1470859506317053e-06
-1.622190437887972e-06   -6.191171692793943e-07   2.9316646703479656e-06
-1.622190437887972e-06   -6.191171692793943e-07   2.9316646703479656e-06
-1.622190437887972e-06   -6.191171692793943e-07   2.9316646703479656e-06
-1.622190437887972e-06   -6.191171692793943e-07   2.9316646703479656e-06
-2.00989418163046e-06   -1.5241325868056103e-06   1.9004056918760811e-06
-2.00989418163046e-06   -1.5241325868056103e-06   1.9004056918760811e-06
-2.00989418163046e-06   -1.5241325868056103e-06   1.9004056918760811e-06
-2.00989418163046e-06   -1.5241325868056103e-06   1.9004056918760811e-06
-1.2618860263770098e-06   9.880220731031293e-08   4.120846827101261e-06
-1.2618860263770098e-06   9.880220731031293e-08   4.120846827101261e-06
-1.2618860263770098e-06   9.880220731031293e-08   4.120846827101261e-06
-1.2618860263770098e-06   9.880220731031293e-08   4.120846827101261e-06
-1.1014484064615269e-06   -1.6936053900138207e-06   3.1576808728818895e-06
-1.1014484064615269e-06   -1.6936053900138207e-06   3.1576808728818895e-06
-1.1014484064615269e-06   -1.6936053900138207e-06   3.1576808728818895e-06
-1.1014484064615269e-06   -1.6936053900138207e-06   3.1576808728818895e-06
-2.016214107954838e-06   -2.452190976432723e-07   3.8132585999482303e-06
-2.016214107954838e-06   -2.452190976432723e-07   3.8132585999482303e-06
-2.016214107954838e-06   -2.452190976432723e-07   3.8132585999482303e-06
-2.016214107954838e-06   -2.452190976432723e-07   3.8132585999482303e-06
-1.4727605932598716e-06   -7.914471730886374e-07   3.235239587390541e-06
-1.4727605932598716e-06   -7.914471730886374e-07   3.235239587390541e-06
-1.4727605932598716e-06   -7.914471730886374e-07   3.235239587390541e-06
-1.4727605932598716e-06   -7.914471730886374e-07   3.235239587390541e-06
-2.016214107954838e-06   -1.6936053900138207e-06   2.2886490974594054e-06
-2.016214107954838e-06   -1.6936053900138207e-06   2.2886490974594054e-06
-2.016214107954838e-06   -1.6936053900138207e-06   2.2886490974594054e-06
-2.016214107954838e-06   -1.6936053900138207e-06   2.2886490974594054e-06
-1.1014484064615269e-06   -2.452190976432723e-07   4.682290375370606e-06
-1.1014484064615269e-06   -2.452190976432723e-07   4.682290375370606e-06
-1.1014484064615269e-06   -2.452190976432723e-07   4.682290375370606e-06
-1.1014484064615269e-06   -2.452190976432723e-07   4.682290375370606e-06
-8.55518776515633e-07   -1.915586984216778e-06   3.4681945256000157e-06
-8.55518776515633e-07   -1.915586984216778e-06   3.4681945256000157e-06
-8.55518776515633e-07   -1.915586984216778e-06   3.4681945256000157e-06
-8.55518776515633e-07   -1.915586984216778e-06   3.4681945256000157e-06
-2.0521590249521693e-06   -9.489135979117476e-07   4.882590907877803e-06
-2.0521590249521693e-06   -9.489135979117476e-07   4.882590907877803e-06
-2.0521590249521693e-06   -9.489135979117476e-07   4.882590907877803e-06
-2.0521590249521693e-06   -9.489135979117476e-07   4.882590907877803e-06
-1.352241817297655e-06   -1.0539322884911898e-06   3.779073442801461e-06
-1.352241817297655e-06   -1.0539322884911898e-06   3.779073442801461e-06
-1.352241817297655e-06   -1.0539322884911898e-06   3.779073442801461e-06
-1.352241817297655e-06   -1.0539322884911898e-06   3.779073442801461e-06
-1.5563209119820974e-06   -1.4386687697431249e-07   -2.572379116837697e-06
-1.5563209119820974e-06   -1.4386687697431249e-07   -2.572379116837697e-06
-1.5563209119820974e-06   -1.4386687697431249e-07   -2.572379116837697e-06
-1.5563209119820974e-06   -1.4386687697431249e-07   -2.572379116837697e-06
-2.9531709842925717e-07   2.205037691412176e-07   -2.5208370658025194e-07
-2.9531709842925717e-07   2.205037691412176e-07   -2.5208370658025194e-07
-2.9531709842925717e-07   2.205037691412176e-07   -2.5208370658025194e-07
-2.9531709842925717e-07   2.205037691412176e-07   -2.5208370658025194e-07
-6.403705287501456e-09   -2.0139807348462354e-07   -2.013879749928325e-06
-6.403705287501456e-09   -2.0139807348462354e-07   -2.013879749928325e-06
-6.403705287501456e-09   -2.0139807348462354e-07   -2.013879749928325e-06
-6.403705287501456e-09   -2.0139807348462354e-07   -2.013879749928325e-06
-1.2618860263770098e-06   3.805534546266817e-07   -2.7058013164597827e-07
-1.2618860263770098e-06   3.805534546266817e-07   -2.7058013164597827e-07
-1.2618860263770098e-06   3.805534546266817e-07   -2.7058013164597827e-07
-1.2618860263770098e-06   3.805534546266817e-07   -2.7058013164597827e-07
-7.129174029086476e-07   1.0265892573321105e-07   -1.0187911200908607e-06
-7.129174029086476e-07   1.0265892573321105e-07   -1.0187911200908607e-06
-7.129174029086476e-07   1.0265892573321105e-07   -1.0187911200908607e-06
-7.129174029086476e-07   1.0265892573321105e-07   -1.0187911200908607e-06
-1.2618860263770098e-06   -2.0139807348462354e-07   -2.3630506667952943e-06
-1.2618860263770098e-06   -2.0139807348462354e-07   -2.3630506667952943e-06
-1.2618860263770098e-06   -2.0139807348462354e-07   -2.3630506667952943e-06
-1.2618860263770098e-06   -2.0139807348462354e-07   -2.3630506667952943e-06
-6.403705287501456e-09   3.805534546266817e-07   7.859078522074727e-08
-6.403705287501456e-09   3.805534546266817e-07   7.859078522074727e-08
-6.403705287501456e-09   3.805534546266817e-07   7.859078522074727e-08
-6.403705287501456e-09   3.805534546266817e-07   7.859078522074727e-08
1.4375199177947637e-07   -2.7901048761192013e-07   -1.7978589533404173e-06
1.4375199177947637e-07   -2.7901048761192013e-07   -1.7978589533404173e-06
1.4375199177947637e-07   -2.7901048761192013e-07   -1.7978589533404173e-06
1.4375199177947637e-07   -2.7901048761192013e-07   -1.7978589533404173e-06
-1.1014484064615269e-06   3.2314209235472145e-07   -8.381650425223677e-08
-1.1014484064615269e-06   3.2314209235472145e-07   -8.381650425223677e-08
-1.1014484064615269e-06   3.2314209235472145e-07   -8.381650425223677e-08
-1.1014484064615269e-06   3.2314209235472145e-07   -8.381650425223677e-08
-5.000405582308853e-07   6.682642769817557e-08   -9.323735191756966e-07
-5.000405582308853e-07   6.682642769817557e-08   -9.323735191756966e-07
-5.000405582308853e-07   6.682642769817557e-08   -9.323735191756966e-07
-5.000405582308853e-07   6.682642769817557e-08   -9.323735191756966e-07
-1.1014484064615269e-06   -2.7901048761197434e-07   -2.159150501320476e-06
-1.1014484064615269e-06   -2.7901048761197434e-07   -2.159150501320476e-06
-1.1014484064615269e-06   -2.7901048761197434e-07   -2.159150501320476e-06
-1.1014484064615269e-06   -2.7901048761197434e-07   -2.159150501320476e-06
1.4375199177953059e-07   3.2314209235472145e-07   2.7747504372779494e-07
1.4375199177953059e-07   3.2314209235472145e-07   2.7747504372779494e-07
1.4375199177953059e-07   3.2314209235472145e-07   2.7747504372779494e-07
1.4375199177953059e-07   3.2314209235472145e-07   2.7747504372779494e-07
3.298218964349468e-07   -3.741071659230338e-07   -1.4791993306447404e-06
3.298218964349468e-07   -3.741071659230338e-07   -1.4791993306447404e-06
3.298218964349468e-07   -3.741071659230338e-07   -1.4791993306447404e-06
3.298218964349468e-07   -3.741071659230338e-07   -1.4791993306447404e-06
-8.55518776515633e-07   2.7195430445862127e-07   1.0873157537717466e-07
-8.55518776515633e-07   2.7195430445862127e-07   1.0873157537717466e-07
-8.55518776515633e-07   2.7195430445862127e-07   1.0873157537717466e-07
-8.55518776515633e-07   2.7195430445862127e-07   1.0873157537717466e-07
-3.0764843935728557e-07   2.2942660862204558e-08   -6.549786670623182e-07
-3.0764843935728557e-07   2.2942660862204558e-08   -6.549786670623182e-07
-3.0764843935728557e-07   2.2942660862204558e-08   -6.549786670623182e-07
-3.0764843935728557e-07   2.2942660862204558e-08   -6.549786670623182e-07
              </DataArray>   
             <DataArray type="Float64" NumberOfComponents="3" Name="Stress" format="ascii">   
-2.3771219531900365   -0.5942804882975091   -0.5942804882975091
-2.3771219531900365   -0.5942804882975091   -0.5942804882975091
-2.3771219531900365   -0.5942804882975091   -0.5942804882975091
-2.3771219531900365   -0.5942804882975091   -0.5942804882975091
-1.3755014091422528   -0.04382676782567091   -0.027675237861818802
-1.3755014091422528   -0.04382676782567091   -0.027675237861818802
-1.3755014091422528   -0.04382676782567091   -0.027675237861818802
-1.3755014091422528   -0.04382676782567091   -0.027675237861818802
-1.4824257224739126   -0.37060643061847814   -0.37060643061847814
-1.4824257224739126   -0.37060643061847814   -0.37060643061847814
-1.4824257224739126   -0.37060643061847814   -0.37060643061847814
-1.4824257224739126   -0.37060643061847814   -0.37060643061847814
-2.290956135952558   -0.1883319098660149   -0.07208508265233529
-2.290956135952558   -0.1883319098660149   -0.07208508265233529
-2.290956135952558   -0.1883319098660149   -0.07208508265233529
-2.290956135952558   -0.1883319098660149   -0.07208508265233529
-1.796727097293251   -0.29467838418508785   -0.004974832037294229
-1.796727097293251   -0.29467838418508785   -0.004974832037294229
-1.796727097293251   -0.29467838418508785   -0.004974832037294229
-1.796727097293251   -0.29467838418508785   -0.004974832037294229
-2.487636374943213   -0.6219090937358033   -0.6219090937358033
-2.487636374943213   -0.6219090937358033   -0.6219090937358033
-2.487636374943213   -0.6219090937358033   -0.6219090937358033
-2.487636374943213   -0.6219090937358033   -0.6219090937358033
-1.3324086234541106   0.016307613280461042   -0.007434979418407026
-1.3324086234541106   0.016307613280461042   -0.007434979418407026
-1.3324086234541106   0.016307613280461042   -0.007434979418407026
-1.3324086234541106   0.016307613280461042   -0.007434979418407026
-1.486489032871359   -0.37162225821783973   -0.37162225821783973
-1.486489032871359   -0.37162225821783973   -0.37162225821783973
-1.486489032871359   -0.37162225821783973   -0.37162225821783973
-1.486489032871359   -0.37162225821783973   -0.37162225821783973
-2.367818950927929   -0.19010149378544455   -0.10561271011259095
-2.367818950927929   -0.19010149378544455   -0.10561271011259095
-2.367818950927929   -0.19010149378544455   -0.10561271011259095
-2.367818950927929   -0.19010149378544455   -0.10561271011259095
-1.863614961906944   -0.2774018849011708   -0.09889075705077797
-1.863614961906944   -0.2774018849011708   -0.09889075705077797
-1.863614961906944   -0.2774018849011708   -0.09889075705077797
-1.863614961906944   -0.2774018849011708   -0.09889075705077797
-2.565195677942584   -0.641298919485646   -0.641298919485646
-2.565195677942584   -0.641298919485646   -0.641298919485646
-2.565195677942584   -0.641298919485646   -0.641298919485646
-2.565195677942584   -0.641298919485646   -0.641298919485646
-1.328426510117982   0.04026096322108719   0.006807134110118712
-1.328426510117982   0.04026096322108719   0.006807134110118712
-1.328426510117982   0.04026096322108719   0.006807134110118712
-1.328426510117982   0.04026096322108719   0.006807134110118712
-1.4855753673111696   -0.3713938418277924   -0.3713938418277924
-1.4855753673111696   -0.3713938418277924   -0.3713938418277924
-1.4855753673111696   -0.3713938418277924   -0.3713938418277924
-1.4855753673111696   -0.3713938418277924   -0.3713938418277924
-2.505172838553752   -0.16665523203848598   -0.06342568805086896
-2.505172838553752   -0.16665523203848598   -0.06342568805086896
-2.505172838553752   -0.16665523203848598   -0.06342568805086896
-2.505172838553752   -0.16665523203848598   -0.06342568805086896
-1.913197283960073   -0.2730492965233105   -0.17870227145612497
-1.913197283960073   -0.2730492965233105   -0.17870227145612497
-1.913197283960073   -0.2730492965233105   -0.17870227145612497
-1.913197283960073   -0.2730492965233105   -0.17870227145612497
-1.51244556444973   -0.3781113911124325   -0.3781113911124325
-1.51244556444973   -0.3781113911124325   -0.3781113911124325
-1.51244556444973   -0.3781113911124325   -0.3781113911124325
-1.51244556444973   -0.3781113911124325   -0.3781113911124325
-0.6311901986610581   -0.04216141828685263   -0.013687174530523247
-0.6311901986610581   -0.04216141828685263   -0.013687174530523247
-0.6311901986610581   -0.04216141828685263   -0.013687174530523247
-0.6311901986610581   -0.04216141828685263   -0.013687174530523247
-0.6624710583305111   -0.16561776458262778   -0.16561776458262778
-0.6624710583305111   -0.16561776458262778   -0.16561776458262778
-0.6624710583305111   -0.16561776458262778   -0.16561776458262778
-0.6624710583305111   -0.16561776458262778   -0.16561776458262778
-1.3769113827078523   -0.16204106949737546   -0.051600092909278986
-1.3769113827078523   -0.16204106949737546   -0.051600092909278986
-1.3769113827078523   -0.16204106949737546   -0.051600092909278986
-1.3769113827078523   -0.16204106949737546   -0.051600092909278986
-1.01561967058669   -0.1924523256220384   0.007916373944122868
-1.01561967058669   -0.1924523256220384   0.007916373944122868
-1.01561967058669   -0.1924523256220384   0.007916373944122868
-1.01561967058669   -0.1924523256220384   0.007916373944122868
-1.4824257224739112   -0.3706064306184778   -0.3706064306184778
-1.4824257224739112   -0.3706064306184778   -0.3706064306184778
-1.4824257224739112   -0.3706064306184778   -0.3706064306184778
-1.4824257224739112   -0.3706064306184778   -0.3706064306184778
-0.5954017903741544   0.004502524728771301   -0.00039171411224296626
-0.5954017903741544   0.004502524728771301   -0.00039171411224296626
-0.5954017903741544   0.004502524728771301   -0.00039171411224296626
-0.5954017903741544   0.004502524728771301   -0.00039171411224296626
-0.6475732239254284   -0.1618933059813571   -0.1618933059813571
-0.6475732239254284   -0.1618933059813571   -0.1618933059813571
-0.6475732239254284   -0.1618933059813571   -0.1618933059813571
-0.6475732239254284   -0.1618933059813571   -0.1618933059813571
-1.373334866952067   -0.13215994672094103   -0.04531374011827873
-1.373334866952067   -0.13215994672094103   -0.04531374011827873
-1.373334866952067   -0.13215994672094103   -0.04531374011827873
-1.373334866952067   -0.13215994672094103   -0.04531374011827873
-1.0013673556335967   -0.16199610130929903   -0.05234304746017662
-1.0013673556335967   -0.16199610130929903   -0.05234304746017662
-1.0013673556335967   -0.16199610130929903   -0.05234304746017662
-1.0013673556335967   -0.16199610130929903   -0.05234304746017662
-1.486489032871359   -0.37162225821783973   -0.37162225821783973
-1.486489032871359   -0.37162225821783973   -0.37162225821783973
-1.486489032871359   -0.37162225821783973   -0.37162225821783973
-1.486489032871359   -0.37162225821783973   -0.37162225821783973
-0.5716553889221484   0.04033267459952963   0.015469888454155901
-0.5716553889221484   0.04033267459952963   0.015469888454155901
-0.5716553889221484   0.04033267459952963   0.015469888454155901
-0.5716553889221484   0.04033267459952963   0.015469888454155901
-0.6339881862043543   -0.15849704655108857   -0.15849704655108857
-0.6339881862043543   -0.15849704655108857   -0.15849704655108857
-0.6339881862043543   -0.15849704655108857   -0.15849704655108857
-0.6339881862043543   -0.15849704655108857   -0.15849704655108857
-1.3631213598300844   -0.10194468147804736   -0.028572964772129283
-1.3631213598300844   -0.10194468147804736   -0.028572964772129283
-1.3631213598300844   -0.10194468147804736   -0.028572964772129283
-1.3631213598300844   -0.10194468147804736   -0.028572964772129283
-1.0061998497185842   -0.1433248200070276   -0.11660068566554108
-1.0061998497185842   -0.1433248200070276   -0.11660068566554108
-1.0061998497185842   -0.1433248200070276   -0.11660068566554108
-1.0061998497185842   -0.1433248200070276   -0.11660068566554108
-0.6889116445528711   -0.17222791113821778   -0.17222791113821778
-0.6889116445528711   -0.17222791113821778   -0.17222791113821778
-0.6889116445528711   -0.17222791113821778   -0.17222791113821778
-0.6889116445528711   -0.17222791113821778   -0.17222791113821778
0.08135074335671896   0.005253780612711026   0.0006719908599250083
0.08135074335671896   0.005253780612711026   0.0006719908599250083
0.08135074335671896   0.005253780612711026   0.0006719908599250083
0.08135074335671896   0.005253780612711026   0.0006719908599250083
0.10600427729027981   0.026501069322569952   0.026501069322569952
0.10600427729027981   0.026501069322569952   0.026501069322569952
0.10600427729027981   0.026501069322569952   0.026501069322569952
0.10600427729027981   0.026501069322569952   0.026501069322569952
-0.6227713141720227   -0.10763807866456128   -0.0250987297082577
-0.6227713141720227   -0.10763807866456128   -0.0250987297082577
-0.6227713141720227   -0.10763807866456128   -0.0250987297082577
-0.6227713141720227   -0.10763807866456128   -0.0250987297082577
-0.26680552413201375   -0.06767420258646747   0.045188158267223374
-0.26680552413201375   -0.06767420258646747   0.045188158267223374
-0.26680552413201375   -0.06767420258646747   0.045188158267223374
-0.26680552413201375   -0.06767420258646747   0.045188158267223374
-0.6624710583305111   -0.16561776458262778   -0.16561776458262778
-0.6624710583305111   -0.16561776458262778   -0.16561776458262778
-0.6624710583305111   -0.16561776458262778   -0.16561776458262778
-0.6624710583305111   -0.16561776458262778   -0.16561776458262778
0.10791160598244637   0.04668833977431537   0.01585044233165647
0.10791160598244637   0.04668833977431537   0.01585044233165647
0.10791160598244637   0.04668833977431537   0.01585044233165647
0.10791160598244637   0.04668833977431537   0.01585044233165647
0.11938312812845502   0.029845782032113754   0.029845782032113754
0.11938312812845502   0.029845782032113754   0.029845782032113754
0.11938312812845502   0.029845782032113754   0.029845782032113754
0.11938312812845502   0.029845782032113754   0.029845782032113754
-0.600667063094396   -0.07242544517126442   -0.016830362636298654
-0.600667063094396   -0.07242544517126442   -0.016830362636298654
-0.600667063094396   -0.07242544517126442   -0.016830362636298654
-0.600667063094396   -0.07242544517126442   -0.016830362636298654
-0.25584670336341353   -0.04181174080108677   -0.015473933061357725
-0.25584670336341353   -0.04181174080108677   -0.015473933061357725
-0.25584670336341353   -0.04181174080108677   -0.015473933061357725
-0.25584670336341353   -0.04181174080108677   -0.015473933061357725
-0.6475732239254284   -0.1618933059813571   -0.1618933059813571
-0.6475732239254284   -0.1618933059813571   -0.1618933059813571
-0.6475732239254284   -0.1618933059813571   -0.1618933059813571
-0.6475732239254284   -0.1618933059813571   -0.1618933059813571
0.12925780138584664   0.08228215526856764   0.026782775082617033
0.12925780138584664   0.08228215526856764   0.026782775082617033
0.12925780138584664   0.08228215526856764   0.026782775082617033
0.12925780138584664   0.08228215526856764   0.026782775082617033
0.13734546670724798   0.034336366676811995   0.034336366676811995
0.13734546670724798   0.034336366676811995   0.034336366676811995
0.13734546670724798   0.034336366676811995   0.034336366676811995
0.13734546670724798   0.034336366676811995   0.034336366676811995
-0.5766127565059231   -0.030440687189602966   0.00032374257957425503
-0.5766127565059231   -0.030440687189602966   0.00032374257957425503
-0.5766127565059231   -0.030440687189602966   0.00032374257957425503
-0.5766127565059231   -0.030440687189602966   0.00032374257957425503
-0.24809720203685082   -0.016879328479144647   -0.07559422796420637
-0.24809720203685082   -0.016879328479144647   -0.07559422796420637
-0.24809720203685082   -0.016879328479144647   -0.07559422796420637
-0.24809720203685082   -0.016879328479144647   -0.07559422796420637
0.08907287673576876   0.02226821918394219   0.02226821918394219
0.08907287673576876   0.02226821918394219   0.02226821918394219
0.08907287673576876   0.02226821918394219   0.02226821918394219
0.08907287673576876   0.02226821918394219   0.02226821918394219
0.8614325263237358   0.0790528134857025   0.026625518570981187
0.8614325263237358   0.0790528134857025   0.026625518570981187
0.8614325263237358   0.0790528134857025   0.026625518570981187
0.8614325263237358   0.0790528134857025   0.026625518570981187
0.9354565865514577   0.23386414663786442   0.23386414663786442
0.9354565865514577   0.23386414663786442   0.23386414663786442
0.9354565865514577   0.23386414663786442   0.23386414663786442
0.9354565865514577   0.23386414663786442   0.23386414663786442
0.0807488821085885   -0.06064641645922922   -0.012628420804089133
0.0807488821085885   -0.06064641645922922   -0.012628420804089133
0.0807488821085885   -0.06064641645922922   -0.012628420804089133
0.0807488821085885   -0.06064641645922922   -0.012628420804089133
0.49110634046153023   0.06114895784693252   0.08919145206445858
0.49110634046153023   0.06114895784693252   0.08919145206445858
0.49110634046153023   0.06114895784693252   0.08919145206445858
0.49110634046153023   0.06114895784693252   0.08919145206445858
0.10600427729028018   0.026501069322570046   0.026501069322570046
0.10600427729028018   0.026501069322570046   0.026501069322570046
0.10600427729028018   0.026501069322570046   0.026501069322570046
0.10600427729028018   0.026501069322570046   0.026501069322570046
0.8717833970642069   0.10829886655050602   0.041063479288968745
0.8717833970642069   0.10829886655050602   0.041063479288968745
0.8717833970642069   0.10829886655050602   0.041063479288968745
0.8717833970642069   0.10829886655050602   0.041063479288968745
0.9315649497309596   0.2328912374327399   0.2328912374327399
0.9315649497309596   0.2328912374327399   0.2328912374327399
0.9315649497309596   0.2328912374327399   0.2328912374327399
0.9315649497309596   0.2328912374327399   0.2328912374327399
0.10222976441952428   -0.026209717120530086   0.0001344626401029586
0.10222976441952428   -0.026209717120530086   0.0001344626401029586
0.10222976441952428   -0.026209717120530086   0.0001344626401029586
0.10222976441952428   -0.026209717120530086   0.0001344626401029586
0.48759891984802317   0.08029640984996853   0.023167428592357854
0.48759891984802317   0.08029640984996853   0.023167428592357854
0.48759891984802317   0.08029640984996853   0.023167428592357854
0.48759891984802317   0.08029640984996853   0.023167428592357854
0.11938312812845513   0.02984578203211378   0.02984578203211378
0.11938312812845513   0.02984578203211378   0.02984578203211378
0.11938312812845513   0.02984578203211378   0.02984578203211378
0.11938312812845513   0.02984578203211378   0.02984578203211378
0.8763636507613092   0.13878780301937654   0.0509881769978512
0.8763636507613092   0.13878780301937654   0.0509881769978512
0.8763636507613092   0.13878780301937654   0.0509881769978512
0.8763636507613092   0.13878780301937654   0.0509881769978512
0.9497168557868447   0.23742921394671118   0.23742921394671118
0.9497168557868447   0.23742921394671118   0.23742921394671118
0.9497168557868447   0.23742921394671118   0.23742921394671118
0.9497168557868447   0.23742921394671118   0.23742921394671118
0.1303615682409431   0.01933845301847968   0.014414788003618735
0.1303615682409431   0.01933845301847968   0.014414788003618735
0.1303615682409431   0.01933845301847968   0.014414788003618735
0.1303615682409431   0.01933845301847968   0.014414788003618735
0.49527654962483764   0.10895866267194447   -0.03805087835717928
0.49527654962483764   0.10895866267194447   -0.03805087835717928
0.49527654962483764   0.10895866267194447   -0.03805087835717928
0.49527654962483764   0.10895866267194447   -0.03805087835717928
0.9336631776804435   0.23341579442011087   0.23341579442011087
0.9336631776804435   0.23341579442011087   0.23341579442011087
0.9336631776804435   0.23341579442011087   0.23341579442011087
0.9336631776804435   0.23341579442011087   0.23341579442011087
1.9374285300673921   0.14771958168361093   0.050803071824399165
1.9374285300673921   0.14771958168361093   0.050803071824399165
1.9374285300673921   0.14771958168361093   0.050803071824399165
1.9374285300673921   0.14771958168361093   0.050803071824399165
1.980472001339259   0.49511800033481473   0.49511800033481473
1.980472001339259   0.49511800033481473   0.49511800033481473
1.980472001339259   0.49511800033481473   0.49511800033481473
1.980472001339259   0.49511800033481473   0.49511800033481473
0.8315521095797733   -0.047194136756451066   -0.004599954826242231
0.8315521095797733   -0.047194136756451066   -0.004599954826242231
0.8315521095797733   -0.047194136756451066   -0.004599954826242231
0.8315521095797733   -0.047194136756451066   -0.004599954826242231
1.381663930677472   0.19559366624073074   0.15592183435229948
1.381663930677472   0.19559366624073074   0.15592183435229948
1.381663930677472   0.19559366624073074   0.15592183435229948
1.381663930677472   0.19559366624073074   0.15592183435229948
0.9354565865514569   0.23386414663786423   0.23386414663786423
0.9354565865514569   0.23386414663786423   0.23386414663786423
0.9354565865514569   0.23386414663786423   0.23386414663786423
0.9354565865514569   0.23386414663786423   0.23386414663786423
1.8353842437677488   0.17287643634067898   0.09192077647143071
1.8353842437677488   0.17287643634067898   0.09192077647143071
1.8353842437677488   0.17287643634067898   0.09192077647143071
1.8353842437677488   0.17287643634067898   0.09192077647143071
1.9214471049998865   0.4803617762499716   0.4803617762499716
1.9214471049998865   0.4803617762499716   0.4803617762499716
1.9214471049998865   0.4803617762499716   0.4803617762499716
1.9214471049998865   0.4803617762499716   0.4803617762499716
0.8345691311682869   -0.02596455895630609   0.006767941008422325
0.8345691311682869   -0.02596455895630609   0.006767941008422325
0.8345691311682869   -0.02596455895630609   0.006767941008422325
0.8345691311682869   -0.02596455895630609   0.006767941008422325
1.340813739585426   0.20127686177545   0.07475853016115946
1.340813739585426   0.20127686177545   0.07475853016115946
1.340813739585426   0.20127686177545   0.07475853016115946
1.340813739585426   0.20127686177545   0.07475853016115946
0.9315649497309596   0.2328912374327399   0.2328912374327399
0.9315649497309596   0.2328912374327399   0.2328912374327399
0.9315649497309596   0.2328912374327399   0.2328912374327399
0.9315649497309596   0.2328912374327399   0.2328912374327399
1.7764239703713178   0.1734786637950349   0.06212921556209461
1.7764239703713178   0.1734786637950349   0.06212921556209461
1.7764239703713178   0.1734786637950349   0.06212921556209461
1.7764239703713178   0.1734786637950349   0.06212921556209461
1.8334954065098605   0.45837385162746513   0.45837385162746513
1.8334954065098605   0.45837385162746513   0.45837385162746513
1.8334954065098605   0.45837385162746513   0.45837385162746513
1.8334954065098605   0.45837385162746513   0.45837385162746513
0.8655697830849702   0.02754268460445211   0.026580379779598165
0.8655697830849702   0.02754268460445211   0.026580379779598165
0.8655697830849702   0.02754268460445211   0.026580379779598165
0.8655697830849702   0.02754268460445211   0.026580379779598165
1.2840030605289654   0.2182813733556645   -0.01965187225269153
1.2840030605289654   0.2182813733556645   -0.01965187225269153
1.2840030605289654   0.2182813733556645   -0.01965187225269153
1.2840030605289654   0.2182813733556645   -0.01965187225269153
-1.8777750725156808   -0.13448224013160903   0.02132106398192063
-1.8777750725156808   -0.13448224013160903   0.02132106398192063
-1.8777750725156808   -0.13448224013160903   0.02132106398192063
-1.8777750725156808   -0.13448224013160903   0.02132106398192063
-1.1954116186840076   -0.027749940592620814   -0.007794724236040565
-1.1954116186840076   -0.027749940592620814   -0.007794724236040565
-1.1954116186840076   -0.027749940592620814   -0.007794724236040565
-1.1954116186840076   -0.027749940592620814   -0.007794724236040565
-1.2033682882615564   0.04865210851931567   0.025247161583317607
-1.2033682882615564   0.04865210851931567   0.025247161583317607
-1.2033682882615564   0.04865210851931567   0.025247161583317607
-1.2033682882615564   0.04865210851931567   0.025247161583317607
-1.905660156170994   -0.13008262293654943   -0.02264567519498599
-1.905660156170994   -0.13008262293654943   -0.02264567519498599
-1.905660156170994   -0.13008262293654943   -0.02264567519498599
-1.905660156170994   -0.13008262293654943   -0.02264567519498599
-1.4847529206220915   -0.05076007275000627   -0.005979174831109227
-1.4847529206220915   -0.05076007275000627   -0.005979174831109227
-1.4847529206220915   -0.05076007275000627   -0.005979174831109227
-1.4847529206220915   -0.05076007275000627   -0.005979174831109227
-1.8917250759704727   -0.09223271730409732   0.009179820175169023
-1.8917250759704727   -0.09223271730409732   0.009179820175169023
-1.8917250759704727   -0.09223271730409732   0.009179820175169023
-1.8917250759704727   -0.09223271730409732   0.009179820175169023
-1.219294172716719   0.008811398632227074   -0.014541550805386008
-1.219294172716719   0.008811398632227074   -0.014541550805386008
-1.219294172716719   0.008811398632227074   -0.014541550805386008
-1.219294172716719   0.008811398632227074   -0.014541550805386008
-1.2047250322420875   0.06938320334148179   0.02871685683620122
-1.2047250322420875   0.06938320334148179   0.02871685683620122
-1.2047250322420875   0.06938320334148179   0.02871685683620122
-1.2047250322420875   0.06938320334148179   0.02871685683620122
-1.9171031772367915   -0.11455121912988492   -0.029886905928844035
-1.9171031772367915   -0.11455121912988492   -0.029886905928844035
-1.9171031772367915   -0.11455121912988492   -0.029886905928844035
-1.9171031772367915   -0.11455121912988492   -0.029886905928844035
-1.526350579836185   -0.03394990891432703   -0.014520121565139085
-1.526350579836185   -0.03394990891432703   -0.014520121565139085
-1.526350579836185   -0.03394990891432703   -0.014520121565139085
-1.526350579836185   -0.03394990891432703   -0.014520121565139085
-1.882593734558314   -0.05526007568522995   0.08336916401886894
-1.882593734558314   -0.05526007568522995   0.08336916401886894
-1.882593734558314   -0.05526007568522995   0.08336916401886894
-1.882593734558314   -0.05526007568522995   0.08336916401886894
-1.224880642280386   0.024445892537004243   -0.027123882550803988
-1.224880642280386   0.024445892537004243   -0.027123882550803988
-1.224880642280386   0.024445892537004243   -0.027123882550803988
-1.224880642280386   0.024445892537004243   -0.027123882550803988
-1.182724538950896   0.12093607565846054   0.05208255083100982
-1.182724538950896   0.12093607565846054   0.05208255083100982
-1.182724538950896   0.12093607565846054   0.05208255083100982
-1.182724538950896   0.12093607565846054   0.05208255083100982
-1.8639585124037736   -0.0923608927316274   -0.04885021999998415
-1.8639585124037736   -0.0923608927316274   -0.04885021999998415
-1.8639585124037736   -0.0923608927316274   -0.04885021999998415
-1.8639585124037736   -0.0923608927316274   -0.04885021999998415
-1.4678562069094099   0.01376313716901878   0.03255826098920392
-1.4678562069094099   0.01376313716901878   0.03255826098920392
-1.4678562069094099   0.01376313716901878   0.03255826098920392
-1.4678562069094099   0.01376313716901878   0.03255826098920392
-1.2250573024971867   -0.16246001743907124   -0.021313066455485818
-1.2250573024971867   -0.16246001743907124   -0.021313066455485818
-1.2250573024971867   -0.16246001743907124   -0.021313066455485818
-1.2250573024971867   -0.16246001743907124   -0.021313066455485818
-0.5646010242290194   -0.012663300638515868   0.005966008995392777
-0.5646010242290194   -0.012663300638515868   0.005966008995392777
-0.5646010242290194   -0.012663300638515868   0.005966008995392777
-0.5646010242290194   -0.012663300638515868   0.005966008995392777
-0.5727796495314461   0.010823686989911957   0.008591956350752064
-0.5727796495314461   0.010823686989911957   0.008591956350752064
-0.5727796495314461   0.010823686989911957   0.008591956350752064
-0.5727796495314461   0.010823686989911957   0.008591956350752064
-1.2492886213386634   -0.11890188219537817   -0.036800513087523204
-1.2492886213386634   -0.11890188219537817   -0.036800513087523204
-1.2492886213386634   -0.11890188219537817   -0.036800513087523204
-1.2492886213386634   -0.11890188219537817   -0.036800513087523204
-0.9029149696040238   -0.07336420878227119   -0.020743653997924157
-0.9029149696040238   -0.07336420878227119   -0.020743653997924157
-0.9029149696040238   -0.07336420878227119   -0.020743653997924157
-0.9029149696040238   -0.07336420878227119   -0.020743653997924157
-1.248096144690543   -0.1299216714337657   -0.01981834060853939
-1.248096144690543   -0.1299216714337657   -0.01981834060853939
-1.248096144690543   -0.1299216714337657   -0.01981834060853939
-1.248096144690543   -0.1299216714337657   -0.01981834060853939
-0.5717474952828554   0.024068107125010507   0.0005083074586122865
-0.5717474952828554   0.024068107125010507   0.0005083074586122865
-0.5717474952828554   0.024068107125010507   0.0005083074586122865
-0.5717474952828554   0.024068107125010507   0.0005083074586122865
-0.5705537647773005   0.03978593640618991   0.011634573342611323
-0.5705537647773005   0.03978593640618991   0.011634573342611323
-0.5705537647773005   0.03978593640618991   0.011634573342611323
-0.5705537647773005   0.03978593640618991   0.011634573342611323
-1.2497254651093421   -0.0870933459568626   -0.039808758201729
-1.2497254651093421   -0.0870933459568626   -0.039808758201729
-1.2497254651093421   -0.0870933459568626   -0.039808758201729
-1.2497254651093421   -0.0870933459568626   -0.039808758201729
-0.901095982618983   -0.04081232262279899   -0.009865143754941852
-0.901095982618983   -0.04081232262279899   -0.009865143754941852
-0.901095982618983   -0.04081232262279899   -0.009865143754941852
-0.901095982618983   -0.04081232262279899   -0.009865143754941852
-1.2448250441466309   -0.09822936167100443   -0.004170637674030156
-1.2448250441466309   -0.09822936167100443   -0.004170637674030156
-1.2448250441466309   -0.09822936167100443   -0.004170637674030156
-1.2448250441466309   -0.09822936167100443   -0.004170637674030156
-0.5713223518290123   0.05505378603133368   -0.007476211541081183
-0.5713223518290123   0.05505378603133368   -0.007476211541081183
-0.5713223518290123   0.05505378603133368   -0.007476211541081183
-0.5713223518290123   0.05505378603133368   -0.007476211541081183
-0.5609344728065732   0.06887166274224349   0.023321869305813536
-0.5609344728065732   0.06887166274224349   0.023321869305813536
-0.5609344728065732   0.06887166274224349   0.023321869305813536
-0.5609344728065732   0.06887166274224349   0.023321869305813536
-1.236267886957775   -0.05033966962604025   -0.0443584439188911
-1.236267886957775   -0.05033966962604025   -0.0443584439188911
-1.236267886957775   -0.05033966962604025   -0.0443584439188911
-1.236267886957775   -0.05033966962604025   -0.0443584439188911
-0.8972581617176062   -0.010006686004324666   0.0045008487888311965
-0.8972581617176062   -0.010006686004324666   0.0045008487888311965
-0.8972581617176062   -0.010006686004324666   0.0045008487888311965
-0.8972581617176062   -0.010006686004324666   0.0045008487888311965
-0.5953371891592039   -0.13524485610105724   -0.025133260192993532
-0.5953371891592039   -0.13524485610105724   -0.025133260192993532
-0.5953371891592039   -0.13524485610105724   -0.025133260192993532
-0.5953371891592039   -0.13524485610105724   -0.025133260192993532
0.06131029563326967   0.013932253786913654   0.023191852704885076
0.06131029563326967   0.013932253786913654   0.023191852704885076
0.06131029563326967   0.013932253786913654   0.023191852704885076
0.06131029563326967   0.013932253786913654   0.023191852704885076
0.0585708810100237   0.0340241237157374   0.0018700870111912331
0.0585708810100237   0.0340241237157374   0.0018700870111912331
0.0585708810100237   0.0340241237157374   0.0018700870111912331
0.0585708810100237   0.0340241237157374   0.0018700870111912331
-0.5977866108460088   -0.08956726252653943   -0.01605190070560982
-0.5977866108460088   -0.08956726252653943   -0.01605190070560982
-0.5977866108460088   -0.08956726252653943   -0.01605190070560982
-0.5977866108460088   -0.08956726252653943   -0.01605190070560982
-0.27090679760161046   -0.044870309463292686   -0.008594193202710767
-0.27090679760161046   -0.044870309463292686   -0.008594193202710767
-0.27090679760161046   -0.044870309463292686   -0.008594193202710767
-0.27090679760161046   -0.044870309463292686   -0.008594193202710767
-0.6019241787972187   -0.10309192187132397   -0.023215081116875102
-0.6019241787972187   -0.10309192187132397   -0.023215081116875102
-0.6019241787972187   -0.10309192187132397   -0.023215081116875102
-0.6019241787972187   -0.10309192187132397   -0.023215081116875102
0.06500110611315693   0.04984144021244487   0.01820389603014986
0.06500110611315693   0.04984144021244487   0.01820389603014986
0.06500110611315693   0.04984144021244487   0.01820389603014986
0.06500110611315693   0.04984144021244487   0.01820389603014986
0.06331876552131746   0.06589232743338741   0.010772671771245095
0.06331876552131746   0.06589232743338741   0.010772671771245095
0.06331876552131746   0.06589232743338741   0.010772671771245095
0.06331876552131746   0.06589232743338741   0.010772671771245095
-0.5957681636847802   -0.05461836428485255   -0.020033120503745293
-0.5957681636847802   -0.05461836428485255   -0.020033120503745293
-0.5957681636847802   -0.05461836428485255   -0.020033120503745293
-0.5957681636847802   -0.05461836428485255   -0.020033120503745293
-0.266590063911781   -0.011008394613973932   0.003168319378581131
-0.266590063911781   -0.011008394613973932   0.003168319378581131
-0.266590063911781   -0.011008394613973932   0.003168319378581131
-0.266590063911781   -0.011008394613973932   0.003168319378581131
-0.5973730543374135   -0.07077979875246718   -0.011896139299296884
-0.5973730543374135   -0.07077979875246718   -0.011896139299296884
-0.5973730543374135   -0.07077979875246718   -0.011896139299296884
-0.5973730543374135   -0.07077979875246718   -0.011896139299296884
0.06739138580581598   0.08452149153286727   0.012506609094257496
0.06739138580581598   0.08452149153286727   0.012506609094257496
0.06739138580581598   0.08452149153286727   0.012506609094257496
0.06739138580581598   0.08452149153286727   0.012506609094257496
0.0648805099421273   0.10133686951262975   0.017718259642685585
0.0648805099421273   0.10133686951262975   0.017718259642685585
0.0648805099421273   0.10133686951262975   0.017718259642685585
0.0648805099421273   0.10133686951262975   0.017718259642685585
-0.5878759361520652   -0.017263415889535727   -0.025250368789865654
-0.5878759361520652   -0.017263415889535727   -0.025250368789865654
-0.5878759361520652   -0.017263415889535727   -0.025250368789865654
-0.5878759361520652   -0.017263415889535727   -0.025250368789865654
-0.25982467256183067   0.024403064076871372   0.0160456027240977
-0.25982467256183067   0.024403064076871372   0.0160456027240977
-0.25982467256183067   0.024403064076871372   0.0160456027240977
-0.25982467256183067   0.024403064076871372   0.0160456027240977
0.02787060775345495   -0.09916628377000407   -0.030908049137270813
0.02787060775345495   -0.09916628377000407   -0.030908049137270813
0.02787060775345495   -0.09916628377000407   -0.030908049137270813
0.02787060775345495   -0.09916628377000407   -0.030908049137270813
0.7081456133130765   0.048824385405264695   0.042592375748812444
0.7081456133130765   0.048824385405264695   0.042592375748812444
0.7081456133130765   0.048824385405264695   0.042592375748812444
0.7081456133130765   0.048824385405264695   0.042592375748812444
0.7073742699700261   0.06583854811926651   -0.006828985773047892
0.7073742699700261   0.06583854811926651   -0.006828985773047892
0.7073742699700261   0.06583854811926651   -0.006828985773047892
0.7073742699700261   0.06583854811926651   -0.006828985773047892
0.04035105388341694   -0.059515398753030795   0.004310473846925636
0.04035105388341694   -0.059515398753030795   0.004310473846925636
0.04035105388341694   -0.059515398753030795   0.004310473846925636
0.04035105388341694   -0.059515398753030795   0.004310473846925636
0.36635891715085006   -0.008536131161033633   0.0007466186139191838
0.36635891715085006   -0.008536131161033633   0.0007466186139191838
0.36635891715085006   -0.008536131161033633   0.0007466186139191838
0.36635891715085006   -0.008536131161033633   0.0007466186139191838
0.03228558331075738   -0.07243320634321511   -0.023099071426187424
0.03228558331075738   -0.07243320634321511   -0.023099071426187424
0.03228558331075738   -0.07243320634321511   -0.023099071426187424
0.03228558331075738   -0.07243320634321511   -0.023099071426187424
0.719565736638408   0.0828823518051717   0.03708454388295094
0.719565736638408   0.0828823518051717   0.03708454388295094
0.719565736638408   0.0828823518051717   0.03708454388295094
0.719565736638408   0.0828823518051717   0.03708454388295094
0.7130923228820666   0.09736354195046423   0.007138199532532322
0.7130923228820666   0.09736354195046423   0.007138199532532322
0.7130923228820666   0.09736354195046423   0.007138199532532322
0.7130923228820666   0.09736354195046423   0.007138199532532322
0.04192387829480791   -0.028274666126588594   -0.002034770801326637
0.04192387829480791   -0.028274666126588594   -0.002034770801326637
0.04192387829480791   -0.028274666126588594   -0.002034770801326637
0.04192387829480791   -0.028274666126588594   -0.002034770801326637
0.3713797832620795   0.021593890730396297   0.015203589186749836
0.3713797832620795   0.021593890730396297   0.015203589186749836
0.3713797832620795   0.021593890730396297   0.015203589186749836
0.3713797832620795   0.021593890730396297   0.015203589186749836
0.03603757887245618   -0.042852694638249186   -0.01688823940142442
0.03603757887245618   -0.042852694638249186   -0.01688823940142442
0.03603757887245618   -0.042852694638249186   -0.01688823940142442
0.03603757887245618   -0.042852694638249186   -0.01688823940142442
0.7219652639657634   0.1149282121234673   0.033938234778001126
0.7219652639657634   0.1149282121234673   0.033938234778001126
0.7219652639657634   0.1149282121234673   0.033938234778001126
0.7219652639657634   0.1149282121234673   0.033938234778001126
0.701751870638856   0.1337450083033704   0.015057262030159356
0.701751870638856   0.1337450083033704   0.015057262030159356
0.701751870638856   0.1337450083033704   0.015057262030159356
0.701751870638856   0.1337450083033704   0.015057262030159356
0.04165584798300271   0.010397180113809227   -0.007465360754116766
0.04165584798300271   0.010397180113809227   -0.007465360754116766
0.04165584798300271   0.010397180113809227   -0.007465360754116766
0.04165584798300271   0.010397180113809227   -0.007465360754116766
0.3769994526056858   0.05603590056150639   0.028591880012109674
0.3769994526056858   0.05603590056150639   0.028591880012109674
0.3769994526056858   0.05603590056150639   0.028591880012109674
0.3769994526056858   0.05603590056150639   0.028591880012109674
0.6522363211787197   -0.130921178635454   -0.05720852088225317
0.6522363211787197   -0.130921178635454   -0.05720852088225317
0.6522363211787197   -0.130921178635454   -0.05720852088225317
0.6522363211787197   -0.130921178635454   -0.05720852088225317
1.3434928971643583   0.08874560604556908   0.04158102104800014
1.3434928971643583   0.08874560604556908   0.04158102104800014
1.3434928971643583   0.08874560604556908   0.04158102104800014
1.3434928971643583   0.08874560604556908   0.04158102104800014
1.3588296401821358   0.041967953991036366   -0.08606703169116758
1.3588296401821358   0.041967953991036366   -0.08606703169116758
1.3588296401821358   0.041967953991036366   -0.08606703169116758
1.3588296401821358   0.041967953991036366   -0.08606703169116758
0.6952072470398513   -0.02672114809815157   0.024895595793484146
0.6952072470398513   -0.02672114809815157   0.024895595793484146
0.6952072470398513   -0.02672114809815157   0.024895595793484146
0.6952072470398513   -0.02672114809815157   0.024895595793484146
0.962089634138139   -0.016905224828672544   -0.02414273113075386
0.962089634138139   -0.016905224828672544   -0.02414273113075386
0.962089634138139   -0.016905224828672544   -0.02414273113075386
0.962089634138139   -0.016905224828672544   -0.02414273113075386
0.6707644135727782   -0.08603302410050503   -0.03800669553951883
0.6707644135727782   -0.08603302410050503   -0.03800669553951883
0.6707644135727782   -0.08603302410050503   -0.03800669553951883
0.6707644135727782   -0.08603302410050503   -0.03800669553951883
1.3956307935191823   0.1136381498633649   0.026268539121735462
1.3956307935191823   0.1136381498633649   0.026268539121735462
1.3956307935191823   0.1136381498633649   0.026268539121735462
1.3956307935191823   0.1136381498633649   0.026268539121735462
1.373993429191019   0.0766460184418182   -0.019603470023688167
1.373993429191019   0.0766460184418182   -0.019603470023688167
1.373993429191019   0.0766460184418182   -0.019603470023688167
1.373993429191019   0.0766460184418182   -0.019603470023688167
0.6925408615452326   -0.0111322197537225   0.012876654552537031
0.6925408615452326   -0.0111322197537225   0.012876654552537031
0.6925408615452326   -0.0111322197537225   0.012876654552537031
0.6925408615452326   -0.0111322197537225   0.012876654552537031
1.01266173721441   0.02530634771074064   0.016658979758338258
1.01266173721441   0.02530634771074064   0.016658979758338258
1.01266173721441   0.02530634771074064   0.016658979758338258
1.01266173721441   0.02530634771074064   0.016658979758338258
0.6729149475533169   -0.0657716757609465   -0.030613459399811666
0.6729149475533169   -0.0657716757609465   -0.030613459399811666
0.6729149475533169   -0.0657716757609465   -0.030613459399811666
0.6729149475533169   -0.0657716757609465   -0.030613459399811666
1.3919943306822806   0.12966046194838937   0.017386593926048577
1.3919943306822806   0.12966046194838937   0.017386593926048577
1.3919943306822806   0.12966046194838937   0.017386593926048577
1.3919943306822806   0.12966046194838937   0.017386593926048577
1.3719152479799601   0.1175021346796811   -0.029967834739248488
1.3719152479799601   0.1175021346796811   -0.029967834739248488
1.3719152479799601   0.1175021346796811   -0.029967834739248488
1.3719152479799601   0.1175021346796811   -0.029967834739248488
0.6783810091841704   0.02476018471925044   0.007187778340839165
0.6783810091841704   0.02476018471925044   0.007187778340839165
0.6783810091841704   0.02476018471925044   0.007187778340839165
0.6783810091841704   0.02476018471925044   0.007187778340839165
0.9869205808670256   0.04442554306210297   0.012409565057958545
0.9869205808670256   0.04442554306210297   0.012409565057958545
0.9869205808670256   0.04442554306210297   0.012409565057958545
0.9869205808670256   0.04442554306210297   0.012409565057958545
-1.4750406730392978   -0.06689360147160126   0.0761160257243437
-1.4750406730392978   -0.06689360147160126   0.0761160257243437
-1.4750406730392978   -0.06689360147160126   0.0761160257243437
-1.4750406730392978   -0.06689360147160126   0.0761160257243437
-0.9798817810725354   -0.0373456950038632   -0.019805566914897856
-0.9798817810725354   -0.0373456950038632   -0.019805566914897856
-0.9798817810725354   -0.0373456950038632   -0.019805566914897856
-0.9798817810725354   -0.0373456950038632   -0.019805566914897856
-0.944446530388535   0.0794571807992242   0.06383971770142295
-0.944446530388535   0.0794571807992242   0.06383971770142295
-0.944446530388535   0.0794571807992242   0.06383971770142295
-0.944446530388535   0.0794571807992242   0.06383971770142295
-1.4817968608311507   -0.10583179751403254   -0.03102245350421097
-1.4817968608311507   -0.10583179751403254   -0.03102245350421097
-1.4817968608311507   -0.10583179751403254   -0.03102245350421097
-1.4817968608311507   -0.10583179751403254   -0.03102245350421097
-1.1707603575273817   -0.018099908678907983   -0.0022418091397931883
-1.1707603575273817   -0.018099908678907983   -0.0022418091397931883
-1.1707603575273817   -0.018099908678907983   -0.0022418091397931883
-1.1707603575273817   -0.018099908678907983   -0.0022418091397931883
-1.4404670905080197   -0.015463295537895771   0.08525789613530778
-1.4404670905080197   -0.015463295537895771   0.08525789613530778
-1.4404670905080197   -0.015463295537895771   0.08525789613530778
-1.4404670905080197   -0.015463295537895771   0.08525789613530778
-0.9792686837853163   -0.004403704250562801   -0.02641016423269678
-0.9792686837853163   -0.004403704250562801   -0.02641016423269678
-0.9792686837853163   -0.004403704250562801   -0.02641016423269678
-0.9792686837853163   -0.004403704250562801   -0.02641016423269678
-0.9405449086560655   0.09856981273759252   0.05915998482781702
-0.9405449086560655   0.09856981273759252   0.05915998482781702
-0.9405449086560655   0.09856981273759252   0.05915998482781702
-0.9405449086560655   0.09856981273759252   0.05915998482781702
-1.4587426277451174   -0.08850150790612685   -0.04246186194912787
-1.4587426277451174   -0.08850150790612685   -0.04246186194912787
-1.4587426277451174   -0.08850150790612685   -0.04246186194912787
-1.4587426277451174   -0.08850150790612685   -0.04246186194912787
-1.1731659622854673   0.004354379905099681   0.013481638092820242
-1.1731659622854673   0.004354379905099681   0.013481638092820242
-1.1731659622854673   0.004354379905099681   0.013481638092820242
-1.1731659622854673   0.004354379905099681   0.013481638092820242
-1.4202609323794242   0.0025696936849994856   0.05887541328821071
-1.4202609323794242   0.0025696936849994856   0.05887541328821071
-1.4202609323794242   0.0025696936849994856   0.05887541328821071
-1.4202609323794242   0.0025696936849994856   0.05887541328821071
-0.9768824480472059   0.009642767121020135   -0.03360066651130441
-0.9768824480472059   0.009642767121020135   -0.03360066651130441
-0.9768824480472059   0.009642767121020135   -0.03360066651130441
-0.9768824480472059   0.009642767121020135   -0.03360066651130441
-0.9414100428121542   0.11130735099352251   0.046942529034145836
-0.9414100428121542   0.11130735099352251   0.046942529034145836
-0.9414100428121542   0.11130735099352251   0.046942529034145836
-0.9414100428121542   0.11130735099352251   0.046942529034145836
-1.428845788695933   -0.07006055195378136   -0.05413636814755894
-1.428845788695933   -0.07006055195378136   -0.05413636814755894
-1.428845788695933   -0.07006055195378136   -0.05413636814755894
-1.428845788695933   -0.07006055195378136   -0.05413636814755894
-1.1393751832127685   0.024474761752151797   0.028123351030968344
-1.1393751832127685   0.024474761752151797   0.028123351030968344
-1.1393751832127685   0.024474761752151797   0.028123351030968344
-1.1393751832127685   0.024474761752151797   0.028123351030968344
-0.982751340202122   -0.09315531428796205   0.021656256721268304
-0.982751340202122   -0.09315531428796205   0.021656256721268304
-0.982751340202122   -0.09315531428796205   0.021656256721268304
-0.982751340202122   -0.09315531428796205   0.021656256721268304
-0.49656087868059834   -0.018021301430347386   0.000939041377547082
-0.49656087868059834   -0.018021301430347386   0.000939041377547082
-0.49656087868059834   -0.018021301430347386   0.000939041377547082
-0.49656087868059834   -0.018021301430347386   0.000939041377547082
-0.4824209704980307   0.04876946517094974   0.034688572903483636
-0.4824209704980307   0.04876946517094974   0.034688572903483636
-0.4824209704980307   0.04876946517094974   0.034688572903483636
-0.4824209704980307   0.04876946517094974   0.034688572903483636
-0.9983604416141836   -0.09186708133762511   -0.034405576289979874
-0.9983604416141836   -0.09186708133762511   -0.034405576289979874
-0.9983604416141836   -0.09186708133762511   -0.034405576289979874
-0.9983604416141836   -0.09186708133762511   -0.034405576289979874
-0.7374043055035123   -0.0361869101929331   -0.014981635536653569
-0.7374043055035123   -0.0361869101929331   -0.014981635536653569
-0.7374043055035123   -0.0361869101929331   -0.014981635536653569
-0.7374043055035123   -0.0361869101929331   -0.014981635536653569
-0.9795979699036896   -0.053413090921587525   0.020952791846456195
-0.9795979699036896   -0.053413090921587525   0.020952791846456195
-0.9795979699036896   -0.053413090921587525   0.020952791846456195
-0.9795979699036896   -0.053413090921587525   0.020952791846456195
-0.49738439178020066   0.014114525183237359   -0.005473593519650384
-0.49738439178020066   0.014114525183237359   -0.005473593519650384
-0.49738439178020066   0.014114525183237359   -0.005473593519650384
-0.49738439178020066   0.014114525183237359   -0.005473593519650384
-0.4808455394186573   0.08064521485719794   0.030004120177889025
-0.4808455394186573   0.08064521485719794   0.030004120177889025
-0.4808455394186573   0.08064521485719794   0.030004120177889025
-0.4808455394186573   0.08064521485719794   0.030004120177889025
-0.9926410302880053   -0.06212243159263958   -0.040628379001649534
-0.9926410302880053   -0.06212243159263958   -0.040628379001649534
-0.9926410302880053   -0.06212243159263958   -0.040628379001649534
-0.9926410302880053   -0.06212243159263958   -0.040628379001649534
-0.7293023711892561   -0.0039500818933689286   -7.55922429033773e-05
-0.7293023711892561   -0.0039500818933689286   -7.55922429033773e-05
-0.7293023711892561   -0.0039500818933689286   -7.55922429033773e-05
-0.7293023711892561   -0.0039500818933689286   -7.55922429033773e-05
-0.9734963629370459   -0.021076057208296056   0.014048583368803776
-0.9734963629370459   -0.021076057208296056   0.014048583368803776
-0.9734963629370459   -0.021076057208296056   0.014048583368803776
-0.9734963629370459   -0.021076057208296056   0.014048583368803776
-0.4968970016195592   0.04269204562291398   -0.012300021592327598
-0.4968970016195592   0.04269204562291398   -0.012300021592327598
-0.4968970016195592   0.04269204562291398   -0.012300021592327598
-0.4968970016195592   0.04269204562291398   -0.012300021592327598
-0.48065671768103885   0.11414946315576602   0.02247605071340015
-0.48065671768103885   0.11414946315576602   0.02247605071340015
-0.48065671768103885   0.11414946315576602   0.02247605071340015
-0.48065671768103885   0.11414946315576602   0.02247605071340015
-0.9878064533071694   -0.030015126216592164   -0.04371704623081957
-0.9878064533071694   -0.030015126216592164   -0.04371704623081957
-0.9878064533071694   -0.030015126216592164   -0.04371704623081957
-0.9878064533071694   -0.030015126216592164   -0.04371704623081957
-0.7297199672930177   0.025627379035613518   0.011324149992247165
-0.7297199672930177   0.025627379035613518   0.011324149992247165
-0.7297199672930177   0.025627379035613518   0.011324149992247165
-0.7297199672930177   0.025627379035613518   0.011324149992247165
-0.5150352801644351   -0.10655507117333514   -0.0028991962986542174
-0.5150352801644351   -0.10655507117333514   -0.0028991962986542174
-0.5150352801644351   -0.10655507117333514   -0.0028991962986542174
-0.5150352801644351   -0.10655507117333514   -0.0028991962986542174
-0.01769673645926372   0.005182654849469657   0.021991102187568428
-0.01769673645926372   0.005182654849469657   0.021991102187568428
-0.01769673645926372   0.005182654849469657   0.021991102187568428
-0.01769673645926372   0.005182654849469657   0.021991102187568428
-0.019534975610465175   0.03139657729316828   0.01051566315738903
-0.019534975610465175   0.03139657729316828   0.01051566315738903
-0.019534975610465175   0.03139657729316828   0.01051566315738903
-0.019534975610465175   0.03139657729316828   0.01051566315738903
-0.5153346100482947   -0.06824892922247033   -0.012861230454416794
-0.5153346100482947   -0.06824892922247033   -0.012861230454416794
-0.5153346100482947   -0.06824892922247033   -0.012861230454416794
-0.5153346100482947   -0.06824892922247033   -0.012861230454416794
-0.26772127687330877   -0.033431298144059596   -0.00839423461557334
-0.26772127687330877   -0.033431298144059596   -0.00839423461557334
-0.26772127687330877   -0.033431298144059596   -0.00839423461557334
-0.26772127687330877   -0.033431298144059596   -0.00839423461557334
-0.5147793576604732   -0.07118517607988858   -0.007148721657891094
-0.5147793576604732   -0.07118517607988858   -0.007148721657891094
-0.5147793576604732   -0.07118517607988858   -0.007148721657891094
-0.5147793576604732   -0.07118517607988858   -0.007148721657891094
-0.017258873118533455   0.03716417903034044   0.01612857387987573
-0.017258873118533455   0.03716417903034044   0.01612857387987573
-0.017258873118533455   0.03716417903034044   0.01612857387987573
-0.017258873118533455   0.03716417903034044   0.01612857387987573
-0.017137649957651168   0.06612076449585645   0.005032009672670557
-0.017137649957651168   0.06612076449585645   0.005032009672670557
-0.017137649957651168   0.06612076449585645   0.005032009672670557
-0.017137649957651168   0.06612076449585645   0.005032009672670557
-0.5139894972736638   -0.03621077882079178   -0.018859675419148857
-0.5139894972736638   -0.03621077882079178   -0.018859675419148857
-0.5139894972736638   -0.03621077882079178   -0.018859675419148857
-0.5139894972736638   -0.03621077882079178   -0.018859675419148857
-0.26507498286152664   -0.0013291708155361431   0.003651888436043275
-0.26507498286152664   -0.0013291708155361431   0.003651888436043275
-0.26507498286152664   -0.0013291708155361431   0.003651888436043275
-0.26507498286152664   -0.0013291708155361431   0.003651888436043275
-0.5132172865364989   -0.03695287072105864   -0.01425652983305718
-0.5132172865364989   -0.03695287072105864   -0.01425652983305718
-0.5132172865364989   -0.03695287072105864   -0.01425652983305718
-0.5132172865364989   -0.03695287072105864   -0.01425652983305718
-0.015572298329994235   0.06920041876094525   0.009779113545866674
-0.015572298329994235   0.06920041876094525   0.009779113545866674
-0.015572298329994235   0.06920041876094525   0.009779113545866674
-0.015572298329994235   0.06920041876094525   0.009779113545866674
-0.016589814284665064   0.10188030874566145   -0.000817867481279877
-0.016589814284665064   0.10188030874566145   -0.000817867481279877
-0.016589814284665064   0.10188030874566145   -0.000817867481279877
-0.016589814284665064   0.10188030874566145   -0.000817867481279877
-0.5136925001614413   -0.0036298900896345188   -0.024923508443213713
-0.5136925001614413   -0.0036298900896345188   -0.024923508443213713
-0.5136925001614413   -0.0036298900896345188   -0.024923508443213713
-0.5136925001614413   -0.0036298900896345188   -0.024923508443213713
-0.26300896164840576   0.030803684031830966   0.01469927590482031
-0.26300896164840576   0.030803684031830966   0.01469927590482031
-0.26300896164840576   0.030803684031830966   0.01469927590482031
-0.26300896164840576   0.030803684031830966   0.01469927590482031
-0.051584950292486144   -0.11674472074285425   -0.02552259138621967
-0.051584950292486144   -0.11674472074285425   -0.02552259138621967
-0.051584950292486144   -0.11674472074285425   -0.02552259138621967
-0.051584950292486144   -0.11674472074285425   -0.02552259138621967
0.45928648285612766   0.032331969371427766   0.04181368652675737
0.45928648285612766   0.032331969371427766   0.04181368652675737
0.45928648285612766   0.032331969371427766   0.04181368652675737
0.45928648285612766   0.032331969371427766   0.04181368652675737
0.4442503533087373   0.017095891350027537   -0.016532375063103025
0.4442503533087373   0.017095891350027537   -0.016532375063103025
0.4442503533087373   0.017095891350027537   -0.016532375063103025
0.4442503533087373   0.017095891350027537   -0.016532375063103025
-0.0346504087575069   -0.04269063503556377   0.009025709750912726
-0.0346504087575069   -0.04269063503556377   0.009025709750912726
-0.0346504087575069   -0.04269063503556377   0.009025709750912726
-0.0346504087575069   -0.04269063503556377   0.009025709750912726
0.20142793275718776   -0.027078326567746502   -0.004745763542132651
0.20142793275718776   -0.027078326567746502   -0.004745763542132651
0.20142793275718776   -0.027078326567746502   -0.004745763542132651
0.20142793275718776   -0.027078326567746502   -0.004745763542132651
-0.05135611453788249   -0.08513134836998532   -0.03206210581654367
-0.05135611453788249   -0.08513134836998532   -0.03206210581654367
-0.05135611453788249   -0.08513134836998532   -0.03206210581654367
-0.05135611453788249   -0.08513134836998532   -0.03206210581654367
0.4641765811602616   0.06275712675559719   0.037437528788949063
0.4641765811602616   0.06275712675559719   0.037437528788949063
0.4641765811602616   0.06275712675559719   0.037437528788949063
0.4641765811602616   0.06275712675559719   0.037437528788949063
0.45150726415254344   0.04940441771892977   -0.023222737431470356
0.45150726415254344   0.04940441771892977   -0.023222737431470356
0.45150726415254344   0.04940441771892977   -0.023222737431470356
0.45150726415254344   0.04940441771892977   -0.023222737431470356
-0.03364065048761689   -0.013984675901076717   0.002622447419775614
-0.03364065048761689   -0.013984675901076717   0.002622447419775614
-0.03364065048761689   -0.013984675901076717   0.002622447419775614
-0.03364065048761689   -0.013984675901076717   0.002622447419775614
0.2032578275139007   0.0019720230768132466   0.007227225066189858
0.2032578275139007   0.0019720230768132466   0.007227225066189858
0.2032578275139007   0.0019720230768132466   0.007227225066189858
0.2032578275139007   0.0019720230768132466   0.007227225066189858
-0.049889242545608656   -0.053959478240549495   -0.03864571053071078
-0.049889242545608656   -0.053959478240549495   -0.03864571053071078
-0.049889242545608656   -0.053959478240549495   -0.03864571053071078
-0.049889242545608656   -0.053959478240549495   -0.03864571053071078
0.4712657757686424   0.09288913961651038   0.032085098751444094
0.4712657757686424   0.09288913961651038   0.032085098751444094
0.4712657757686424   0.09288913961651038   0.032085098751444094
0.4712657757686424   0.09288913961651038   0.032085098751444094
0.455998755012274   0.08990697060730092   -0.024259315315929637
0.455998755012274   0.08990697060730092   -0.024259315315929637
0.455998755012274   0.08990697060730092   -0.024259315315929637
0.455998755012274   0.08990697060730092   -0.024259315315929637
-0.03364533680463646   0.019550338804813137   -0.003765510140288195
-0.03364533680463646   0.019550338804813137   -0.003765510140288195
-0.03364533680463646   0.019550338804813137   -0.003765510140288195
-0.03364533680463646   0.019550338804813137   -0.003765510140288195
0.21035249947366697   0.034353753084064985   0.021440360664185778
0.21035249947366697   0.034353753084064985   0.021440360664185778
0.21035249947366697   0.034353753084064985   0.021440360664185778
0.21035249947366697   0.034353753084064985   0.021440360664185778
0.41132183475394485   -0.11595027297388226   -0.049727311638843086
0.41132183475394485   -0.11595027297388226   -0.049727311638843086
0.41132183475394485   -0.11595027297388226   -0.049727311638843086
0.41132183475394485   -0.11595027297388226   -0.049727311638843086
0.9048343217174689   0.06723393383712567   0.0465556444144502
0.9048343217174689   0.06723393383712567   0.0465556444144502
0.9048343217174689   0.06723393383712567   0.0465556444144502
0.9048343217174689   0.06723393383712567   0.0465556444144502
0.8977945652585669   -0.004421205126623695   -0.06619200756759595
0.8977945652585669   -0.004421205126623695   -0.06619200756759595
0.8977945652585669   -0.004421205126623695   -0.06619200756759595
0.8977945652585669   -0.004421205126623695   -0.06619200756759595
0.448469563245987   -0.009603618964388633   0.03126318493756596
0.448469563245987   -0.009603618964388633   0.03126318493756596
0.448469563245987   -0.009603618964388633   0.03126318493756596
0.448469563245987   -0.009603618964388633   0.03126318493756596
0.633292799045704   -0.022659775580458924   -0.02080893140982027
0.633292799045704   -0.022659775580458924   -0.02080893140982027
0.633292799045704   -0.022659775580458924   -0.02080893140982027
0.633292799045704   -0.022659775580458924   -0.02080893140982027
0.41177883603745075   -0.10062063622602366   -0.06117343384347958
0.41177883603745075   -0.10062063622602366   -0.06117343384347958
0.41177883603745075   -0.10062063622602366   -0.06117343384347958
0.41177883603745075   -0.10062063622602366   -0.06117343384347958
0.9371200705166255   0.08923059018453369   0.03678372341153926
0.9371200705166255   0.08923059018453369   0.03678372341153926
0.9371200705166255   0.08923059018453369   0.03678372341153926
0.9371200705166255   0.08923059018453369   0.03678372341153926
0.9199148544364327   0.014007075188034013   -0.0888008636298806
0.9199148544364327   0.014007075188034013   -0.0888008636298806
0.9199148544364327   0.014007075188034013   -0.0888008636298806
0.9199148544364327   0.014007075188034013   -0.0888008636298806
0.45182338355928836   0.004455677836297009   0.023306599484894764
0.45182338355928836   0.004455677836297009   0.023306599484894764
0.45182338355928836   0.004455677836297009   0.023306599484894764
0.45182338355928836   0.004455677836297009   0.023306599484894764
0.6620415281326584   -0.0027297230198204125   -0.0063305745911611255
0.6620415281326584   -0.0027297230198204125   -0.0063305745911611255
0.6620415281326584   -0.0027297230198204125   -0.0063305745911611255
0.6620415281326584   -0.0027297230198204125   -0.0063305745911611255
0.41650764693530057   -0.08223122895497212   -0.06658517684377893
0.41650764693530057   -0.08223122895497212   -0.06658517684377893
0.41650764693530057   -0.08223122895497212   -0.06658517684377893
0.41650764693530057   -0.08223122895497212   -0.06658517684377893
0.9610519658705963   0.1065153567894795   0.024376411939499344
0.9610519658705963   0.1065153567894795   0.024376411939499344
0.9610519658705963   0.1065153567894795   0.024376411939499344
0.9610519658705963   0.1065153567894795   0.024376411939499344
0.955032971304802   0.06194319521602508   -0.08354913129591923
0.955032971304802   0.06194319521602508   -0.08354913129591923
0.955032971304802   0.06194319521602508   -0.08354913129591923
0.955032971304802   0.06194319521602508   -0.08354913129591923
0.453372423579892   0.03548949811589783   0.017026500013571116
0.453372423579892   0.03548949811589783   0.017026500013571116
0.453372423579892   0.03548949811589783   0.017026500013571116
0.453372423579892   0.03548949811589783   0.017026500013571116
0.6670278971298363   0.02004891218570337   0.009700900907697131
0.6670278971298363   0.02004891218570337   0.009700900907697131
0.6670278971298363   0.02004891218570337   0.009700900907697131
0.6670278971298363   0.02004891218570337   0.009700900907697131
-1.0535954761844284   -0.03434425422674403   0.06891533208259121
-1.0535954761844284   -0.03434425422674403   0.06891533208259121
-1.0535954761844284   -0.03434425422674403   0.06891533208259121
-1.0535954761844284   -0.03434425422674403   0.06891533208259121
-0.7374867272729317   -0.049345390654848775   -0.026008938026040845
-0.7374867272729317   -0.049345390654848775   -0.026008938026040845
-0.7374867272729317   -0.049345390654848775   -0.026008938026040845
-0.7374867272729317   -0.049345390654848775   -0.026008938026040845
-0.6940966354915048   0.0696633942657865   0.05875328005523821
-0.6940966354915048   0.0696633942657865   0.05875328005523821
-0.6940966354915048   0.0696633942657865   0.05875328005523821
-0.6940966354915048   0.0696633942657865   0.05875328005523821
-1.0536738020772083   -0.08674918882562033   -0.03804906401269934
-1.0536738020772083   -0.08674918882562033   -0.03804906401269934
-1.0536738020772083   -0.08674918882562033   -0.03804906401269934
-1.0536738020772083   -0.08674918882562033   -0.03804906401269934
-0.8484861749319803   -0.013504133467169166   -0.0019363643869759611
-0.8484861749319803   -0.013504133467169166   -0.0019363643869759611
-0.8484861749319803   -0.013504133467169166   -0.0019363643869759611
-0.8484861749319803   -0.013504133467169166   -0.0019363643869759611
-1.0142048820844491   0.007000298634371016   0.06554604849110533
-1.0142048820844491   0.007000298634371016   0.06554604849110533
-1.0142048820844491   0.007000298634371016   0.06554604849110533
-1.0142048820844491   0.007000298634371016   0.06554604849110533
-0.7303528764669471   -0.020873414176884236   -0.031991116379295484
-0.7303528764669471   -0.020873414176884236   -0.031991116379295484
-0.7303528764669471   -0.020873414176884236   -0.031991116379295484
-0.7303528764669471   -0.020873414176884236   -0.031991116379295484
-0.68755685796214   0.08415688207990044   0.04964431819803112
-0.68755685796214   0.08415688207990044   0.04964431819803112
-0.68755685796214   0.08415688207990044   0.04964431819803112
-0.68755685796214   0.08415688207990044   0.04964431819803112
-1.0286961165494943   -0.07059184867811241   -0.04809029872062188
-1.0286961165494943   -0.07059184867811241   -0.04809029872062188
-1.0286961165494943   -0.07059184867811241   -0.04809029872062188
-1.0286961165494943   -0.07059184867811241   -0.04809029872062188
-0.842527057024144   0.00560825028891293   0.00886075817697965
-0.842527057024144   0.00560825028891293   0.00886075817697965
-0.842527057024144   0.00560825028891293   0.00886075817697965
-0.842527057024144   0.00560825028891293   0.00886075817697965
-0.989570682851079   0.02434521473431242   0.05259980635903023
-0.989570682851079   0.02434521473431242   0.05259980635903023
-0.989570682851079   0.02434521473431242   0.05259980635903023
-0.989570682851079   0.02434521473431242   0.05259980635903023
-0.7237792914719335   -0.007877181143901818   -0.03943378612712995
-0.7237792914719335   -0.007877181143901818   -0.03943378612712995
-0.7237792914719335   -0.007877181143901818   -0.03943378612712995
-0.7237792914719335   -0.007877181143901818   -0.03943378612712995
-0.6839370655916465   0.09829212250802802   0.042718281057209054
-0.6839370655916465   0.09829212250802802   0.042718281057209054
-0.6839370655916465   0.09829212250802802   0.042718281057209054
-0.6839370655916465   0.09829212250802802   0.042718281057209054
-0.9952531723671106   -0.04922068731435578   -0.05757167122183027
-0.9952531723671106   -0.04922068731435578   -0.05757167122183027
-0.9952531723671106   -0.04922068731435578   -0.05757167122183027
-0.9952531723671106   -0.04922068731435578   -0.05757167122183027
-0.8108912933165714   0.023524835323291887   0.023996628264890428
-0.8108912933165714   0.023524835323291887   0.023996628264890428
-0.8108912933165714   0.023524835323291887   0.023996628264890428
-0.8108912933165714   0.023524835323291887   0.023996628264890428
-0.7291445699489909   -0.05954546364314435   0.0259019215819548
-0.7291445699489909   -0.05954546364314435   0.0259019215819548
-0.7291445699489909   -0.05954546364314435   0.0259019215819548
-0.7291445699489909   -0.05954546364314435   0.0259019215819548
-0.4231004279503417   -0.03197297320964216   -0.004199008303202424
-0.4231004279503417   -0.03197297320964216   -0.004199008303202424
-0.4231004279503417   -0.03197297320964216   -0.004199008303202424
-0.4231004279503417   -0.03197297320964216   -0.004199008303202424
-0.40159523953041715   0.040702458579015305   0.03167692120945586
-0.40159523953041715   0.040702458579015305   0.03167692120945586
-0.40159523953041715   0.040702458579015305   0.03167692120945586
-0.40159523953041715   0.040702458579015305   0.03167692120945586
-0.740125570503333   -0.07088364349747095   -0.030844357240645943
-0.740125570503333   -0.07088364349747095   -0.030844357240645943
-0.740125570503333   -0.07088364349747095   -0.030844357240645943
-0.740125570503333   -0.07088364349747095   -0.030844357240645943
-0.5711935263747909   -0.02783261716720635   -0.011690432253364174
-0.5711935263747909   -0.02783261716720635   -0.011690432253364174
-0.5711935263747909   -0.02783261716720635   -0.011690432253364174
-0.5711935263747909   -0.02783261716720635   -0.011690432253364174
-0.7205859571680969   -0.0251975466689999   0.021167612607059676
-0.7205859571680969   -0.0251975466689999   0.021167612607059676
-0.7205859571680969   -0.0251975466689999   0.021167612607059676
-0.7205859571680969   -0.0251975466689999   0.021167612607059676
-0.41862803140417404   -0.0024768167879771763   -0.010307762792336146
-0.41862803140417404   -0.0024768167879771763   -0.010307762792336146
-0.41862803140417404   -0.0024768167879771763   -0.010307762792336146
-0.41862803140417404   -0.0024768167879771763   -0.010307762792336146
-0.3964885147450141   0.07042737779837129   0.02596815241041371
-0.3964885147450141   0.07042737779837129   0.02596815241041371
-0.3964885147450141   0.07042737779837129   0.02596815241041371
-0.3964885147450141   0.07042737779837129   0.02596815241041371
-0.7301541825017949   -0.0428406063912115   -0.03634481602913084
-0.7301541825017949   -0.0428406063912115   -0.03634481602913084
-0.7301541825017949   -0.0428406063912115   -0.03634481602913084
-0.7301541825017949   -0.0428406063912115   -0.03634481602913084
-0.5602231609606246   0.0013735802202941572   0.0008571589376298108
-0.5602231609606246   0.0013735802202941572   0.0008571589376298108
-0.5602231609606246   0.0013735802202941572   0.0008571589376298108
-0.5602231609606246   0.0013735802202941572   0.0008571589376298108
-0.709136020036578   0.00657110353260329   0.019334286373137777
-0.709136020036578   0.00657110353260329   0.019334286373137777
-0.709136020036578   0.00657110353260329   0.019334286373137777
-0.709136020036578   0.00657110353260329   0.019334286373137777
-0.41439366868874683   0.024128676396038357   -0.017258915905914187
-0.41439366868874683   0.024128676396038357   -0.017258915905914187
-0.41439366868874683   0.024128676396038357   -0.017258915905914187
-0.41439366868874683   0.024128676396038357   -0.017258915905914187
-0.3915541385437359   0.10210913996032228   0.02065196989031913
-0.3915541385437359   0.10210913996032228   0.02065196989031913
-0.3915541385437359   0.10210913996032228   0.02065196989031913
-0.3915541385437359   0.10210913996032228   0.02065196989031913
-0.7226940673936211   -0.012611083634953751   -0.04016352180967784
-0.7226940673936211   -0.012611083634953751   -0.04016352180967784
-0.7226940673936211   -0.012611083634953751   -0.04016352180967784
-0.7226940673936211   -0.012611083634953751   -0.04016352180967784
-0.5559687819090907   0.02886733760459173   0.01281020156346991
-0.5559687819090907   0.02886733760459173   0.01281020156346991
-0.5559687819090907   0.02886733760459173   0.01281020156346991
-0.5559687819090907   0.02886733760459173   0.01281020156346991
-0.4320235743020959   -0.08186539650911161   0.0010776832374943363
-0.4320235743020959   -0.08186539650911161   0.0010776832374943363
-0.4320235743020959   -0.08186539650911161   0.0010776832374943363
-0.4320235743020959   -0.08186539650911161   0.0010776832374943363
-0.11193030506196928   -0.009623102542832664   0.017607708989352266
-0.11193030506196928   -0.009623102542832664   0.017607708989352266
-0.11193030506196928   -0.009623102542832664   0.017607708989352266
-0.11193030506196928   -0.009623102542832664   0.017607708989352266
-0.1091965668088116   0.016751923485273594   0.006004989844819644
-0.1091965668088116   0.016751923485273594   0.006004989844819644
-0.1091965668088116   0.016751923485273594   0.006004989844819644
-0.1091965668088116   0.016751923485273594   0.006004989844819644
-0.4272861291003123   -0.04786126180811768   -0.00821380625289164
-0.4272861291003123   -0.04786126180811768   -0.00821380625289164
-0.4272861291003123   -0.04786126180811768   -0.00821380625289164
-0.4272861291003123   -0.04786126180811768   -0.00821380625289164
-0.2705711326468248   -0.02933776781987449   -0.008312255949803499
-0.2705711326468248   -0.02933776781987449   -0.008312255949803499
-0.2705711326468248   -0.02933776781987449   -0.008312255949803499
-0.2705711326468248   -0.02933776781987449   -0.008312255949803499
-0.4265871786873965   -0.04870271671557784   -0.003877599280852597
-0.4265871786873965   -0.04870271671557784   -0.003877599280852597
-0.4265871786873965   -0.04870271671557784   -0.003877599280852597
-0.4265871786873965   -0.04870271671557784   -0.003877599280852597
-0.10738231829875504   0.020106577315706076   0.011721578564669892
-0.10738231829875504   0.020106577315706076   0.011721578564669892
-0.10738231829875504   0.020106577315706076   0.011721578564669892
-0.10738231829875504   0.020106577315706076   0.011721578564669892
-0.10302920646326301   0.050064113235512464   0.0015544940519638464
-0.10302920646326301   0.050064113235512464   0.0015544940519638464
-0.10302920646326301   0.050064113235512464   0.0015544940519638464
-0.10302920646326301   0.050064113235512464   0.0015544940519638464
-0.4221736542717442   -0.017923869513842006   -0.014106297911023531
-0.4221736542717442   -0.017923869513842006   -0.014106297911023531
-0.4221736542717442   -0.017923869513842006   -0.014106297911023531
-0.4221736542717442   -0.017923869513842006   -0.014106297911023531
-0.2639833848710786   0.000593446290515047   0.003515294488773647
-0.2639833848710786   0.000593446290515047   0.003515294488773647
-0.2639833848710786   0.000593446290515047   0.003515294488773647
-0.2639833848710786   0.000593446290515047   0.003515294488773647
-0.4206029049506423   -0.015497341196857375   -0.008679079622498472
-0.4206029049506423   -0.015497341196857375   -0.008679079622498472
-0.4206029049506423   -0.015497341196857375   -0.008679079622498472
-0.4206029049506423   -0.015497341196857375   -0.008679079622498472
-0.10227946426973755   0.049958076433154114   0.005409241821950406
-0.10227946426973755   0.049958076433154114   0.005409241821950406
-0.10227946426973755   0.049958076433154114   0.005409241821950406
-0.10227946426973755   0.049958076433154114   0.005409241821950406
-0.09749535448310265   0.0838595046325924   -0.003673680510425579
-0.09749535448310265   0.0838595046325924   -0.003673680510425579
-0.09749535448310265   0.0838595046325924   -0.003673680510425579
-0.09749535448310265   0.0838595046325924   -0.003673680510425579
-0.41768880463276764   0.01235954814950628   -0.020271768744024758
-0.41768880463276764   0.01235954814950628   -0.020271768744024758
-0.41768880463276764   0.01235954814950628   -0.020271768744024758
-0.41768880463276764   0.01235954814950628   -0.020271768744024758
-0.25796895774051276   0.030668242677665533   0.014910023918647153
-0.25796895774051276   0.030668242677665533   0.014910023918647153
-0.25796895774051276   0.030668242677665533   0.014910023918647153
-0.25796895774051276   0.030668242677665533   0.014910023918647153
-0.138195292055754   -0.1001626571839842   -0.023177671338420785
-0.138195292055754   -0.1001626571839842   -0.023177671338420785
-0.138195292055754   -0.1001626571839842   -0.023177671338420785
-0.138195292055754   -0.1001626571839842   -0.023177671338420785
0.19505797707081168   0.015433555282467926   0.038179119652420455
0.19505797707081168   0.015433555282467926   0.038179119652420455
0.19505797707081168   0.015433555282467926   0.038179119652420455
0.19505797707081168   0.015433555282467926   0.038179119652420455
0.1813842390901494   -0.005557790246206555   -0.02134471414996516
0.1813842390901494   -0.005557790246206555   -0.02134471414996516
0.1813842390901494   -0.005557790246206555   -0.02134471414996516
0.1813842390901494   -0.005557790246206555   -0.02134471414996516
-0.1155612952846269   -0.023227383751975157   0.014160654702991859
-0.1155612952846269   -0.023227383751975157   0.014160654702991859
-0.1155612952846269   -0.023227383751975157   0.014160654702991859
-0.1155612952846269   -0.023227383751975157   0.014160654702991859
0.029439571635809597   -0.027590529652601052   -0.005919330169662716
0.029439571635809597   -0.027590529652601052   -0.005919330169662716
0.029439571635809597   -0.027590529652601052   -0.005919330169662716
0.029439571635809597   -0.027590529652601052   -0.005919330169662716
-0.1334472167877921   -0.06996200492063767   -0.028534331644171622
-0.1334472167877921   -0.06996200492063767   -0.028534331644171622
-0.1334472167877921   -0.06996200492063767   -0.028534331644171622
-0.1334472167877921   -0.06996200492063767   -0.028534331644171622
0.20226077871058842   0.04416744903972822   0.033312744666293435
0.20226077871058842   0.04416744903972822   0.033312744666293435
0.20226077871058842   0.04416744903972822   0.033312744666293435
0.20226077871058842   0.04416744903972822   0.033312744666293435
0.19286329196452015   0.02595449190117908   -0.024185656021082462
0.19286329196452015   0.02595449190117908   -0.024185656021082462
0.19286329196452015   0.02595449190117908   -0.024185656021082462
0.19286329196452015   0.02595449190117908   -0.024185656021082462
-0.11111111204202659   0.0035454792006540947   0.007663600193005187
-0.11111111204202659   0.0035454792006540947   0.007663600193005187
-0.11111111204202659   0.0035454792006540947   0.007663600193005187
-0.11111111204202659   0.0035454792006540947   0.007663600193005187
0.03554804520507724   -0.00044464301759004725   0.006114654482285767
0.03554804520507724   -0.00044464301759004725   0.006114654482285767
0.03554804520507724   -0.00044464301759004725   0.006114654482285767
0.03554804520507724   -0.00044464301759004725   0.006114654482285767
-0.12837201597524037   -0.040395438780865475   -0.034700001491544695
-0.12837201597524037   -0.040395438780865475   -0.034700001491544695
-0.12837201597524037   -0.040395438780865475   -0.034700001491544695
-0.12837201597524037   -0.040395438780865475   -0.034700001491544695
0.2127179806385883   0.07248919462355259   0.02855308462688276
0.2127179806385883   0.07248919462355259   0.02855308462688276
0.2127179806385883   0.07248919462355259   0.02855308462688276
0.2127179806385883   0.07248919462355259   0.02855308462688276
0.2021085541068569   0.061863941994089955   -0.027951385105397474
0.2021085541068569   0.061863941994089955   -0.027951385105397474
0.2021085541068569   0.061863941994089955   -0.027951385105397474
0.2021085541068569   0.061863941994089955   -0.027951385105397474
-0.1063554148578078   0.03440257152577876   0.0014829507228612815
-0.1063554148578078   0.03440257152577876   0.0014829507228612815
-0.1063554148578078   0.03440257152577876   0.0014829507228612815
-0.1063554148578078   0.03440257152577876   0.0014829507228612815
0.044975499909378186   0.02907500519956678   0.018572887600114357
0.044975499909378186   0.02907500519956678   0.018572887600114357
0.044975499909378186   0.02907500519956678   0.018572887600114357
0.044975499909378186   0.02907500519956678   0.018572887600114357
0.15494102917425628   -0.10120855538665355   -0.04576350916123318
0.15494102917425628   -0.10120855538665355   -0.04576350916123318
0.15494102917425628   -0.10120855538665355   -0.04576350916123318
0.15494102917425628   -0.10120855538665355   -0.04576350916123318
0.46771866470822804   0.046152585189430925   0.049484892136677464
0.46771866470822804   0.046152585189430925   0.049484892136677464
0.46771866470822804   0.046152585189430925   0.049484892136677464
0.46771866470822804   0.046152585189430925   0.049484892136677464
0.4630323448758781   -0.024993757468941516   -0.060250289215081784
0.4630323448758781   -0.024993757468941516   -0.060250289215081784
0.4630323448758781   -0.024993757468941516   -0.060250289215081784
0.4630323448758781   -0.024993757468941516   -0.060250289215081784
0.19583692241319345   0.008427262128870808   0.036933650090177766
0.19583692241319345   0.008427262128870808   0.036933650090177766
0.19583692241319345   0.008427262128870808   0.036933650090177766
0.19583692241319345   0.008427262128870808   0.036933650090177766
0.30367742181651464   -0.020970965442580536   -0.01608097813867354
0.30367742181651464   -0.020970965442580536   -0.01608097813867354
0.30367742181651464   -0.020970965442580536   -0.01608097813867354
0.30367742181651464   -0.020970965442580536   -0.01608097813867354
0.15932210513394815   -0.08427365200812098   -0.052939522169056875
0.15932210513394815   -0.08427365200812098   -0.052939522169056875
0.15932210513394815   -0.08427365200812098   -0.052939522169056875
0.15932210513394815   -0.08427365200812098   -0.052939522169056875
0.5025962671387357   0.07075626165166582   0.04181930297861052
0.5025962671387357   0.07075626165166582   0.04181930297861052
0.5025962671387357   0.07075626165166582   0.04181930297861052
0.5025962671387357   0.07075626165166582   0.04181930297861052
0.4884092296591764   -0.007343109791745725   -0.07227318475520682
0.4884092296591764   -0.007343109791745725   -0.07227318475520682
0.4884092296591764   -0.007343109791745725   -0.07227318475520682
0.4884092296591764   -0.007343109791745725   -0.07227318475520682
0.20254241585556648   0.0213573942066524   0.028807061128673872
0.20254241585556648   0.0213573942066524   0.028807061128673872
0.20254241585556648   0.0213573942066524   0.028807061128673872
0.20254241585556648   0.0213573942066524   0.028807061128673872
0.32929285641064054   -0.003167565561633459   -0.0019088222731527098
0.32929285641064054   -0.003167565561633459   -0.0019088222731527098
0.32929285641064054   -0.003167565561633459   -0.0019088222731527098
0.32929285641064054   -0.003167565561633459   -0.0019088222731527098
0.1663116377932997   -0.06958823184090103   -0.06140120313510675
0.1663116377932997   -0.06958823184090103   -0.06140120313510675
0.1663116377932997   -0.06958823184090103   -0.06140120313510675
0.1663116377932997   -0.06958823184090103   -0.06140120313510675
0.5278184354969141   0.08678094403128059   0.0306487906104672
0.5278184354969141   0.08678094403128059   0.0306487906104672
0.5278184354969141   0.08678094403128059   0.0306487906104672
0.5278184354969141   0.08678094403128059   0.0306487906104672
0.5273864294944033   0.03141150620558045   -0.07737746545251944
0.5273864294944033   0.03141150620558045   -0.07737746545251944
0.5273864294944033   0.03141150620558045   -0.07737746545251944
0.5273864294944033   0.03141150620558045   -0.07737746545251944
0.20940396371673412   0.04749763551689619   0.02289196942118026
0.20940396371673412   0.04749763551689619   0.02289196942118026
0.20940396371673412   0.04749763551689619   0.02289196942118026
0.20940396371673412   0.04749763551689619   0.02289196942118026
0.3420992487717863   0.01644471405180587   0.010296082117616257
0.3420992487717863   0.01644471405180587   0.010296082117616257
0.3420992487717863   0.01644471405180587   0.010296082117616257
0.3420992487717863   0.01644471405180587   0.010296082117616257
-0.6309603861325725   -0.010489211909685908   0.061745614559414325
-0.6309603861325725   -0.010489211909685908   0.061745614559414325
-0.6309603861325725   -0.010489211909685908   0.061745614559414325
-0.6309603861325725   -0.010489211909685908   0.061745614559414325
-0.49254368360357964   -0.062580670643299   -0.03051850813019221
-0.49254368360357964   -0.062580670643299   -0.03051850813019221
-0.49254368360357964   -0.062580670643299   -0.03051850813019221
-0.49254368360357964   -0.062580670643299   -0.03051850813019221
-0.44582342198652347   0.05298881273697831   0.052790563709608905
-0.44582342198652347   0.05298881273697831   0.052790563709608905
-0.44582342198652347   0.05298881273697831   0.052790563709608905
-0.44582342198652347   0.05298881273697831   0.052790563709608905
-0.6283143271657401   -0.06845803725370206   -0.04155107063386948
-0.6283143271657401   -0.06845803725370206   -0.04155107063386948
-0.6283143271657401   -0.06845803725370206   -0.04155107063386948
-0.6283143271657401   -0.06845803725370206   -0.04155107063386948
-0.5284009140716328   -0.014523771264483218   -0.00783804505776647
-0.5284009140716328   -0.014523771264483218   -0.00783804505776647
-0.5284009140716328   -0.014523771264483218   -0.00783804505776647
-0.5284009140716328   -0.014523771264483218   -0.00783804505776647
-0.5894131510099008   0.025510090640588484   0.05898668225103706
-0.5894131510099008   0.025510090640588484   0.05898668225103706
-0.5894131510099008   0.025510090640588484   0.05898668225103706
-0.5894131510099008   0.025510090640588484   0.05898668225103706
-0.48201839155798415   -0.03827310857293288   -0.036922362837779624
-0.48201839155798415   -0.03827310857293288   -0.036922362837779624
-0.48201839155798415   -0.03827310857293288   -0.036922362837779624
-0.48201839155798415   -0.03827310857293288   -0.036922362837779624
-0.43478326636092757   0.06673779041581557   0.04464504656045109
-0.43478326636092757   0.06673779041581557   0.04464504656045109
-0.43478326636092757   0.06673779041581557   0.04464504656045109
-0.43478326636092757   0.06673779041581557   0.04464504656045109
-0.5994543232105803   -0.05287703952591953   -0.051904733221119104
-0.5994543232105803   -0.05287703952591953   -0.051904733221119104
-0.5994543232105803   -0.05287703952591953   -0.051904733221119104
-0.5994543232105803   -0.05287703952591953   -0.051904733221119104
-0.5133136933280497   0.0034685054566711976   0.003649026287066162
-0.5133136933280497   0.0034685054566711976   0.003649026287066162
-0.5133136933280497   0.0034685054566711976   0.003649026287066162
-0.5133136933280497   0.0034685054566711976   0.003649026287066162
-0.5605287054317538   0.042190797099148414   0.04765551904794154
-0.5605287054317538   0.042190797099148414   0.04765551904794154
-0.5605287054317538   0.042190797099148414   0.04765551904794154
-0.5605287054317538   0.042190797099148414   0.04765551904794154
-0.4711485767574407   -0.025769738826939698   -0.04467397617935946
-0.4711485767574407   -0.025769738826939698   -0.04467397617935946
-0.4711485767574407   -0.025769738826939698   -0.04467397617935946
-0.4711485767574407   -0.025769738826939698   -0.04467397617935946
-0.42584700295031097   0.08387552330683914   0.03850321246734466
-0.42584700295031097   0.08387552330683914   0.03850321246734466
-0.42584700295031097   0.08387552330683914   0.03850321246734466
-0.42584700295031097   0.08387552330683914   0.03850321246734466
-0.5606845575697541   -0.027929633218297292   -0.06006401799900042
-0.5606845575697541   -0.027929633218297292   -0.06006401799900042
-0.5606845575697541   -0.027929633218297292   -0.06006401799900042
-0.5606845575697541   -0.027929633218297292   -0.06006401799900042
-0.4828776826908184   0.021217280272840103   0.01789453666591019
-0.4828776826908184   0.021217280272840103   0.01789453666591019
-0.4828776826908184   0.021217280272840103   0.01789453666591019
-0.4828776826908184   0.021217280272840103   0.01789453666591019
-0.47523638660970663   -0.03572741836808329   0.02916472456395687
-0.47523638660970663   -0.03572741836808329   0.02916472456395687
-0.47523638660970663   -0.03572741836808329   0.02916472456395687
-0.47523638660970663   -0.03572741836808329   0.02916472456395687
-0.34923786685959507   -0.04744327178203816   -0.009033496018366121
-0.34923786685959507   -0.04744327178203816   -0.009033496018366121
-0.34923786685959507   -0.04744327178203816   -0.009033496018366121
-0.34923786685959507   -0.04744327178203816   -0.009033496018366121
-0.3232021342504877   0.02406767105934028   0.02698877929056486
-0.3232021342504877   0.02406767105934028   0.02698877929056486
-0.3232021342504877   0.02406767105934028   0.02698877929056486
-0.3232021342504877   0.02406767105934028   0.02698877929056486
-0.4822956982275267   -0.05052435652675289   -0.026057648231672413
-0.4822956982275267   -0.05052435652675289   -0.026057648231672413
-0.4822956982275267   -0.05052435652675289   -0.026057648231672413
-0.4822956982275267   -0.05052435652675289   -0.026057648231672413
-0.40637594443709074   -0.025241269861945734   -0.010965694455456015
-0.40637594443709074   -0.025241269861945734   -0.010965694455456015
-0.40637594443709074   -0.025241269861945734   -0.010965694455456015
-0.40637594443709074   -0.025241269861945734   -0.010965694455456015
-0.46287575147293475   -0.0043010520336305424   0.024818781048157733
-0.46287575147293475   -0.0043010520336305424   0.024818781048157733
-0.46287575147293475   -0.0043010520336305424   0.024818781048157733
-0.46287575147293475   -0.0043010520336305424   0.024818781048157733
-0.3404395225816676   -0.019973075010371218   -0.015157416295623097
-0.3404395225816676   -0.019973075010371218   -0.015157416295623097
-0.3404395225816676   -0.019973075010371218   -0.015157416295623097
-0.3404395225816676   -0.019973075010371218   -0.015157416295623097
-0.3136843388347718   0.052039159754007525   0.02158417102994124
-0.3136843388347718   0.052039159754007525   0.02158417102994124
-0.3136843388347718   0.052039159754007525   0.02158417102994124
-0.3136843388347718   0.052039159754007525   0.02158417102994124
-0.46802751365336126   -0.023640694953021707   -0.03119770453287281
-0.46802751365336126   -0.023640694953021707   -0.03119770453287281
-0.46802751365336126   -0.023640694953021707   -0.03119770453287281
-0.46802751365336126   -0.023640694953021707   -0.03119770453287281
-0.39260347589830685   0.0017197733221670647   0.0011096130512623231
-0.39260347589830685   0.0017197733221670647   0.0011096130512623231
-0.39260347589830685   0.0017197733221670647   0.0011096130512623231
-0.39260347589830685   0.0017197733221670647   0.0011096130512623231
-0.44746739814269904   0.025465124416593807   0.022497053650815283
-0.44746739814269904   0.025465124416593807   0.022497053650815283
-0.44746739814269904   0.025465124416593807   0.022497053650815283
-0.44746739814269904   0.025465124416593807   0.022497053650815283
-0.331724842603897   0.005452952125924518   -0.022032140187605912
-0.331724842603897   0.005452952125924518   -0.022032140187605912
-0.331724842603897   0.005452952125924518   -0.022032140187605912
-0.331724842603897   0.005452952125924518   -0.022032140187605912
-0.3041965048464252   0.08240842661780153   0.01643646690690278
-0.3041965048464252   0.08240842661780153   0.01643646690690278
-0.3041965048464252   0.08240842661780153   0.01643646690690278
-0.3041965048464252   0.08240842661780153   0.01643646690690278
-0.4562558377696865   0.005730035244775347   -0.035395473567465224
-0.4562558377696865   0.005730035244775347   -0.035395473567465224
-0.4562558377696865   0.005730035244775347   -0.035395473567465224
-0.4562558377696865   0.005730035244775347   -0.035395473567465224
-0.3826467989978427   0.02815961196901727   0.012924217295488531
-0.3826467989978427   0.02815961196901727   0.012924217295488531
-0.3826467989978427   0.02815961196901727   0.012924217295488531
-0.3826467989978427   0.02815961196901727   0.012924217295488531
-0.3488091568326584   -0.059489215189991125   0.005155997524264442
-0.3488091568326584   -0.059489215189991125   0.005155997524264442
-0.3488091568326584   -0.059489215189991125   0.005155997524264442
-0.3488091568326584   -0.059489215189991125   0.005155997524264442
-0.20784085466594465   -0.02507858153298397   0.01280411443950764
-0.20784085466594465   -0.02507858153298397   0.01280411443950764
-0.20784085466594465   -0.02507858153298397   0.01280411443950764
-0.20784085466594465   -0.02507858153298397   0.01280411443950764
-0.2007634058040257   -0.0005841812795598575   0.0016488730935955449
-0.2007634058040257   -0.0005841812795598575   0.0016488730935955449
-0.2007634058040257   -0.0005841812795598575   0.0016488730935955449
-0.2007634058040257   -0.0005841812795598575   0.0016488730935955449
-0.3394372623400889   -0.027112057783369295   -0.003007132314731504
-0.3394372623400889   -0.027112057783369295   -0.003007132314731504
-0.3394372623400889   -0.027112057783369295   -0.003007132314731504
-0.3394372623400889   -0.027112057783369295   -0.003007132314731504
-0.2746495649739093   -0.026752155715461155   -0.007988740622231092
-0.2746495649739093   -0.026752155715461155   -0.007988740622231092
-0.2746495649739093   -0.026752155715461155   -0.007988740622231092
-0.2746495649739093   -0.026752155715461155   -0.007988740622231092
-0.33902826810368203   -0.02848481011785608   0.0004105912017860914
-0.33902826810368203   -0.02848481011785608   0.0004105912017860914
-0.33902826810368203   -0.02848481011785608   0.0004105912017860914
-0.33902826810368203   -0.02848481011785608   0.0004105912017860914
-0.19900164012174748   0.0029593309736063375   0.006914189251820564
-0.19900164012174748   0.0029593309736063375   0.006914189251820564
-0.19900164012174748   0.0029593309736063375   0.006914189251820564
-0.19900164012174748   0.0029593309736063375   0.006914189251820564
-0.19042226322318367   0.03069387823063164   -0.0027689502372311124
-0.19042226322318367   0.03069387823063164   -0.0027689502372311124
-0.19042226322318367   0.03069387823063164   -0.0027689502372311124
-0.19042226322318367   0.03069387823063164   -0.0027689502372311124
-0.3299017282264949   0.0013263552065362894   -0.008789971381207053
-0.3299017282264949   0.0013263552065362894   -0.008789971381207053
-0.3299017282264949   0.0013263552065362894   -0.008789971381207053
-0.3299017282264949   0.0013263552065362894   -0.008789971381207053
-0.26374007318141324   0.0013642497470404621   0.003723806682402901
-0.26374007318141324   0.0013642497470404621   0.003723806682402901
-0.26374007318141324   0.0013642497470404621   0.003723806682402901
-0.26374007318141324   0.0013642497470404621   0.003723806682402901
-0.32875272680302764   0.0026982114588681994   -0.004416820516204376
-0.32875272680302764   0.0026982114588681994   -0.004416820516204376
-0.32875272680302764   0.0026982114588681994   -0.004416820516204376
-0.32875272680302764   0.0026982114588681994   -0.004416820516204376
-0.18960795999074603   0.03128532663420213   0.0007111175213885962
-0.18960795999074603   0.03128532663420213   0.0007111175213885962
-0.18960795999074603   0.03128532663420213   0.0007111175213885962
-0.18960795999074603   0.03128532663420213   0.0007111175213885962
-0.18065432231201614   0.06225971807066073   -0.007805401459003988
-0.18065432231201614   0.06225971807066073   -0.007805401459003988
-0.18065432231201614   0.06225971807066073   -0.007805401459003988
-0.18065432231201614   0.06225971807066073   -0.007805401459003988
-0.3209634813227106   0.029983724583192706   -0.014973713439915364
-0.3209634813227106   0.029983724583192706   -0.014973713439915364
-0.3209634813227106   0.029983724583192706   -0.014973713439915364
-0.3209634813227106   0.029983724583192706   -0.014973713439915364
-0.2534227638272294   0.029581770547067995   0.01496472109387545
-0.2534227638272294   0.029581770547067995   0.01496472109387545
-0.2534227638272294   0.029581770547067995   0.01496472109387545
-0.2534227638272294   0.029581770547067995   0.01496472109387545
-0.2252331440391272   -0.0800897297182328   -0.019146184241159728
-0.2252331440391272   -0.0800897297182328   -0.019146184241159728
-0.2252331440391272   -0.0800897297182328   -0.019146184241159728
-0.2252331440391272   -0.0800897297182328   -0.019146184241159728
-0.070482485295874   -0.001334135105299051   0.03356612557379571
-0.070482485295874   -0.001334135105299051   0.03356612557379571
-0.070482485295874   -0.001334135105299051   0.03356612557379571
-0.070482485295874   -0.001334135105299051   0.03356612557379571
-0.08004202994174114   -0.023897062693034418   -0.024707005345190197
-0.08004202994174114   -0.023897062693034418   -0.024707005345190197
-0.08004202994174114   -0.023897062693034418   -0.024707005345190197
-0.08004202994174114   -0.023897062693034418   -0.024707005345190197
-0.19774153533425248   -0.0030547087079523805   0.019228752870852392
-0.19774153533425248   -0.0030547087079523805   0.019228752870852392
-0.19774153533425248   -0.0030547087079523805   0.019228752870852392
-0.19774153533425248   -0.0030547087079523805   0.019228752870852392
-0.1433415799166295   -0.025912794189511392   -0.005766147919076201
-0.1433415799166295   -0.025912794189511392   -0.005766147919076201
-0.1433415799166295   -0.025912794189511392   -0.005766147919076201
-0.1433415799166295   -0.025912794189511392   -0.005766147919076201
-0.21602108487269372   -0.050996844430040406   -0.024226859099267528
-0.21602108487269372   -0.050996844430040406   -0.024226859099267528
-0.21602108487269372   -0.050996844430040406   -0.024226859099267528
-0.21602108487269372   -0.050996844430040406   -0.024226859099267528
-0.05933063336860922   0.026476920063746558   0.02847599476368843
-0.05933063336860922   0.026476920063746558   0.02847599476368843
-0.05933063336860922   0.026476920063746558   0.02847599476368843
-0.05933063336860922   0.026476920063746558   0.02847599476368843
-0.06490465023053836   0.005690922227474235   -0.02781564648438234
-0.06490465023053836   0.005690922227474235   -0.02781564648438234
-0.06490465023053836   0.005690922227474235   -0.02781564648438234
-0.06490465023053836   0.005690922227474235   -0.02781564648438234
-0.18894551524920392   0.022479266526409525   0.012829401336889912
-0.18894551524920392   0.022479266526409525   0.012829401336889912
-0.18894551524920392   0.022479266526409525   0.012829401336889912
-0.18894551524920392   0.022479266526409525   0.012829401336889912
-0.13172968086882794   0.00027909974239887295   0.006171935339307345
-0.13172968086882794   0.00027909974239887295   0.006171935339307345
-0.13172968086882794   0.00027909974239887295   0.006171935339307345
-0.13172968086882794   0.00027909974239887295   0.006171935339307345
-0.20664458175770214   -0.023109389764100752   -0.030077274915093488
-0.20664458175770214   -0.023109389764100752   -0.030077274915093488
-0.20664458175770214   -0.023109389764100752   -0.030077274915093488
-0.20664458175770214   -0.023109389764100752   -0.030077274915093488
-0.044941645763484916   0.05354351647654186   0.024146781601817234
-0.044941645763484916   0.05354351647654186   0.024146781601817234
-0.044941645763484916   0.05354351647654186   0.024146781601817234
-0.044941645763484916   0.05354351647654186   0.024146781601817234
-0.05210162540273741   0.038723962678123815   -0.031163882970468515
-0.05210162540273741   0.038723962678123815   -0.031163882970468515
-0.05210162540273741   0.038723962678123815   -0.031163882970468515
-0.05210162540273741   0.038723962678123815   -0.031163882970468515
-0.17994056696945304   0.05136296877138822   0.006660124553084033
-0.17994056696945304   0.05136296877138822   0.006660124553084033
-0.17994056696945304   0.05136296877138822   0.006660124553084033
-0.17994056696945304   0.05136296877138822   0.006660124553084033
-0.1197174295768364   0.027570275426441616   0.01810770905991084
-0.1197174295768364   0.027570275426441616   0.01810770905991084
-0.1197174295768364   0.027570275426441616   0.01810770905991084
-0.1197174295768364   0.027570275426441616   0.01810770905991084
-0.10247856848779971   -0.08611127081278042   -0.041637154678351496
-0.10247856848779971   -0.08611127081278042   -0.041637154678351496
-0.10247856848779971   -0.08611127081278042   -0.041637154678351496
-0.10247856848779971   -0.08611127081278042   -0.041637154678351496
0.03300263594811403   0.025339712438146027   0.051221888093810036
0.03300263594811403   0.025339712438146027   0.051221888093810036
0.03300263594811403   0.025339712438146027   0.051221888093810036
0.03300263594811403   0.025339712438146027   0.051221888093810036
0.03322531287247613   -0.0425110925531042   -0.05514651377897995
0.03322531287247613   -0.0425110925531042   -0.05514651377897995
0.03322531287247613   -0.0425110925531042   -0.05514651377897995
0.03322531287247613   -0.0425110925531042   -0.05514651377897995
-0.056617752860990585   0.02659284856974665   0.04192446879578153
-0.056617752860990585   0.02659284856974665   0.04192446879578153
-0.056617752860990585   0.02659284856974665   0.04192446879578153
-0.056617752860990585   0.02659284856974665   0.04192446879578153
-0.024282433759875457   -0.018319376196306178   -0.009711949109221083
-0.024282433759875457   -0.018319376196306178   -0.009711949109221083
-0.024282433759875457   -0.018319376196306178   -0.009711949109221083
-0.024282433759875457   -0.018319376196306178   -0.009711949109221083
-0.0931623940533216   -0.06633375741807764   -0.047872131178049365
-0.0931623940533216   -0.06633375741807764   -0.047872131178049365
-0.0931623940533216   -0.06633375741807764   -0.047872131178049365
-0.0931623940533216   -0.06633375741807764   -0.047872131178049365
0.07236925985473758   0.05301481922465049   0.04504730935457257
0.07236925985473758   0.05301481922465049   0.04504730935457257
0.07236925985473758   0.05301481922465049   0.04504730935457257
0.07236925985473758   0.05301481922465049   0.04504730935457257
0.0622321836001275   -0.025569810085478237   -0.06551872807654031
0.0622321836001275   -0.025569810085478237   -0.06551872807654031
0.0622321836001275   -0.025569810085478237   -0.06551872807654031
0.0622321836001275   -0.025569810085478237   -0.06551872807654031
-0.04597677428510347   0.03888606075218808   0.03362859471807827
-0.04597677428510347   0.03888606075218808   0.03362859471807827
-0.04597677428510347   0.03888606075218808   0.03362859471807827
-0.04597677428510347   0.03888606075218808   0.03362859471807827
-0.0004557368537807187   -0.0008836331942964112   0.0032192892942745515
-0.0004557368537807187   -0.0008836331942964112   0.0032192892942745515
-0.0004557368537807187   -0.0008836331942964112   0.0032192892942745515
-0.0004557368537807187   -0.0008836331942964112   0.0032192892942745515
-0.08203324253676901   -0.05239390571263479   -0.05537378007542656
-0.08203324253676901   -0.05239390571263479   -0.05537378007542656
-0.08203324253676901   -0.05239390571263479   -0.05537378007542656
-0.08203324253676901   -0.05239390571263479   -0.05537378007542656
0.1008913256289204   0.06831283015647137   0.033894341825470825
0.1008913256289204   0.06831283015647137   0.033894341825470825
0.1008913256289204   0.06831283015647137   0.033894341825470825
0.1008913256289204   0.06831283015647137   0.033894341825470825
0.10290346346816366   0.007584440690248171   -0.07017350446348936
0.10290346346816366   0.007584440690248171   -0.07017350446348936
0.10290346346816366   0.007584440690248171   -0.07017350446348936
0.10290346346816366   0.007584440690248171   -0.07017350446348936
-0.03603764759018985   0.06055090902435467   0.027329059746038425
-0.03603764759018985   0.06055090902435467   0.027329059746038425
-0.03603764759018985   0.06055090902435467   0.027329059746038425
-0.03603764759018985   0.06055090902435467   0.027329059746038425
0.021051366318545407   0.017426279726556408   0.01586750531173847
0.021051366318545407   0.017426279726556408   0.01586750531173847
0.021051366318545407   0.017426279726556408   0.01586750531173847
0.021051366318545407   0.017426279726556408   0.01586750531173847
-0.20844099399793242   0.012048551660370173   0.05852491378250651
-0.20844099399793242   0.012048551660370173   0.05852491378250651
-0.20844099399793242   0.012048551660370173   0.05852491378250651
-0.20844099399793242   0.012048551660370173   0.05852491378250651
-0.24849023378364077   -0.07626023782960019   -0.03445925137812046
-0.24849023378364077   -0.07626023782960019   -0.03445925137812046
-0.24849023378364077   -0.07626023782960019   -0.03445925137812046
-0.24849023378364077   -0.07626023782960019   -0.03445925137812046
-0.19838910335282842   0.03541971879726849   0.047912485808071524
-0.19838910335282842   0.03541971879726849   0.047912485808071524
-0.19838910335282842   0.03541971879726849   0.047912485808071524
-0.19838910335282842   0.03541971879726849   0.047912485808071524
-0.20243125086807157   -0.050059359581843765   -0.04442051432102948
-0.20243125086807157   -0.050059359581843765   -0.04442051432102948
-0.20243125086807157   -0.050059359581843765   -0.04442051432102948
-0.20243125086807157   -0.050059359581843765   -0.04442051432102948
-0.20903905453390753   -0.01607525631006839   -0.016040067515316225
-0.20903905453390753   -0.01607525631006839   -0.016040067515316225
-0.20903905453390753   -0.01607525631006839   -0.016040067515316225
-0.20903905453390753   -0.01607525631006839   -0.016040067515316225
-0.16390681186599648   0.04363512012876751   0.054507200978734675
-0.16390681186599648   0.04363512012876751   0.054507200978734675
-0.16390681186599648   0.04363512012876751   0.054507200978734675
-0.16390681186599648   0.04363512012876751   0.054507200978734675
-0.23449445102454122   -0.05585566958298051   -0.04133886417024354
-0.23449445102454122   -0.05585566958298051   -0.04133886417024354
-0.23449445102454122   -0.05585566958298051   -0.04133886417024354
-0.23449445102454122   -0.05585566958298051   -0.04133886417024354
-0.18296724688264085   0.04886439577736176   0.04031536696734797
-0.18296724688264085   0.04886439577736176   0.04031536696734797
-0.18296724688264085   0.04886439577736176   0.04031536696734797
-0.18296724688264085   0.04886439577736176   0.04031536696734797
-0.16933183015981826   -0.034865127329516764   -0.055321476892945885
-0.16933183015981826   -0.034865127329516764   -0.055321476892945885
-0.16933183015981826   -0.034865127329516764   -0.055321476892945885
-0.16933183015981826   -0.034865127329516764   -0.055321476892945885
-0.18462190346948534   0.001097272197908998   -0.0033677672061842214
-0.18462190346948534   0.001097272197908998   -0.0033677672061842214
-0.18462190346948534   0.001097272197908998   -0.0033677672061842214
-0.18462190346948534   0.001097272197908998   -0.0033677672061842214
-0.1305901237061852   0.05998427719026861   0.043537650855426546
-0.1305901237061852   0.05998427719026861   0.043537650855426546
-0.1305901237061852   0.05998427719026861   0.043537650855426546
-0.1305901237061852   0.05998427719026861   0.043537650855426546
-0.21942915111385985   -0.04370520652001018   -0.04942455189137138
-0.21942915111385985   -0.04370520652001018   -0.04942455189137138
-0.21942915111385985   -0.04370520652001018   -0.04942455189137138
-0.21942915111385985   -0.04370520652001018   -0.04942455189137138
-0.1688632099493931   0.06941130093240173   0.03481930513411835
-0.1688632099493931   0.06941130093240173   0.03481930513411835
-0.1688632099493931   0.06941130093240173   0.03481930513411835
-0.1688632099493931   0.06941130093240173   0.03481930513411835
-0.12514777946794947   -0.005984174021895335   -0.06231731959731114
-0.12514777946794947   -0.005984174021895335   -0.06231731959731114
-0.12514777946794947   -0.005984174021895335   -0.06231731959731114
-0.12514777946794947   -0.005984174021895335   -0.06231731959731114
-0.15528080767602787   0.019047499156918446   0.010194141344652954
-0.15528080767602787   0.019047499156918446   0.010194141344652954
-0.15528080767602787   0.019047499156918446   0.010194141344652954
-0.15528080767602787   0.019047499156918446   0.010194141344652954
-0.22240777229323494   -0.013609991680190125   0.033302809924498494
-0.22240777229323494   -0.013609991680190125   0.033302809924498494
-0.22240777229323494   -0.013609991680190125   0.033302809924498494
-0.22240777229323494   -0.013609991680190125   0.033302809924498494
-0.27655015996744214   -0.06220788027079267   -0.013462240646982156
-0.27655015996744214   -0.06220788027079267   -0.013462240646982156
-0.27655015996744214   -0.06220788027079267   -0.013462240646982156
-0.27655015996744214   -0.06220788027079267   -0.013462240646982156
-0.24661026459834318   0.006271245420291331   0.022234927874349775
-0.24661026459834318   0.006271245420291331   0.022234927874349775
-0.24661026459834318   0.006271245420291331   0.022234927874349775
-0.24661026459834318   0.006271245420291331   0.022234927874349775
-0.22499333488728393   -0.02931760752833715   -0.020371345538596493
-0.22499333488728393   -0.02931760752833715   -0.020371345538596493
-0.22499333488728393   -0.02931760752833715   -0.020371345538596493
-0.22499333488728393   -0.02931760752833715   -0.020371345538596493
-0.2428207949627727   -0.022817506707680835   -0.011273648678096698
-0.2428207949627727   -0.022817506707680835   -0.011273648678096698
-0.2428207949627727   -0.022817506707680835   -0.011273648678096698
-0.2428207949627727   -0.022817506707680835   -0.011273648678096698
-0.20609442420613666   0.015740456659682177   0.029065143679112893
-0.20609442420613666   0.015740456659682177   0.029065143679112893
-0.20609442420613666   0.015740456659682177   0.029065143679112893
-0.20609442420613666   0.015740456659682177   0.029065143679112893
-0.2636139118921586   -0.036891555380400315   -0.019620507794037664
-0.2636139118921586   -0.036891555380400315   -0.019620507794037664
-0.2636139118921586   -0.036891555380400315   -0.019620507794037664
-0.2636139118921586   -0.036891555380400315   -0.019620507794037664
-0.23284256148504845   0.03302828601288584   0.016962248128352144
-0.23284256148504845   0.03302828601288584   0.016962248128352144
-0.23284256148504845   0.03302828601288584   0.016962248128352144
-0.23284256148504845   0.03302828601288584   0.016962248128352144
-0.2065683979477996   -0.003536227452317617   -0.02528976512876263
-0.2065683979477996   -0.003536227452317617   -0.02528976512876263
-0.2065683979477996   -0.003536227452317617   -0.02528976512876263
-0.2065683979477996   -0.003536227452317617   -0.02528976512876263
-0.22636795924193928   0.002143718355683631   0.00042063757593809384
-0.22636795924193928   0.002143718355683631   0.00042063757593809384
-0.22636795924193928   0.002143718355683631   0.00042063757593809384
-0.22636795924193928   0.002143718355683631   0.00042063757593809384
-0.1867496561401637   0.04408996728967619   0.026177749167419117
-0.1867496561401637   0.04408996728967619   0.026177749167419117
-0.1867496561401637   0.04408996728967619   0.026177749167419117
-0.1867496561401637   0.04408996728967619   0.026177749167419117
-0.2506409333722384   -0.012577538808668381   -0.026423786486046968
-0.2506409333722384   -0.012577538808668381   -0.026423786486046968
-0.2506409333722384   -0.012577538808668381   -0.026423786486046968
-0.2506409333722384   -0.012577538808668381   -0.026423786486046968
-0.21900727630894953   0.06264895706214436   0.01195057405862756
-0.21900727630894953   0.06264895706214436   0.01195057405862756
-0.21900727630894953   0.06264895706214436   0.01195057405862756
-0.21900727630894953   0.06264895706214436   0.01195057405862756
-0.19067585747299187   0.025083516923104864   -0.029916148474574772
-0.19067585747299187   0.025083516923104864   -0.029916148474574772
-0.19067585747299187   0.025083516923104864   -0.029916148474574772
-0.19067585747299187   0.025083516923104864   -0.029916148474574772
-0.2108122788043253   0.02792775129409593   0.012325246107946112
-0.2108122788043253   0.02792775129409593   0.012325246107946112
-0.2108122788043253   0.02792775129409593   0.012325246107946112
-0.2108122788043253   0.02792775129409593   0.012325246107946112
-0.26706473469813397   -0.03761064945130904   0.009367654880071543
-0.26706473469813397   -0.03761064945130904   0.009367654880071543
-0.26706473469813397   -0.03761064945130904   0.009367654880071543
-0.26706473469813397   -0.03761064945130904   0.009367654880071543
-0.30449785418431946   -0.03932452652422598   0.008137466343686051
-0.30449785418431946   -0.03932452652422598   0.008137466343686051
-0.30449785418431946   -0.03932452652422598   0.008137466343686051
-0.30449785418431946   -0.03932452652422598   0.008137466343686051
-0.2934731465036214   -0.01789493091397465   -0.0028856138042258374
-0.2934731465036214   -0.01789493091397465   -0.0028856138042258374
-0.2934731465036214   -0.01789493091397465   -0.0028856138042258374
-0.2934731465036214   -0.01789493091397465   -0.0028856138042258374
-0.25284143794379277   -0.005308977703762714   0.0026592842711537085
-0.25284143794379277   -0.005308977703762714   0.0026592842711537085
-0.25284143794379277   -0.005308977703762714   0.0026592842711537085
-0.25284143794379277   -0.005308977703762714   0.0026592842711537085
-0.2798885922061382   -0.02361582964123799   -0.00748573341722512
-0.2798885922061382   -0.02361582964123799   -0.00748573341722512
-0.2798885922061382   -0.02361582964123799   -0.00748573341722512
-0.2798885922061382   -0.02361582964123799   -0.00748573341722512
-0.2530400201829729   -0.008299753178918443   0.004657148550406772
-0.2530400201829729   -0.008299753178918443   0.004657148550406772
-0.2530400201829729   -0.008299753178918443   0.004657148550406772
-0.2530400201829729   -0.008299753178918443   0.004657148550406772
-0.29148702682065963   -0.0131166179950424   0.00226667169165279
-0.29148702682065963   -0.0131166179950424   0.00226667169165279
-0.29148702682065963   -0.0131166179950424   0.00226667169165279
-0.29148702682065963   -0.0131166179950424   0.00226667169165279
-0.27900805720367816   0.011799262099459057   -0.007319107939394651
-0.27900805720367816   0.011799262099459057   -0.007319107939394651
-0.27900805720367816   0.011799262099459057   -0.007319107939394651
-0.27900805720367816   0.011799262099459057   -0.007319107939394651
-0.2391200811598414   0.021621971948972918   -0.0030190361816995817
-0.2391200811598414   0.021621971948972918   -0.0030190361816995817
-0.2391200811598414   0.021621971948972918   -0.0030190361816995817
-0.2391200811598414   0.021621971948972918   -0.0030190361816995817
-0.2647755120656924   0.0029240345054571334   0.004062422839013686
-0.2647755120656924   0.0029240345054571334   0.004062422839013686
-0.2647755120656924   0.0029240345054571334   0.004062422839013686
-0.2647755120656924   0.0029240345054571334   0.004062422839013686
-0.23863215006031094   0.021288986140829823   -0.00024639487590801673
-0.23863215006031094   0.021288986140829823   -0.00024639487590801673
-0.23863215006031094   0.021288986140829823   -0.00024639487590801673
-0.23863215006031094   0.021288986140829823   -0.00024639487590801673
-0.2779363405682975   0.013691895642512608   -0.0038531583055449944
-0.2779363405682975   0.013691895642512608   -0.0038531583055449944
-0.2779363405682975   0.013691895642512608   -0.0038531583055449944
-0.2779363405682975   0.013691895642512608   -0.0038531583055449944
-0.2651571071958103   0.041675611090898776   -0.012320655028285315
-0.2651571071958103   0.041675611090898776   -0.012320655028285315
-0.2651571071958103   0.041675611090898776   -0.012320655028285315
-0.2651571071958103   0.041675611090898776   -0.012320655028285315
-0.22604586652878747   0.04866320448100572   -0.009256624459421586
-0.22604586652878747   0.04866320448100572   -0.009256624459421586
-0.22604586652878747   0.04866320448100572   -0.009256624459421586
-0.22604586652878747   0.04866320448100572   -0.009256624459421586
-0.2503635354570677   0.0295127851502215   0.015069934212530136
-0.2503635354570677   0.0295127851502215   0.015069934212530136
-0.2503635354570677   0.0295127851502215   0.015069934212530136
-0.2503635354570677   0.0295127851502215   0.015069934212530136
-0.31322350835400964   -0.05963219253123968   -0.015183138497756491
-0.31322350835400964   -0.05963219253123968   -0.015183138497756491
-0.31322350835400964   -0.05963219253123968   -0.015183138497756491
-0.31322350835400964   -0.05963219253123968   -0.015183138497756491
-0.3348531222346492   -0.016910894578154236   0.02877437688480261
-0.3348531222346492   -0.016910894578154236   0.02877437688480261
-0.3348531222346492   -0.016910894578154236   0.02877437688480261
-0.3348531222346492   -0.016910894578154236   0.02877437688480261
-0.340274859540173   -0.04107523809802577   -0.02834056987360943
-0.340274859540173   -0.04107523809802577   -0.02834056987360943
-0.340274859540173   -0.04107523809802577   -0.02834056987360943
-0.340274859540173   -0.04107523809802577   -0.02834056987360943
-0.28088614544689355   0.01785812264118545   0.02429633792425313
-0.28088614544689355   0.01785812264118545   0.02429633792425313
-0.28088614544689355   0.01785812264118545   0.02429633792425313
-0.28088614544689355   0.01785812264118545   0.02429633792425313
-0.3159863728896617   -0.023329116519793927   -0.004706509109825639
-0.3159863728896617   -0.023329116519793927   -0.004706509109825639
-0.3159863728896617   -0.023329116519793927   -0.004706509109825639
-0.3159863728896617   -0.023329116519793927   -0.004706509109825639
-0.299582680937151   -0.031278609816558084   -0.020049607069293027
-0.299582680937151   -0.031278609816558084   -0.020049607069293027
-0.299582680937151   -0.031278609816558084   -0.020049607069293027
-0.299582680937151   -0.031278609816558084   -0.020049607069293027
-0.3197041207016164   0.0099356977080165   0.023502188513131208
-0.3197041207016164   0.0099356977080165   0.023502188513131208
-0.3197041207016164   0.0099356977080165   0.023502188513131208
-0.3197041207016164   0.0099356977080165   0.023502188513131208
-0.3213043901351646   -0.01291793420690815   -0.0317977274437532
-0.3213043901351646   -0.01291793420690815   -0.0317977274437532
-0.3213043901351646   -0.01291793420690815   -0.0317977274437532
-0.3213043901351646   -0.01291793420690815   -0.0317977274437532
-0.26786611986616904   0.04214638680504037   0.018043454042567464
-0.26786611986616904   0.04214638680504037   0.018043454042567464
-0.26786611986616904   0.04214638680504037   0.018043454042567464
-0.26786611986616904   0.04214638680504037   0.018043454042567464
-0.2988053041697684   0.0022320001121570593   0.007215493987480667
-0.2988053041697684   0.0022320001121570593   0.007215493987480667
-0.2988053041697684   0.0022320001121570593   0.007215493987480667
-0.2988053041697684   0.0022320001121570593   0.007215493987480667
-0.28598283851144085   -0.004644024057636462   -0.025749728321118468
-0.28598283851144085   -0.004644024057636462   -0.025749728321118468
-0.28598283851144085   -0.004644024057636462   -0.025749728321118468
-0.28598283851144085   -0.004644024057636462   -0.025749728321118468
-0.30129360346139133   0.035766544684264726   0.019571727033942235
-0.30129360346139133   0.035766544684264726   0.019571727033942235
-0.30129360346139133   0.035766544684264726   0.019571727033942235
-0.30129360346139133   0.035766544684264726   0.019571727033942235
-0.3047057011809695   0.01809892756569524   -0.03489494726384901
-0.3047057011809695   0.01809892756569524   -0.03489494726384901
-0.3047057011809695   0.01809892756569524   -0.03489494726384901
-0.3047057011809695   0.01809892756569524   -0.03489494726384901
-0.25481038917285814   0.06921241111027854   0.01187613506709568
-0.25481038917285814   0.06921241111027854   0.01187613506709568
-0.25481038917285814   0.06921241111027854   0.01187613506709568
-0.25481038917285814   0.06921241111027854   0.01187613506709568
-0.2842255876751075   0.027589224948767657   0.018612204705039957
-0.2842255876751075   0.027589224948767657   0.018612204705039957
-0.2842255876751075   0.027589224948767657   0.018612204705039957
-0.2842255876751075   0.027589224948767657   0.018612204705039957
-0.35902194930558845   -0.07092142736747294   -0.03805922568058234
-0.35902194930558845   -0.07092142736747294   -0.03805922568058234
-0.35902194930558845   -0.07092142736747294   -0.03805922568058234
-0.35902194930558845   -0.07092142736747294   -0.03805922568058234
-0.3975292538912135   0.005364926278916146   0.05181153627066526
-0.3975292538912135   0.005364926278916146   0.05181153627066526
-0.3975292538912135   0.005364926278916146   0.05181153627066526
-0.3975292538912135   0.005364926278916146   0.05181153627066526
-0.39224907244330764   -0.059059987833636154   -0.05070839363883074
-0.39224907244330764   -0.059059987833636154   -0.05070839363883074
-0.39224907244330764   -0.059059987833636154   -0.05070839363883074
-0.39224907244330764   -0.059059987833636154   -0.05070839363883074
-0.3081583835300061   0.04472589044819428   0.046440681631000943
-0.3081583835300061   0.04472589044819428   0.046440681631000943
-0.3081583835300061   0.04472589044819428   0.046440681631000943
-0.3081583835300061   0.04472589044819428   0.046440681631000943
-0.3496339370666452   -0.015270142195237812   -0.0022929137630883986
-0.3496339370666452   -0.015270142195237812   -0.0022929137630883986
-0.3496339370666452   -0.015270142195237812   -0.0022929137630883986
-0.3496339370666452   -0.015270142195237812   -0.0022929137630883986
-0.34471904138220216   -0.04811637194167477   -0.04352034524011404
-0.34471904138220216   -0.04811637194167477   -0.04352034524011404
-0.34471904138220216   -0.04811637194167477   -0.04352034524011404
-0.34471904138220216   -0.04811637194167477   -0.04352034524011404
-0.35370744158983297   0.035763247557507774   0.04717652523739531
-0.35370744158983297   0.035763247557507774   0.04717652523739531
-0.35370744158983297   0.035763247557507774   0.04717652523739531
-0.35370744158983297   0.035763247557507774   0.04717652523739531
-0.3594576947222854   -0.04262505350002027   -0.060446056105766185
-0.3594576947222854   -0.04262505350002027   -0.060446056105766185
-0.3594576947222854   -0.04262505350002027   -0.060446056105766185
-0.3594576947222854   -0.04262505350002027   -0.060446056105766185
-0.293497468579051   0.056302138944888405   0.03801680718501829
-0.293497468579051   0.056302138944888405   0.03801680718501829
-0.293497468579051   0.056302138944888405   0.03801680718501829
-0.293497468579051   0.056302138944888405   0.03801680718501829
-0.3274685705812151   0.0019102473785291008   0.009141988851051375
-0.3274685705812151   0.0019102473785291008   0.009141988851051375
-0.3274685705812151   0.0019102473785291008   0.009141988851051375
-0.3274685705812151   0.0019102473785291008   0.009141988851051375
-0.3293508130820363   -0.034586684356518294   -0.05036109202850546
-0.3293508130820363   -0.034586684356518294   -0.05036109202850546
-0.3293508130820363   -0.034586684356518294   -0.05036109202850546
-0.3293508130820363   -0.034586684356518294   -0.05036109202850546
-0.32152784110169746   0.05034027891898847   0.0362378795781651
-0.32152784110169746   0.05034027891898847   0.0362378795781651
-0.32152784110169746   0.05034027891898847   0.0362378795781651
-0.32152784110169746   0.05034027891898847   0.0362378795781651
-0.3163972890892364   -0.014200021515162878   -0.06606595145248739
-0.3163972890892364   -0.014200021515162878   -0.06606595145248739
-0.3163972890892364   -0.014200021515162878   -0.06606595145248739
-0.3163972890892364   -0.014200021515162878   -0.06606595145248739
-0.28037261510543615   0.07355566242602397   0.03131374825348512
-0.28037261510543615   0.07355566242602397   0.03131374825348512
-0.28037261510543615   0.07355566242602397   0.03131374825348512
-0.28037261510543615   0.07355566242602397   0.03131374825348512
-0.29708692168600215   0.019068637434990057   0.022387713053069625
-0.29708692168600215   0.019068637434990057   0.022387713053069625
-0.29708692168600215   0.019068637434990057   0.022387713053069625
-0.29708692168600215   0.019068637434990057   0.022387713053069625
0.2173385422577467   0.03511086551916233   0.056567489324335404
0.2173385422577467   0.03511086551916233   0.056567489324335404
0.2173385422577467   0.03511086551916233   0.056567489324335404
0.2173385422577467   0.03511086551916233   0.056567489324335404
-0.005077344212999706   -0.09088080922559248   -0.03733523415968305
-0.005077344212999706   -0.09088080922559248   -0.03733523415968305
-0.005077344212999706   -0.09088080922559248   -0.03733523415968305
-0.005077344212999706   -0.09088080922559248   -0.03733523415968305
0.04831622884672351   0.01771360100843295   0.043696808915559014
0.04831622884672351   0.01771360100843295   0.043696808915559014
0.04831622884672351   0.01771360100843295   0.043696808915559014
0.04831622884672351   0.01771360100843295   0.043696808915559014
0.2266692218372039   -0.03174790886129904   -0.0467419731816417
0.2266692218372039   -0.03174790886129904   -0.0467419731816417
0.2266692218372039   -0.03174790886129904   -0.0467419731816417
0.2266692218372039   -0.03174790886129904   -0.0467419731816417
0.11092602485214481   -0.017622714774958206   -0.026963787571579127
0.11092602485214481   -0.017622714774958206   -0.026963787571579127
0.11092602485214481   -0.017622714774958206   -0.026963787571579127
0.11092602485214481   -0.017622714774958206   -0.026963787571579127
0.26508269473446266   0.06253585740961638   0.05104162503373694
0.26508269473446266   0.06253585740961638   0.05104162503373694
0.26508269473446266   0.06253585740961638   0.05104162503373694
0.26508269473446266   0.06253585740961638   0.05104162503373694
0.012269708218314999   -0.07420321299363217   -0.04461898022441842
0.012269708218314999   -0.07420321299363217   -0.04461898022441842
0.012269708218314999   -0.07420321299363217   -0.04461898022441842
0.012269708218314999   -0.07420321299363217   -0.04461898022441842
0.06775163636567154   0.03090849874900979   0.03646318697419708
0.06775163636567154   0.03090849874900979   0.03646318697419708
0.06775163636567154   0.03090849874900979   0.03646318697419708
0.06775163636567154   0.03090849874900979   0.03646318697419708
0.2639313572324047   -0.01684317167132547   -0.05846277277509739
0.2639313572324047   -0.01684317167132547   -0.05846277277509739
0.2639313572324047   -0.01684317167132547   -0.05846277277509739
0.2639313572324047   -0.01684317167132547   -0.05846277277509739
0.144556520460156   -0.001176767990937421   -0.012687985009242186
0.144556520460156   -0.001176767990937421   -0.012687985009242186
0.144556520460156   -0.001176767990937421   -0.012687985009242186
0.144556520460156   -0.001176767990937421   -0.012687985009242186
0.30276244157456966   0.07865659820735871   0.0401928790570435
0.30276244157456966   0.07865659820735871   0.0401928790570435
0.30276244157456966   0.07865659820735871   0.0401928790570435
0.30276244157456966   0.07865659820735871   0.0401928790570435
0.031234008607055178   -0.06227781454612573   -0.052938638523749186
0.031234008607055178   -0.06227781454612573   -0.052938638523749186
0.031234008607055178   -0.06227781454612573   -0.052938638523749186
0.031234008607055178   -0.06227781454612573   -0.052938638523749186
0.08661174374087426   0.055141800225049095   0.0315530284285873
0.08661174374087426   0.055141800225049095   0.0315530284285873
0.08661174374087426   0.055141800225049095   0.0315530284285873
0.08661174374087426   0.055141800225049095   0.0315530284285873
0.31340004819819994   0.016514497711672398   -0.06447067203684814
0.31340004819819994   0.016514497711672398   -0.06447067203684814
0.31340004819819994   0.016514497711672398   -0.06447067203684814
0.31340004819819994   0.016514497711672398   -0.06447067203684814
0.17276197937473228   0.017260735636916862   0.0008048293496315138
0.17276197937473228   0.017260735636916862   0.0008048293496315138
0.17276197937473228   0.017260735636916862   0.0008048293496315138
0.17276197937473228   0.017260735636916862   0.0008048293496315138
0.03015247240356794   0.009509751893604354   0.03842328780396218
0.03015247240356794   0.009509751893604354   0.03842328780396218
0.03015247240356794   0.009509751893604354   0.03842328780396218
0.03015247240356794   0.009509751893604354   0.03842328780396218
-0.20616728261397513   -0.07717138341438934   -0.017129838115076852
-0.20616728261397513   -0.07717138341438934   -0.017129838115076852
-0.20616728261397513   -0.07717138341438934   -0.017129838115076852
-0.20616728261397513   -0.07717138341438934   -0.017129838115076852
-0.1724936241137274   -0.011234653906586133   0.0175437117966021
-0.1724936241137274   -0.011234653906586133   0.0175437117966021
-0.1724936241137274   -0.011234653906586133   0.0175437117966021
-0.1724936241137274   -0.011234653906586133   0.0175437117966021
0.03155789416170426   -0.008791032384567108   -0.013590231116537184
0.03155789416170426   -0.008791032384567108   -0.013590231116537184
0.03155789416170426   -0.008791032384567108   -0.013590231116537184
0.03155789416170426   -0.008791032384567108   -0.013590231116537184
-0.08094169121486884   -0.019945845617974037   -0.012955063103557183
-0.08094169121486884   -0.019945845617974037   -0.012955063103557183
-0.08094169121486884   -0.019945845617974037   -0.012955063103557183
-0.08094169121486884   -0.019945845617974037   -0.012955063103557183
0.05017307665438809   0.03660739473348358   0.03408725422883515
0.05017307665438809   0.03660739473348358   0.03408725422883515
0.05017307665438809   0.03660739473348358   0.03408725422883515
0.05017307665438809   0.03660739473348358   0.03408725422883515
-0.1893844974815587   -0.05490877189978362   -0.02323653704935679
-0.1893844974815587   -0.05490877189978362   -0.02323653704935679
-0.1893844974815587   -0.05490877189978362   -0.02323653704935679
-0.1893844974815587   -0.05490877189978362   -0.02323653704935679
-0.15477426447695575   0.014360102938139725   0.01239775335271091
-0.15477426447695575   0.014360102938139725   0.01239775335271091
-0.15477426447695575   0.014360102938139725   0.01239775335271091
-0.15477426447695575   0.014360102938139725   0.01239775335271091
0.05369761632464298   0.015495284602075431   -0.018393699084011297
0.05369761632464298   0.015495284602075431   -0.018393699084011297
0.05369761632464298   0.015495284602075431   -0.018393699084011297
0.05369761632464298   0.015495284602075431   -0.018393699084011297
-0.062159097045563313   0.0026306342464427618   -0.0015794918720765756
-0.062159097045563313   0.0026306342464427618   -0.0015794918720765756
-0.062159097045563313   0.0026306342464427618   -0.0015794918720765756
-0.062159097045563313   0.0026306342464427618   -0.0015794918720765756
0.07309636713403281   0.06356145541900336   0.030533884146009868
0.07309636713403281   0.06356145541900336   0.030533884146009868
0.07309636713403281   0.06356145541900336   0.030533884146009868
0.07309636713403281   0.06356145541900336   0.030533884146009868
-0.17251314256378578   -0.032046195156218184   -0.029890338987081294
-0.17251314256378578   -0.032046195156218184   -0.029890338987081294
-0.17251314256378578   -0.032046195156218184   -0.029890338987081294
-0.17251314256378578   -0.032046195156218184   -0.029890338987081294
-0.13694838452007346   0.043310716060236995   0.007492374258167473
-0.13694838452007346   0.043310716060236995   0.007492374258167473
-0.13694838452007346   0.043310716060236995   0.007492374258167473
-0.13694838452007346   0.043310716060236995   0.007492374258167473
0.07318372308502749   0.043039881744440275   -0.023485156370041525
0.07318372308502749   0.043039881744440275   -0.023485156370041525
0.07318372308502749   0.043039881744440275   -0.023485156370041525
0.07318372308502749   0.043039881744440275   -0.023485156370041525
-0.041381046462215285   0.02756304711126056   0.01055037171815809
-0.041381046462215285   0.02756304711126056   0.01055037171815809
-0.041381046462215285   0.02756304711126056   0.01055037171815809
-0.041381046462215285   0.02756304711126056   0.01055037171815809
-0.18749756521882335   -0.014785407425504184   0.013832772871798921
-0.18749756521882335   -0.014785407425504184   0.013832772871798921
-0.18749756521882335   -0.014785407425504184   0.013832772871798921
-0.18749756521882335   -0.014785407425504184   0.013832772871798921
-0.4036095574538471   -0.05487258695862762   0.003544448390145623
-0.4036095574538471   -0.05487258695862762   0.003544448390145623
-0.4036095574538471   -0.05487258695862762   0.003544448390145623
-0.4036095574538471   -0.05487258695862762   0.003544448390145623
-0.3881027629939783   -0.03441335582365701   -0.00760128127813231
-0.3881027629939783   -0.03441335582365701   -0.00760128127813231
-0.3881027629939783   -0.03441335582365701   -0.00760128127813231
-0.3881027629939783   -0.03441335582365701   -0.00760128127813231
-0.16917622537467772   0.014327834641338168   0.008568216943928128
-0.16917622537467772   0.014327834641338168   0.008568216943928128
-0.16917622537467772   0.014327834641338168   0.008568216943928128
-0.16917622537467772   0.014327834641338168   0.008568216943928128
-0.2875157322811899   -0.020602348847999184   -0.007547583395168525
-0.2875157322811899   -0.020602348847999184   -0.007547583395168525
-0.2875157322811899   -0.020602348847999184   -0.007547583395168525
-0.2875157322811899   -0.020602348847999184   -0.007547583395168525
-0.1693926955765808   0.012676378358827498   0.009137322216923456
-0.1693926955765808   0.012676378358827498   0.009137322216923456
-0.1693926955765808   0.012676378358827498   0.009137322216923456
-0.1693926955765808   0.012676378358827498   0.009137322216923456
-0.3864061406135946   -0.03128174736267593   -0.0022497778371947906
-0.3864061406135946   -0.03128174736267593   -0.0022497778371947906
-0.3864061406135946   -0.03128174736267593   -0.0022497778371947906
-0.3864061406135946   -0.03128174736267593   -0.0022497778371947906
-0.3694686687807544   -0.00623458849910552   -0.011953250801178789
-0.3694686687807544   -0.00623458849910552   -0.011953250801178789
-0.3694686687807544   -0.00623458849910552   -0.011953250801178789
-0.3694686687807544   -0.00623458849910552   -0.011953250801178789
-0.15163270174666055   0.03930841122062379   0.0031572587217047025
-0.15163270174666055   0.03930841122062379   0.0031572587217047025
-0.15163270174666055   0.03930841122062379   0.0031572587217047025
-0.15163270174666055   0.03930841122062379   0.0031572587217047025
-0.2682750445809034   0.004146311483776782   0.003914560132515267
-0.2682750445809034   0.004146311483776782   0.003914560132515267
-0.2682750445809034   0.004146311483776782   0.003914560132515267
-0.2682750445809034   0.004146311483776782   0.003914560132515267
-0.15117601099252476   0.040637014967814716   0.004112108745192761
-0.15117601099252476   0.040637014967814716   0.004112108745192761
-0.15117601099252476   0.040637014967814716   0.004112108745192761
-0.15117601099252476   0.040637014967814716   0.004112108745192761
-0.3687416521931251   -0.006379484904537047   -0.008173271457604266
-0.3687416521931251   -0.006379484904537047   -0.008173271457604266
-0.3687416521931251   -0.006379484904537047   -0.008173271457604266
-0.3687416521931251   -0.006379484904537047   -0.008173271457604266
-0.3515862339034247   0.022023075705987424   -0.016916900959875848
-0.3515862339034247   0.022023075705987424   -0.016916900959875848
-0.3515862339034247   0.022023075705987424   -0.016916900959875848
-0.3515862339034247   0.022023075705987424   -0.016916900959875848
-0.1348517711641748   0.0643624856448477   -0.0030763285469459223
-0.1348517711641748   0.0643624856448477   -0.0030763285469459223
-0.1348517711641748   0.0643624856448477   -0.0030763285469459223
-0.1348517711641748   0.0643624856448477   -0.0030763285469459223
-0.25003985623898434   0.028827659817742213   0.01462854068287121
-0.25003985623898434   0.028827659817742213   0.01462854068287121
-0.25003985623898434   0.028827659817742213   0.01462854068287121
-0.25003985623898434   0.028827659817742213   0.01462854068287121
-0.40338025610650036   -0.03867293591320011   -0.011508695918544956
-0.40338025610650036   -0.03867293591320011   -0.011508695918544956
-0.40338025610650036   -0.03867293591320011   -0.011508695918544956
-0.40338025610650036   -0.03867293591320011   -0.011508695918544956
-0.5990647533585638   -0.033913027910729907   0.023838023534392298
-0.5990647533585638   -0.033913027910729907   0.023838023534392298
-0.5990647533585638   -0.033913027910729907   0.023838023534392298
-0.5990647533585638   -0.033913027910729907   0.023838023534392298
-0.5993051766555237   -0.05711637729389531   -0.03215713054252051
-0.5993051766555237   -0.05711637729389531   -0.03215713054252051
-0.5993051766555237   -0.05711637729389531   -0.03215713054252051
-0.5993051766555237   -0.05711637729389531   -0.03215713054252051
-0.36657770952155083   0.03640441241001463   0.029206217850333328
-0.36657770952155083   0.03640441241001463   0.029206217850333328
-0.36657770952155083   0.03640441241001463   0.029206217850333328
-0.36657770952155083   0.03640441241001463   0.029206217850333328
-0.48932810108772634   -0.020933788577042672   -0.0031816066118228424
-0.48932810108772634   -0.020933788577042672   -0.0031816066118228424
-0.48932810108772634   -0.020933788577042672   -0.0031816066118228424
-0.48932810108772634   -0.020933788577042672   -0.0031816066118228424
-0.38512107152610325   -0.011057805093319231   -0.016048374669091304
-0.38512107152610325   -0.011057805093319231   -0.016048374669091304
-0.38512107152610325   -0.011057805093319231   -0.016048374669091304
-0.38512107152610325   -0.011057805093319231   -0.016048374669091304
-0.5795368198685906   -0.008429165008174158   0.017997441106429122
-0.5795368198685906   -0.008429165008174158   0.017997441106429122
-0.5795368198685906   -0.008429165008174158   0.017997441106429122
-0.5795368198685906   -0.008429165008174158   0.017997441106429122
-0.5759498883423467   -0.03023529021879004   -0.03578116260037617
-0.5759498883423467   -0.03023529021879004   -0.03578116260037617
-0.5759498883423467   -0.03023529021879004   -0.03578116260037617
-0.5759498883423467   -0.03023529021879004   -0.03578116260037617
-0.34935455315589364   0.059138208080949134   0.023244530743070403
-0.34935455315589364   0.059138208080949134   0.023244530743070403
-0.34935455315589364   0.059138208080949134   0.023244530743070403
-0.34935455315589364   0.059138208080949134   0.023244530743070403
-0.4662410566430217   0.0040148329658799   0.008630517193988482
-0.4662410566430217   0.0040148329658799   0.008630517193988482
-0.4662410566430217   0.0040148329658799   0.008630517193988482
-0.4662410566430217   0.0040148329658799   0.008630517193988482
-0.3672827091759508   0.014335641566092364   -0.02159368284236008
-0.3672827091759508   0.014335641566092364   -0.02159368284236008
-0.3672827091759508   0.014335641566092364   -0.02159368284236008
-0.3672827091759508   0.014335641566092364   -0.02159368284236008
-0.5566444252229101   0.015944583395445938   0.01456627938257097
-0.5566444252229101   0.015944583395445938   0.01456627938257097
-0.5566444252229101   0.015944583395445938   0.01456627938257097
-0.5566444252229101   0.015944583395445938   0.01456627938257097
-0.5550574311918136   -0.000915722704927846   -0.03851749198998074
-0.5550574311918136   -0.000915722704927846   -0.03851749198998074
-0.5550574311918136   -0.000915722704927846   -0.03851749198998074
-0.5550574311918136   -0.000915722704927846   -0.03851749198998074
-0.33231090766762983   0.08424502624723634   0.017237779677849466
-0.33231090766762983   0.08424502624723634   0.017237779677849466
-0.33231090766762983   0.08424502624723634   0.017237779677849466
-0.33231090766762983   0.08424502624723634   0.017237779677849466
-0.4489727883475533   0.02728033471100029   0.019216423980988703
-0.4489727883475533   0.02728033471100029   0.019216423980988703
-0.4489727883475533   0.02728033471100029   0.019216423980988703
-0.4489727883475533   0.02728033471100029   0.019216423980988703
-0.6151564888563322   -0.05552463695106384   -0.03500904491411591
-0.6151564888563322   -0.05552463695106384   -0.03500904491411591
-0.6151564888563322   -0.05552463695106384   -0.03500904491411591
-0.6151564888563322   -0.05552463695106384   -0.03500904491411591
-0.8219151779444384   -0.014536708648009128   0.05168471407439179
-0.8219151779444384   -0.014536708648009128   0.05168471407439179
-0.8219151779444384   -0.014536708648009128   0.05168471407439179
-0.8219151779444384   -0.014536708648009128   0.05168471407439179
-0.8105333182680189   -0.07438508874760863   -0.04673927961000077
-0.8105333182680189   -0.07438508874760863   -0.04673927961000077
-0.8105333182680189   -0.07438508874760863   -0.04673927961000077
-0.8105333182680189   -0.07438508874760863   -0.04673927961000077
-0.5589528035505824   0.061537782175130396   0.050950575513160644
-0.5589528035505824   0.061537782175130396   0.050950575513160644
-0.5589528035505824   0.061537782175130396   0.050950575513160644
-0.5589528035505824   0.061537782175130396   0.050950575513160644
-0.6713871561820391   -0.011920820434394547   0.005596550731143388
-0.6713871561820391   -0.011920820434394547   0.005596550731143388
-0.6713871561820391   -0.011920820434394547   0.005596550731143388
-0.6713871561820391   -0.011920820434394547   0.005596550731143388
-0.5953546101147549   -0.029921355184557935   -0.03959931994801137
-0.5953546101147549   -0.029921355184557935   -0.03959931994801137
-0.5953546101147549   -0.029921355184557935   -0.03959931994801137
-0.5953546101147549   -0.029921355184557935   -0.03959931994801137
-0.773018804749509   0.01818675556641522   0.04826144366851134
-0.773018804749509   0.01818675556641522   0.04826144366851134
-0.773018804749509   0.01818675556641522   0.04826144366851134
-0.773018804749509   0.01818675556641522   0.04826144366851134
-0.7735541562071814   -0.05843922235130887   -0.05563331166783771
-0.7735541562071814   -0.05843922235130887   -0.05563331166783771
-0.7735541562071814   -0.05843922235130887   -0.05563331166783771
-0.7735541562071814   -0.05843922235130887   -0.05563331166783771
-0.5399407456329196   0.07202230981063895   0.04200695091732554
-0.5399407456329196   0.07202230981063895   0.04200695091732554
-0.5399407456329196   0.07202230981063895   0.04200695091732554
-0.5399407456329196   0.07202230981063895   0.04200695091732554
-0.6504557273672832   0.004816879620689052   0.01513324902291404
-0.6504557273672832   0.004816879620689052   0.01513324902291404
-0.6504557273672832   0.004816879620689052   0.01513324902291404
-0.6504557273672832   0.004816879620689052   0.01513324902291404
-0.5752530503058292   -0.01679899280398381   -0.04573326983259506
-0.5752530503058292   -0.01679899280398381   -0.04573326983259506
-0.5752530503058292   -0.01679899280398381   -0.04573326983259506
-0.5752530503058292   -0.01679899280398381   -0.04573326983259506
-0.736881865382322   0.03174206641526808   0.037546853689873795
-0.736881865382322   0.03174206641526808   0.037546853689873795
-0.736881865382322   0.03174206641526808   0.037546853689873795
-0.736881865382322   0.03174206641526808   0.037546853689873795
-0.7279783973912372   -0.03463781372348049   -0.062047850208236256
-0.7279783973912372   -0.03463781372348049   -0.062047850208236256
-0.7279783973912372   -0.03463781372348049   -0.062047850208236256
-0.7279783973912372   -0.03463781372348049   -0.062047850208236256
-0.5232399067850747   0.08466345078978099   0.03499095654900507
-0.5232399067850747   0.08466345078978099   0.03499095654900507
-0.5232399067850747   0.08466345078978099   0.03499095654900507
-0.5232399067850747   0.08466345078978099   0.03499095654900507
-0.6111644255009488   0.020489544766770285   0.028574017498902204
-0.6111644255009488   0.020489544766770285   0.028574017498902204
-0.6111644255009488   0.020489544766770285   0.028574017498902204
-0.6111644255009488   0.020489544766770285   0.028574017498902204
0.6516919033254674   0.05923178759551852   0.056458502407374114
0.6516919033254674   0.05923178759551852   0.056458502407374114
0.6516919033254674   0.05923178759551852   0.056458502407374114
0.6516919033254674   0.05923178759551852   0.056458502407374114
0.23859253555936757   -0.10818355550536976   -0.03715907528661975
0.23859253555936757   -0.10818355550536976   -0.03715907528661975
0.23859253555936757   -0.10818355550536976   -0.03715907528661975
0.23859253555936757   -0.10818355550536976   -0.03715907528661975
0.2945002581968657   -0.0007104347078778911   0.040614361225832944
0.2945002581968657   -0.0007104347078778911   0.040614361225832944
0.2945002581968657   -0.0007104347078778911   0.040614361225832944
0.2945002581968657   -0.0007104347078778911   0.040614361225832944
0.6634471535654892   -0.01489664995593909   -0.04744563032847158
0.6634471535654892   -0.01489664995593909   -0.04744563032847158
0.6634471535654892   -0.01489664995593909   -0.04744563032847158
0.6634471535654892   -0.01489664995593909   -0.04744563032847158
0.4336385656575581   -0.019542086158438735   -0.041832350931818585
0.4336385656575581   -0.019542086158438735   -0.041832350931818585
0.4336385656575581   -0.019542086158438735   -0.041832350931818585
0.4336385656575581   -0.019542086158438735   -0.041832350931818585
0.7022357416693781   0.08252826815705258   0.04907239207797289
0.7022357416693781   0.08252826815705258   0.04907239207797289
0.7022357416693781   0.08252826815705258   0.04907239207797289
0.7022357416693781   0.08252826815705258   0.04907239207797289
0.2584612520060613   -0.09538577090778581   -0.044905333528277296
0.2584612520060613   -0.09538577090778581   -0.044905333528277296
0.2584612520060613   -0.09538577090778581   -0.044905333528277296
0.2584612520060613   -0.09538577090778581   -0.044905333528277296
0.31652670197329663   0.01206569172597216   0.03348619947049878
0.31652670197329663   0.01206569172597216   0.03348619947049878
0.31652670197329663   0.01206569172597216   0.03348619947049878
0.31652670197329663   0.01206569172597216   0.03348619947049878
0.7036529757771206   -0.00037849655283417327   -0.05975058338895516
0.7036529757771206   -0.00037849655283417327   -0.05975058338895516
0.7036529757771206   -0.00037849655283417327   -0.05975058338895516
0.7036529757771206   -0.00037849655283417327   -0.05975058338895516
0.47563961907753993   -0.003864904393810084   -0.025347456451346194
0.47563961907753993   -0.003864904393810084   -0.025347456451346194
0.47563961907753993   -0.003864904393810084   -0.025347456451346194
0.47563961907753993   -0.003864904393810084   -0.025347456451346194
0.7428679714667527   0.09818823785986358   0.03775766064649987
0.7428679714667527   0.09818823785986358   0.03775766064649987
0.7428679714667527   0.09818823785986358   0.03775766064649987
0.7428679714667527   0.09818823785986358   0.03775766064649987
0.2802335535555301   -0.0835791954148607   -0.052334655477497265
0.2802335535555301   -0.0835791954148607   -0.052334655477497265
0.2802335535555301   -0.0835791954148607   -0.052334655477497265
0.2802335535555301   -0.0835791954148607   -0.052334655477497265
0.33852341162206734   0.04023777687657415   0.02902236036379322
0.33852341162206734   0.04023777687657415   0.02902236036379322
0.33852341162206734   0.04023777687657415   0.02902236036379322
0.33852341162206734   0.04023777687657415   0.02902236036379322
0.756458368965819   0.03748257966835665   -0.06444880273438423
0.756458368965819   0.03748257966835665   -0.06444880273438423
0.756458368965819   0.03748257966835665   -0.06444880273438423
0.756458368965819   0.03748257966835665   -0.06444880273438423
0.5015133666259398   0.015215765065096754   -0.011097247960528002
0.5015133666259398   0.015215765065096754   -0.011097247960528002
0.5015133666259398   0.015215765065096754   -0.011097247960528002
0.5015133666259398   0.015215765065096754   -0.011097247960528002
0.2833301900362559   0.033186005880968296   0.045159635711480225
0.2833301900362559   0.033186005880968296   0.045159635711480225
0.2833301900362559   0.033186005880968296   0.045159635711480225
0.2833301900362559   0.033186005880968296   0.045159635711480225
-0.13821392972546534   -0.10094715102632877   -0.019472067399018862
-0.13821392972546534   -0.10094715102632877   -0.019472067399018862
-0.13821392972546534   -0.10094715102632877   -0.019472067399018862
-0.13821392972546534   -0.10094715102632877   -0.019472067399018862
-0.09978731565206553   -0.029610355970809417   0.01365836076602105
-0.09978731565206553   -0.029610355970809417   0.01365836076602105
-0.09978731565206553   -0.029610355970809417   0.01365836076602105
-0.09978731565206553   -0.029610355970809417   0.01365836076602105
0.2855201591675964   0.0009502256962600625   -0.0059467943246480255
0.2855201591675964   0.0009502256962600625   -0.0059467943246480255
0.2855201591675964   0.0009502256962600625   -0.0059467943246480255
0.2855201591675964   0.0009502256962600625   -0.0059467943246480255
0.07898372025701898   -0.021305228162750482   -0.017811214581378465
0.07898372025701898   -0.021305228162750482   -0.017811214581378465
0.07898372025701898   -0.021305228162750482   -0.017811214581378465
0.07898372025701898   -0.021305228162750482   -0.017811214581378465
0.30596140203059535   0.05687470379153267   0.04033494189507062
0.30596140203059535   0.05687470379153267   0.04033494189507062
0.30596140203059535   0.05687470379153267   0.04033494189507062
0.30596140203059535   0.05687470379153267   0.04033494189507062
-0.1185690245189573   -0.08387530006997573   -0.025985239469273377
-0.1185690245189573   -0.08387530006997573   -0.025985239469273377
-0.1185690245189573   -0.08387530006997573   -0.025985239469273377
-0.1185690245189573   -0.08387530006997573   -0.025985239469273377
-0.07926964381930682   -0.005693531247183409   0.008629481813613626
-0.07926964381930682   -0.005693531247183409   0.008629481813613626
-0.07926964381930682   -0.005693531247183409   0.008629481813613626
-0.07926964381930682   -0.005693531247183409   0.008629481813613626
0.30967627132353964   0.022404094525761968   -0.011104356578072074
0.30967627132353964   0.022404094525761968   -0.011104356578072074
0.30967627132353964   0.022404094525761968   -0.011104356578072074
0.30967627132353964   0.022404094525761968   -0.011104356578072074
0.09880295970259231   -0.002409460497156301   -0.007081051966154016
0.09880295970259231   -0.002409460497156301   -0.007081051966154016
0.09880295970259231   -0.002409460497156301   -0.007081051966154016
0.09880295970259231   -0.002409460497156301   -0.007081051966154016
0.3309360885427844   0.08178456972607326   0.035814254317836455
0.3309360885427844   0.08178456972607326   0.035814254317836455
0.3309360885427844   0.08178456972607326   0.035814254317836455
0.3309360885427844   0.08178456972607326   0.035814254317836455
-0.09886674437878   -0.06341128978772889   -0.031638262443206756
-0.09886674437878   -0.06341128978772889   -0.031638262443206756
-0.09886674437878   -0.06341128978772889   -0.031638262443206756
-0.09886674437878   -0.06341128978772889   -0.031638262443206756
-0.05900796120121487   0.022023503567230783   0.003624637030122682
-0.05900796120121487   0.022023503567230783   0.003624637030122682
-0.05900796120121487   0.022023503567230783   0.003624637030122682
-0.05900796120121487   0.022023503567230783   0.003624637030122682
0.331091877085199   0.04795801353718394   -0.015855548981154557
0.331091877085199   0.04795801353718394   -0.015855548981154557
0.331091877085199   0.04795801353718394   -0.015855548981154557
0.331091877085199   0.04795801353718394   -0.015855548981154557
0.1233061510242365   0.020771297942287107   0.0054486279736538365
0.1233061510242365   0.020771297942287107   0.0054486279736538365
0.1233061510242365   0.020771297942287107   0.0054486279736538365
0.1233061510242365   0.020771297942287107   0.0054486279736538365
-0.10884500394913227   0.007213763462958475   0.01921164699336128
-0.10884500394913227   0.007213763462958475   0.01921164699336128
-0.10884500394913227   0.007213763462958475   0.01921164699336128
-0.10884500394913227   0.007213763462958475   0.01921164699336128
-0.5075443857606721   -0.08915637569010275   -0.0025879694279080418
-0.5075443857606721   -0.08915637569010275   -0.0025879694279080418
-0.5075443857606721   -0.08915637569010275   -0.0025879694279080418
-0.5075443857606721   -0.08915637569010275   -0.0025879694279080418
-0.48322536717596165   -0.05257966285439651   -0.01192012873343069
-0.48322536717596165   -0.05257966285439651   -0.01192012873343069
-0.48322536717596165   -0.05257966285439651   -0.01192012873343069
-0.48322536717596165   -0.05257966285439651   -0.01192012873343069
-0.09136766158169514   0.013383048926717312   0.012763226220344396
-0.09136766158169514   0.013383048926717312   0.012763226220344396
-0.09136766158169514   0.013383048926717312   0.012763226220344396
-0.09136766158169514   0.013383048926717312   0.012763226220344396
-0.29826802049565615   -0.027398416335487875   -0.011122633312737091
-0.29826802049565615   -0.027398416335487875   -0.011122633312737091
-0.29826802049565615   -0.027398416335487875   -0.011122633312737091
-0.29826802049565615   -0.027398416335487875   -0.011122633312737091
-0.08731003146945314   0.03189526264604349   0.014539163062230126
-0.08731003146945314   0.03189526264604349   0.014539163062230126
-0.08731003146945314   0.03189526264604349   0.014539163062230126
-0.08731003146945314   0.03189526264604349   0.014539163062230126
-0.4861713822876882   -0.06998026157320184   -0.009249605573258301
-0.4861713822876882   -0.06998026157320184   -0.009249605573258301
-0.4861713822876882   -0.06998026157320184   -0.009249605573258301
-0.4861713822876882   -0.06998026157320184   -0.009249605573258301
-0.46060981874651813   -0.02633885075202473   -0.016101934141649645
-0.46060981874651813   -0.02633885075202473   -0.016101934141649645
-0.46060981874651813   -0.02633885075202473   -0.016101934141649645
-0.46060981874651813   -0.02633885075202473   -0.016101934141649645
-0.07139842511149821   0.03505675306604937   0.007235291039423844
-0.07139842511149821   0.03505675306604937   0.007235291039423844
-0.07139842511149821   0.03505675306604937   0.007235291039423844
-0.07139842511149821   0.03505675306604937   0.007235291039423844
-0.27545627488439   -0.005444431919434327   -0.00016858030634790515
-0.27545627488439   -0.005444431919434327   -0.00016858030634790515
-0.27545627488439   -0.005444431919434327   -0.00016858030634790515
-0.27545627488439   -0.005444431919434327   -0.00016858030634790515
-0.06650064092995472   0.057549637201885134   0.009231327811305581
-0.06650064092995472   0.057549637201885134   0.009231327811305581
-0.06650064092995472   0.057549637201885134   0.009231327811305581
-0.06650064092995472   0.057549637201885134   0.009231327811305581
-0.46447575138517466   -0.04779988334496839   -0.013970564741988496
-0.46447575138517466   -0.04779988334496839   -0.013970564741988496
-0.46447575138517466   -0.04779988334496839   -0.013970564741988496
-0.46447575138517466   -0.04779988334496839   -0.013970564741988496
-0.4395568895989998   -0.0001826632544880552   -0.02109695460876902
-0.4395568895989998   -0.0001826632544880552   -0.02109695460876902
-0.4395568895989998   -0.0001826632544880552   -0.02109695460876902
-0.4395568895989998   -0.0001826632544880552   -0.02109695460876902
-0.05234224657611276   0.05718984887332632   0.0017868648495377344
-0.05234224657611276   0.05718984887332632   0.0017868648495377344
-0.05234224657611276   0.05718984887332632   0.0017868648495377344
-0.05234224657611276   0.05718984887332632   0.0017868648495377344
-0.254503686043896   0.01642761332453771   0.010253679287738841
-0.254503686043896   0.01642761332453771   0.010253679287738841
-0.254503686043896   0.01642761332453771   0.010253679287738841
-0.254503686043896   0.01642761332453771   0.010253679287738841
-0.4945580198948715   -0.019284824235558926   -0.00752769155344515
-0.4945580198948715   -0.019284824235558926   -0.00752769155344515
-0.4945580198948715   -0.019284824235558926   -0.00752769155344515
-0.4945580198948715   -0.019284824235558926   -0.00752769155344515
-0.8685695682279724   -0.07227778419154145   0.01668565607710196
-0.8685695682279724   -0.07227778419154145   0.01668565607710196
-0.8685695682279724   -0.07227778419154145   0.01668565607710196
-0.8685695682279724   -0.07227778419154145   0.01668565607710196
-0.8567999451275942   -0.07465266680074402   -0.03585694259741659
-0.8567999451275942   -0.07465266680074402   -0.03585694259741659
-0.8567999451275942   -0.07465266680074402   -0.03585694259741659
-0.8567999451275942   -0.07465266680074402   -0.03585694259741659
-0.4571812245943209   0.033670819480831504   0.03205010183954866
-0.4571812245943209   0.033670819480831504   0.03205010183954866
-0.4571812245943209   0.033670819480831504   0.03205010183954866
-0.4571812245943209   0.033670819480831504   0.03205010183954866
-0.6646473159025823   -0.028970959531248452   -0.0038806299116017073
-0.6646473159025823   -0.028970959531248452   -0.0038806299116017073
-0.6646473159025823   -0.028970959531248452   -0.0038806299116017073
-0.6646473159025823   -0.028970959531248452   -0.0038806299116017073
-0.471148645814242   0.007354787187970682   -0.011470971967195317
-0.471148645814242   0.007354787187970682   -0.011470971967195317
-0.471148645814242   0.007354787187970682   -0.011470971967195317
-0.471148645814242   0.007354787187970682   -0.011470971967195317
-0.8427660551760191   -0.04827016577622795   0.007930006135949609
-0.8427660551760191   -0.04827016577622795   0.007930006135949609
-0.8427660551760191   -0.04827016577622795   0.007930006135949609
-0.8427660551760191   -0.04827016577622795   0.007930006135949609
-0.8272373912327348   -0.049019410120818896   -0.03966072218892865
-0.8272373912327348   -0.049019410120818896   -0.03966072218892865
-0.8272373912327348   -0.049019410120818896   -0.03966072218892865
-0.8272373912327348   -0.049019410120818896   -0.03966072218892865
-0.4361312402096657   0.05433136052800351   0.02562074726258727
-0.4361312402096657   0.05433136052800351   0.02562074726258727
-0.4361312402096657   0.05433136052800351   0.02562074726258727
-0.4361312402096657   0.05433136052800351   0.02562074726258727
-0.6345625908086312   -0.004707897789991505   0.007108571172420107
-0.6345625908086312   -0.004707897789991505   0.007108571172420107
-0.6345625908086312   -0.004707897789991505   0.007108571172420107
-0.6345625908086312   -0.004707897789991505   0.007108571172420107
-0.44924318848491446   0.031158373457833358   -0.016766007043487664
-0.44924318848491446   0.031158373457833358   -0.016766007043487664
-0.44924318848491446   0.031158373457833358   -0.016766007043487664
-0.44924318848491446   0.031158373457833358   -0.016766007043487664
-0.8134221744610632   -0.025143154554226166   0.005539106102836339
-0.8134221744610632   -0.025143154554226166   0.005539106102836339
-0.8134221744610632   -0.025143154554226166   0.005539106102836339
-0.8134221744610632   -0.025143154554226166   0.005539106102836339
-0.8008042498891125   -0.021241790186022735   -0.04170296026696324
-0.8008042498891125   -0.021241790186022735   -0.04170296026696324
-0.8008042498891125   -0.021241790186022735   -0.04170296026696324
-0.8008042498891125   -0.021241790186022735   -0.04170296026696324
-0.41574386814856157   0.07704141734550832   0.02074407204342947
-0.41574386814856157   0.07704141734550832   0.02074407204342947
-0.41574386814856157   0.07704141734550832   0.02074407204342947
-0.41574386814856157   0.07704141734550832   0.02074407204342947
-0.6142405920892613   0.016028786294534247   0.016586191026759733
-0.6142405920892613   0.016028786294534247   0.016586191026759733
-0.6142405920892613   0.016028786294534247   0.016586191026759733
-0.6142405920892613   0.016028786294534247   0.016586191026759733
-0.872183779585025   -0.041383340642459604   -0.03227984425724319
-0.872183779585025   -0.041383340642459604   -0.03227984425724319
-0.872183779585025   -0.041383340642459604   -0.03227984425724319
-0.872183779585025   -0.041383340642459604   -0.03227984425724319
-1.2433190344259337   -0.04486896237567978   0.05592406237189759
-1.2433190344259337   -0.04486896237567978   0.05592406237189759
-1.2433190344259337   -0.04486896237567978   0.05592406237189759
-1.2433190344259337   -0.04486896237567978   0.05592406237189759
-1.2195618002285866   -0.08933498541007265   -0.042804265734850556
-1.2195618002285866   -0.08933498541007265   -0.042804265734850556
-1.2195618002285866   -0.08933498541007265   -0.042804265734850556
-1.2195618002285866   -0.08933498541007265   -0.042804265734850556
-0.8094322793690689   0.06946670725606222   0.056862012138402994
-0.8094322793690689   0.06946670725606222   0.056862012138402994
-0.8094322793690689   0.06946670725606222   0.056862012138402994
-0.8094322793690689   0.06946670725606222   0.056862012138402994
-0.9901602282284618   -0.012236837362637615   0.011521803644085268
-0.9901602282284618   -0.012236837362637615   0.011521803644085268
-0.9901602282284618   -0.012236837362637615   0.011521803644085268
-0.9901602282284618   -0.012236837362637615   0.011521803644085268
-0.8444620075354035   -0.012931798343255418   -0.035888123093947406
-0.8444620075354035   -0.012931798343255418   -0.035888123093947406
-0.8444620075354035   -0.012931798343255418   -0.035888123093947406
-0.8444620075354035   -0.012931798343255418   -0.035888123093947406
-1.1839466533854868   -0.006351061133991059   0.052287544204554524
-1.1839466533854868   -0.006351061133991059   0.052287544204554524
-1.1839466533854868   -0.006351061133991059   0.052287544204554524
-1.1839466533854868   -0.006351061133991059   0.052287544204554524
-1.174790146659046   -0.07343228723269493   -0.05041663327321735
-1.174790146659046   -0.07343228723269493   -0.05041663327321735
-1.174790146659046   -0.07343228723269493   -0.05041663327321735
-1.174790146659046   -0.07343228723269493   -0.05041663327321735
-0.7846334079632059   0.07927434608678224   0.0450654379511143
-0.7846334079632059   0.07927434608678224   0.0450654379511143
-0.7846334079632059   0.07927434608678224   0.0450654379511143
-0.7846334079632059   0.07927434608678224   0.0450654379511143
-0.9671214908582367   0.005124164630871536   0.020655505135005935
-0.9671214908582367   0.005124164630871536   0.020655505135005935
-0.9671214908582367   0.005124164630871536   0.020655505135005935
-0.9671214908582367   0.005124164630871536   0.020655505135005935
-0.817691706272588   -9.967833546892235e-05   -0.040852029173545294
-0.817691706272588   -9.967833546892235e-05   -0.040852029173545294
-0.817691706272588   -9.967833546892235e-05   -0.040852029173545294
-0.817691706272588   -9.967833546892235e-05   -0.040852029173545294
-1.1411467583559407   0.006526827183270856   0.03784119382632284
-1.1411467583559407   0.006526827183270856   0.03784119382632284
-1.1411467583559407   0.006526827183270856   0.03784119382632284
-1.1411467583559407   0.006526827183270856   0.03784119382632284
-1.125835212736927   -0.0543460911700111   -0.05746144729810303
-1.125835212736927   -0.0543460911700111   -0.05746144729810303
-1.125835212736927   -0.0543460911700111   -0.05746144729810303
-1.125835212736927   -0.0543460911700111   -0.05746144729810303
-0.7628485162335237   0.08845954097147396   0.03837437685348427
-0.7628485162335237   0.08845954097147396   0.03837437685348427
-0.7628485162335237   0.08845954097147396   0.03837437685348427
-0.7628485162335237   0.08845954097147396   0.03837437685348427
-0.9177041260935066   0.019549443789314502   0.034477195908336304
-0.9177041260935066   0.019549443789314502   0.034477195908336304
-0.9177041260935066   0.019549443789314502   0.034477195908336304
-0.9177041260935066   0.019549443789314502   0.034477195908336304
1.0931594419902066   0.08172590865380613   0.05782133907842057
1.0931594419902066   0.08172590865380613   0.05782133907842057
1.0931594419902066   0.08172590865380613   0.05782133907842057
1.0931594419902066   0.08172590865380613   0.05782133907842057
0.4820549361056348   -0.1285702832392789   -0.02660977111277387
0.4820549361056348   -0.1285702832392789   -0.02660977111277387
0.4820549361056348   -0.1285702832392789   -0.02660977111277387
0.4820549361056348   -0.1285702832392789   -0.02660977111277387
0.5373877795504256   -0.022679231011171197   0.03970083841043157
0.5373877795504256   -0.022679231011171197   0.03970083841043157
0.5373877795504256   -0.022679231011171197   0.03970083841043157
0.5373877795504256   -0.022679231011171197   0.03970083841043157
1.10515176478542   -0.0018566950841129304   -0.041680916391244265
1.10515176478542   -0.0018566950841129304   -0.041680916391244265
1.10515176478542   -0.0018566950841129304   -0.041680916391244265
1.10515176478542   -0.0018566950841129304   -0.041680916391244265
0.7573282904904552   -0.022892232852689737   -0.05917552800857139
0.7573282904904552   -0.022892232852689737   -0.05917552800857139
0.7573282904904552   -0.022892232852689737   -0.05917552800857139
0.7573282904904552   -0.022892232852689737   -0.05917552800857139
1.1435929762457824   0.10029610817591947   0.04837233765052792
1.1435929762457824   0.10029610817591947   0.04837233765052792
1.1435929762457824   0.10029610817591947   0.04837233765052792
1.1435929762457824   0.10029610817591947   0.04837233765052792
0.5026396717863708   -0.12113893057489664   -0.03558000084611334
0.5026396717863708   -0.12113893057489664   -0.03558000084611334
0.5026396717863708   -0.12113893057489664   -0.03558000084611334
0.5026396717863708   -0.12113893057489664   -0.03558000084611334
0.5590000093869432   -0.010940686174159886   0.032091434894624266
0.5590000093869432   -0.010940686174159886   0.032091434894624266
0.5590000093869432   -0.010940686174159886   0.032091434894624266
0.5590000093869432   -0.010940686174159886   0.032091434894624266
1.142958862368404   0.011084274479270934   -0.05206212862575322
1.142958862368404   0.011084274479270934   -0.05206212862575322
1.142958862368404   0.011084274479270934   -0.05206212862575322
1.142958862368404   0.011084274479270934   -0.05206212862575322
0.8048315557069343   -0.00906753426523002   -0.040262348594431625
0.8048315557069343   -0.00906753426523002   -0.040262348594431625
0.8048315557069343   -0.00906753426523002   -0.040262348594431625
0.8048315557069343   -0.00906753426523002   -0.040262348594431625
1.181172712583086   0.11424487239294118   0.03584652453398687
1.181172712583086   0.11424487239294118   0.03584652453398687
1.181172712583086   0.11424487239294118   0.03584652453398687
1.181172712583086   0.11424487239294118   0.03584652453398687
0.5240169855044877   -0.11087045775560359   -0.04289391293620957
0.5240169855044877   -0.11087045775560359   -0.04289391293620957
0.5240169855044877   -0.11087045775560359   -0.04289391293620957
0.5240169855044877   -0.11087045775560359   -0.04289391293620957
0.5785818245207971   0.02042416550618216   0.0281356708997651
0.5785818245207971   0.02042416550618216   0.0281356708997651
0.5785818245207971   0.02042416550618216   0.0281356708997651
0.5785818245207971   0.02042416550618216   0.0281356708997651
1.1894857278261506   0.04895432651413137   -0.054513720566837016
1.1894857278261506   0.04895432651413137   -0.054513720566837016
1.1894857278261506   0.04895432651413137   -0.054513720566837016
1.1894857278261506   0.04895432651413137   -0.054513720566837016
0.8225427215890568   0.009554608563663303   -0.02718019945422067
0.8225427215890568   0.009554608563663303   -0.02718019945422067
0.8225427215890568   0.009554608563663303   -0.02718019945422067
0.8225427215890568   0.009554608563663303   -0.02718019945422067
0.5332536013903705   0.04783618590913867   0.05297708616248252
0.5332536013903705   0.04783618590913867   0.05297708616248252
0.5332536013903705   0.04783618590913867   0.05297708616248252
0.5332536013903705   0.04783618590913867   0.05297708616248252
-0.06622754185908349   -0.15834674936761436   -0.015163203737760055
-0.06622754185908349   -0.15834674936761436   -0.015163203737760055
-0.06622754185908349   -0.15834674936761436   -0.015163203737760055
-0.06622754185908349   -0.15834674936761436   -0.015163203737760055
-0.018600967426439175   -0.05599651010875083   0.013440653244302348
-0.018600967426439175   -0.05599651010875083   0.013440653244302348
-0.018600967426439175   -0.05599651010875083   0.013440653244302348
-0.018600967426439175   -0.05599651010875083   0.013440653244302348
0.5287219055277501   -0.028954535111351723   0.0026467723972350005
0.5287219055277501   -0.028954535111351723   0.0026467723972350005
0.5287219055277501   -0.028954535111351723   0.0026467723972350005
0.5287219055277501   -0.028954535111351723   0.0026467723972350005
0.2376657050483193   -0.04406483821668988   -0.028171090744984015
0.2376657050483193   -0.04406483821668988   -0.028171090744984015
0.2376657050483193   -0.04406483821668988   -0.028171090744984015
0.2376657050483193   -0.04406483821668988   -0.028171090744984015
0.5565135986838986   0.06572367756481845   0.046927025501811014
0.5565135986838986   0.06572367756481845   0.046927025501811014
0.5565135986838986   0.06572367756481845   0.046927025501811014
0.5565135986838986   0.06572367756481845   0.046927025501811014
-0.04444340908285864   -0.14872547128519137   -0.023042593861354432
-0.04444340908285864   -0.14872547128519137   -0.023042593861354432
-0.04444340908285864   -0.14872547128519137   -0.023042593861354432
-0.04444340908285864   -0.14872547128519137   -0.023042593861354432
0.0034359811642450788   -0.03498429984813542   0.008193961711735547
0.0034359811642450788   -0.03498429984813542   0.008193961711735547
0.0034359811642450788   -0.03498429984813542   0.008193961711735547
0.0034359811642450788   -0.03498429984813542   0.008193961711735547
0.55129934799824   -0.013110232278576134   -0.004242325944475378
0.55129934799824   -0.013110232278576134   -0.004242325944475378
0.55129934799824   -0.013110232278576134   -0.004242325944475378
0.55129934799824   -0.013110232278576134   -0.004242325944475378
0.25679676085438113   -0.031161247342878104   -0.018255508709495164
0.25679676085438113   -0.031161247342878104   -0.018255508709495164
0.25679676085438113   -0.031161247342878104   -0.018255508709495164
0.25679676085438113   -0.031161247342878104   -0.018255508709495164
0.5805843397340124   0.08718421634553265   0.04188818411027788
0.5805843397340124   0.08718421634553265   0.04188818411027788
0.5805843397340124   0.08718421634553265   0.04188818411027788
0.5805843397340124   0.08718421634553265   0.04188818411027788
-0.024686861771780793   -0.13411659967249256   -0.03328795314403668
-0.024686861771780793   -0.13411659967249256   -0.03328795314403668
-0.024686861771780793   -0.13411659967249256   -0.03328795314403668
-0.024686861771780793   -0.13411659967249256   -0.03328795314403668
0.020736073251669374   -0.010363672526255596   0.002891824535177393
0.020736073251669374   -0.010363672526255596   0.002891824535177393
0.020736073251669374   -0.010363672526255596   0.002891824535177393
0.020736073251669374   -0.010363672526255596   0.002891824535177393
0.5681987382087306   0.007106563074872868   -0.010462158229265696
0.5681987382087306   0.007106563074872868   -0.010462158229265696
0.5681987382087306   0.007106563074872868   -0.010462158229265696
0.5681987382087306   0.007106563074872868   -0.010462158229265696
0.2802620029674236   -0.011855710014740922   -0.00760948498171855
0.2802620029674236   -0.011855710014740922   -0.00760948498171855
0.2802620029674236   -0.011855710014740922   -0.00760948498171855
0.2802620029674236   -0.011855710014740922   -0.00760948498171855
-0.023575544681411334   0.013420827473273564   0.026329205309712795
-0.023575544681411334   0.013420827473273564   0.026329205309712795
-0.023575544681411334   0.013420827473273564   0.026329205309712795
-0.023575544681411334   0.013420827473273564   0.026329205309712795
-0.6102643354772194   -0.19865571301267804   -0.012175132905293904
-0.6102643354772194   -0.19865571301267804   -0.012175132905293904
-0.6102643354772194   -0.19865571301267804   -0.012175132905293904
-0.6102643354772194   -0.19865571301267804   -0.012175132905293904
-0.5621238462818454   -0.08589099014188131   -0.01285078442249842
-0.5621238462818454   -0.08589099014188131   -0.01285078442249842
-0.5621238462818454   -0.08589099014188131   -0.01285078442249842
-0.5621238462818454   -0.08589099014188131   -0.01285078442249842
-0.021306542554376216   -0.06797839875069862   0.011894666246564926
-0.021306542554376216   -0.06797839875069862   0.011894666246564926
-0.021306542554376216   -0.06797839875069862   0.011894666246564926
-0.021306542554376216   -0.06797839875069862   0.011894666246564926
-0.3056956065309617   -0.0802306783579783   -0.0251567783197754
-0.3056956065309617   -0.0802306783579783   -0.0251567783197754
-0.3056956065309617   -0.0802306783579783   -0.0251567783197754
-0.3056956065309617   -0.0802306783579783   -0.0251567783197754
0.0009023270092508784   0.033563770386364995   0.021396844927636792
0.0009023270092508784   0.033563770386364995   0.021396844927636792
0.0009023270092508784   0.033563770386364995   0.021396844927636792
0.0009023270092508784   0.033563770386364995   0.021396844927636792
-0.5829238644285711   -0.18602430786204352   -0.01671755743596464
-0.5829238644285711   -0.18602430786204352   -0.01671755743596464
-0.5829238644285711   -0.18602430786204352   -0.01671755743596464
-0.5829238644285711   -0.18602430786204352   -0.01671755743596464
-0.5347879839269966   -0.06256624127315737   -0.017490121841111463
-0.5347879839269966   -0.06256624127315737   -0.017490121841111463
-0.5347879839269966   -0.06256624127315737   -0.017490121841111463
-0.5347879839269966   -0.06256624127315737   -0.017490121841111463
-0.0007788571549531258   -0.05274995042804653   0.004885420695655635
-0.0007788571549531258   -0.05274995042804653   0.004885420695655635
-0.0007788571549531258   -0.05274995042804653   0.004885420695655635
-0.0007788571549531258   -0.05274995042804653   0.004885420695655635
-0.279159080406254   -0.06345747795460706   -0.013958900463737257
-0.279159080406254   -0.06345747795460706   -0.013958900463737257
-0.279159080406254   -0.06345747795460706   -0.013958900463737257
-0.279159080406254   -0.06345747795460706   -0.013958900463737257
0.023300810954627528   0.05588025352874352   0.016653557286768844
0.023300810954627528   0.05588025352874352   0.016653557286768844
0.023300810954627528   0.05588025352874352   0.016653557286768844
0.023300810954627528   0.05588025352874352   0.016653557286768844
-0.5588695573935151   -0.1711983505868793   -0.02926587985997687
-0.5588695573935151   -0.1711983505868793   -0.02926587985997687
-0.5588695573935151   -0.1711983505868793   -0.02926587985997687
-0.5588695573935151   -0.1711983505868793   -0.02926587985997687
-0.5154691420159807   -0.04032787127539578   -0.02267484045423556
-0.5154691420159807   -0.04032787127539578   -0.02267484045423556
-0.5154691420159807   -0.04032787127539578   -0.02267484045423556
-0.5154691420159807   -0.04032787127539578   -0.02267484045423556
0.012696157646470864   -0.040569497242652415   -0.007101928774418321
0.012696157646470864   -0.040569497242652415   -0.007101928774418321
0.012696157646470864   -0.040569497242652415   -0.007101928774418321
0.012696157646470864   -0.040569497242652415   -0.007101928774418321
-0.2596971241870242   -0.04780767113062908   -0.006939977497584631
-0.2596971241870242   -0.04780767113062908   -0.006939977497584631
-0.2596971241870242   -0.04780767113062908   -0.006939977497584631
-0.2596971241870242   -0.04780767113062908   -0.006939977497584631
-0.57153930113156   -0.016374997354679552   -0.000830676835000984
-0.57153930113156   -0.016374997354679552   -0.000830676835000984
-0.57153930113156   -0.016374997354679552   -0.000830676835000984
-0.57153930113156   -0.016374997354679552   -0.000830676835000984
-1.1568795502065257   -0.21357862770255945   -0.009772130232550675
-1.1568795502065257   -0.21357862770255945   -0.009772130232550675
-1.1568795502065257   -0.21357862770255945   -0.009772130232550675
-1.1568795502065257   -0.21357862770255945   -0.009772130232550675
-1.1052195991780545   -0.10998399422786062   -0.038185592120178656
-1.1052195991780545   -0.10998399422786062   -0.038185592120178656
-1.1052195991780545   -0.10998399422786062   -0.038185592120178656
-1.1052195991780545   -0.10998399422786062   -0.038185592120178656
-0.5514647111867712   -0.07063502803695465   0.025188928947940017
-0.5514647111867712   -0.07063502803695465   0.025188928947940017
-0.5514647111867712   -0.07063502803695465   0.025188928947940017
-0.5514647111867712   -0.07063502803695465   0.025188928947940017
-0.8388737250318371   -0.09648876670784623   -0.017726626534804897
-0.8388737250318371   -0.09648876670784623   -0.017726626534804897
-0.8388737250318371   -0.09648876670784623   -0.017726626534804897
-0.8388737250318371   -0.09648876670784623   -0.017726626534804897
-0.5413400550681021   0.009553724432526459   -0.004376542928195427
-0.5413400550681021   0.009553724432526459   -0.004376542928195427
-0.5413400550681021   0.009553724432526459   -0.004376542928195427
-0.5413400550681021   0.009553724432526459   -0.004376542928195427
-1.1157785469493005   -0.1906070383499169   -0.010357286854342273
-1.1157785469493005   -0.1906070383499169   -0.010357286854342273
-1.1157785469493005   -0.1906070383499169   -0.010357286854342273
-1.1157785469493005   -0.1906070383499169   -0.010357286854342273
-1.066133026329542   -0.08563647618374715   -0.04421665017625882
-1.066133026329542   -0.08563647618374715   -0.04421665017625882
-1.066133026329542   -0.08563647618374715   -0.04421665017625882
-1.066133026329542   -0.08563647618374715   -0.04421665017625882
-0.5249259073293325   -0.052360729735195954   0.021614749609252595
-0.5249259073293325   -0.052360729735195954   0.021614749609252595
-0.5249259073293325   -0.052360729735195954   0.021614749609252595
-0.5249259073293325   -0.052360729735195954   0.021614749609252595
-0.7986873491609613   -0.07312856404885201   -0.00579903580346542
-0.7986873491609613   -0.07312856404885201   -0.00579903580346542
-0.7986873491609613   -0.07312856404885201   -0.00579903580346542
-0.7986873491609613   -0.07312856404885201   -0.00579903580346542
-0.5139413399708657   0.03206713538043053   -0.00789027871404692
-0.5139413399708657   0.03206713538043053   -0.00789027871404692
-0.5139413399708657   0.03206713538043053   -0.00789027871404692
-0.5139413399708657   0.03206713538043053   -0.00789027871404692
-1.0789912327504265   -0.171937980361791   -0.022206178102628524
-1.0789912327504265   -0.171937980361791   -0.022206178102628524
-1.0789912327504265   -0.171937980361791   -0.022206178102628524
-1.0789912327504265   -0.171937980361791   -0.022206178102628524
-1.034440113559385   -0.059972725319311415   -0.04563039586984549
-1.034440113559385   -0.059972725319311415   -0.04563039586984549
-1.034440113559385   -0.059972725319311415   -0.04563039586984549
-1.034440113559385   -0.059972725319311415   -0.04563039586984549
-0.509684703983825   -0.04074273542348726   0.00666221385463955
-0.509684703983825   -0.04074273542348726   0.00666221385463955
-0.509684703983825   -0.04074273542348726   0.00666221385463955
-0.509684703983825   -0.04074273542348726   0.00666221385463955
-0.776568878977806   -0.058891336067175046   -0.001900446482850076
-0.776568878977806   -0.058891336067175046   -0.001900446482850076
-0.776568878977806   -0.058891336067175046   -0.001900446482850076
-0.776568878977806   -0.058891336067175046   -0.001900446482850076
-1.1253812321894083   -0.038031706643877394   -0.02782746120564665
-1.1253812321894083   -0.038031706643877394   -0.02782746120564665
-1.1253812321894083   -0.038031706643877394   -0.02782746120564665
-1.1253812321894083   -0.038031706643877394   -0.02782746120564665
-1.6969808038946734   -0.14458418791080144   0.06396485447277273
-1.6969808038946734   -0.14458418791080144   0.06396485447277273
-1.6969808038946734   -0.14458418791080144   0.06396485447277273
-1.6969808038946734   -0.14458418791080144   0.06396485447277273
-1.6389632496351936   -0.11526884048313232   -0.03728475629144488
-1.6389632496351936   -0.11526884048313232   -0.03728475629144488
-1.6389632496351936   -0.11526884048313232   -0.03728475629144488
-1.6389632496351936   -0.11526884048313232   -0.03728475629144488
-1.057735622744736   0.030398262515188734   0.05885203330335613
-1.057735622744736   0.030398262515188734   0.05885203330335613
-1.057735622744736   0.030398262515188734   0.05885203330335613
-1.057735622744736   0.030398262515188734   0.05885203330335613
-1.3180143459247315   -0.04531969532945959   0.006418701196162176
-1.3180143459247315   -0.04531969532945959   0.006418701196162176
-1.3180143459247315   -0.04531969532945959   0.006418701196162176
-1.3180143459247315   -0.04531969532945959   0.006418701196162176
-1.0822846435014417   -0.0026459413259059816   -0.030848866639065144
-1.0822846435014417   -0.0026459413259059816   -0.030848866639065144
-1.0822846435014417   -0.0026459413259059816   -0.030848866639065144
-1.0822846435014417   -0.0026459413259059816   -0.030848866639065144
-1.6104557308295318   -0.07826613859307929   0.06825013584681187
-1.6104557308295318   -0.07826613859307929   0.06825013584681187
-1.6104557308295318   -0.07826613859307929   0.06825013584681187
-1.6104557308295318   -0.07826613859307929   0.06825013584681187
-1.576711630919568   -0.09703482698938076   -0.04440220447333888
-1.576711630919568   -0.09703482698938076   -0.04440220447333888
-1.576711630919568   -0.09703482698938076   -0.04440220447333888
-1.576711630919568   -0.09703482698938076   -0.04440220447333888
-1.019089162564189   0.0485534956450803   0.05681269682167944
-1.019089162564189   0.0485534956450803   0.05681269682167944
-1.019089162564189   0.0485534956450803   0.05681269682167944
-1.019089162564189   0.0485534956450803   0.05681269682167944
-1.281364273031356   -0.018279760846556248   0.026281999159540992
-1.281364273031356   -0.018279760846556248   0.026281999159540992
-1.281364273031356   -0.018279760846556248   0.026281999159540992
-1.281364273031356   -0.018279760846556248   0.026281999159540992
-1.0445026367319643   0.011622647556988552   -0.03332382592909593
-1.0445026367319643   0.011622647556988552   -0.03332382592909593
-1.0445026367319643   0.011622647556988552   -0.03332382592909593
-1.0445026367319643   0.011622647556988552   -0.03332382592909593
-1.5504908715315908   -0.05929669368108781   0.048963459158240574
-1.5504908715315908   -0.05929669368108781   0.048963459158240574
-1.5504908715315908   -0.05929669368108781   0.048963459158240574
-1.5504908715315908   -0.05929669368108781   0.048963459158240574
-1.5123205078495596   -0.07984324690025107   -0.05366757088910498
-1.5123205078495596   -0.07984324690025107   -0.05366757088910498
-1.5123205078495596   -0.07984324690025107   -0.05366757088910498
-1.5123205078495596   -0.07984324690025107   -0.05366757088910498
-0.9904881918368819   0.07022871772576861   0.04392776969759203
-0.9904881918368819   0.07022871772576861   0.04392776969759203
-0.9904881918368819   0.07022871772576861   0.04392776969759203
-0.9904881918368819   0.07022871772576861   0.04392776969759203
-1.2120746116187997   0.0048232687879936065   0.04621365076532159
-1.2120746116187997   0.0048232687879936065   0.04621365076532159
-1.2120746116187997   0.0048232687879936065   0.04621365076532159
-1.2120746116187997   0.0048232687879936065   0.04621365076532159
1.4920609133641944   0.08954928844088991   0.05398211002951075
1.4920609133641944   0.08954928844088991   0.05398211002951075
1.4920609133641944   0.08954928844088991   0.05398211002951075
1.4920609133641944   0.08954928844088991   0.05398211002951075
0.7110690499204144   -0.1330456084549359   0.011968822520405292
0.7110690499204144   -0.1330456084549359   0.011968822520405292
0.7110690499204144   -0.1330456084549359   0.011968822520405292
0.7110690499204144   -0.1330456084549359   0.011968822520405292
0.7502115898970547   -0.056209816171733235   0.04149365305901961
0.7502115898970547   -0.056209816171733235   0.04149365305901961
0.7502115898970547   -0.056209816171733235   0.04149365305901961
0.7502115898970547   -0.056209816171733235   0.04149365305901961
1.4998664309886813   0.012952447525535038   -0.01210447118189073
1.4998664309886813   0.012952447525535038   -0.01210447118189073
1.4998664309886813   0.012952447525535038   -0.01210447118189073
1.4998664309886813   0.012952447525535038   -0.01210447118189073
1.048892360261543   -0.028518567490141367   -0.06962689984861772
1.048892360261543   -0.028518567490141367   -0.06962689984861772
1.048892360261543   -0.028518567490141367   -0.06962689984861772
1.048892360261543   -0.028518567490141367   -0.06962689984861772
1.5281571450337708   0.09961739463135341   0.04268415193773701
1.5281571450337708   0.09961739463135341   0.04268415193773701
1.5281571450337708   0.09961739463135341   0.04268415193773701
1.5281571450337708   0.09961739463135341   0.04268415193773701
0.7287018641951267   -0.1360937749343904   0.013828983312036774
0.7287018641951267   -0.1360937749343904   0.013828983312036774
0.7287018641951267   -0.1360937749343904   0.013828983312036774
0.7287018641951267   -0.1360937749343904   0.013828983312036774
0.765015223378696   -0.04777859216255603   0.031567177154819846
0.765015223378696   -0.04777859216255603   0.031567177154819846
0.765015223378696   -0.04777859216255603   0.031567177154819846
0.765015223378696   -0.04777859216255603   0.031567177154819846
1.5260699755084324   0.02245400670491332   -0.003784217149448238
1.5260699755084324   0.02245400670491332   -0.003784217149448238
1.5260699755084324   0.02245400670491332   -0.003784217149448238
1.5260699755084324   0.02245400670491332   -0.003784217149448238
1.0920809086121157   -0.022537123125646347   -0.047587122287913994
1.0920809086121157   -0.022537123125646347   -0.047587122287913994
1.0920809086121157   -0.022537123125646347   -0.047587122287913994
1.0920809086121157   -0.022537123125646347   -0.047587122287913994
1.5500131296347792   0.10882055474594701   0.02956500544125184
1.5500131296347792   0.10882055474594701   0.02956500544125184
1.5500131296347792   0.10882055474594701   0.02956500544125184
1.5500131296347792   0.10882055474594701   0.02956500544125184
0.7457888900548063   -0.12942831940113275   0.017085237773947673
0.7457888900548063   -0.12942831940113275   0.017085237773947673
0.7457888900548063   -0.12942831940113275   0.017085237773947673
0.7457888900548063   -0.12942831940113275   0.017085237773947673
0.7868128727283603   -0.014905863729293922   0.028858183313826884
0.7868128727283603   -0.014905863729293922   0.028858183313826884
0.7868128727283603   -0.014905863729293922   0.028858183313826884
0.7868128727283603   -0.014905863729293922   0.028858183313826884
1.5533398394955724   0.04426460508761021   -0.0007101874156474342
1.5533398394955724   0.04426460508761021   -0.0007101874156474342
1.5533398394955724   0.04426460508761021   -0.0007101874156474342
1.5533398394955724   0.04426460508761021   -0.0007101874156474342
1.097373719855285   -0.010347618260673597   -0.03560038162186299
1.097373719855285   -0.010347618260673597   -0.03560038162186299
1.097373719855285   -0.010347618260673597   -0.03560038162186299
1.097373719855285   -0.010347618260673597   -0.03560038162186299
0.7504895351374976   0.019362029007859244   0.0566636111430267
0.7504895351374976   0.019362029007859244   0.0566636111430267
0.7504895351374976   0.019362029007859244   0.0566636111430267
0.7504895351374976   0.019362029007859244   0.0566636111430267
0.03895940606547682   -0.26468574509382947   0.027067242209007927
0.03895940606547682   -0.26468574509382947   0.027067242209007927
0.03895940606547682   -0.26468574509382947   0.027067242209007927
0.03895940606547682   -0.26468574509382947   0.027067242209007927
0.08992538425841828   -0.11218317455501298   0.025300096448260576
0.08992538425841828   -0.11218317455501298   0.025300096448260576
0.08992538425841828   -0.11218317455501298   0.025300096448260576
0.08992538425841828   -0.11218317455501298   0.025300096448260576
0.7312659104625867   -0.12671823050407244   0.017273670219012438
0.7312659104625867   -0.12671823050407244   0.017273670219012438
0.7312659104625867   -0.12671823050407244   0.017273670219012438
0.7312659104625867   -0.12671823050407244   0.017273670219012438
0.389592108948373   -0.11848634945324155   -0.04443881039447378
0.389592108948373   -0.11848634945324155   -0.04443881039447378
0.389592108948373   -0.11848634945324155   -0.04443881039447378
0.389592108948373   -0.11848634945324155   -0.04443881039447378
0.7681974639704536   0.027878219623831746   0.04733498763044891
0.7681974639704536   0.027878219623831746   0.04733498763044891
0.7681974639704536   0.027878219623831746   0.04733498763044891
0.7681974639704536   0.027878219623831746   0.04733498763044891
0.06274517259515679   -0.25702828283830015   0.03424414641524215
0.06274517259515679   -0.25702828283830015   0.03424414641524215
0.06274517259515679   -0.25702828283830015   0.03424414641524215
0.06274517259515679   -0.25702828283830015   0.03424414641524215
0.11040081917320262   -0.09677833713053695   0.0183156786207887
0.11040081917320262   -0.09677833713053695   0.0183156786207887
0.11040081917320262   -0.09677833713053695   0.0183156786207887
0.11040081917320262   -0.09677833713053695   0.0183156786207887
0.7487985414008875   -0.11863491553070474   0.02134009063392607
0.7487985414008875   -0.11863491553070474   0.02134009063392607
0.7487985414008875   -0.11863491553070474   0.02134009063392607
0.7487985414008875   -0.11863491553070474   0.02134009063392607
0.407004247928377   -0.11257741484040502   -0.022222180355618695
0.407004247928377   -0.11257741484040502   -0.022222180355618695
0.407004247928377   -0.11257741484040502   -0.022222180355618695
0.407004247928377   -0.11257741484040502   -0.022222180355618695
0.7847181028737938   0.042402150315816844   0.03990083215193574
0.7847181028737938   0.042402150315816844   0.03990083215193574
0.7847181028737938   0.042402150315816844   0.03990083215193574
0.7847181028737938   0.042402150315816844   0.03990083215193574
0.08386131418703748   -0.2484353464903123   0.03727516304973834
0.08386131418703748   -0.2484353464903123   0.03727516304973834
0.08386131418703748   -0.2484353464903123   0.03727516304973834
0.08386131418703748   -0.2484353464903123   0.03727516304973834
0.1418384121385977   -0.07365102726957612   0.012110216118622306
0.1418384121385977   -0.07365102726957612   0.012110216118622306
0.1418384121385977   -0.07365102726957612   0.012110216118622306
0.1418384121385977   -0.07365102726957612   0.012110216118622306
0.7679790696107881   -0.10635469464058053   0.02613799863725448
0.7679790696107881   -0.10635469464058053   0.02613799863725448
0.7679790696107881   -0.10635469464058053   0.02613799863725448
0.7679790696107881   -0.10635469464058053   0.02613799863725448
0.4375962565446576   -0.09828347493073772   0.0036391110257019826
0.4375962565446576   -0.09828347493073772   0.0036391110257019826
0.4375962565446576   -0.09828347493073772   0.0036391110257019826
0.4375962565446576   -0.09828347493073772   0.0036391110257019826
0.08375451715032474   -0.050121254498522366   0.036478307037940375
0.08375451715032474   -0.050121254498522366   0.036478307037940375
0.08375451715032474   -0.050121254498522366   0.036478307037940375
0.08375451715032474   -0.050121254498522366   0.036478307037940375
-0.6385990507911488   -0.45440049195798643   0.039295431707966025
-0.6385990507911488   -0.45440049195798643   0.039295431707966025
-0.6385990507911488   -0.45440049195798643   0.039295431707966025
-0.6385990507911488   -0.45440049195798643   0.039295431707966025
-0.5580690434325647   -0.177198769327509   0.002555314240670837
-0.5580690434325647   -0.177198769327509   0.002555314240670837
-0.5580690434325647   -0.177198769327509   0.002555314240670837
-0.5580690434325647   -0.177198769327509   0.002555314240670837
0.044316953190552955   -0.3300009450823882   0.015075711636311037
0.044316953190552955   -0.3300009450823882   0.015075711636311037
0.044316953190552955   -0.3300009450823882   0.015075711636311037
0.044316953190552955   -0.3300009450823882   0.015075711636311037
-0.2754640712307448   -0.25473759475178875   -0.05331897686092376
-0.2754640712307448   -0.25473759475178875   -0.05331897686092376
-0.2754640712307448   -0.25473759475178875   -0.05331897686092376
-0.2754640712307448   -0.25473759475178875   -0.05331897686092376
0.10519532173394412   -0.039303031073471384   0.02876964034435012
0.10519532173394412   -0.039303031073471384   0.02876964034435012
0.10519532173394412   -0.039303031073471384   0.02876964034435012
0.10519532173394412   -0.039303031073471384   0.02876964034435012
-0.604821563458155   -0.45377083481862424   0.04536477960383867
-0.604821563458155   -0.45377083481862424   0.04536477960383867
-0.604821563458155   -0.45377083481862424   0.04536477960383867
-0.604821563458155   -0.45377083481862424   0.04536477960383867
-0.5270037482157993   -0.15899765344119515   -0.0001282033092413655
-0.5270037482157993   -0.15899765344119515   -0.0001282033092413655
-0.5270037482157993   -0.15899765344119515   -0.0001282033092413655
-0.5270037482157993   -0.15899765344119515   -0.0001282033092413655
0.06590692554217459   -0.3226785668643287   0.021746440199440373
0.06590692554217459   -0.3226785668643287   0.021746440199440373
0.06590692554217459   -0.3226785668643287   0.021746440199440373
0.06590692554217459   -0.3226785668643287   0.021746440199440373
-0.2439883812446413   -0.24597937833977285   -0.01984566824925723
-0.2439883812446413   -0.24597937833977285   -0.01984566824925723
-0.2439883812446413   -0.24597937833977285   -0.01984566824925723
-0.2439883812446413   -0.24597937833977285   -0.01984566824925723
0.12479857764145556   -0.02492193403466053   0.018448067866176993
0.12479857764145556   -0.02492193403466053   0.018448067866176993
0.12479857764145556   -0.02492193403466053   0.018448067866176993
0.12479857764145556   -0.02492193403466053   0.018448067866176993
-0.5731578691215293   -0.4440167550773211   0.05412029379824401
-0.5731578691215293   -0.4440167550773211   0.05412029379824401
-0.5731578691215293   -0.4440167550773211   0.05412029379824401
-0.5731578691215293   -0.4440167550773211   0.05412029379824401
-0.4757371863575676   -0.13803721603714456   -0.006007178742840442
-0.4757371863575676   -0.13803721603714456   -0.006007178742840442
-0.4757371863575676   -0.13803721603714456   -0.006007178742840442
-0.4757371863575676   -0.13803721603714456   -0.006007178742840442
0.09960543487509889   -0.3023472949615507   0.029641597493102953
0.09960543487509889   -0.3023472949615507   0.029641597493102953
0.09960543487509889   -0.3023472949615507   0.029641597493102953
0.09960543487509889   -0.3023472949615507   0.029641597493102953
-0.20315420763193723   -0.2264632866350119   0.015151940962637056
-0.20315420763193723   -0.2264632866350119   0.015151940962637056
-0.20315420763193723   -0.2264632866350119   0.015151940962637056
-0.20315420763193723   -0.2264632866350119   0.015151940962637056
-0.5702643249407312   -0.09082286900206521   0.017391438004126278
-0.5702643249407312   -0.09082286900206521   0.017391438004126278
-0.5702643249407312   -0.09082286900206521   0.017391438004126278
-0.5702643249407312   -0.09082286900206521   0.017391438004126278
-1.4196292263845791   -0.7069728485917885   -0.03302198726653756
-1.4196292263845791   -0.7069728485917885   -0.03302198726653756
-1.4196292263845791   -0.7069728485917885   -0.03302198726653756
-1.4196292263845791   -0.7069728485917885   -0.03302198726653756
-1.2867807897978445   -0.23056600007376854   -0.039149852625056256
-1.2867807897978445   -0.23056600007376854   -0.039149852625056256
-1.2867807897978445   -0.23056600007376854   -0.039149852625056256
-1.2867807897978445   -0.23056600007376854   -0.039149852625056256
-0.6388729762504801   -0.5906532201534267   0.011990100977011336
-0.6388729762504801   -0.5906532201534267   0.011990100977011336
-0.6388729762504801   -0.5906532201534267   0.011990100977011336
-0.6388729762504801   -0.5906532201534267   0.011990100977011336
-0.9777918262891672   -0.41819143236104717   -0.0560375471413773
-0.9777918262891672   -0.41819143236104717   -0.0560375471413773
-0.9777918262891672   -0.41819143236104717   -0.0560375471413773
-0.9777918262891672   -0.41819143236104717   -0.0560375471413773
-0.5335747789521736   -0.06877437826383812   0.016602245578955566
-0.5335747789521736   -0.06877437826383812   0.016602245578955566
-0.5335747789521736   -0.06877437826383812   0.016602245578955566
-0.5335747789521736   -0.06877437826383812   0.016602245578955566
-1.3888006433658542   -0.7491664982330551   -0.030648622305818246
-1.3888006433658542   -0.7491664982330551   -0.030648622305818246
-1.3888006433658542   -0.7491664982330551   -0.030648622305818246
-1.3888006433658542   -0.7491664982330551   -0.030648622305818246
-1.245391113698367   -0.20875874941425188   -0.03991014241702334
-1.245391113698367   -0.20875874941425188   -0.03991014241702334
-1.245391113698367   -0.20875874941425188   -0.03991014241702334
-1.245391113698367   -0.20875874941425188   -0.03991014241702334
-0.6087311138271456   -0.5859164344174392   0.018153749610276798
-0.6087311138271456   -0.5859164344174392   0.018153749610276798
-0.6087311138271456   -0.5859164344174392   0.018153749610276798
-0.6087311138271456   -0.5859164344174392   0.018153749610276798
-0.934304276933022   -0.4067693919103458   -0.039154610465476594
-0.934304276933022   -0.4067693919103458   -0.039154610465476594
-0.934304276933022   -0.4067693919103458   -0.039154610465476594
-0.934304276933022   -0.4067693919103458   -0.039154610465476594
-0.5043514177549782   -0.05145135219286269   0.005587147746533846
-0.5043514177549782   -0.05145135219286269   0.005587147746533846
-0.5043514177549782   -0.05145135219286269   0.005587147746533846
-0.5043514177549782   -0.05145135219286269   0.005587147746533846
-1.3496523219176335   -0.7431053437859162   -0.026869589141681555
-1.3496523219176335   -0.7431053437859162   -0.026869589141681555
-1.3496523219176335   -0.7431053437859162   -0.026869589141681555
-1.3496523219176335   -0.7431053437859162   -0.026869589141681555
-1.1807923677281855   -0.18534632577963722   -0.04524807418174989
-1.1807923677281855   -0.18534632577963722   -0.04524807418174989
-1.1807923677281855   -0.18534632577963722   -0.04524807418174989
-1.1807923677281855   -0.18534632577963722   -0.04524807418174989
-0.543514209861003   -0.5264849074691392   0.043555395171985256
-0.543514209861003   -0.5264849074691392   0.043555395171985256
-0.543514209861003   -0.5264849074691392   0.043555395171985256
-0.543514209861003   -0.5264849074691392   0.043555395171985256
-0.8858390775912196   -0.36849641821016876   -0.021593697721862586
-0.8858390775912196   -0.36849641821016876   -0.021593697721862586
-0.8858390775912196   -0.36849641821016876   -0.021593697721862586
-0.8858390775912196   -0.36849641821016876   -0.021593697721862586
-1.2889395915357809   -0.07756520721370355   -0.008981454400630536
-1.2889395915357809   -0.07756520721370355   -0.008981454400630536
-1.2889395915357809   -0.07756520721370355   -0.008981454400630536
-1.2889395915357809   -0.07756520721370355   -0.008981454400630536
-2.2731920956525604   -0.44999547250388733   0.023214733133123833
-2.2731920956525604   -0.44999547250388733   0.023214733133123833
-2.2731920956525604   -0.44999547250388733   0.023214733133123833
-2.2731920956525604   -0.44999547250388733   0.023214733133123833
-2.1839032618649443   -0.21615232487223773   -0.04773326451356792
-2.1839032618649443   -0.21615232487223773   -0.04773326451356792
-2.1839032618649443   -0.21615232487223773   -0.04773326451356792
-2.1839032618649443   -0.21615232487223773   -0.04773326451356792
-1.2608477914732146   -0.23348310875815032   0.093432247682463
-1.2608477914732146   -0.23348310875815032   0.093432247682463
-1.2608477914732146   -0.23348310875815032   0.093432247682463
-1.2608477914732146   -0.23348310875815032   0.093432247682463
-1.6807940865605688   -0.2608889022456668   0.02387366514612622
-1.6807940865605688   -0.2608889022456668   0.02387366514612622
-1.6807940865605688   -0.2608889022456668   0.02387366514612622
-1.6807940865605688   -0.2608889022456668   0.02387366514612622
-1.2361821295620408   -0.017004963177421673   0.0002824116576087138
-1.2361821295620408   -0.017004963177421673   0.0002824116576087138
-1.2361821295620408   -0.017004963177421673   0.0002824116576087138
-1.2361821295620408   -0.017004963177421673   0.0002824116576087138
-2.217027982991904   -0.441089529668755   0.011580334648129353
-2.217027982991904   -0.441089529668755   0.011580334648129353
-2.217027982991904   -0.441089529668755   0.011580334648129353
-2.217027982991904   -0.441089529668755   0.011580334648129353
-2.13485398297543   -0.19808048455651467   -0.06059238377505444
-2.13485398297543   -0.19808048455651467   -0.06059238377505444
-2.13485398297543   -0.19808048455651467   -0.06059238377505444
-2.13485398297543   -0.19808048455651467   -0.06059238377505444
-1.2182457042540256   -0.2218645914772639   0.10892274686770609
-1.2182457042540256   -0.2218645914772639   0.10892274686770609
-1.2182457042540256   -0.2218645914772639   0.10892274686770609
-1.2182457042540256   -0.2218645914772639   0.10892274686770609
-1.6550171315276547   -0.21490611759042397   0.022999306495336776
-1.6550171315276547   -0.21490611759042397   0.022999306495336776
-1.6550171315276547   -0.21490611759042397   0.022999306495336776
-1.6550171315276547   -0.21490611759042397   0.022999306495336776
-1.1982335800041812   -0.001011809899429339   -0.0118694134609071
-1.1982335800041812   -0.001011809899429339   -0.0118694134609071
-1.1982335800041812   -0.001011809899429339   -0.0118694134609071
-1.1982335800041812   -0.001011809899429339   -0.0118694134609071
-2.157932131255723   -0.42199929016479565   0.04793568043174434
-2.157932131255723   -0.42199929016479565   0.04793568043174434
-2.157932131255723   -0.42199929016479565   0.04793568043174434
-2.157932131255723   -0.42199929016479565   0.04793568043174434
-2.032985557226851   -0.1606161845215231   -0.06779937614889732
-2.032985557226851   -0.1606161845215231   -0.06779937614889732
-2.032985557226851   -0.1606161845215231   -0.06779937614889732
-2.032985557226851   -0.1606161845215231   -0.06779937614889732
-1.1519477797068365   -0.20638653992691147   0.12001508007227918
-1.1519477797068365   -0.20638653992691147   0.12001508007227918
-1.1519477797068365   -0.20638653992691147   0.12001508007227918
-1.1519477797068365   -0.20638653992691147   0.12001508007227918
-1.5562863531308955   -0.16432455354530662   0.04734293172889478
-1.5562863531308955   -0.16432455354530662   0.04734293172889478
-1.5562863531308955   -0.16432455354530662   0.04734293172889478
-1.5562863531308955   -0.16432455354530662   0.04734293172889478
1.6342910974229914   0.05379482402236596   0.02294893740433747
1.6342910974229914   0.05379482402236596   0.02294893740433747
1.6342910974229914   0.05379482402236596   0.02294893740433747
1.6342910974229914   0.05379482402236596   0.02294893740433747
0.8341074315656087   -0.04408213317672835   0.01679072052568123
0.8341074315656087   -0.04408213317672835   0.01679072052568123
0.8341074315656087   -0.04408213317672835   0.01679072052568123
0.8341074315656087   -0.04408213317672835   0.01679072052568123
0.8016292109501058   -0.11764177808576648   0.03316162080017744
0.8016292109501058   -0.11764177808576648   0.03316162080017744
0.8016292109501058   -0.11764177808576648   0.03316162080017744
0.8016292109501058   -0.11764177808576648   0.03316162080017744
1.622441941914956   0.09139632746534948   0.012116389003501024
1.622441941914956   0.09139632746534948   0.012116389003501024
1.622441941914956   0.09139632746534948   0.012116389003501024
1.622441941914956   0.09139632746534948   0.012116389003501024
1.157932375812599   -0.016381668452868925   -0.04277958292461398
1.157932375812599   -0.016381668452868925   -0.04277958292461398
1.157932375812599   -0.016381668452868925   -0.04277958292461398
1.157932375812599   -0.016381668452868925   -0.04277958292461398
1.6135746212380009   0.041625168690493375   0.017550944393581458
1.6135746212380009   0.041625168690493375   0.017550944393581458
1.6135746212380009   0.041625168690493375   0.017550944393581458
1.6135746212380009   0.041625168690493375   0.017550944393581458
0.8078452620559169   -0.07052188888205432   0.017121987125521307
0.8078452620559169   -0.07052188888205432   0.017121987125521307
0.8078452620559169   -0.07052188888205432   0.017121987125521307
0.8078452620559169   -0.07052188888205432   0.017121987125521307
0.780899943992296   -0.12033925553828603   0.0274195031506915
0.780899943992296   -0.12033925553828603   0.0274195031506915
0.780899943992296   -0.12033925553828603   0.0274195031506915
0.780899943992296   -0.12033925553828603   0.0274195031506915
1.603512978434087   0.08746161439731265   0.021031423425373383
1.603512978434087   0.08746161439731265   0.021031423425373383
1.603512978434087   0.08746161439731265   0.021031423425373383
1.603512978434087   0.08746161439731265   0.021031423425373383
1.1545594587217143   -0.02259375785037568   -0.04946886945035135
1.1545594587217143   -0.02259375785037568   -0.04946886945035135
1.1545594587217143   -0.02259375785037568   -0.04946886945035135
1.1545594587217143   -0.02259375785037568   -0.04946886945035135
1.5902842394941803   0.03710297629715531   0.005246366825983187
1.5902842394941803   0.03710297629715531   0.005246366825983187
1.5902842394941803   0.03710297629715531   0.005246366825983187
1.5902842394941803   0.03710297629715531   0.005246366825983187
0.789359153673146   -0.07475014669718255   0.02412644271383836
0.789359153673146   -0.07475014669718255   0.02412644271383836
0.789359153673146   -0.07475014669718255   0.02412644271383836
0.789359153673146   -0.07475014669718255   0.02412644271383836
0.7590408507504748   -0.10971760043710233   0.02367777370588746
0.7590408507504748   -0.10971760043710233   0.02367777370588746
0.7590408507504748   -0.10971760043710233   0.02367777370588746
0.7590408507504748   -0.10971760043710233   0.02367777370588746
1.574355509843694   0.08851833688845911   0.03029583050809409
1.574355509843694   0.08851833688845911   0.03029583050809409
1.574355509843694   0.08851833688845911   0.03029583050809409
1.574355509843694   0.08851833688845911   0.03029583050809409
1.1112548200323693   -0.02274009356231299   -0.0667442169969184
1.1112548200323693   -0.02274009356231299   -0.0667442169969184
1.1112548200323693   -0.02274009356231299   -0.0667442169969184
1.1112548200323693   -0.02274009356231299   -0.0667442169969184
0.8268710877394044   -0.10434290296438278   0.04086977118231391
0.8268710877394044   -0.10434290296438278   0.04086977118231391
0.8268710877394044   -0.10434290296438278   0.04086977118231391
0.8268710877394044   -0.10434290296438278   0.04086977118231391
0.1597461872960128   -0.0984508120957524   0.008646397202555375
0.1597461872960128   -0.0984508120957524   0.008646397202555375
0.1597461872960128   -0.0984508120957524   0.008646397202555375
0.1597461872960128   -0.0984508120957524   0.008646397202555375
0.1037289570867581   -0.2469673905589816   0.04356482332023376
0.1037289570867581   -0.2469673905589816   0.04356482332023376
0.1037289570867581   -0.2469673905589816   0.04356482332023376
0.1037289570867581   -0.2469673905589816   0.04356482332023376
0.8313248917157278   0.03245633945955853   0.0315419070829624
0.8313248917157278   0.03245633945955853   0.0315419070829624
0.8313248917157278   0.03245633945955853   0.0315419070829624
0.8313248917157278   0.03245633945955853   0.0315419070829624
0.4730297268433211   -0.10474626414965699   -0.0018339448940354053
0.4730297268433211   -0.10474626414965699   -0.0018339448940354053
0.4730297268433211   -0.10474626414965699   -0.0018339448940354053
0.4730297268433211   -0.10474626414965699   -0.0018339448940354053
0.8036061634578872   -0.10885332741512657   0.03425793266844124
0.8036061634578872   -0.10885332741512657   0.03425793266844124
0.8036061634578872   -0.10885332741512657   0.03425793266844124
0.8036061634578872   -0.10885332741512657   0.03425793266844124
0.12444506498433427   -0.11266034404457169   0.012838316293704709
0.12444506498433427   -0.11266034404457169   0.012838316293704709
0.12444506498433427   -0.11266034404457169   0.012838316293704709
0.12444506498433427   -0.11266034404457169   0.012838316293704709
0.0786240921535701   -0.249138235550038   0.038997939784577246
0.0786240921535701   -0.249138235550038   0.038997939784577246
0.0786240921535701   -0.249138235550038   0.038997939784577246
0.0786240921535701   -0.249138235550038   0.038997939784577246
0.8122100162992493   0.02627607783047803   0.037354531316694264
0.8122100162992493   0.02627607783047803   0.037354531316694264
0.8122100162992493   0.02627607783047803   0.037354531316694264
0.8122100162992493   0.02627607783047803   0.037354531316694264
0.438920268241181   -0.11162742652806792   -0.02263678573861639
0.438920268241181   -0.11162742652806792   -0.02263678573861639
0.438920268241181   -0.11162742652806792   -0.02263678573861639
0.438920268241181   -0.11162742652806792   -0.02263678573861639
0.7830794609957804   -0.11037598601045581   0.02835381864027789
0.7830794609957804   -0.11037598601045581   0.02835381864027789
0.7830794609957804   -0.11037598601045581   0.02835381864027789
0.7830794609957804   -0.11037598601045581   0.02835381864027789
0.10014277163452935   -0.12009804753161477   0.017551149170950256
0.10014277163452935   -0.12009804753161477   0.017551149170950256
0.10014277163452935   -0.12009804753161477   0.017551149170950256
0.10014277163452935   -0.12009804753161477   0.017551149170950256
0.0505361247019841   -0.2489702546454523   0.030503143521699666
0.0505361247019841   -0.2489702546454523   0.030503143521699666
0.0505361247019841   -0.2489702546454523   0.030503143521699666
0.0505361247019841   -0.2489702546454523   0.030503143521699666
0.7905163741294651   0.02669156168266651   0.04464622848107197
0.7905163741294651   0.02669156168266651   0.04464622848107197
0.7905163741294651   0.02669156168266651   0.04464622848107197
0.7905163741294651   0.02669156168266651   0.04464622848107197
0.4181137309039777   -0.11073101000194294   -0.040320186381352464
0.4181137309039777   -0.11073101000194294   -0.040320186381352464
0.4181137309039777   -0.11073101000194294   -0.040320186381352464
0.4181137309039777   -0.11073101000194294   -0.040320186381352464
0.12458361749220527   -0.30228874785446347   0.036671483942226815
0.12458361749220527   -0.30228874785446347   0.036671483942226815
0.12458361749220527   -0.30228874785446347   0.036671483942226815
0.12458361749220527   -0.30228874785446347   0.036671483942226815
-0.4886098286958759   -0.1526453849751172   0.00045726373821250443
-0.4886098286958759   -0.1526453849751172   0.00045726373821250443
-0.4886098286958759   -0.1526453849751172   0.00045726373821250443
-0.4886098286958759   -0.1526453849751172   0.00045726373821250443
-0.589952440567606   -0.4498843705546123   0.04992797803334942
-0.589952440567606   -0.4498843705546123   0.04992797803334942
-0.589952440567606   -0.4498843705546123   0.04992797803334942
-0.589952440567606   -0.4498843705546123   0.04992797803334942
0.1433194006092764   -0.02541795992542907   0.01996761029927276
0.1433194006092764   -0.02541795992542907   0.01996761029927276
0.1433194006092764   -0.02541795992542907   0.01996761029927276
0.1433194006092764   -0.02541795992542907   0.01996761029927276
-0.19996990753952154   -0.22928112793450214   0.008640507096219129
-0.19996990753952154   -0.22928112793450214   0.008640507096219129
-0.19996990753952154   -0.22928112793450214   0.008640507096219129
-0.19996990753952154   -0.22928112793450214   0.008640507096219129
0.08579421459837247   -0.31944657588685144   0.02637029620617541
0.08579421459837247   -0.31944657588685144   0.02637029620617541
0.08579421459837247   -0.31944657588685144   0.02637029620617541
0.08579421459837247   -0.31944657588685144   0.02637029620617541
-0.5422345508250856   -0.1656630508615844   0.004296107052919565
-0.5422345508250856   -0.1656630508615844   0.004296107052919565
-0.5422345508250856   -0.1656630508615844   0.004296107052919565
-0.5422345508250856   -0.1656630508615844   0.004296107052919565
-0.6249079201472256   -0.45705259270433257   0.040691156688882874
-0.6249079201472256   -0.45705259270433257   0.040691156688882874
-0.6249079201472256   -0.45705259270433257   0.040691156688882874
-0.6249079201472256   -0.45705259270433257   0.040691156688882874
0.11979373073936236   -0.03227685090843675   0.027984748071937314
0.11979373073936236   -0.03227685090843675   0.027984748071937314
0.11979373073936236   -0.03227685090843675   0.027984748071937314
0.11979373073936236   -0.03227685090843675   0.027984748071937314
-0.24365681466873768   -0.24318794125812046   -0.02053137027743357
-0.24365681466873768   -0.24318794125812046   -0.02053137027743357
-0.24365681466873768   -0.24318794125812046   -0.02053137027743357
-0.24365681466873768   -0.24318794125812046   -0.02053137027743357
0.0590525929789974   -0.32499856645376424   0.017000774815439934
0.0590525929789974   -0.32499856645376424   0.017000774815439934
0.0590525929789974   -0.32499856645376424   0.017000774815439934
0.0590525929789974   -0.32499856645376424   0.017000774815439934
-0.5758437281095271   -0.17600782288166228   0.004967347054699096
-0.5758437281095271   -0.17600782288166228   0.004967347054699096
-0.5758437281095271   -0.17600782288166228   0.004967347054699096
-0.5758437281095271   -0.17600782288166228   0.004967347054699096
-0.6628055241641051   -0.45391560781976403   0.03421099224124026
-0.6628055241641051   -0.45391560781976403   0.03421099224124026
-0.6628055241641051   -0.45391560781976403   0.03421099224124026
-0.6628055241641051   -0.45391560781976403   0.03421099224124026
0.0936217711779961   -0.03608786444138233   0.033048985697689715
0.0936217711779961   -0.03608786444138233   0.033048985697689715
0.0936217711779961   -0.03608786444138233   0.033048985697689715
0.0936217711779961   -0.03608786444138233   0.033048985697689715
-0.2791131796394315   -0.24845960856421606   -0.04969547903359948
-0.2791131796394315   -0.24845960856421606   -0.04969547903359948
-0.2791131796394315   -0.24845960856421606   -0.04969547903359948
-0.2791131796394315   -0.24845960856421606   -0.04969547903359948
-0.5531211342771537   -0.5183464687880452   0.04360181964475328
-0.5531211342771537   -0.5183464687880452   0.04360181964475328
-0.5531211342771537   -0.5183464687880452   0.04360181964475328
-0.5531211342771537   -0.5183464687880452   0.04360181964475328
-1.2253190145440185   -0.19000629392978685   -0.028318156878392894
-1.2253190145440185   -0.19000629392978685   -0.028318156878392894
-1.2253190145440185   -0.19000629392978685   -0.028318156878392894
-1.2253190145440185   -0.19000629392978685   -0.028318156878392894
-1.4024556997973132   -0.753548257817009   -0.03890236379412845
-1.4024556997973132   -0.753548257817009   -0.03890236379412845
-1.4024556997973132   -0.753548257817009   -0.03890236379412845
-1.4024556997973132   -0.753548257817009   -0.03890236379412845
-0.5149719095919981   -0.04230638516436595   0.017252647521138285
-0.5149719095919981   -0.04230638516436595   0.017252647521138285
-0.5149719095919981   -0.04230638516436595   0.017252647521138285
-0.5149719095919981   -0.04230638516436595   0.017252647521138285
-0.9150938800557098   -0.36137806972206826   -0.0309432578743892
-0.9150938800557098   -0.36137806972206826   -0.0309432578743892
-0.9150938800557098   -0.36137806972206826   -0.0309432578743892
-0.9150938800557098   -0.36137806972206826   -0.0309432578743892
-0.6244550094702611   -0.5872179119997338   0.014748674965195163
-0.6244550094702611   -0.5872179119997338   0.014748674965195163
-0.6244550094702611   -0.5872179119997338   0.014748674965195163
-0.6244550094702611   -0.5872179119997338   0.014748674965195163
-1.2902050479442357   -0.2058691790068259   -0.02532818333892403
-1.2902050479442357   -0.2058691790068259   -0.02532818333892403
-1.2902050479442357   -0.2058691790068259   -0.02532818333892403
-1.2902050479442357   -0.2058691790068259   -0.02532818333892403
-1.4440485728329429   -0.7656079769282987   -0.04498650393828471
-1.4440485728329429   -0.7656079769282987   -0.04498650393828471
-1.4440485728329429   -0.7656079769282987   -0.04498650393828471
-1.4440485728329429   -0.7656079769282987   -0.04498650393828471
-0.5472081582375573   -0.053580518508213076   0.025717892041099512
-0.5472081582375573   -0.053580518508213076   0.025717892041099512
-0.5472081582375573   -0.053580518508213076   0.025717892041099512
-0.5472081582375573   -0.053580518508213076   0.025717892041099512
-0.9659394510518838   -0.4004650849146848   -0.04394818155748019
-0.9659394510518838   -0.4004650849146848   -0.04394818155748019
-0.9659394510518838   -0.4004650849146848   -0.04394818155748019
-0.9659394510518838   -0.4004650849146848   -0.04394818155748019
-0.6602189651979413   -0.5986900723895507   0.005773411120514882
-0.6602189651979413   -0.5986900723895507   0.005773411120514882
-0.6602189651979413   -0.5986900723895507   0.005773411120514882
-0.6602189651979413   -0.5986900723895507   0.005773411120514882
-1.3312750500770723   -0.22073570725148686   -0.025991159835754306
-1.3312750500770723   -0.22073570725148686   -0.025991159835754306
-1.3312750500770723   -0.22073570725148686   -0.025991159835754306
-1.3312750500770723   -0.22073570725148686   -0.025991159835754306
-1.4795054090233357   -0.7325396394761776   -0.05072706570087429
-1.4795054090233357   -0.7325396394761776   -0.05072706570087429
-1.4795054090233357   -0.7325396394761776   -0.05072706570087429
-1.4795054090233357   -0.7325396394761776   -0.05072706570087429
-0.5879994410036403   -0.06950997402368139   0.023835774247472248
-0.5879994410036403   -0.06950997402368139   0.023835774247472248
-0.5879994410036403   -0.06950997402368139   0.023835774247472248
-0.5879994410036403   -0.06950997402368139   0.023835774247472248
-1.0128069649578382   -0.4137655236211123   -0.05640888364807956
-1.0128069649578382   -0.4137655236211123   -0.05640888364807956
-1.0128069649578382   -0.4137655236211123   -0.05640888364807956
-1.0128069649578382   -0.4137655236211123   -0.05640888364807956
-1.203977241611327   -0.2192654712926787   0.10764988514793333
-1.203977241611327   -0.2192654712926787   0.10764988514793333
-1.203977241611327   -0.2192654712926787   0.10764988514793333
-1.203977241611327   -0.2192654712926787   0.10764988514793333
-2.1184798002336818   -0.15833463037956608   -0.03744851508421497
-2.1184798002336818   -0.15833463037956608   -0.03744851508421497
-2.1184798002336818   -0.15833463037956608   -0.03744851508421497
-2.1184798002336818   -0.15833463037956608   -0.03744851508421497
-2.247942451571331   -0.44368306148358   0.029527144153431162
-2.247942451571331   -0.44368306148358   0.029527144153431162
-2.247942451571331   -0.44368306148358   0.029527144153431162
-2.247942451571331   -0.44368306148358   0.029527144153431162
-1.2382208682243026   0.018017337568663916   0.010706198685240018
-1.2382208682243026   0.018017337568663916   0.010706198685240018
-1.2382208682243026   0.018017337568663916   0.010706198685240018
-1.2382208682243026   0.018017337568663916   0.010706198685240018
-1.621096940931947   -0.15584344273156264   0.03254349740312204
-1.621096940931947   -0.15584344273156264   0.03254349740312204
-1.621096940931947   -0.15584344273156264   0.03254349740312204
-1.621096940931947   -0.15584344273156264   0.03254349740312204
-1.271921526635102   -0.23528354707253316   0.09550379127243619
-1.271921526635102   -0.23528354707253316   0.09550379127243619
-1.271921526635102   -0.23528354707253316   0.09550379127243619
-1.271921526635102   -0.23528354707253316   0.09550379127243619
-2.208608078242348   -0.18474846192419653   -0.032735588761016746
-2.208608078242348   -0.18474846192419653   -0.032735588761016746
-2.208608078242348   -0.18474846192419653   -0.032735588761016746
-2.208608078242348   -0.18474846192419653   -0.032735588761016746
-2.3027755582181646   -0.4625264234753201   -0.009856559158435751
-2.3027755582181646   -0.4625264234753201   -0.009856559158435751
-2.3027755582181646   -0.4625264234753201   -0.009856559158435751
-2.3027755582181646   -0.4625264234753201   -0.009856559158435751
-1.2769457232995274   0.005351874507585008   0.019567892292899014
-1.2769457232995274   0.005351874507585008   0.019567892292899014
-1.2769457232995274   0.005351874507585008   0.019567892292899014
-1.2769457232995274   0.005351874507585008   0.019567892292899014
-1.7178402841153955   -0.20568677798563506   0.013366848568354822
-1.7178402841153955   -0.20568677798563506   0.013366848568354822
-1.7178402841153955   -0.20568677798563506   0.013366848568354822
-1.7178402841153955   -0.20568677798563506   0.013366848568354822
-1.3155657673998522   -0.24729103685016557   0.07911058314902442
-1.3155657673998522   -0.24729103685016557   0.07911058314902442
-1.3155657673998522   -0.24729103685016557   0.07911058314902442
-1.3155657673998522   -0.24729103685016557   0.07911058314902442
-2.2528078346885168   -0.1985358326882397   -0.024008532297235374
-2.2528078346885168   -0.1985358326882397   -0.024008532297235374
-2.2528078346885168   -0.1985358326882397   -0.024008532297235374
-2.2528078346885168   -0.1985358326882397   -0.024008532297235374
-2.350379956199228   -0.4701112464006719   -0.00017627580413193122
-2.350379956199228   -0.4701112464006719   -0.00017627580413193122
-2.350379956199228   -0.4701112464006719   -0.00017627580413193122
-2.350379956199228   -0.4701112464006719   -0.00017627580413193122
-1.331345593837588   -0.05050791842562835   0.008040289177315058
-1.331345593837588   -0.05050791842562835   0.008040289177315058
-1.331345593837588   -0.05050791842562835   0.008040289177315058
-1.331345593837588   -0.05050791842562835   0.008040289177315058
-1.7385940198892846   -0.24845929763306646   0.021087420456887527
-1.7385940198892846   -0.24845929763306646   0.021087420456887527
-1.7385940198892846   -0.24845929763306646   0.021087420456887527
-1.7385940198892846   -0.24845929763306646   0.021087420456887527
1.4322894790218228   0.06599735249556149   -0.030993898569083606
1.4322894790218228   0.06599735249556149   -0.030993898569083606
1.4322894790218228   0.06599735249556149   -0.030993898569083606
1.4322894790218228   0.06599735249556149   -0.030993898569083606
0.7206786609694834   -0.014673222374838452   0.015203697497921505
0.7206786609694834   -0.014673222374838452   0.015203697497921505
0.7206786609694834   -0.014673222374838452   0.015203697497921505
0.7206786609694834   -0.014673222374838452   0.015203697497921505
0.6749474683023128   -0.1060112647460478   -0.02742709844084186
0.6749474683023128   -0.1060112647460478   -0.02742709844084186
0.6749474683023128   -0.1060112647460478   -0.02742709844084186
0.6749474683023128   -0.1060112647460478   -0.02742709844084186
1.4157375620875239   0.10333491151707555   0.017788121092122584
1.4157375620875239   0.10333491151707555   0.017788121092122584
1.4157375620875239   0.10333491151707555   0.017788121092122584
1.4157375620875239   0.10333491151707555   0.017788121092122584
1.0053020971725217   0.0024692311915512632   -0.03882891691745657
1.0053020971725217   0.0024692311915512632   -0.03882891691745657
1.0053020971725217   0.0024692311915512632   -0.03882891691745657
1.0053020971725217   0.0024692311915512632   -0.03882891691745657
1.3926036078898556   0.036746695986502154   -0.03129343436563499
1.3926036078898556   0.036746695986502154   -0.03129343436563499
1.3926036078898556   0.036746695986502154   -0.03129343436563499
1.3926036078898556   0.036746695986502154   -0.03129343436563499
0.6968001329319142   -0.040704338783540434   0.01652929874465251
0.6968001329319142   -0.040704338783540434   0.01652929874465251
0.6968001329319142   -0.040704338783540434   0.01652929874465251
0.6968001329319142   -0.040704338783540434   0.01652929874465251
0.6503190675188629   -0.11191586174156515   -0.02266204635379164
0.6503190675188629   -0.11191586174156515   -0.02266204635379164
0.6503190675188629   -0.11191586174156515   -0.02266204635379164
0.6503190675188629   -0.11191586174156515   -0.02266204635379164
1.381535279604417   0.09496021502601365   0.02603038595561076
1.381535279604417   0.09496021502601365   0.02603038595561076
1.381535279604417   0.09496021502601365   0.02603038595561076
1.381535279604417   0.09496021502601365   0.02603038595561076
0.9919089642416327   -0.010022806086478764   -0.04631227218175847
0.9919089642416327   -0.010022806086478764   -0.04631227218175847
0.9919089642416327   -0.010022806086478764   -0.04631227218175847
0.9919089642416327   -0.010022806086478764   -0.04631227218175847
1.358228453560959   0.029241432408732837   -0.024784961644397877
1.358228453560959   0.029241432408732837   -0.024784961644397877
1.358228453560959   0.029241432408732837   -0.024784961644397877
1.358228453560959   0.029241432408732837   -0.024784961644397877
0.6718441285523554   -0.04797884413424974   0.021026241206355337
0.6718441285523554   -0.04797884413424974   0.021026241206355337
0.6718441285523554   -0.04797884413424974   0.021026241206355337
0.6718441285523554   -0.04797884413424974   0.021026241206355337
0.626473826153556   -0.11022633816803751   -0.015545861084250656
0.626473826153556   -0.11022633816803751   -0.015545861084250656
0.626473826153556   -0.11022633816803751   -0.015545861084250656
0.626473826153556   -0.11022633816803751   -0.015545861084250656
1.3391938073750187   0.0893165243186132   0.03389529907448047
1.3391938073750187   0.0893165243186132   0.03389529907448047
1.3391938073750187   0.0893165243186132   0.03389529907448047
1.3391938073750187   0.0893165243186132   0.03389529907448047
0.9429396121875381   -0.017478106529120324   -0.06080437969904364
0.9429396121875381   -0.017478106529120324   -0.06080437969904364
0.9429396121875381   -0.017478106529120324   -0.06080437969904364
0.9429396121875381   -0.017478106529120324   -0.06080437969904364
0.7247073876755309   0.014122475225252396   0.0065516334280614
0.7247073876755309   0.014122475225252396   0.0065516334280614
0.7247073876755309   0.014122475225252396   0.0065516334280614
0.7247073876755309   0.014122475225252396   0.0065516334280614
0.06928322734140772   -0.043501667761657065   -0.0016955750546017896
0.06928322734140772   -0.043501667761657065   -0.0016955750546017896
0.06928322734140772   -0.043501667761657065   -0.0016955750546017896
0.06928322734140772   -0.043501667761657065   -0.0016955750546017896
0.026189034553120098   -0.14016061205721875   -0.02640699333831644
0.026189034553120098   -0.14016061205721875   -0.02640699333831644
0.026189034553120098   -0.14016061205721875   -0.02640699333831644
0.026189034553120098   -0.14016061205721875   -0.02640699333831644
0.7255487191541924   0.08371294788555976   0.035854943186942934
0.7255487191541924   0.08371294788555976   0.035854943186942934
0.7255487191541924   0.08371294788555976   0.035854943186942934
0.7255487191541924   0.08371294788555976   0.035854943186942934
0.37934139028766867   -0.01962412500805527   -0.015004789051940953
0.37934139028766867   -0.01962412500805527   -0.015004789051940953
0.37934139028766867   -0.01962412500805527   -0.015004789051940953
0.37934139028766867   -0.01962412500805527   -0.015004789051940953
0.7044669044303709   0.0030067700638117534   0.011152047389585314
0.7044669044303709   0.0030067700638117534   0.011152047389585314
0.7044669044303709   0.0030067700638117534   0.011152047389585314
0.7044669044303709   0.0030067700638117534   0.011152047389585314
0.048073343389573114   -0.05865194012283892   0.001505878909568794
0.048073343389573114   -0.05865194012283892   0.001505878909568794
0.048073343389573114   -0.05865194012283892   0.001505878909568794
0.048073343389573114   -0.05865194012283892   0.001505878909568794
0.0024419758432941835   -0.14682758653038497   -0.01839575003166559
0.0024419758432941835   -0.14682758653038497   -0.01839575003166559
0.0024419758432941835   -0.14682758653038497   -0.01839575003166559
0.0024419758432941835   -0.14682758653038497   -0.01839575003166559
0.6994805802564766   0.07168616635536558   0.0395434892373462
0.6994805802564766   0.07168616635536558   0.0395434892373462
0.6994805802564766   0.07168616635536558   0.0395434892373462
0.6994805802564766   0.07168616635536558   0.0395434892373462
0.35199841538376836   -0.030700378877549075   -0.021244145403882485
0.35199841538376836   -0.030700378877549075   -0.021244145403882485
0.35199841538376836   -0.030700378877549075   -0.021244145403882485
0.35199841538376836   -0.030700378877549075   -0.021244145403882485
0.6795851128271334   -0.004474454531726263   0.016226772977727462
0.6795851128271334   -0.004474454531726263   0.016226772977727462
0.6795851128271334   -0.004474454531726263   0.016226772977727462
0.6795851128271334   -0.004474454531726263   0.016226772977727462
0.022226337995684905   -0.0707780709202345   0.004476545120137575
0.022226337995684905   -0.0707780709202345   0.004476545120137575
0.022226337995684905   -0.0707780709202345   0.004476545120137575
0.022226337995684905   -0.0707780709202345   0.004476545120137575
-0.023046818304692365   -0.14746224412759748   -0.012559608136090625
-0.023046818304692365   -0.14746224412759748   -0.012559608136090625
-0.023046818304692365   -0.14746224412759748   -0.012559608136090625
-0.023046818304692365   -0.14746224412759748   -0.012559608136090625
0.6731791111620392   0.06405434936249   0.043699876427640436
0.6731791111620392   0.06405434936249   0.043699876427640436
0.6731791111620392   0.06405434936249   0.043699876427640436
0.6731791111620392   0.06405434936249   0.043699876427640436
0.3306313161019847   -0.03509489676375842   -0.026596458335999863
0.3306313161019847   -0.03509489676375842   -0.026596458335999863
0.3306313161019847   -0.03509489676375842   -0.026596458335999863
0.3306313161019847   -0.03509489676375842   -0.026596458335999863
0.07073976494376234   -0.04037485829645124   0.0024603034919655122
0.07073976494376234   -0.04037485829645124   0.0024603034919655122
0.07073976494376234   -0.04037485829645124   0.0024603034919655122
0.07073976494376234   -0.04037485829645124   0.0024603034919655122
-0.5604153358636003   -0.06473969962520133   -0.017624669129451036
-0.5604153358636003   -0.06473969962520133   -0.017624669129451036
-0.5604153358636003   -0.06473969962520133   -0.017624669129451036
-0.5604153358636003   -0.06473969962520133   -0.017624669129451036
-0.6083249348234463   -0.18576217205237894   -0.030109114902753937
-0.6083249348234463   -0.18576217205237894   -0.030109114902753937
-0.6083249348234463   -0.18576217205237894   -0.030109114902753937
-0.6083249348234463   -0.18576217205237894   -0.030109114902753937
0.07589379621104828   0.06135777551870665   0.02059842737539907
0.07589379621104828   0.06135777551870665   0.02059842737539907
0.07589379621104828   0.06135777551870665   0.02059842737539907
0.07589379621104828   0.06135777551870665   0.02059842737539907
-0.2562777062281783   -0.05463328073479309   -0.014883164512343781
-0.2562777062281783   -0.05463328073479309   -0.014883164512343781
-0.2562777062281783   -0.05463328073479309   -0.014883164512343781
-0.2562777062281783   -0.05463328073479309   -0.014883164512343781
0.05289339792431215   -0.045088200191826536   0.012042411652249691
0.05289339792431215   -0.045088200191826536   0.012042411652249691
0.05289339792431215   -0.045088200191826536   0.012042411652249691
0.05289339792431215   -0.045088200191826536   0.012042411652249691
-0.5835615387441462   -0.0775531985492873   -0.014501108009345419
-0.5835615387441462   -0.0775531985492873   -0.014501108009345419
-0.5835615387441462   -0.0775531985492873   -0.014501108009345419
-0.5835615387441462   -0.0775531985492873   -0.014501108009345419
-0.6361700696464727   -0.1930606644872911   -0.01997051943649921
-0.6361700696464727   -0.1930606644872911   -0.01997051943649921
-0.6361700696464727   -0.1930606644872911   -0.01997051943649921
-0.6361700696464727   -0.1930606644872911   -0.01997051943649921
0.049841001070798245   0.048484992587573474   0.023286796987896298
0.049841001070798245   0.048484992587573474   0.023286796987896298
0.049841001070798245   0.048484992587573474   0.023286796987896298
0.049841001070798245   0.048484992587573474   0.023286796987896298
-0.2793168896629773   -0.0622900594158618   -0.017848960908899987
-0.2793168896629773   -0.0622900594158618   -0.017848960908899987
-0.2793168896629773   -0.0622900594158618   -0.017848960908899987
-0.2793168896629773   -0.0622900594158618   -0.017848960908899987
0.028237841750691065   -0.05286148310464309   0.01661747607957694
0.028237841750691065   -0.05286148310464309   0.01661747607957694
0.028237841750691065   -0.05286148310464309   0.01661747607957694
0.028237841750691065   -0.05286148310464309   0.01661747607957694
-0.6141950795667668   -0.0913423580354765   -0.011813875489788577
-0.6141950795667668   -0.0913423580354765   -0.011813875489788577
-0.6141950795667668   -0.0913423580354765   -0.011813875489788577
-0.6141950795667668   -0.0913423580354765   -0.011813875489788577
-0.6670628795511262   -0.19838497443562747   -0.01775191354441374
-0.6670628795511262   -0.19838497443562747   -0.01775191354441374
-0.6670628795511262   -0.19838497443562747   -0.01775191354441374
-0.6670628795511262   -0.19838497443562747   -0.01775191354441374
0.021660466151083514   0.037496320899940844   0.026018249115252367
0.021660466151083514   0.037496320899940844   0.026018249115252367
0.021660466151083514   0.037496320899940844   0.026018249115252367
0.021660466151083514   0.037496320899940844   0.026018249115252367
-0.30924458869635896   -0.07145667288524503   -0.024998528042177417
-0.30924458869635896   -0.07145667288524503   -0.024998528042177417
-0.30924458869635896   -0.07145667288524503   -0.024998528042177417
-0.30924458869635896   -0.07145667288524503   -0.024998528042177417
-0.5517612226732125   -0.047874887283743214   0.008781084481019583
-0.5517612226732125   -0.047874887283743214   0.008781084481019583
-0.5517612226732125   -0.047874887283743214   0.008781084481019583
-0.5517612226732125   -0.047874887283743214   0.008781084481019583
-1.175146440204017   -0.0757748936633241   -0.03103179262155329
-1.175146440204017   -0.0757748936633241   -0.03103179262155329
-1.175146440204017   -0.0757748936633241   -0.03103179262155329
-1.175146440204017   -0.0757748936633241   -0.03103179262155329
-1.229594744359   -0.19470405253445866   -0.030112854562323568
-1.229594744359   -0.19470405253445866   -0.030112854562323568
-1.229594744359   -0.19470405253445866   -0.030112854562323568
-1.229594744359   -0.19470405253445866   -0.030112854562323568
-0.5545972203239222   0.04690032636579633   0.005866959176683721
-0.5545972203239222   0.04690032636579633   0.005866959176683721
-0.5545972203239222   0.04690032636579633   0.005866959176683721
-0.5545972203239222   0.04690032636579633   0.005866959176683721
-0.8705497858191323   -0.06472056324008675   -0.012483946657046895
-0.8705497858191323   -0.06472056324008675   -0.012483946657046895
-0.8705497858191323   -0.06472056324008675   -0.012483946657046895
-0.8705497858191323   -0.06472056324008675   -0.012483946657046895
-0.5715248930804522   -0.05286810584527511   0.020997027605107726
-0.5715248930804522   -0.05286810584527511   0.020997027605107726
-0.5715248930804522   -0.05286810584527511   0.020997027605107726
-0.5715248930804522   -0.05286810584527511   0.020997027605107726
-1.209215802917462   -0.0914843516383905   -0.03143784825071055
-1.209215802917462   -0.0914843516383905   -0.03143784825071055
-1.209215802917462   -0.0914843516383905   -0.03143784825071055
-1.209215802917462   -0.0914843516383905   -0.03143784825071055
-1.268107772642505   -0.2071364565550805   -0.021162183788228803
-1.268107772642505   -0.2071364565550805   -0.021162183788228803
-1.268107772642505   -0.2071364565550805   -0.021162183788228803
-1.268107772642505   -0.2071364565550805   -0.021162183788228803
-0.5855706820279845   0.032798375937417745   0.007167378231227942
-0.5855706820279845   0.032798375937417745   0.007167378231227942
-0.5855706820279845   0.032798375937417745   0.007167378231227942
-0.5855706820279845   0.032798375937417745   0.007167378231227942
-0.8948755113360125   -0.07158924037150864   -0.012510543553689291
-0.8948755113360125   -0.07158924037150864   -0.012510543553689291
-0.8948755113360125   -0.07158924037150864   -0.012510543553689291
-0.8948755113360125   -0.07158924037150864   -0.012510543553689291
-0.602277816517455   -0.06537667685679523   0.02180675857808654
-0.602277816517455   -0.06537667685679523   0.02180675857808654
-0.602277816517455   -0.06537667685679523   0.02180675857808654
-0.602277816517455   -0.06537667685679523   0.02180675857808654
-1.249086580152315   -0.10664734576013846   -0.0265453321322225
-1.249086580152315   -0.10664734576013846   -0.0265453321322225
-1.249086580152315   -0.10664734576013846   -0.0265453321322225
-1.249086580152315   -0.10664734576013846   -0.0265453321322225
-1.311679521610057   -0.2235397161800727   -0.022632855928067595
-1.311679521610057   -0.2235397161800727   -0.022632855928067595
-1.311679521610057   -0.2235397161800727   -0.022632855928067595
-1.311679521610057   -0.2235397161800727   -0.022632855928067595
-0.6190462037416845   0.015385099820692916   0.008561391246462116
-0.6190462037416845   0.015385099820692916   0.008561391246462116
-0.6190462037416845   0.015385099820692916   0.008561391246462116
-0.6190462037416845   0.015385099820692916   0.008561391246462116
-0.9381379741952603   -0.08842763662587985   -0.020365410975125474
-0.9381379741952603   -0.08842763662587985   -0.020365410975125474
-0.9381379741952603   -0.08842763662587985   -0.020365410975125474
-0.9381379741952603   -0.08842763662587985   -0.020365410975125474
-1.1354284650799402   0.05343498127927199   0.03834820805623375
-1.1354284650799402   0.05343498127927199   0.03834820805623375
-1.1354284650799402   0.05343498127927199   0.03834820805623375
-1.1354284650799402   0.05343498127927199   0.03834820805623375
-1.7603708214932694   -0.0876949008661711   -0.023571391547143328
-1.7603708214932694   -0.0876949008661711   -0.023571391547143328
-1.7603708214932694   -0.0876949008661711   -0.023571391547143328
-1.7603708214932694   -0.0876949008661711   -0.023571391547143328
-1.8035062608902013   -0.0893107884682135   0.03935096116675167
-1.8035062608902013   -0.0893107884682135   0.03935096116675167
-1.8035062608902013   -0.0893107884682135   0.03935096116675167
-1.8035062608902013   -0.0893107884682135   0.03935096116675167
-1.1791776797074787   0.03662623162532941   -0.009357815464514585
-1.1791776797074787   0.03662623162532941   -0.009357815464514585
-1.1791776797074787   0.03662623162532941   -0.009357815464514585
-1.1791776797074787   0.03662623162532941   -0.009357815464514585
-1.4011213951443109   0.0010215486873161872   0.035582864324782734
-1.4011213951443109   0.0010215486873161872   0.035582864324782734
-1.4011213951443109   0.0010215486873161872   0.035582864324782734
-1.4011213951443109   0.0010215486873161872   0.035582864324782734
-1.166977366175218   0.03981566250488949   0.04845432131722212
-1.166977366175218   0.03981566250488949   0.04845432131722212
-1.166977366175218   0.03981566250488949   0.04845432131722212
-1.166977366175218   0.03981566250488949   0.04845432131722212
-1.8148990376763083   -0.09169268260160574   -0.015231028630391455
-1.8148990376763083   -0.09169268260160574   -0.015231028630391455
-1.8148990376763083   -0.09169268260160574   -0.015231028630391455
-1.8148990376763083   -0.09169268260160574   -0.015231028630391455
-1.8579406634704896   -0.1040533069474337   0.053536925188706744
-1.8579406634704896   -0.1040533069474337   0.053536925188706744
-1.8579406634704896   -0.1040533069474337   0.053536925188706744
-1.8579406634704896   -0.1040533069474337   0.053536925188706744
-1.2190854255389374   0.026606664684869663   -0.009793569510353609
-1.2190854255389374   0.026606664684869663   -0.009793569510353609
-1.2190854255389374   0.026606664684869663   -0.009793569510353609
-1.2190854255389374   0.026606664684869663   -0.009793569510353609
-1.4714297283962627   -0.016223409723304216   0.019525772135332742
-1.4714297283962627   -0.016223409723304216   0.019525772135332742
-1.4714297283962627   -0.016223409723304216   0.019525772135332742
-1.4714297283962627   -0.016223409723304216   0.019525772135332742
-1.207931596099026   0.0247979749699333   0.04778426740413938
-1.207931596099026   0.0247979749699333   0.04778426740413938
-1.207931596099026   0.0247979749699333   0.04778426740413938
-1.207931596099026   0.0247979749699333   0.04778426740413938
-1.8711952203974833   -0.10434534471958995   -0.012443821674105474
-1.8711952203974833   -0.10434534471958995   -0.012443821674105474
-1.8711952203974833   -0.10434534471958995   -0.012443821674105474
-1.8711952203974833   -0.10434534471958995   -0.012443821674105474
-1.9353480038479942   -0.16362326893904353   0.046465946620706806
-1.9353480038479942   -0.16362326893904353   0.046465946620706806
-1.9353480038479942   -0.16362326893904353   0.046465946620706806
-1.9353480038479942   -0.16362326893904353   0.046465946620706806
-1.265098421531551   -0.004040700382990869   -0.009226371332641314
-1.265098421531551   -0.004040700382990869   -0.009226371332641314
-1.265098421531551   -0.004040700382990869   -0.009226371332641314
-1.265098421531551   -0.004040700382990869   -0.009226371332641314
-1.501231278957203   -0.03796093442479803   0.005436647606103406
-1.501231278957203   -0.03796093442479803   0.005436647606103406
-1.501231278957203   -0.03796093442479803   0.005436647606103406
-1.501231278957203   -0.03796093442479803   0.005436647606103406
1.1616062980088169   0.062219315341705383   -0.04126125095869284
1.1616062980088169   0.062219315341705383   -0.04126125095869284
1.1616062980088169   0.062219315341705383   -0.04126125095869284
1.1616062980088169   0.062219315341705383   -0.04126125095869284
0.5756329688612983   -0.000750491093731348   0.014908337582194488
0.5756329688612983   -0.000750491093731348   0.014908337582194488
0.5756329688612983   -0.000750491093731348   0.014908337582194488
0.5756329688612983   -0.000750491093731348   0.014908337582194488
0.5262676977635375   -0.08569318302062504   -0.03788248727242458
0.5262676977635375   -0.08569318302062504   -0.03788248727242458
0.5262676977635375   -0.08569318302062504   -0.03788248727242458
0.5262676977635375   -0.08569318302062504   -0.03788248727242458
1.1398099010647755   0.09385354304950341   0.018702430617170356
1.1398099010647755   0.09385354304950341   0.018702430617170356
1.1398099010647755   0.09385354304950341   0.018702430617170356
1.1398099010647755   0.09385354304950341   0.018702430617170356
0.8068423215677726   0.0071192901194968294   -0.026557842478673065
0.8068423215677726   0.0071192901194968294   -0.026557842478673065
0.8068423215677726   0.0071192901194968294   -0.026557842478673065
0.8068423215677726   0.0071192901194968294   -0.026557842478673065
1.1157099686767853   0.031819192468208024   -0.03976288074147632
1.1157099686767853   0.031819192468208024   -0.03976288074147632
1.1157099686767853   0.031819192468208024   -0.03976288074147632
1.1157099686767853   0.031819192468208024   -0.03976288074147632
0.5493378539159177   -0.024688608674945267   0.01646371914378473
0.5493378539159177   -0.024688608674945267   0.01646371914378473
0.5493378539159177   -0.024688608674945267   0.01646371914378473
0.5493378539159177   -0.024688608674945267   0.01646371914378473
0.5015789574361433   -0.09282493783158535   -0.03293905616411065
0.5015789574361433   -0.09282493783158535   -0.03293905616411065
0.5015789574361433   -0.09282493783158535   -0.03293905616411065
0.5015789574361433   -0.09282493783158535   -0.03293905616411065
1.1028865342816143   0.08404312142306591   0.025595091245565665
1.1028865342816143   0.08404312142306591   0.025595091245565665
1.1028865342816143   0.08404312142306591   0.025595091245565665
1.1028865342816143   0.08404312142306591   0.025595091245565665
0.7875873278033106   -0.005751974606368171   -0.03483669140083465
0.7875873278033106   -0.005751974606368171   -0.03483669140083465
0.7875873278033106   -0.005751974606368171   -0.03483669140083465
0.7875873278033106   -0.005751974606368171   -0.03483669140083465
1.0792988560114736   0.023039014483248688   -0.03133919316530148
1.0792988560114736   0.023039014483248688   -0.03133919316530148
1.0792988560114736   0.023039014483248688   -0.03133919316530148
1.0792988560114736   0.023039014483248688   -0.03133919316530148
0.5242399134326069   -0.0327475531654379   0.020288339152054247
0.5242399134326069   -0.0327475531654379   0.020288339152054247
0.5242399134326069   -0.0327475531654379   0.020288339152054247
0.5242399134326069   -0.0327475531654379   0.020288339152054247
0.47904331840930287   -0.0948752746755282   -0.026913206930510483
0.47904331840930287   -0.0948752746755282   -0.026913206930510483
0.47904331840930287   -0.0948752746755282   -0.026913206930510483
0.47904331840930287   -0.0948752746755282   -0.026913206930510483
1.0612615333933046   0.07549121231870656   0.03187510175761807
1.0612615333933046   0.07549121231870656   0.03187510175761807
1.0612615333933046   0.07549121231870656   0.03187510175761807
1.0612615333933046   0.07549121231870656   0.03187510175761807
0.7425060916916993   -0.014594984602507771   -0.04728964071500143
0.7425060916916993   -0.014594984602507771   -0.04728964071500143
0.7425060916916993   -0.014594984602507771   -0.04728964071500143
0.7425060916916993   -0.014594984602507771   -0.04728964071500143
0.585608058281777   0.06075756012959034   0.0032757334612659693
0.585608058281777   0.06075756012959034   0.0032757334612659693
0.585608058281777   0.06075756012959034   0.0032757334612659693
0.585608058281777   0.06075756012959034   0.0032757334612659693
0.019695136733271362   -0.019303076502784056   -0.002432317804979089
0.019695136733271362   -0.019303076502784056   -0.002432317804979089
0.019695136733271362   -0.019303076502784056   -0.002432317804979089
0.019695136733271362   -0.019303076502784056   -0.002432317804979089
-0.017516380949157567   -0.07723134729643281   -0.02580143261967
-0.017516380949157567   -0.07723134729643281   -0.02580143261967
-0.017516380949157567   -0.07723134729643281   -0.02580143261967
-0.017516380949157567   -0.07723134729643281   -0.02580143261967
0.5743487723509743   0.08502342178770492   0.03180628085641691
0.5743487723509743   0.08502342178770492   0.03180628085641691
0.5743487723509743   0.08502342178770492   0.03180628085641691
0.5743487723509743   0.08502342178770492   0.03180628085641691
0.2860056564772116   0.01211352109353133   -0.0032554985891086116
0.2860056564772116   0.01211352109353133   -0.0032554985891086116
0.2860056564772116   0.01211352109353133   -0.0032554985891086116
0.2860056564772116   0.01211352109353133   -0.0032554985891086116
0.5612982451724743   0.04500606483512716   0.006571001916498034
0.5612982451724743   0.04500606483512716   0.006571001916498034
0.5612982451724743   0.04500606483512716   0.006571001916498034
0.5612982451724743   0.04500606483512716   0.006571001916498034
-0.004233018718963347   -0.03698115529216027   0.0003651865270285527
-0.004233018718963347   -0.03698115529216027   0.0003651865270285527
-0.004233018718963347   -0.03698115529216027   0.0003651865270285527
-0.004233018718963347   -0.03698115529216027   0.0003651865270285527
-0.04090323090881415   -0.08876156594819154   -0.02231136111517918
-0.04090323090881415   -0.08876156594819154   -0.02231136111517918
-0.04090323090881415   -0.08876156594819154   -0.02231136111517918
-0.04090323090881415   -0.08876156594819154   -0.02231136111517918
0.5478549974287645   0.07042611365505116   0.035190092312353365
0.5478549974287645   0.07042611365505116   0.035190092312353365
0.5478549974287645   0.07042611365505116   0.035190092312353365
0.5478549974287645   0.07042611365505116   0.035190092312353365
0.25742402428426747   -0.002277922929334854   -0.011431010739219745
0.25742402428426747   -0.002277922929334854   -0.011431010739219745
0.25742402428426747   -0.002277922929334854   -0.011431010739219745
0.25742402428426747   -0.002277922929334854   -0.011431010739219745
0.5352948782556867   0.03291954177345713   0.009896068328563337
0.5352948782556867   0.03291954177345713   0.009896068328563337
0.5352948782556867   0.03291954177345713   0.009896068328563337
0.5352948782556867   0.03291954177345713   0.009896068328563337
-0.028320977503496422   -0.05123285983435676   0.003071199797574668
-0.028320977503496422   -0.05123285983435676   0.003071199797574668
-0.028320977503496422   -0.05123285983435676   0.003071199797574668
-0.028320977503496422   -0.05123285983435676   0.003071199797574668
-0.06405083885740505   -0.09568361577104949   -0.017759999220643412
-0.06405083885740505   -0.09568361577104949   -0.017759999220643412
-0.06405083885740505   -0.09568361577104949   -0.017759999220643412
-0.06405083885740505   -0.09568361577104949   -0.017759999220643412
0.5226563733001938   0.05812970924145778   0.03814708360695076
0.5226563733001938   0.05812970924145778   0.03814708360695076
0.5226563733001938   0.05812970924145778   0.03814708360695076
0.5226563733001938   0.05812970924145778   0.03814708360695076
0.23631432839329583   -0.011462998309108824   -0.017450123375335223
0.23631432839329583   -0.011462998309108824   -0.017450123375335223
0.23631432839329583   -0.011462998309108824   -0.017450123375335223
0.23631432839329583   -0.011462998309108824   -0.017450123375335223
0.038940354661709045   0.06129542614386315   0.013195269190562135
0.038940354661709045   0.06129542614386315   0.013195269190562135
0.038940354661709045   0.06129542614386315   0.013195269190562135
0.038940354661709045   0.06129542614386315   0.013195269190562135
-0.5190419815267658   -0.033681870370898065   -0.017846812448033458
-0.5190419815267658   -0.033681870370898065   -0.017846812448033458
-0.5190419815267658   -0.033681870370898065   -0.017846812448033458
-0.5190419815267658   -0.033681870370898065   -0.017846812448033458
-0.5480727620279449   -0.07083006717877888   -0.01637422787303546
-0.5480727620279449   -0.07083006717877888   -0.01637422787303546
-0.5480727620279449   -0.07083006717877888   -0.01637422787303546
-0.5480727620279449   -0.07083006717877888   -0.01637422787303546
0.020103421735404196   0.06963023250891809   0.015436000997787906
0.020103421735404196   0.06963023250891809   0.015436000997787906
0.020103421735404196   0.06963023250891809   0.015436000997787906
0.020103421735404196   0.06963023250891809   0.015436000997787906
-0.2517008180052639   0.0077740438857596406   0.0009684043374664185
-0.2517008180052639   0.0077740438857596406   0.0009684043374664185
-0.2517008180052639   0.0077740438857596406   0.0009684043374664185
-0.2517008180052639   0.0077740438857596406   0.0009684043374664185
0.016122674776080974   0.04859697124887613   0.01656552746121376
0.016122674776080974   0.04859697124887613   0.01656552746121376
0.016122674776080974   0.04859697124887613   0.01656552746121376
0.016122674776080974   0.04859697124887613   0.01656552746121376
-0.5434534115161701   -0.04915820236628031   -0.014949340126660386
-0.5434534115161701   -0.04915820236628031   -0.014949340126660386
-0.5434534115161701   -0.04915820236628031   -0.014949340126660386
-0.5434534115161701   -0.04915820236628031   -0.014949340126660386
-0.5731693824151658   -0.08349671970201769   -0.0136113809740954
-0.5731693824151658   -0.08349671970201769   -0.0136113809740954
-0.5731693824151658   -0.08349671970201769   -0.0136113809740954
-0.5731693824151658   -0.08349671970201769   -0.0136113809740954
-0.004020222056082592   0.05461511690187524   0.018727000298411806
-0.004020222056082592   0.05461511690187524   0.018727000298411806
-0.004020222056082592   0.05461511690187524   0.018727000298411806
-0.004020222056082592   0.05461511690187524   0.018727000298411806
-0.2757464067186118   -0.004630572826728595   -0.00517215035329114
-0.2757464067186118   -0.004630572826728595   -0.00517215035329114
-0.2757464067186118   -0.004630572826728595   -0.00517215035329114
-0.2757464067186118   -0.004630572826728595   -0.00517215035329114
-0.007418960362132869   0.03637110503117927   0.01997732063885639
-0.007418960362132869   0.03637110503117927   0.01997732063885639
-0.007418960362132869   0.03637110503117927   0.01997732063885639
-0.007418960362132869   0.03637110503117927   0.01997732063885639
-0.5692232134420205   -0.06470527716422617   -0.012671978646157269
-0.5692232134420205   -0.06470527716422617   -0.012671978646157269
-0.5692232134420205   -0.06470527716422617   -0.012671978646157269
-0.5692232134420205   -0.06470527716422617   -0.012671978646157269
-0.5980941866142009   -0.09346177555687755   -0.009017580403555232
-0.5980941866142009   -0.09346177555687755   -0.009017580403555232
-0.5980941866142009   -0.09346177555687755   -0.009017580403555232
-0.5980941866142009   -0.09346177555687755   -0.009017580403555232
-0.02901333481512861   0.040470504097974445   0.021273401121714858
-0.02901333481512861   0.040470504097974445   0.021273401121714858
-0.02901333481512861   0.040470504097974445   0.021273401121714858
-0.02901333481512861   0.040470504097974445   0.021273401121714858
-0.3016198985772961   -0.01724557571810837   -0.011884474102531644
-0.3016198985772961   -0.01724557571810837   -0.011884474102531644
-0.3016198985772961   -0.01724557571810837   -0.011884474102531644
-0.3016198985772961   -0.01724557571810837   -0.011884474102531644
-0.48946608027272936   0.0723647512812466   0.02398607217001273
-0.48946608027272936   0.0723647512812466   0.02398607217001273
-0.48946608027272936   0.0723647512812466   0.02398607217001273
-0.48946608027272936   0.0723647512812466   0.02398607217001273
-1.0400446348588037   -0.04629462856560884   -0.029227349667871473
-1.0400446348588037   -0.04629462856560884   -0.029227349667871473
-1.0400446348588037   -0.04629462856560884   -0.029227349667871473
-1.0400446348588037   -0.04629462856560884   -0.029227349667871473
-1.0626747556433875   -0.05683861242581867   -0.0047501994619259455
-1.0626747556433875   -0.05683861242581867   -0.0047501994619259455
-1.0626747556433875   -0.05683861242581867   -0.0047501994619259455
-1.0626747556433875   -0.05683861242581867   -0.0047501994619259455
-0.5202561079285732   0.052693532582718416   -0.0008145571376712707
-0.5202561079285732   0.052693532582718416   -0.0008145571376712707
-0.5202561079285732   0.052693532582718416   -0.0008145571376712707
-0.5202561079285732   0.052693532582718416   -0.0008145571376712707
-0.7724884920650402   0.007857123784824949   0.005638479711888758
-0.7724884920650402   0.007857123784824949   0.005638479711888758
-0.7724884920650402   0.007857123784824949   0.005638479711888758
-0.7724884920650402   0.007857123784824949   0.005638479711888758
-0.513377609451596   0.05935429189242618   0.026917175937506928
-0.513377609451596   0.05935429189242618   0.026917175937506928
-0.513377609451596   0.05935429189242618   0.026917175937506928
-0.513377609451596   0.05935429189242618   0.026917175937506928
-1.068688877865903   -0.06263499548106657   -0.029024427519266552
-1.068688877865903   -0.06263499548106657   -0.029024427519266552
-1.068688877865903   -0.06263499548106657   -0.029024427519266552
-1.068688877865903   -0.06263499548106657   -0.029024427519266552
-1.0935794412166098   -0.07108290902408884   -0.00423028738767979
-1.0935794412166098   -0.07108290902408884   -0.00423028738767979
-1.0935794412166098   -0.07108290902408884   -0.00423028738767979
-1.0935794412166098   -0.07108290902408884   -0.00423028738767979
-0.5456515939981035   0.03836514796582732   0.002115693443374457
-0.5456515939981035   0.03836514796582732   0.002115693443374457
-0.5456515939981035   0.03836514796582732   0.002115693443374457
-0.5456515939981035   0.03836514796582732   0.002115693443374457
-0.7941075012289696   -0.003479242411622341   0.0006032818978406254
-0.7941075012289696   -0.003479242411622341   0.0006032818978406254
-0.7941075012289696   -0.003479242411622341   0.0006032818978406254
-0.7941075012289696   -0.003479242411622341   0.0006032818978406254
-0.5381162223312073   0.04707277681605357   0.031084922927629724
-0.5381162223312073   0.04707277681605357   0.031084922927629724
-0.5381162223312073   0.04707277681605357   0.031084922927629724
-0.5381162223312073   0.04707277681605357   0.031084922927629724
-1.0993548980138454   -0.07803062300465588   -0.02615985739329959
-1.0993548980138454   -0.07803062300465588   -0.02615985739329959
-1.0993548980138454   -0.07803062300465588   -0.02615985739329959
-1.0993548980138454   -0.07803062300465588   -0.02615985739329959
-1.1220305330828642   -0.08633851563552353   0.0029276433065902607
-1.1220305330828642   -0.08633851563552353   0.0029276433065902607
-1.1220305330828642   -0.08633851563552353   0.0029276433065902607
-1.1220305330828642   -0.08633851563552353   0.0029276433065902607
-0.5725645357766044   0.02130673825649007   0.003862159971069222
-0.5725645357766044   0.02130673825649007   0.003862159971069222
-0.5725645357766044   0.02130673825649007   0.003862159971069222
-0.5725645357766044   0.02130673825649007   0.003862159971069222
-0.8279035765888937   -0.019414488102156152   -0.006175135546865419
-0.8279035765888937   -0.019414488102156152   -0.006175135546865419
-0.8279035765888937   -0.019414488102156152   -0.006175135546865419
-0.8279035765888937   -0.019414488102156152   -0.006175135546865419
-1.0031985947096107   0.07516288941873742   0.03354533309374064
-1.0031985947096107   0.07516288941873742   0.03354533309374064
-1.0031985947096107   0.07516288941873742   0.03354533309374064
-1.0031985947096107   0.07516288941873742   0.03354533309374064
-1.5353888015629453   -0.07103985059944629   -0.026899241034455956
-1.5353888015629453   -0.07103985059944629   -0.026899241034455956
-1.5353888015629453   -0.07103985059944629   -0.026899241034455956
-1.5353888015629453   -0.07103985059944629   -0.026899241034455956
-1.5563745683562746   -0.031237724125857125   0.028519294428318007
-1.5563745683562746   -0.031237724125857125   0.028519294428318007
-1.5563745683562746   -0.031237724125857125   0.028519294428318007
-1.5563745683562746   -0.031237724125857125   0.028519294428318007
-1.0470428056822998   0.03161583003095167   -0.015044892113258615
-1.0470428056822998   0.03161583003095167   -0.015044892113258615
-1.0470428056822998   0.03161583003095167   -0.015044892113258615
-1.0470428056822998   0.03161583003095167   -0.015044892113258615
-1.2286793902257955   0.015604679807540434   0.02826524699369483
-1.2286793902257955   0.015604679807540434   0.02826524699369483
-1.2286793902257955   0.015604679807540434   0.02826524699369483
-1.2286793902257955   0.015604679807540434   0.02826524699369483
-1.0273312388175415   0.07657736445376678   0.03855140778770426
-1.0273312388175415   0.07657736445376678   0.03855140778770426
-1.0273312388175415   0.07657736445376678   0.03855140778770426
-1.0273312388175415   0.07657736445376678   0.03855140778770426
-1.5749231011837446   -0.07503622451138164   -0.020424869323480463
-1.5749231011837446   -0.07503622451138164   -0.020424869323480463
-1.5749231011837446   -0.07503622451138164   -0.020424869323480463
-1.5749231011837446   -0.07503622451138164   -0.020424869323480463
-1.5947618888093285   -0.038690548473415465   0.03939682796864258
-1.5947618888093285   -0.038690548473415465   0.03939682796864258
-1.5947618888093285   -0.038690548473415465   0.03939682796864258
-1.5947618888093285   -0.038690548473415465   0.03939682796864258
-1.076517765732576   0.023381989170657008   -0.013386808162256028
-1.076517765732576   0.023381989170657008   -0.013386808162256028
-1.076517765732576   0.023381989170657008   -0.013386808162256028
-1.076517765732576   0.023381989170657008   -0.013386808162256028
-1.2815573281939445   0.0077055613700671155   0.01820329697969443
-1.2815573281939445   0.0077055613700671155   0.01820329697969443
-1.2815573281939445   0.0077055613700671155   0.01820329697969443
-1.2815573281939445   0.0077055613700671155   0.01820329697969443
-1.0547453586088968   0.07100402941525641   0.047853187211539736
-1.0547453586088968   0.07100402941525641   0.047853187211539736
-1.0547453586088968   0.07100402941525641   0.047853187211539736
-1.0547453586088968   0.07100402941525641   0.047853187211539736
-1.615409046564653   -0.08518733934965145   -0.017342169931721232
-1.615409046564653   -0.08518733934965145   -0.017342169931721232
-1.615409046564653   -0.08518733934965145   -0.017342169931721232
-1.615409046564653   -0.08518733934965145   -0.017342169931721232
-1.6468308184884313   -0.07071070830991055   0.03915598598964043
-1.6468308184884313   -0.07071070830991055   0.03915598598964043
-1.6468308184884313   -0.07071070830991055   0.03915598598964043
-1.6468308184884313   -0.07071070830991055   0.03915598598964043
-1.1081347544128728   -0.0013518957556684363   -0.012580083223307136
-1.1081347544128728   -0.0013518957556684363   -0.012580083223307136
-1.1081347544128728   -0.0013518957556684363   -0.012580083223307136
-1.1081347544128728   -0.0013518957556684363   -0.012580083223307136
-1.2968623121137155   -0.0036836543811565314   0.014889905908538559
-1.2968623121137155   -0.0036836543811565314   0.014889905908538559
-1.2968623121137155   -0.0036836543811565314   0.014889905908538559
-1.2968623121137155   -0.0036836543811565314   0.014889905908538559
0.8814072558320115   0.04903430976678727   -0.04194194508592549
0.8814072558320115   0.04903430976678727   -0.04194194508592549
0.8814072558320115   0.04903430976678727   -0.04194194508592549
0.8814072558320115   0.04903430976678727   -0.04194194508592549
0.41900432630671863   0.008276225924687672   0.015960726715429457
0.41900432630671863   0.008276225924687672   0.015960726715429457
0.41900432630671863   0.008276225924687672   0.015960726715429457
0.41900432630671863   0.008276225924687672   0.015960726715429457
0.37242168093555317   -0.07133474110064249   -0.03985077000433678
0.37242168093555317   -0.07133474110064249   -0.03985077000433678
0.37242168093555317   -0.07133474110064249   -0.03985077000433678
0.37242168093555317   -0.07133474110064249   -0.03985077000433678
0.8623922066574624   0.08094558038147688   0.019740945246511144
0.8623922066574624   0.08094558038147688   0.019740945246511144
0.8623922066574624   0.08094558038147688   0.019740945246511144
0.8623922066574624   0.08094558038147688   0.019740945246511144
0.6010729786301193   0.008123609584670954   -0.017777527025476525
0.6010729786301193   0.008123609584670954   -0.017777527025476525
0.6010729786301193   0.008123609584670954   -0.017777527025476525
0.6010729786301193   0.008123609584670954   -0.017777527025476525
0.8387166230403343   0.021963435691375488   -0.03965482814902805
0.8387166230403343   0.021963435691375488   -0.03965482814902805
0.8387166230403343   0.021963435691375488   -0.03965482814902805
0.8387166230403343   0.021963435691375488   -0.03965482814902805
0.39563175794762123   -0.012818103015601656   0.017682976970959666
0.39563175794762123   -0.012818103015601656   0.017682976970959666
0.39563175794762123   -0.012818103015601656   0.017682976970959666
0.39563175794762123   -0.012818103015601656   0.017682976970959666
0.3506657696718971   -0.07831942181457995   -0.03399686033294633
0.3506657696718971   -0.07831942181457995   -0.03399686033294633
0.3506657696718971   -0.07831942181457995   -0.03399686033294633
0.3506657696718971   -0.07831942181457995   -0.03399686033294633
0.8285623197242398   0.07095813135374886   0.025982011970870616
0.8285623197242398   0.07095813135374886   0.025982011970870616
0.8285623197242398   0.07095813135374886   0.025982011970870616
0.8285623197242398   0.07095813135374886   0.025982011970870616
0.5816410535994827   -0.003999167788976951   -0.024926379395442295
0.5816410535994827   -0.003999167788976951   -0.024926379395442295
0.5816410535994827   -0.003999167788976951   -0.024926379395442295
0.5816410535994827   -0.003999167788976951   -0.024926379395442295
0.8054356981028051   0.01307945248472936   -0.031772417267276906
0.8054356981028051   0.01307945248472936   -0.031772417267276906
0.8054356981028051   0.01307945248472936   -0.031772417267276906
0.8054356981028051   0.01307945248472936   -0.031772417267276906
0.3732020570207901   -0.021031077218106722   0.021396231815042386
0.3732020570207901   -0.021031077218106722   0.021396231815042386
0.3732020570207901   -0.021031077218106722   0.021396231815042386
0.3732020570207901   -0.021031077218106722   0.021396231815042386
0.3310642338411464   -0.08258617205195695   -0.028314520543541263
0.3310642338411464   -0.08258617205195695   -0.028314520543541263
0.3310642338411464   -0.08258617205195695   -0.028314520543541263
0.3310642338411464   -0.08258617205195695   -0.028314520543541263
0.7904079997945078   0.06017101292384702   0.030880862098613245
0.7904079997945078   0.06017101292384702   0.030880862098613245
0.7904079997945078   0.06017101292384702   0.030880862098613245
0.7904079997945078   0.06017101292384702   0.030880862098613245
0.5430974375434259   -0.013147180695873922   -0.03552730687860357
0.5430974375434259   -0.013147180695873922   -0.03552730687860357
0.5430974375434259   -0.013147180695873922   -0.03552730687860357
0.5430974375434259   -0.013147180695873922   -0.03552730687860357
0.426056651348615   0.06196283795933477   -0.002464260109728584
0.426056651348615   0.06196283795933477   -0.002464260109728584
0.426056651348615   0.06196283795933477   -0.002464260109728584
0.426056651348615   0.06196283795933477   -0.002464260109728584
-0.027971479070963166   -0.006135397751584628   -0.00025424956818829677
-0.027971479070963166   -0.006135397751584628   -0.00025424956818829677
-0.027971479070963166   -0.006135397751584628   -0.00025424956818829677
-0.027971479070963166   -0.006135397751584628   -0.00025424956818829677
-0.060787655942151964   -0.05343622109386586   -0.025355505258280113
-0.060787655942151964   -0.05343622109386586   -0.025355505258280113
-0.060787655942151964   -0.05343622109386586   -0.025355505258280113
-0.060787655942151964   -0.05343622109386586   -0.025355505258280113
0.41502304369862275   0.07359339808457728   0.02822790462578821
0.41502304369862275   0.07359339808457728   0.02822790462578821
0.41502304369862275   0.07359339808457728   0.02822790462578821
0.41502304369862275   0.07359339808457728   0.02822790462578821
0.18517998069060984   0.018143161100073132   0.001330038246343218
0.18517998069060984   0.018143161100073132   0.001330038246343218
0.18517998069060984   0.018143161100073132   0.001330038246343218
0.18517998069060984   0.018143161100073132   0.001330038246343218
0.403878170518892   0.04482286051029045   0.001274076301426735
0.403878170518892   0.04482286051029045   0.001274076301426735
0.403878170518892   0.04482286051029045   0.001274076301426735
0.403878170518892   0.04482286051029045   0.001274076301426735
-0.04945263872109068   -0.024475539478242478   0.002358899231402891
-0.04945263872109068   -0.024475539478242478   0.002358899231402891
-0.04945263872109068   -0.024475539478242478   0.002358899231402891
-0.04945263872109068   -0.024475539478242478   0.002358899231402891
-0.08127873225407231   -0.0666335372586449   -0.020974432573290167
-0.08127873225407231   -0.0666335372586449   -0.020974432573290167
-0.08127873225407231   -0.0666335372586449   -0.020974432573290167
-0.08127873225407231   -0.0666335372586449   -0.020974432573290167
0.3908644368594024   0.05781993369463428   0.030857120095363094
0.3908644368594024   0.05781993369463428   0.030857120095363094
0.3908644368594024   0.05781993369463428   0.030857120095363094
0.3908644368594024   0.05781993369463428   0.030857120095363094
0.15991371704709834   0.0025415279789868517   -0.006501281832182376
0.15991371704709834   0.0025415279789868517   -0.006501281832182376
0.15991371704709834   0.0025415279789868517   -0.006501281832182376
0.15991371704709834   0.0025415279789868517   -0.006501281832182376
0.38008974089196224   0.0306631322298217   0.004140441722977634
0.38008974089196224   0.0306631322298217   0.004140441722977634
0.38008974089196224   0.0306631322298217   0.004140441722977634
0.38008974089196224   0.0306631322298217   0.004140441722977634
-0.07066215939776434   -0.03963485890495896   0.0051097533545637185
-0.07066215939776434   -0.03963485890495896   0.0051097533545637185
-0.07066215939776434   -0.03963485890495896   0.0051097533545637185
-0.07066215939776434   -0.03963485890495896   0.0051097533545637185
-0.10150001820293103   -0.07770270109963065   -0.016858576595366645
-0.10150001820293103   -0.07770270109963065   -0.016858576595366645
-0.10150001820293103   -0.07770270109963065   -0.016858576595366645
-0.10150001820293103   -0.07770270109963065   -0.016858576595366645
0.36855900951865683   0.04324945669484611   0.033323729097206295
0.36855900951865683   0.04324945669484611   0.033323729097206295
0.36855900951865683   0.04324945669484611   0.033323729097206295
0.36855900951865683   0.04324945669484611   0.033323729097206295
0.14055440756896753   -0.009265741991823888   -0.013019219322010396
0.14055440756896753   -0.009265741991823888   -0.013019219322010396
0.14055440756896753   -0.009265741991823888   -0.013019219322010396
0.14055440756896753   -0.009265741991823888   -0.013019219322010396
-0.009885844404182428   0.07377202062170476   0.010266505392427917
-0.009885844404182428   0.07377202062170476   0.010266505392427917
-0.009885844404182428   0.07377202062170476   0.010266505392427917
-0.009885844404182428   0.07377202062170476   0.010266505392427917
-0.46543769196003393   -0.02028727500297997   -0.01543673528015508
-0.46543769196003393   -0.02028727500297997   -0.01543673528015508
-0.46543769196003393   -0.02028727500297997   -0.01543673528015508
-0.46543769196003393   -0.02028727500297997   -0.01543673528015508
-0.4865856909883163   -0.03720690238396901   -0.012060560742957725
-0.4865856909883163   -0.03720690238396901   -0.012060560742957725
-0.4865856909883163   -0.03720690238396901   -0.012060560742957725
-0.4865856909883163   -0.03720690238396901   -0.012060560742957725
-0.03067936470940645   0.059432064130951326   0.012317665680630238
-0.03067936470940645   0.059432064130951326   0.012317665680630238
-0.03067936470940645   0.059432064130951326   0.012317665680630238
-0.03067936470940645   0.059432064130951326   0.012317665680630238
-0.2475584693506294   0.019049339484579556   0.004854047114374465
-0.2475584693506294   0.019049339484579556   0.004854047114374465
-0.2475584693506294   0.019049339484579556   0.004854047114374465
-0.2475584693506294   0.019049339484579556   0.004854047114374465
-0.030274131498708782   0.059352250696298355   0.014423645168771575
-0.030274131498708782   0.059352250696298355   0.014423645168771575
-0.030274131498708782   0.059352250696298355   0.014423645168771575
-0.030274131498708782   0.059352250696298355   0.014423645168771575
-0.4865961545962839   -0.03673231934658601   -0.012587461820178947
-0.4865961545962839   -0.03673231934658601   -0.012587461820178947
-0.4865961545962839   -0.03673231934658601   -0.012587461820178947
-0.4865961545962839   -0.03673231934658601   -0.012587461820178947
-0.5075751691472234   -0.05148925292911684   -0.008239901765438363
-0.5075751691472234   -0.05148925292911684   -0.008239901765438363
-0.5075751691472234   -0.05148925292911684   -0.008239901765438363
-0.5075751691472234   -0.05148925292911684   -0.008239901765438363
-0.0520442168857389   0.043190762929675185   0.015373844080056778
-0.0520442168857389   0.043190762929675185   0.015373844080056778
-0.0520442168857389   0.043190762929675185   0.015373844080056778
-0.0520442168857389   0.043190762929675185   0.015373844080056778
-0.26876408585868483   0.004950409028863963   -0.0014962769934658733
-0.26876408585868483   0.004950409028863963   -0.0014962769934658733
-0.26876408585868483   0.004950409028863963   -0.0014962769934658733
-0.26876408585868483   0.004950409028863963   -0.0014962769934658733
-0.051214673508938977   0.044977742775311705   0.01773458111841985
-0.051214673508938977   0.044977742775311705   0.01773458111841985
-0.051214673508938977   0.044977742775311705   0.01773458111841985
-0.051214673508938977   0.044977742775311705   0.01773458111841985
-0.5082904562731867   -0.05316197652391669   -0.010143613800454768
-0.5082904562731867   -0.05316197652391669   -0.010143613800454768
-0.5082904562731867   -0.05316197652391669   -0.010143613800454768
-0.5082904562731867   -0.05316197652391669   -0.010143613800454768
-0.528314996849207   -0.06453579636681281   -0.0044564391681122684
-0.528314996849207   -0.06453579636681281   -0.0044564391681122684
-0.528314996849207   -0.06453579636681281   -0.0044564391681122684
-0.528314996849207   -0.06453579636681281   -0.0044564391681122684
-0.07349799055552175   0.02748275136503754   0.017966109177011535
-0.07349799055552175   0.02748275136503754   0.017966109177011535
-0.07349799055552175   0.02748275136503754   0.017966109177011535
-0.07349799055552175   0.02748275136503754   0.017966109177011535
-0.2909429749684604   -0.009266193066273277   -0.008569713982942052
-0.2909429749684604   -0.009266193066273277   -0.008569713982942052
-0.2909429749684604   -0.009266193066273277   -0.008569713982942052
-0.2909429749684604   -0.009266193066273277   -0.008569713982942052
-0.43692050926177933   0.0846233726074926   0.022238530600641994
-0.43692050926177933   0.0846233726074926   0.022238530600641994
-0.43692050926177933   0.0846233726074926   0.022238530600641994
-0.43692050926177933   0.0846233726074926   0.022238530600641994
-0.8930078961823005   -0.03475155743416539   -0.027806642580261817
-0.8930078961823005   -0.03475155743416539   -0.027806642580261817
-0.8930078961823005   -0.03475155743416539   -0.027806642580261817
-0.8930078961823005   -0.03475155743416539   -0.027806642580261817
-0.9045604286332031   -0.023519517367290826   0.002424513816912263
-0.9045604286332031   -0.023519517367290826   0.002424513816912263
-0.9045604286332031   -0.023519517367290826   0.002424513816912263
-0.9045604286332031   -0.023519517367290826   0.002424513816912263
-0.46889939007631715   0.04269638444657417   -0.0035323430135008813
-0.46889939007631715   0.04269638444657417   -0.0035323430135008813
-0.46889939007631715   0.04269638444657417   -0.0035323430135008813
-0.46889939007631715   0.04269638444657417   -0.0035323430135008813
-0.6714517443505464   0.018110918143697696   0.008223862917596692
-0.6714517443505464   0.018110918143697696   0.008223862917596692
-0.6714517443505464   0.018110918143697696   0.008223862917596692
-0.6714517443505464   0.018110918143697696   0.008223862917596692
-0.4573467070016463   0.07068651296410225   0.026240943842320882
-0.4573467070016463   0.07068651296410225   0.026240943842320882
-0.4573467070016463   0.07068651296410225   0.026240943842320882
-0.4573467070016463   0.07068651296410225   0.026240943842320882
-0.9160089879515733   -0.05140552212851898   -0.026932278013710474
-0.9160089879515733   -0.05140552212851898   -0.026932278013710474
-0.9160089879515733   -0.05140552212851898   -0.026932278013710474
-0.9160089879515733   -0.05140552212851898   -0.026932278013710474
-0.9290036288689912   -0.037958826480999186   0.0038478560801296427
-0.9290036288689912   -0.037958826480999186   0.0038478560801296427
-0.9290036288689912   -0.037958826480999186   0.0038478560801296427
-0.9290036288689912   -0.037958826480999186   0.0038478560801296427
-0.49018423801362815   0.027653429673129518   -0.0004279286997043025
-0.49018423801362815   0.027653429673129518   -0.0004279286997043025
-0.49018423801362815   0.027653429673129518   -0.0004279286997043025
-0.49018423801362815   0.027653429673129518   -0.0004279286997043025
-0.6893645493017659   0.00554537673099495   0.0023156164061518755
-0.6893645493017659   0.00554537673099495   0.0023156164061518755
-0.6893645493017659   0.00554537673099495   0.0023156164061518755
-0.6893645493017659   0.00554537673099495   0.0023156164061518755
-0.47814758480038466   0.057437137103853286   0.029971629935785428
-0.47814758480038466   0.057437137103853286   0.029971629935785428
-0.47814758480038466   0.057437137103853286   0.029971629935785428
-0.47814758480038466   0.057437137103853286   0.029971629935785428
-0.9404220160951685   -0.06712426792465734   -0.024078638607098288
-0.9404220160951685   -0.06712426792465734   -0.024078638607098288
-0.9404220160951685   -0.06712426792465734   -0.024078638607098288
-0.9404220160951685   -0.06712426792465734   -0.024078638607098288
-0.9511691501424043   -0.05351034714010397   0.008381347353899025
-0.9511691501424043   -0.05351034714010397   0.008381347353899025
-0.9511691501424043   -0.05351034714010397   0.008381347353899025
-0.9511691501424043   -0.05351034714010397   0.008381347353899025
-0.5120662866619282   0.010431416645743971   0.0018198987557290595
-0.5120662866619282   0.010431416645743971   0.0018198987557290595
-0.5120662866619282   0.010431416645743971   0.0018198987557290595
-0.5120662866619282   0.010431416645743971   0.0018198987557290595
-0.716701174472606   -0.010238150231110743   -0.005195535243719351
-0.716701174472606   -0.010238150231110743   -0.005195535243719351
-0.716701174472606   -0.010238150231110743   -0.005195535243719351
-0.716701174472606   -0.010238150231110743   -0.005195535243719351
-0.8590352121612823   0.07589313292159194   0.031412087169072206
-0.8590352121612823   0.07589313292159194   0.031412087169072206
-0.8590352121612823   0.07589313292159194   0.031412087169072206
-0.8590352121612823   0.07589313292159194   0.031412087169072206
-1.2998498199901944   -0.06000550777188299   -0.030575627803103973
-1.2998498199901944   -0.06000550777188299   -0.030575627803103973
-1.2998498199901944   -0.06000550777188299   -0.030575627803103973
-1.2998498199901944   -0.06000550777188299   -0.030575627803103973
-1.314232357338824   -0.013026144053802036   0.028934789119496776
-1.314232357338824   -0.013026144053802036   0.028934789119496776
-1.314232357338824   -0.013026144053802036   0.028934789119496776
-1.314232357338824   -0.013026144053802036   0.028934789119496776
-0.8995895901827579   0.02160988216280682   -0.01785069346095882
-0.8995895901827579   0.02160988216280682   -0.01785069346095882
-0.8995895901827579   0.02160988216280682   -0.01785069346095882
-0.8995895901827579   0.02160988216280682   -0.01785069346095882
-1.044801715734272   0.017018612165442676   0.02562060216685739
-1.044801715734272   0.017018612165442676   0.02562060216685739
-1.044801715734272   0.017018612165442676   0.02562060216685739
-1.044801715734272   0.017018612165442676   0.02562060216685739
-0.8778033319311989   0.07584233266312626   0.036848147296513215
-0.8778033319311989   0.07584233266312626   0.036848147296513215
-0.8778033319311989   0.07584233266312626   0.036848147296513215
-0.8778033319311989   0.07584233266312626   0.036848147296513215
-1.3356538220088525   -0.06689380097259043   -0.02430487731185018
-1.3356538220088525   -0.06689380097259043   -0.02430487731185018
-1.3356538220088525   -0.06689380097259043   -0.02430487731185018
-1.3356538220088525   -0.06689380097259043   -0.02430487731185018
-1.3462379940214033   -0.020646682762927804   0.036190060458678175
-1.3462379940214033   -0.020646682762927804   0.036190060458678175
-1.3462379940214033   -0.020646682762927804   0.036190060458678175
-1.3462379940214033   -0.020646682762927804   0.036190060458678175
-0.9225667953974725   0.013363276694925902   -0.015290079738201338
-0.9225667953974725   0.013363276694925902   -0.015290079738201338
-0.9225667953974725   0.013363276694925902   -0.015290079738201338
-0.9225667953974725   0.013363276694925902   -0.015290079738201338
-1.0895810361105562   0.008519756244236176   0.015621595354115364
-1.0895810361105562   0.008519756244236176   0.015621595354115364
-1.0895810361105562   0.008519756244236176   0.015621595354115364
-1.0895810361105562   0.008519756244236176   0.015621595354115364
-0.8994571078875698   0.07016317439445896   0.04345846011177851
-0.8994571078875698   0.07016317439445896   0.04345846011177851
-0.8994571078875698   0.07016317439445896   0.04345846011177851
-0.8994571078875698   0.07016317439445896   0.04345846011177851
-1.3687423285046896   -0.07684122743584207   -0.020137067284823805
-1.3687423285046896   -0.07684122743584207   -0.020137067284823805
-1.3687423285046896   -0.07684122743584207   -0.020137067284823805
-1.3687423285046896   -0.07684122743584207   -0.020137067284823805
-1.3884814658046487   -0.0478011026784588   0.03552059355451701
-1.3884814658046487   -0.0478011026784588   0.03552059355451701
-1.3884814658046487   -0.0478011026784588   0.03552059355451701
-1.3884814658046487   -0.0478011026784588   0.03552059355451701
-0.9468366937318544   -0.009608330986626223   -0.013858386746829258
-0.9468366937318544   -0.009608330986626223   -0.013858386746829258
-0.9468366937318544   -0.009608330986626223   -0.013858386746829258
-0.9468366937318544   -0.009608330986626223   -0.013858386746829258
-1.1010346960453083   -0.0020699809072815822   0.012302551384776823
-1.1010346960453083   -0.0020699809072815822   0.012302551384776823
-1.1010346960453083   -0.0020699809072815822   0.012302551384776823
-1.1010346960453083   -0.0020699809072815822   0.012302551384776823
0.6062723124667418   0.03437838320836144   -0.040796473026255664
0.6062723124667418   0.03437838320836144   -0.040796473026255664
0.6062723124667418   0.03437838320836144   -0.040796473026255664
0.6062723124667418   0.03437838320836144   -0.040796473026255664
0.25895633477511326   0.01641039387668832   0.017479616553911052
0.25895633477511326   0.01641039387668832   0.017479616553911052
0.25895633477511326   0.01641039387668832   0.017479616553911052
0.25895633477511326   0.01641039387668832   0.017479616553911052
0.2169291922779248   -0.05970533395706901   -0.038050612066680645
0.2169291922779248   -0.05970533395706901   -0.038050612066680645
0.2169291922779248   -0.05970533395706901   -0.038050612066680645
0.2169291922779248   -0.05970533395706901   -0.038050612066680645
0.5921255492731405   0.06878259370888064   0.021240966619760767
0.5921255492731405   0.06878259370888064   0.021240966619760767
0.5921255492731405   0.06878259370888064   0.021240966619760767
0.5921255492731405   0.06878259370888064   0.021240966619760767
0.39640687889001397   0.00878248477016029   -0.010828087417582732
0.39640687889001397   0.00878248477016029   -0.010828087417582732
0.39640687889001397   0.00878248477016029   -0.010828087417582732
0.39640687889001397   0.00878248477016029   -0.010828087417582732
0.5686333946071133   0.010631821934837485   -0.038069034936336746
0.5686333946071133   0.010631821934837485   -0.038069034936336746
0.5686333946071133   0.010631821934837485   -0.038069034936336746
0.5686333946071133   0.010631821934837485   -0.038069034936336746
0.23997975059698437   -0.0019961585299934845   0.01949300410154633
0.23997975059698437   -0.0019961585299934845   0.01949300410154633
0.23997975059698437   -0.0019961585299934845   0.01949300410154633
0.23997975059698437   -0.0019961585299934845   0.01949300410154633
0.1990355678299209   -0.06662307240539689   -0.03239725493053926
0.1990355678299209   -0.06662307240539689   -0.03239725493053926
0.1990355678299209   -0.06662307240539689   -0.03239725493053926
0.1990355678299209   -0.06662307240539689   -0.03239725493053926
0.5626807180419687   0.05896524390538589   0.027392412151012756
0.5626807180419687   0.05896524390538589   0.027392412151012756
0.5626807180419687   0.05896524390538589   0.027392412151012756
0.5626807180419687   0.05896524390538589   0.027392412151012756
0.3779426330756121   -0.002636527971982938   -0.01759961255343372
0.3779426330756121   -0.002636527971982938   -0.01759961255343372
0.3779426330756121   -0.002636527971982938   -0.01759961255343372
0.3779426330756121   -0.002636527971982938   -0.01759961255343372
0.5395697421923414   0.0017698073457054347   -0.030967030537448138
0.5395697421923414   0.0017698073457054347   -0.030967030537448138
0.5395697421923414   0.0017698073457054347   -0.030967030537448138
0.5395697421923414   0.0017698073457054347   -0.030967030537448138
0.22149314090457456   -0.01008103862069059   0.023348576658024485
0.22149314090457456   -0.01008103862069059   0.023348576658024485
0.22149314090457456   -0.01008103862069059   0.023348576658024485
0.22149314090457456   -0.01008103862069059   0.023348576658024485
0.18304584650667288   -0.07287848866903598   -0.027004492577966915
0.18304584650667288   -0.07287848866903598   -0.027004492577966915
0.18304584650667288   -0.07287848866903598   -0.027004492577966915
0.18304584650667288   -0.07287848866903598   -0.027004492577966915
0.5282985314695614   0.046078235605905654   0.03127806888690557
0.5282985314695614   0.046078235605905654   0.03127806888690557
0.5282985314695614   0.046078235605905654   0.03127806888690557
0.5282985314695614   0.046078235605905654   0.03127806888690557
0.34660283499057465   -0.01199462958841728   -0.026915317488681697
0.34660283499057465   -0.01199462958841728   -0.026915317488681697
0.34660283499057465   -0.01199462958841728   -0.026915317488681697
0.34660283499057465   -0.01199462958841728   -0.026915317488681697
0.2607576930559366   0.05020053912864596   -0.007303737293935105
0.2607576930559366   0.05020053912864596   -0.007303737293935105
0.2607576930559366   0.05020053912864596   -0.007303737293935105
0.2607576930559366   0.05020053912864596   -0.007303737293935105
-0.07989554228762086   0.004251784427801452   0.002340845943065574
-0.07989554228762086   0.004251784427801452   0.002340845943065574
-0.07989554228762086   0.004251784427801452   0.002340845943065574
-0.07989554228762086   0.004251784427801452   0.002340845943065574
-0.10862770475179243   -0.04147293287653213   -0.02345300172934365
-0.10862770475179243   -0.04147293287653213   -0.02345300172934365
-0.10862770475179243   -0.04147293287653213   -0.02345300172934365
-0.10862770475179243   -0.04147293287653213   -0.02345300172934365
0.253585686614431   0.06033593126029075   0.02519059439849508
0.253585686614431   0.06033593126029075   0.02519059439849508
0.253585686614431   0.06033593126029075   0.02519059439849508
0.253585686614431   0.06033593126029075   0.02519059439849508
0.07966990052005919   0.017436758612655937   0.0030595866089170067
0.07966990052005919   0.017436758612655937   0.0030595866089170067
0.07966990052005919   0.017436758612655937   0.0030595866089170067
0.07966990052005919   0.017436758612655937   0.0030595866089170067
0.24221805009304298   0.032603739207232   -0.003915396155389067
0.24221805009304298   0.032603739207232   -0.003915396155389067
0.24221805009304298   0.032603739207232   -0.003915396155389067
0.24221805009304298   0.032603739207232   -0.003915396155389067
-0.09742974559705997   -0.013910418190123983   0.0049742793579123715
-0.09742974559705997   -0.013910418190123983   0.0049742793579123715
-0.09742974559705997   -0.013910418190123983   0.0049742793579123715
-0.09742974559705997   -0.013910418190123983   0.0049742793579123715
-0.12526852256416424   -0.05537491264319202   -0.018984152170201725
-0.12526852256416424   -0.05537491264319202   -0.018984152170201725
-0.12526852256416424   -0.05537491264319202   -0.018984152170201725
-0.12526852256416424   -0.05537491264319202   -0.018984152170201725
0.23317383782998113   0.04428330784185189   0.027387714822514755
0.23317383782998113   0.04428330784185189   0.027387714822514755
0.23317383782998113   0.04428330784185189   0.027387714822514755
0.23317383782998113   0.04428330784185189   0.027387714822514755
0.05913780908693238   0.0017003482311872126   -0.004499533013985551
0.05913780908693238   0.0017003482311872126   -0.004499533013985551
0.05913780908693238   0.0017003482311872126   -0.004499533013985551
0.05913780908693238   0.0017003482311872126   -0.004499533013985551
0.2221656087073947   0.017695599546205205   -0.001065722494774506
0.2221656087073947   0.017695599546205205   -0.001065722494774506
0.2221656087073947   0.017695599546205205   -0.001065722494774506
0.2221656087073947   0.017695599546205205   -0.001065722494774506
-0.1146877020253708   -0.02921461293133865   0.007759650811913964
-0.1146877020253708   -0.02921461293133865   0.007759650811913964
-0.1146877020253708   -0.02921461293133865   0.007759650811913964
-0.1146877020253708   -0.02921461293133865   0.007759650811913964
-0.14168673493813175   -0.06843549584422548   -0.014855289141363066
-0.14168673493813175   -0.06843549584422548   -0.014855289141363066
-0.14168673493813175   -0.06843549584422548   -0.014855289141363066
-0.14168673493813175   -0.06843549584422548   -0.014855289141363066
0.21475406116664833   0.02886760301525104   0.029790489037627564
0.21475406116664833   0.02886760301525104   0.029790489037627564
0.21475406116664833   0.02886760301525104   0.029790489037627564
0.21475406116664833   0.02886760301525104   0.029790489037627564
0.04266939925271942   -0.01134744668834448   -0.011172109415562634
0.04266939925271942   -0.01134744668834448   -0.011172109415562634
0.04266939925271942   -0.01134744668834448   -0.011172109415562634
0.04266939925271942   -0.01134744668834448   -0.011172109415562634
-0.06733376033494218   0.0635843053374397   0.005817234796820767
-0.06733376033494218   0.0635843053374397   0.005817234796820767
-0.06733376033494218   0.0635843053374397   0.005817234796820767
-0.06733376033494218   0.0635843053374397   0.005817234796820767
-0.413705271713502   -0.01053351672591546   -0.012588615623378097
-0.413705271713502   -0.01053351672591546   -0.012588615623378097
-0.413705271713502   -0.01053351672591546   -0.012588615623378097
-0.413705271713502   -0.01053351672591546   -0.012588615623378097
-0.43013022154760233   -0.024776247512737964   -0.00927303569962036
-0.43013022154760233   -0.024776247512737964   -0.00927303569962036
-0.43013022154760233   -0.024776247512737964   -0.00927303569962036
-0.43013022154760233   -0.024776247512737964   -0.00927303569962036
-0.08448785115197702   0.04600108842380604   0.009772244969395261
-0.08448785115197702   0.04600108842380604   0.009772244969395261
-0.08448785115197702   0.04600108842380604   0.009772244969395261
-0.08448785115197702   0.04600108842380604   0.009772244969395261
-0.24830654904991517   0.018276007781472203   0.004917562050541158
-0.24830654904991517   0.018276007781472203   0.004917562050541158
-0.24830654904991517   0.018276007781472203   0.004917562050541158
-0.24830654904991517   0.018276007781472203   0.004917562050541158
-0.08397809236513694   0.048311009107632925   0.01001111821976872
-0.08397809236513694   0.048311009107632925   0.01001111821976872
-0.08397809236513694   0.048311009107632925   0.01001111821976872
-0.08397809236513694   0.048311009107632925   0.01001111821976872
-0.43068889258247645   -0.02713508044459892   -0.009707557942130057
-0.43068889258247645   -0.02713508044459892   -0.009707557942130057
-0.43068889258247645   -0.02713508044459892   -0.009707557942130057
-0.43068889258247645   -0.02713508044459892   -0.009707557942130057
-0.44694415135587234   -0.039923033584290196   -0.005295204019636693
-0.44694415135587234   -0.039923033584290196   -0.005295204019636693
-0.44694415135587234   -0.039923033584290196   -0.005295204019636693
-0.44694415135587234   -0.039923033584290196   -0.005295204019636693
-0.10195078273665863   0.029481232296765622   0.012748402027370563
-0.10195078273665863   0.029481232296765622   0.012748402027370563
-0.10195078273665863   0.029481232296765622   0.012748402027370563
-0.10195078273665863   0.029481232296765622   0.012748402027370563
-0.26559271953108043   0.0035234098829863003   -0.0015782336718503896
-0.26559271953108043   0.0035234098829863003   -0.0015782336718503896
-0.26559271953108043   0.0035234098829863003   -0.0015782336718503896
-0.26559271953108043   0.0035234098829863003   -0.0015782336718503896
-0.10108134552778429   0.03301994371579693   0.013556876652710905
-0.10108134552778429   0.03301994371579693   0.013556876652710905
-0.10108134552778429   0.03301994371579693   0.013556876652710905
-0.10108134552778429   0.03301994371579693   0.013556876652710905
-0.448085103644322   -0.04373326008289175   -0.007189738963283577
-0.448085103644322   -0.04373326008289175   -0.007189738963283577
-0.448085103644322   -0.04373326008289175   -0.007189738963283577
-0.448085103644322   -0.04373326008289175   -0.007189738963283577
-0.4634722896662908   -0.05439046596601774   -0.0014256783674957973
-0.4634722896662908   -0.05439046596601774   -0.0014256783674957973
-0.4634722896662908   -0.05439046596601774   -0.0014256783674957973
-0.4634722896662908   -0.05439046596601774   -0.0014256783674957973
-0.11926810391638427   0.013429897585971864   0.015372472537173177
-0.11926810391638427   0.013429897585971864   0.015372472537173177
-0.11926810391638427   0.013429897585971864   0.015372472537173177
-0.11926810391638427   0.013429897585971864   0.015372472537173177
-0.2835932053607134   -0.011244704358998214   -0.008620680829412506
-0.2835932053607134   -0.011244704358998214   -0.008620680829412506
-0.2835932053607134   -0.011244704358998214   -0.008620680829412506
-0.2835932053607134   -0.011244704358998214   -0.008620680829412506
-0.39033438126216236   0.07507578170615783   0.018656538201246797
-0.39033438126216236   0.07507578170615783   0.018656538201246797
-0.39033438126216236   0.07507578170615783   0.018656538201246797
-0.39033438126216236   0.07507578170615783   0.018656538201246797
-0.7417023378565608   -0.025252882397302   -0.02559290286986108
-0.7417023378565608   -0.025252882397302   -0.02559290286986108
-0.7417023378565608   -0.025252882397302   -0.02559290286986108
-0.7417023378565608   -0.025252882397302   -0.02559290286986108
-0.7478678011116533   -0.011204678722554956   0.00593075217618972
-0.7478678011116533   -0.011204678722554956   0.00593075217618972
-0.7478678011116533   -0.011204678722554956   0.00593075217618972
-0.7478678011116533   -0.011204678722554956   0.00593075217618972
-0.4184079640496049   0.029987045852534006   -0.005425041574908779
-0.4184079640496049   0.029987045852534006   -0.005425041574908779
-0.4184079640496049   0.029987045852534006   -0.005425041574908779
-0.4184079640496049   0.029987045852534006   -0.005425041574908779
-0.5711613268645622   0.01731606922276735   0.007134315527637533
-0.5711613268645622   0.01731606922276735   0.007134315527637533
-0.5711613268645622   0.01731606922276735   0.007134315527637533
-0.5711613268645622   0.01731606922276735   0.007134315527637533
-0.40667235988544326   0.060413553422608665   0.022826471675828512
-0.40667235988544326   0.060413553422608665   0.022826471675828512
-0.40667235988544326   0.060413553422608665   0.022826471675828512
-0.40667235988544326   0.060413553422608665   0.022826471675828512
-0.7601193640137999   -0.04214714503062034   -0.024384596026485586
-0.7601193640137999   -0.04214714503062034   -0.024384596026485586
-0.7601193640137999   -0.04214714503062034   -0.024384596026485586
-0.7601193640137999   -0.04214714503062034   -0.024384596026485586
-0.7676919947392246   -0.0262084280428711   0.0077705394458888605
-0.7676919947392246   -0.0262084280428711   0.0077705394458888605
-0.7676919947392246   -0.0262084280428711   0.0077705394458888605
-0.7676919947392246   -0.0262084280428711   0.0077705394458888605
-0.4354025730291702   0.014760776643434559   -0.0022711226138621005
-0.4354025730291702   0.014760776643434559   -0.0022711226138621005
-0.4354025730291702   0.014760776643434559   -0.0022711226138621005
-0.4354025730291702   0.014760776643434559   -0.0022711226138621005
-0.5856994948916381   0.0039471352685694905   0.0006241694030113543
-0.5856994948916381   0.0039471352685694905   0.0006241694030113543
-0.5856994948916381   0.0039471352685694905   0.0006241694030113543
-0.5856994948916381   0.0039471352685694905   0.0006241694030113543
-0.423244244323773   0.0464860613852955   0.026795236171270415
-0.423244244323773   0.0464860613852955   0.026795236171270415
-0.423244244323773   0.0464860613852955   0.026795236171270415
-0.423244244323773   0.0464860613852955   0.026795236171270415
-0.7798970506735317   -0.05798044001364144   -0.021482728254880692
-0.7798970506735317   -0.05798044001364144   -0.021482728254880692
-0.7798970506735317   -0.05798044001364144   -0.021482728254880692
-0.7798970506735317   -0.05798044001364144   -0.021482728254880692
-0.7853371273605464   -0.04220217989601453   0.01192275674555469
-0.7853371273605464   -0.04220217989601453   0.01192275674555469
-0.7853371273605464   -0.04220217989601453   0.01192275674555469
-0.7853371273605464   -0.04220217989601453   0.01192275674555469
-0.45269549433629125   -0.002139168832020144   0.00020700114849651896
-0.45269549433629125   -0.002139168832020144   0.00020700114849651896
-0.45269549433629125   -0.002139168832020144   0.00020700114849651896
-0.45269549433629125   -0.002139168832020144   0.00020700114849651896
-0.607562469448322   -0.01159066141090273   -0.006940093856256435
-0.607562469448322   -0.01159066141090273   -0.006940093856256435
-0.607562469448322   -0.01159066141090273   -0.006940093856256435
-0.607562469448322   -0.01159066141090273   -0.006940093856256435
-0.7117521925785274   0.06959177624639842   0.02931316487660557
-0.7117521925785274   0.06959177624639842   0.02931316487660557
-0.7117521925785274   0.06959177624639842   0.02931316487660557
-0.7117521925785274   0.06959177624639842   0.02931316487660557
-1.0504728994979473   -0.04840691988451559   -0.03316794613894846
-1.0504728994979473   -0.04840691988451559   -0.03316794613894846
-1.0504728994979473   -0.04840691988451559   -0.03316794613894846
-1.0504728994979473   -0.04840691988451559   -0.03316794613894846
-1.0605582949314347   -0.001205171189714388   0.029042744525081286
-1.0605582949314347   -0.001205171189714388   0.029042744525081286
-1.0605582949314347   -0.001205171189714388   0.029042744525081286
-1.0605582949314347   -0.001205171189714388   0.029042744525081286
-0.7487283095307603   0.010309210069440522   -0.019885678711352474
-0.7487283095307603   0.010309210069440522   -0.019885678711352474
-0.7487283095307603   0.010309210069440522   -0.019885678711352474
-0.7487283095307603   0.010309210069440522   -0.019885678711352474
-0.8535740119560202   0.016096289076157594   0.02164136815568629
-0.8535740119560202   0.016096289076157594   0.02164136815568629
-0.8535740119560202   0.016096289076157594   0.02164136815568629
-0.8535740119560202   0.016096289076157594   0.02164136815568629
-0.7265565278654593   0.0667026010461538   0.03457983863844687
-0.7265565278654593   0.0667026010461538   0.03457983863844687
-0.7265565278654593   0.0667026010461538   0.03457983863844687
-0.7265565278654593   0.0667026010461538   0.03457983863844687
-1.0831716388066552   -0.05804012437633946   -0.027189021664388323
-1.0831716388066552   -0.05804012437633946   -0.027189021664388323
-1.0831716388066552   -0.05804012437633946   -0.027189021664388323
-1.0831716388066552   -0.05804012437633946   -0.027189021664388323
-1.0885768766627324   -0.009461322104278663   0.03659700753103582
-1.0885768766627324   -0.009461322104278663   0.03659700753103582
-1.0885768766627324   -0.009461322104278663   0.03659700753103582
-1.0885768766627324   -0.009461322104278663   0.03659700753103582
-0.7670001952046863   0.0019603686118634667   -0.01693925953616629
-0.7670001952046863   0.0019603686118634667   -0.01693925953616629
-0.7670001952046863   0.0019603686118634667   -0.01693925953616629
-0.7670001952046863   0.0019603686118634667   -0.01693925953616629
-0.8914215547752782   0.0066122829168354935   0.01138024638211816
-0.8914215547752782   0.0066122829168354935   0.01138024638211816
-0.8914215547752782   0.0066122829168354935   0.01138024638211816
-0.8914215547752782   0.0066122829168354935   0.01138024638211816
-0.743792332822329   0.06032355779591153   0.04073686319158338
-0.743792332822329   0.06032355779591153   0.04073686319158338
-0.743792332822329   0.06032355779591153   0.04073686319158338
-0.743792332822329   0.06032355779591153   0.04073686319158338
-1.1121032079248006   -0.06814298016803574   -0.022352990715548055
-1.1121032079248006   -0.06814298016803574   -0.022352990715548055
-1.1121032079248006   -0.06814298016803574   -0.022352990715548055
-1.1121032079248006   -0.06814298016803574   -0.022352990715548055
-1.126059516931769   -0.035341323097768274   0.03669947589737508
-1.126059516931769   -0.035341323097768274   0.03669947589737508
-1.126059516931769   -0.035341323097768274   0.03669947589737508
-1.126059516931769   -0.035341323097768274   0.03669947589737508
-0.7861241038517357   -0.019235212265522772   -0.014979093340897948
-0.7861241038517357   -0.019235212265522772   -0.014979093340897948
-0.7861241038517357   -0.019235212265522772   -0.014979093340897948
-0.7861241038517357   -0.019235212265522772   -0.014979093340897948
-0.9020459132295742   -0.004224439711457001   0.006514786182124983
-0.9020459132295742   -0.004224439711457001   0.006514786182124983
-0.9020459132295742   -0.004224439711457001   0.006514786182124983
-0.9020459132295742   -0.004224439711457001   0.006514786182124983
0.33473674554400096   0.020074885568869785   -0.039978335754069325
0.33473674554400096   0.020074885568869785   -0.039978335754069325
0.33473674554400096   0.020074885568869785   -0.039978335754069325
0.33473674554400096   0.020074885568869785   -0.039978335754069325
0.097690437065793   0.023966817457818396   0.019093377615913433
0.097690437065793   0.023966817457818396   0.019093377615913433
0.097690437065793   0.023966817457818396   0.019093377615913433
0.097690437065793   0.023966817457818396   0.019093377615913433
0.06049391669138876   -0.048844703436516854   -0.03526388652547489
0.06049391669138876   -0.048844703436516854   -0.03526388652547489
0.06049391669138876   -0.048844703436516854   -0.03526388652547489
0.06049391669138876   -0.048844703436516854   -0.03526388652547489
0.3255928389757378   0.05685674893006499   0.02297160409248842
0.3255928389757378   0.05685674893006499   0.02297160409248842
0.3255928389757378   0.05685674893006499   0.02297160409248842
0.3255928389757378   0.05685674893006499   0.02297160409248842
0.19269164093671245   0.009489754170891866   -0.004446297505875578
0.19269164093671245   0.009489754170891866   -0.004446297505875578
0.19269164093671245   0.009489754170891866   -0.004446297505875578
0.19269164093671245   0.009489754170891866   -0.004446297505875578
0.30213366216020904   -0.000797902707230333   -0.036669628347862596
0.30213366216020904   -0.000797902707230333   -0.036669628347862596
0.30213366216020904   -0.000797902707230333   -0.036669628347862596
0.30213366216020904   -0.000797902707230333   -0.036669628347862596
0.08322119313210204   0.008078047825962638   0.02144974441561248
0.08322119313210204   0.008078047825962638   0.02144974441561248
0.08322119313210204   0.008078047825962638   0.02144974441561248
0.08322119313210204   0.008078047825962638   0.02144974441561248
0.046456051975371886   -0.05575070054322037   -0.029962644025421734
0.046456051975371886   -0.05575070054322037   -0.029962644025421734
0.046456051975371886   -0.05575070054322037   -0.029962644025421734
0.046456051975371886   -0.05575070054322037   -0.029962644025421734
0.30035849828145034   0.04732880364919237   0.02952778612162425
0.30035849828145034   0.04732880364919237   0.02952778612162425
0.30035849828145034   0.04732880364919237   0.02952778612162425
0.30035849828145034   0.04732880364919237   0.02952778612162425
0.17510926995494505   -0.001304679404237466   -0.011439079091923288
0.17510926995494505   -0.001304679404237466   -0.011439079091923288
0.17510926995494505   -0.001304679404237466   -0.011439079091923288
0.17510926995494505   -0.001304679404237466   -0.011439079091923288
0.27702834851326413   -0.009668786870483961   -0.030125372199631982
0.27702834851326413   -0.009668786870483961   -0.030125372199631982
0.27702834851326413   -0.009668786870483961   -0.030125372199631982
0.27702834851326413   -0.009668786870483961   -0.030125372199631982
0.06880459884001944   0.00026528707291730014   0.025764102681679803
0.06880459884001944   0.00026528707291730014   0.025764102681679803
0.06880459884001944   0.00026528707291730014   0.025764102681679803
0.06880459884001944   0.00026528707291730014   0.025764102681679803
0.033907892813057415   -0.0640478739062482   -0.02496184001739047
0.033907892813057415   -0.0640478739062482   -0.02496184001739047
0.033907892813057415   -0.0640478739062482   -0.02496184001739047
0.033907892813057415   -0.0640478739062482   -0.02496184001739047
0.26910132218036753   0.03210898545673413   0.03279751482702513
0.26910132218036753   0.03210898545673413   0.03279751482702513
0.26910132218036753   0.03210898545673413   0.03279751482702513
0.26910132218036753   0.03210898545673413   0.03279751482702513
0.15071833569250753   -0.010903757016593792   -0.0200039666932513
0.15071833569250753   -0.010903757016593792   -0.0200039666932513
0.15071833569250753   -0.010903757016593792   -0.0200039666932513
0.15071833569250753   -0.010903757016593792   -0.0200039666932513
0.09402294075679182   0.03625987879484655   -0.011537165266121592
0.09402294075679182   0.03625987879484655   -0.011537165266121592
0.09402294075679182   0.03625987879484655   -0.011537165266121592
0.09402294075679182   0.03625987879484655   -0.011537165266121592
-0.13502797659616753   0.011587376413237038   0.004612069885706343
-0.13502797659616753   0.011587376413237038   0.004612069885706343
-0.13502797659616753   0.011587376413237038   0.004612069885706343
-0.13502797659616753   0.011587376413237038   0.004612069885706343
-0.15899232453503603   -0.03133704513301794   -0.020596276418581343
-0.15899232453503603   -0.03133704513301794   -0.020596276418581343
-0.15899232453503603   -0.03133704513301794   -0.020596276418581343
-0.15899232453503603   -0.03133704513301794   -0.020596276418581343
0.09069346367759225   0.04499043793526329   0.021898707033762933
0.09069346367759225   0.04499043793526329   0.021898707033762933
0.09069346367759225   0.04499043793526329   0.021898707033762933
0.09069346367759225   0.04499043793526329   0.021898707033762933
-0.028129409617078903   0.014724367778928462   0.003759364993326627
-0.028129409617078903   0.014724367778928462   0.003759364993326627
-0.028129409617078903   0.014724367778928462   0.003759364993326627
-0.028129409617078903   0.014724367778928462   0.003759364993326627
0.07937208318916725   0.01875961683409928   -0.00847737430719854
0.07937208318916725   0.01875961683409928   -0.00847737430719854
0.07937208318916725   0.01875961683409928   -0.00847737430719854
0.07937208318916725   0.01875961683409928   -0.00847737430719854
-0.1482967320486759   -0.00573201203391888   0.007276652914120245
-0.1482967320486759   -0.00573201203391888   0.007276652914120245
-0.1482967320486759   -0.00573201203391888   0.007276652914120245
-0.1482967320486759   -0.00573201203391888   0.007276652914120245
-0.17154876566849436   -0.04536692086043344   -0.0161408251904364
-0.17154876566849436   -0.04536692086043344   -0.0161408251904364
-0.17154876566849436   -0.04536692086043344   -0.0161408251904364
-0.17154876566849436   -0.04536692086043344   -0.0161408251904364
0.07421935634946045   0.02922450817325819   0.023878669128543948
0.07421935634946045   0.02922450817325819   0.023878669128543948
0.07421935634946045   0.02922450817325819   0.023878669128543948
0.07421935634946045   0.02922450817325819   0.023878669128543948
-0.04365167304211333   -0.0004237272285702188   -0.0035011250968970983
-0.04365167304211333   -0.0004237272285702188   -0.0035011250968970983
-0.04365167304211333   -0.0004237272285702188   -0.0035011250968970983
-0.04365167304211333   -0.0004237272285702188   -0.0035011250968970983
0.063231121408056   0.003708018426599685   -0.0055460158318211715
0.063231121408056   0.003708018426599685   -0.0055460158318211715
0.063231121408056   0.003708018426599685   -0.0055460158318211715
0.063231121408056   0.003708018426599685   -0.0055460158318211715
-0.16137076467317088   -0.020660665059856108   0.010042923985603778
-0.16137076467317088   -0.020660665059856108   0.010042923985603778
-0.16137076467317088   -0.020660665059856108   0.010042923985603778
-0.16137076467317088   -0.020660665059856108   0.010042923985603778
-0.18400829051304604   -0.05926591040426059   -0.012114726380205477
-0.18400829051304604   -0.05926591040426059   -0.012114726380205477
-0.18400829051304604   -0.05926591040426059   -0.012114726380205477
-0.18400829051304604   -0.05926591040426059   -0.012114726380205477
0.05979497044646337   0.013763795545838144   0.026661878697553428
0.05979497044646337   0.013763795545838144   0.026661878697553428
0.05979497044646337   0.013763795545838144   0.026661878697553428
0.05979497044646337   0.013763795545838144   0.026661878697553428
-0.0570699237635642   -0.01396648477733635   -0.010351747853886805
-0.0570699237635642   -0.01396648477733635   -0.010351747853886805
-0.0570699237635642   -0.01396648477733635   -0.010351747853886805
-0.0570699237635642   -0.01396648477733635   -0.010351747853886805
-0.12802127921314854   0.04947299295136541   0.001759940262672826
-0.12802127921314854   0.04947299295136541   0.001759940262672826
-0.12802127921314854   0.04947299295136541   0.001759940262672826
-0.12802127921314854   0.04947299295136541   0.001759940262672826
-0.36460671403600425   -0.004445499019803234   -0.010045162613277255
-0.36460671403600425   -0.004445499019803234   -0.010045162613277255
-0.36460671403600425   -0.004445499019803234   -0.010045162613277255
-0.36460671403600425   -0.004445499019803234   -0.010045162613277255
-0.3759230302249328   -0.015443217896618941   -0.006014107559804555
-0.3759230302249328   -0.015443217896618941   -0.006014107559804555
-0.3759230302249328   -0.015443217896618941   -0.006014107559804555
-0.3759230302249328   -0.015443217896618941   -0.006014107559804555
-0.1412876768061213   0.029622718776585566   0.006967198316385103
-0.1412876768061213   0.029622718776585566   0.006967198316385103
-0.1412876768061213   0.029622718776585566   0.006967198316385103
-0.1412876768061213   0.029622718776585566   0.006967198316385103
-0.2518582758312693   0.014485136568025393   0.0038899691455746253
-0.2518582758312693   0.014485136568025393   0.0038899691455746253
-0.2518582758312693   0.014485136568025393   0.0038899691455746253
-0.2518582758312693   0.014485136568025393   0.0038899691455746253
-0.14062114420088695   0.034003747369978535   0.005918832749167671
-0.14062114420088695   0.034003747369978535   0.005918832749167671
-0.14062114420088695   0.034003747369978535   0.005918832749167671
-0.14062114420088695   0.034003747369978535   0.005918832749167671
-0.3771382743922418   -0.02037295805208658   -0.007160588240885772
-0.3771382743922418   -0.02037295805208658   -0.007160588240885772
-0.3771382743922418   -0.02037295805208658   -0.007160588240885772
-0.3771382743922418   -0.02037295805208658   -0.007160588240885772
-0.3884262503431767   -0.030759525324043885   -0.0019799184701589055
-0.3884262503431767   -0.030759525324043885   -0.0019799184701589055
-0.3884262503431767   -0.030759525324043885   -0.0019799184701589055
-0.3884262503431767   -0.030759525324043885   -0.0019799184701589055
-0.1545404517980684   0.013632926608526975   0.009900896692730914
-0.1545404517980684   0.013632926608526975   0.009900896692730914
-0.1545404517980684   0.013632926608526975   0.009900896692730914
-0.1545404517980684   0.013632926608526975   0.009900896692730914
-0.26490170611655384   -6.580285276483466e-05   -0.0026165856073747176
-0.26490170611655384   -6.580285276483466e-05   -0.0026165856073747176
-0.26490170611655384   -6.580285276483466e-05   -0.0026165856073747176
-0.26490170611655384   -6.580285276483466e-05   -0.0026165856073747176
-0.15364640099761187   0.018494369749841165   0.009509707553701518
-0.15364640099761187   0.018494369749841165   0.009509707553701518
-0.15364640099761187   0.018494369749841165   0.009509707553701518
-0.15364640099761187   0.018494369749841165   0.009509707553701518
-0.39010005980339174   -0.03640072712511626   -0.004707763970161913
-0.39010005980339174   -0.03640072712511626   -0.004707763970161913
-0.39010005980339174   -0.03640072712511626   -0.004707763970161913
-0.39010005980339174   -0.03640072712511626   -0.004707763970161913
-0.40068703968364233   -0.045542790526904416   0.0019279677400498348
-0.40068703968364233   -0.045542790526904416   0.0019279677400498348
-0.40068703968364233   -0.045542790526904416   0.0019279677400498348
-0.40068703968364233   -0.045542790526904416   0.0019279677400498348
-0.16756931276484413   -0.001767579518913813   0.012581831475457392
-0.16756931276484413   -0.001767579518913813   0.012581831475457392
-0.16756931276484413   -0.001767579518913813   0.012581831475457392
-0.16756931276484413   -0.001767579518913813   0.012581831475457392
-0.27862769950035193   -0.01465011838685621   -0.00968221297851705
-0.27862769950035193   -0.01465011838685621   -0.00968221297851705
-0.27862769950035193   -0.01465011838685621   -0.00968221297851705
-0.27862769950035193   -0.01465011838685621   -0.00968221297851705
-0.34621361639585135   0.062048673151957445   0.015426153415726625
-0.34621361639585135   0.062048673151957445   0.015426153415726625
-0.34621361639585135   0.062048673151957445   0.015426153415726625
-0.34621361639585135   0.062048673151957445   0.015426153415726625
-0.589262149041146   -0.017634534838312524   -0.022883512906099846
-0.589262149041146   -0.017634534838312524   -0.022883512906099846
-0.589262149041146   -0.017634534838312524   -0.022883512906099846
-0.589262149041146   -0.017634534838312524   -0.022883512906099846
-0.5903785939282583   -0.0014349868012113465   0.009435425035017916
-0.5903785939282583   -0.0014349868012113465   0.009435425035017916
-0.5903785939282583   -0.0014349868012113465   0.009435425035017916
-0.5903785939282583   -0.0014349868012113465   0.009435425035017916
-0.3700214010902073   0.015241517031127763   -0.0071906968139316685
-0.3700214010902073   0.015241517031127763   -0.0071906968139316685
-0.3700214010902073   0.015241517031127763   -0.0071906968139316685
-0.3700214010902073   0.015241517031127763   -0.0071906968139316685
-0.4715422258204116   0.014522414765136299   0.005107769146395935
-0.4715422258204116   0.014522414765136299   0.005107769146395935
-0.4715422258204116   0.014522414765136299   0.005107769146395935
-0.4715422258204116   0.014522414765136299   0.005107769146395935
-0.358309826914964   0.04701118317760665   0.01959750791581355
-0.358309826914964   0.04701118317760665   0.01959750791581355
-0.358309826914964   0.04701118317760665   0.01959750791581355
-0.358309826914964   0.04701118317760665   0.01959750791581355
-0.6031424469655629   -0.03425693180975528   -0.021561895142960613
-0.6031424469655629   -0.03425693180975528   -0.021561895142960613
-0.6031424469655629   -0.03425693180975528   -0.021561895142960613
-0.6031424469655629   -0.03425693180975528   -0.021561895142960613
-0.6057739954236537   -0.016538022888704318   0.01160630211992704
-0.6057739954236537   -0.016538022888704318   0.01160630211992704
-0.6057739954236537   -0.016538022888704318   0.01160630211992704
-0.6057739954236537   -0.016538022888704318   0.01160630211992704
-0.38259033420367095   0.0005137879133972068   -0.004073651010074841
-0.38259033420367095   0.0005137879133972068   -0.004073651010074841
-0.38259033420367095   0.0005137879133972068   -0.004073651010074841
-0.38259033420367095   0.0005137879133972068   -0.004073651010074841
-0.48261529928555524   0.0009682958904661809   -0.001711771273270643
-0.48261529928555524   0.0009682958904661809   -0.001711771273270643
-0.48261529928555524   0.0009682958904661809   -0.001711771273270643
-0.48261529928555524   0.0009682958904661809   -0.001711771273270643
-0.3705677768842068   0.03291045424610753   0.023642469254539333
-0.3705677768842068   0.03291045424610753   0.023642469254539333
-0.3705677768842068   0.03291045424610753   0.023642469254539333
-0.3705677768842068   0.03291045424610753   0.023642469254539333
-0.6184529807952668   -0.04959111727356416   -0.01873553035328586
-0.6184529807952668   -0.04959111727356416   -0.01873553035328586
-0.6184529807952668   -0.04959111727356416   -0.01873553035328586
-0.6184529807952668   -0.04959111727356416   -0.01873553035328586
-0.6190667136178066   -0.03229054946481666   0.01582131726602927
-0.6190667136178066   -0.03229054946481666   0.01582131726602927
-0.6190667136178066   -0.03229054946481666   0.01582131726602927
-0.6190667136178066   -0.03229054946481666   0.01582131726602927
-0.39531804913187896   -0.0152488780143408   -0.0015209920137044426
-0.39531804913187896   -0.0152488780143408   -0.0015209920137044426
-0.39531804913187896   -0.0152488780143408   -0.0015209920137044426
-0.39531804913187896   -0.0152488780143408   -0.0015209920137044426
-0.4991196000547239   -0.013820141535565156   -0.009151889406180076
-0.4991196000547239   -0.013820141535565156   -0.009151889406180076
-0.4991196000547239   -0.013820141535565156   -0.009151889406180076
-0.4991196000547239   -0.013820141535565156   -0.009151889406180076
-0.5634763243181345   0.06109016629447253   0.02732090957617945
-0.5634763243181345   0.06109016629447253   0.02732090957617945
-0.5634763243181345   0.06109016629447253   0.02732090957617945
-0.5634763243181345   0.06109016629447253   0.02732090957617945
-0.7935822699403944   -0.03658009968617332   -0.03465270270828999
-0.7935822699403944   -0.03658009968617332   -0.03465270270828999
-0.7935822699403944   -0.03658009968617332   -0.03465270270828999
-0.7935822699403944   -0.03658009968617332   -0.03465270270828999
-0.7993617833571229   0.009902899228821399   0.0287162409118838
-0.7993617833571229   0.009902899228821399   0.0287162409118838
-0.7993617833571229   0.009902899228821399   0.0287162409118838
-0.7993617833571229   0.009902899228821399   0.0287162409118838
-0.5965477365389078   -0.0016929594845485896   -0.021152315334899426
-0.5965477365389078   -0.0016929594845485896   -0.021152315334899426
-0.5965477365389078   -0.0016929594845485896   -0.021152315334899426
-0.5965477365389078   -0.0016929594845485896   -0.021152315334899426
-0.6586409564339515   0.014590278312324872   0.01599567848460578
-0.6586409564339515   0.014590278312324872   0.01599567848460578
-0.6586409564339515   0.014590278312324872   0.01599567848460578
-0.6586409564339515   0.014590278312324872   0.01599567848460578
-0.5743927813332791   0.055616126410793665   0.03231337479790134
-0.5743927813332791   0.055616126410793665   0.03231337479790134
-0.5743927813332791   0.055616126410793665   0.03231337479790134
-0.5743927813332791   0.055616126410793665   0.03231337479790134
-0.8226377341483043   -0.048527182252065953   -0.029233431563120478
-0.8226377341483043   -0.048527182252065953   -0.029233431563120478
-0.8226377341483043   -0.048527182252065953   -0.029233431563120478
-0.8226377341483043   -0.048527182252065953   -0.029233431563120478
-0.8233506099273066   0.0014112285124193158   0.03666545468923316
-0.8233506099273066   0.0014112285124193158   0.03666545468923316
-0.8233506099273066   0.0014112285124193158   0.03666545468923316
-0.8233506099273066   0.0014112285124193158   0.03666545468923316
-0.6103985684408281   -0.009910710648828341   -0.018143875205828268
-0.6103985684408281   -0.009910710648828341   -0.018143875205828268
-0.6103985684408281   -0.009910710648828341   -0.018143875205828268
-0.6103985684408281   -0.009910710648828341   -0.018143875205828268
-0.6893505963401548   0.004554518748718456   0.005828806536651472
-0.6893505963401548   0.004554518748718456   0.005828806536651472
-0.6893505963401548   0.004554518748718456   0.005828806536651472
-0.6893505963401548   0.004554518748718456   0.005828806536651472
-0.587308215454722   0.048971710236886984   0.038425468838986926
-0.587308215454722   0.048971710236886984   0.038425468838986926
-0.587308215454722   0.048971710236886984   0.038425468838986926
-0.587308215454722   0.048971710236886984   0.038425468838986926
-0.8474997714756723   -0.05853000093555438   -0.024139123604614267
-0.8474997714756723   -0.05853000093555438   -0.024139123604614267
-0.8474997714756723   -0.05853000093555438   -0.024139123604614267
-0.8474997714756723   -0.05853000093555438   -0.024139123604614267
-0.8565146730300683   -0.02274879684750261   0.03784355292750503
-0.8565146730300683   -0.02274879684750261   0.03784355292750503
-0.8565146730300683   -0.02274879684750261   0.03784355292750503
-0.8565146730300683   -0.02274879684750261   0.03784355292750503
-0.6246948257809771   -0.02878676426578372   -0.01582302874887185
-0.6246948257809771   -0.02878676426578372   -0.01582302874887185
-0.6246948257809771   -0.02878676426578372   -0.01582302874887185
-0.6246948257809771   -0.02878676426578372   -0.01582302874887185
-0.6992893526252562   -0.006134249193330665   -0.00020255372084303225
-0.6992893526252562   -0.006134249193330665   -0.00020255372084303225
-0.6992893526252562   -0.006134249193330665   -0.00020255372084303225
-0.6992893526252562   -0.006134249193330665   -0.00020255372084303225
0.06264656963835526   0.005147467225987435   -0.03995950611580364
0.06264656963835526   0.005147467225987435   -0.03995950611580364
0.06264656963835526   0.005147467225987435   -0.03995950611580364
0.06264656963835526   0.005147467225987435   -0.03995950611580364
-0.06369689104043777   0.029905343389504426   0.02040147650476746
-0.06369689104043777   0.029905343389504426   0.02040147650476746
-0.06369689104043777   0.029905343389504426   0.02040147650476746
-0.06369689104043777   0.029905343389504426   0.02040147650476746
-0.09626553670383778   -0.038549461614850844   -0.0322010729525458
-0.09626553670383778   -0.038549461614850844   -0.0322010729525458
-0.09626553670383778   -0.038549461614850844   -0.0322010729525458
-0.09626553670383778   -0.038549461614850844   -0.0322010729525458
0.05771238457449159   0.042548957244089976   0.025030548766546083
0.05771238457449159   0.042548957244089976   0.025030548766546083
0.05771238457449159   0.042548957244089976   0.025030548766546083
0.05771238457449159   0.042548957244089976   0.025030548766546083
-0.011363162523704506   0.00934134680988389   0.003458139543833592
-0.011363162523704506   0.00934134680988389   0.003458139543833592
-0.011363162523704506   0.00934134680988389   0.003458139543833592
-0.011363162523704506   0.00934134680988389   0.003458139543833592
0.03442225542816083   -0.013121597118454587   -0.035749542602563134
0.03442225542816083   -0.013121597118454587   -0.035749542602563134
0.03442225542816083   -0.013121597118454587   -0.035749542602563134
0.03442225542816083   -0.013121597118454587   -0.035749542602563134
-0.07434674294859947   0.015749757356601272   0.02309367685219363
-0.07434674294859947   0.015749757356601272   0.02309367685219363
-0.07434674294859947   0.015749757356601272   0.02309367685219363
-0.07434674294859947   0.015749757356601272   0.02309367685219363
-0.10700920423084806   -0.04551321146044379   -0.027314586914258147
-0.10700920423084806   -0.04551321146044379   -0.027314586914258147
-0.10700920423084806   -0.04551321146044379   -0.027314586914258147
-0.10700920423084806   -0.04551321146044379   -0.027314586914258147
0.03562375548988904   0.03309901907474283   0.034353050069208434
0.03562375548988904   0.03309901907474283   0.034353050069208434
0.03562375548988904   0.03309901907474283   0.034353050069208434
0.03562375548988904   0.03309901907474283   0.034353050069208434
-0.028750979475723137   -0.001094973542037094   -0.004575091620920739
-0.028750979475723137   -0.001094973542037094   -0.004575091620920739
-0.028750979475723137   -0.001094973542037094   -0.004575091620920739
-0.028750979475723137   -0.001094973542037094   -0.004575091620920739
0.011788990753493718   -0.022195838323607393   -0.029525916214417948
0.011788990753493718   -0.022195838323607393   -0.029525916214417948
0.011788990753493718   -0.022195838323607393   -0.029525916214417948
0.011788990753493718   -0.022195838323607393   -0.029525916214417948
-0.08507987535282979   0.007876210079529222   0.028942635935859207
-0.08507987535282979   0.007876210079529222   0.028942635935859207
-0.08507987535282979   0.007876210079529222   0.028942635935859207
-0.08507987535282979   0.007876210079529222   0.028942635935859207
-0.11684801927296995   -0.05617112653170682   -0.022653703661842134
-0.11684801927296995   -0.05617112653170682   -0.022653703661842134
-0.11684801927296995   -0.05617112653170682   -0.022653703661842134
-0.11684801927296995   -0.05617112653170682   -0.022653703661842134
0.004946304807704325   0.013321469658629036   0.039187322213844515
0.004946304807704325   0.013321469658629036   0.039187322213844515
0.004946304807704325   0.013321469658629036   0.039187322213844515
0.004946304807704325   0.013321469658629036   0.039187322213844515
-0.047522360369214825   -0.011583258264560392   -0.013856809289202722
-0.047522360369214825   -0.011583258264560392   -0.013856809289202722
-0.047522360369214825   -0.011583258264560392   -0.013856809289202722
-0.047522360369214825   -0.011583258264560392   -0.013856809289202722
-0.07294459322517813   0.019912750753678165   -0.015844441783108072
-0.07294459322517813   0.019912750753678165   -0.015844441783108072
-0.07294459322517813   0.019912750753678165   -0.015844441783108072
-0.07294459322517813   0.019912750753678165   -0.015844441783108072
-0.19105018431506224   0.008046427344316244   0.00530353446462822
-0.19105018431506224   0.008046427344316244   0.00530353446462822
-0.19105018431506224   0.008046427344316244   0.00530353446462822
-0.19105018431506224   0.008046427344316244   0.00530353446462822
-0.20787669340867931   -0.022456629833991968   -0.016766474726241813
-0.20787669340867931   -0.022456629833991968   -0.016766474726241813
-0.20787669340867931   -0.022456629833991968   -0.016766474726241813
-0.20787669340867931   -0.022456629833991968   -0.016766474726241813
-0.07503515799841548   0.01937383710370314   0.01602752185601166
-0.07503515799841548   0.01937383710370314   0.01602752185601166
-0.07503515799841548   0.01937383710370314   0.01602752185601166
-0.07503515799841548   0.01937383710370314   0.01602752185601166
-0.13645651219512817   0.00582379904361623   0.003119661697781554
-0.13645651219512817   0.00582379904361623   0.003119661697781554
-0.13645651219512817   0.00582379904361623   0.003119661697781554
-0.13645651219512817   0.00582379904361623   0.003119661697781554
-0.08411106087345603   0.0030451337793363023   -0.013023289194823724
-0.08411106087345603   0.0030451337793363023   -0.013023289194823724
-0.08411106087345603   0.0030451337793363023   -0.013023289194823724
-0.08411106087345603   0.0030451337793363023   -0.013023289194823724
-0.19993040496990414   -0.007257540945890442   0.0077658785795324085
-0.19993040496990414   -0.007257540945890442   0.0077658785795324085
-0.19993040496990414   -0.007257540945890442   0.0077658785795324085
-0.19993040496990414   -0.007257540945890442   0.0077658785795324085
-0.21624660205195628   -0.036122709446546206   -0.012391460569061295
-0.21624660205195628   -0.036122709446546206   -0.012391460569061295
-0.21624660205195628   -0.036122709446546206   -0.012391460569061295
-0.21624660205195628   -0.036122709446546206   -0.012391460569061295
-0.0879753181536725   0.004269684726096779   0.018071947285078126
-0.0879753181536725   0.004269684726096779   0.018071947285078126
-0.0879753181536725   0.004269684726096779   0.018071947285078126
-0.0879753181536725   0.004269684726096779   0.018071947285078126
-0.14702860156137934   -0.007905022244486606   -0.0037738264183668083
-0.14702860156137934   -0.007905022244486606   -0.0037738264183668083
-0.14702860156137934   -0.007905022244486606   -0.0037738264183668083
-0.14702860156137934   -0.007905022244486606   -0.0037738264183668083
-0.09672765267968893   -0.011687196318384782   -0.00973284430052152
-0.09672765267968893   -0.011687196318384782   -0.00973284430052152
-0.09672765267968893   -0.011687196318384782   -0.00973284430052152
-0.09672765267968893   -0.011687196318384782   -0.00973284430052152
-0.2087076776799369   -0.021379238556061515   0.010559690400551023
-0.2087076776799369   -0.021379238556061515   0.010559690400551023
-0.2087076776799369   -0.021379238556061515   0.010559690400551023
-0.2087076776799369   -0.021379238556061515   0.010559690400551023
-0.22467165537641706   -0.05016555165298278   -0.008518231473670793
-0.22467165537641706   -0.05016555165298278   -0.008518231473670793
-0.22467165537641706   -0.05016555165298278   -0.008518231473670793
-0.22467165537641706   -0.05016555165298278   -0.008518231473670793
-0.09880084362893622   -0.011010126865094099   0.022421174891713257
-0.09880084362893622   -0.011010126865094099   0.022421174891713257
-0.09880084362893622   -0.011010126865094099   0.022421174891713257
-0.09880084362893622   -0.011010126865094099   0.022421174891713257
-0.15757421698292895   -0.02145892440077073   -0.010777868211127778
-0.15757421698292895   -0.02145892440077073   -0.010777868211127778
-0.15757421698292895   -0.02145892440077073   -0.010777868211127778
-0.15757421698292895   -0.02145892440077073   -0.010777868211127778
-0.18752656679862711   0.03264431069045938   -0.0016762612993412966
-0.18752656679862711   0.03264431069045938   -0.0016762612993412966
-0.18752656679862711   0.03264431069045938   -0.0016762612993412966
-0.18752656679862711   0.03264431069045938   -0.0016762612993412966
-0.3171580449308581   -0.010918725985857296   -0.00899471648614659
-0.3171580449308581   -0.010918725985857296   -0.00899471648614659
-0.3171580449308581   -0.010918725985857296   -0.00899471648614659
-0.3171580449308581   -0.010918725985857296   -0.00899471648614659
-0.320511685594281   -0.008003056321372687   -0.0019376683852464945
-0.320511685594281   -0.008003056321372687   -0.0019376683852464945
-0.320511685594281   -0.008003056321372687   -0.0019376683852464945
-0.320511685594281   -0.008003056321372687   -0.0019376683852464945
-0.19913646485833053   0.002000871086998972   0.0024771671045111035
-0.19913646485833053   0.002000871086998972   0.0024771671045111035
-0.19913646485833053   0.002000871086998972   0.0024771671045111035
-0.19913646485833053   0.002000871086998972   0.0024771671045111035
-0.25554443938627847   0.0036756662263397535   0.0010923102014749452
-0.25554443938627847   0.0036756662263397535   0.0010923102014749452
-0.25554443938627847   0.0036756662263397535   0.0010923102014749452
-0.25554443938627847   0.0036756662263397535   0.0010923102014749452
-0.19598863160593277   0.017777107536705014   0.0024400969167938484
-0.19598863160593277   0.017777107536705014   0.0024400969167938484
-0.19598863160593277   0.017777107536705014   0.0024400969167938484
-0.19598863160593277   0.017777107536705014   0.0024400969167938484
-0.32474747472587123   -0.024867248650271262   -0.006252421714299343
-0.32474747472587123   -0.024867248650271262   -0.006252421714299343
-0.32474747472587123   -0.024867248650271262   -0.006252421714299343
-0.32474747472587123   -0.024867248650271262   -0.006252421714299343
-0.32836275268406995   -0.02268530350518764   0.0021320470101285887
-0.32836275268406995   -0.02268530350518764   0.0021320470101285887
-0.32836275268406995   -0.02268530350518764   0.0021320470101285887
-0.32836275268406995   -0.02268530350518764   0.0021320470101285887
-0.2080079802857357   -0.01243577740837385   0.005114716223869421
-0.2080079802857357   -0.01243577740837385   0.005114716223869421
-0.2080079802857357   -0.01243577740837385   0.005114716223869421
-0.2080079802857357   -0.01243577740837385   0.005114716223869421
-0.2640510498446741   -0.00967763388201251   -0.0052379924944212855
-0.2640510498446741   -0.00967763388201251   -0.0052379924944212855
-0.2640510498446741   -0.00967763388201251   -0.0052379924944212855
-0.2640510498446741   -0.00967763388201251   -0.0052379924944212855
-0.20476806239820267   0.002819109000493515   0.006059419252667153
-0.20476806239820267   0.002819109000493515   0.006059419252667153
-0.20476806239820267   0.002819109000493515   0.006059419252667153
-0.20476806239820267   0.002819109000493515   0.006059419252667153
-0.3329147175088727   -0.039252236851325464   -0.004060843767751635
-0.3329147175088727   -0.039252236851325464   -0.004060843767751635
-0.3329147175088727   -0.039252236851325464   -0.004060843767751635
-0.3329147175088727   -0.039252236851325464   -0.004060843767751635
-0.3360077211373533   -0.036764018386347165   0.006038045510799785
-0.3360077211373533   -0.036764018386347165   0.006038045510799785
-0.3360077211373533   -0.036764018386347165   0.006038045510799785
-0.3360077211373533   -0.036764018386347165   0.006038045510799785
-0.21653245970141638   -0.026048655382598047   0.008060850630947818
-0.21653245970141638   -0.026048655382598047   0.008060850630947818
-0.21653245970141638   -0.026048655382598047   0.008060850630947818
-0.21653245970141638   -0.026048655382598047   0.008060850630947818
-0.2732047390350821   -0.02311101359946914   -0.012117090763081364
-0.2732047390350821   -0.02311101359946914   -0.012117090763081364
-0.2732047390350821   -0.02311101359946914   -0.012117090763081364
-0.2732047390350821   -0.02311101359946914   -0.012117090763081364
-0.3011504300546706   0.04715786493499227   0.01296676697394877
-0.3011504300546706   0.04715786493499227   0.01296676697394877
-0.3011504300546706   0.04715786493499227   0.01296676697394877
-0.3011504300546706   0.04715786493499227   0.01296676697394877
-0.4383828121325626   -0.01821038111295907   -0.020157583548602576
-0.4383828121325626   -0.01821038111295907   -0.020157583548602576
-0.4383828121325626   -0.01821038111295907   -0.020157583548602576
-0.4383828121325626   -0.01821038111295907   -0.020157583548602576
-0.43254759765472467   0.006845497863312511   0.013355403911509425
-0.43254759765472467   0.006845497863312511   0.013355403911509425
-0.43254759765472467   0.006845497863312511   0.013355403911509425
-0.43254759765472467   0.006845497863312511   0.013355403911509425
-0.32156368871501995   -0.006257200220422199   -0.008943540089891854
-0.32156368871501995   -0.006257200220422199   -0.008943540089891854
-0.32156368871501995   -0.006257200220422199   -0.008943540089891854
-0.32156368871501995   -0.006257200220422199   -0.008943540089891854
-0.3721035818017505   0.007430560478198137   0.0018254180772187475
-0.3721035818017505   0.007430560478198137   0.0018254180772187475
-0.3721035818017505   0.007430560478198137   0.0018254180772187475
-0.3721035818017505   0.007430560478198137   0.0018254180772187475
-0.30863015770885915   0.03237607334523476   0.017090841375255225
-0.30863015770885915   0.03237607334523476   0.017090841375255225
-0.30863015770885915   0.03237607334523476   0.017090841375255225
-0.30863015770885915   0.03237607334523476   0.017090841375255225
-0.4470703144071244   -0.033376961448585984   -0.0190357205386063
-0.4470703144071244   -0.033376961448585984   -0.0190357205386063
-0.4470703144071244   -0.033376961448585984   -0.0190357205386063
-0.4470703144071244   -0.033376961448585984   -0.0190357205386063
-0.4430641820799879   -0.0076096068964896235   0.0157832228168079
-0.4430641820799879   -0.0076096068964896235   0.0157832228168079
-0.4430641820799879   -0.0076096068964896235   0.0157832228168079
-0.4430641820799879   -0.0076096068964896235   0.0157832228168079
-0.3293463101335347   -0.019393587230504335   -0.006077456511878838
-0.3293463101335347   -0.019393587230504335   -0.006077456511878838
-0.3293463101335347   -0.019393587230504335   -0.006077456511878838
-0.3293463101335347   -0.019393587230504335   -0.006077456511878838
-0.37924355348477806   -0.005435013988765405   -0.0050362254960156505
-0.37924355348477806   -0.005435013988765405   -0.0050362254960156505
-0.37924355348477806   -0.005435013988765405   -0.0050362254960156505
-0.37924355348477806   -0.005435013988765405   -0.0050362254960156505
-0.31626928532459697   0.01881295329306759   0.02110112700923381
-0.31626928532459697   0.01881295329306759   0.02110112700923381
-0.31626928532459697   0.01881295329306759   0.02110112700923381
-0.31626928532459697   0.01881295329306759   0.02110112700923381
-0.45739614527377714   -0.04707108580492012   -0.016415114243715404
-0.45739614527377714   -0.04707108580492012   -0.016415114243715404
-0.45739614527377714   -0.04707108580492012   -0.016415114243715404
-0.45739614527377714   -0.04707108580492012   -0.016415114243715404
-0.45161149365267783   -0.022180385843511133   0.02011491336124271
-0.45161149365267783   -0.022180385843511133   0.02011491336124271
-0.45161149365267783   -0.022180385843511133   0.02011491336124271
-0.45161149365267783   -0.022180385843511133   0.02011491336124271
-0.33715937415365   -0.03285409185882397   -0.0036301460982066866
-0.33715937415365   -0.03285409185882397   -0.0036301460982066866
-0.33715937415365   -0.03285409185882397   -0.0036301460982066866
-0.33715937415365   -0.03285409185882397   -0.0036301460982066866
-0.3900043249964571   -0.018573711828579878   -0.012075008459048565
-0.3900043249964571   -0.018573711828579878   -0.012075008459048565
-0.3900043249964571   -0.018573711828579878   -0.012075008459048565
-0.3900043249964571   -0.018573711828579878   -0.012075008459048565
-0.41535393280212374   0.05112616223438775   0.025650269756244654
-0.41535393280212374   0.05112616223438775   0.025650269756244654
-0.41535393280212374   0.05112616223438775   0.025650269756244654
-0.41535393280212374   0.05112616223438775   0.025650269756244654
-0.5354014737336561   -0.026844577958939006   -0.033635137415677516
-0.5354014737336561   -0.026844577958939006   -0.033635137415677516
-0.5354014737336561   -0.026844577958939006   -0.033635137415677516
-0.5354014737336561   -0.026844577958939006   -0.033635137415677516
-0.5358482610909437   0.020332731741448937   0.028276665347124204
-0.5358482610909437   0.020332731741448937   0.028276665347124204
-0.5358482610909437   0.020332731741448937   0.028276665347124204
-0.5358482610909437   0.020332731741448937   0.028276665347124204
-0.4436974416847043   -0.014974904282210447   -0.020573414092881204
-0.4436974416847043   -0.014974904282210447   -0.020573414092881204
-0.4436974416847043   -0.014974904282210447   -0.020573414092881204
-0.4436974416847043   -0.014974904282210447   -0.020573414092881204
-0.4630235399583484   0.012067367452867614   0.009018093403054431
-0.4630235399583484   0.012067367452867614   0.009018093403054431
-0.4630235399583484   0.012067367452867614   0.009018093403054431
-0.4630235399583484   0.012067367452867614   0.009018093403054431
-0.42182946681567446   0.04353289060091431   0.030258665369151
-0.42182946681567446   0.04353289060091431   0.030258665369151
-0.42182946681567446   0.04353289060091431   0.030258665369151
-0.42182946681567446   0.04353289060091431   0.030258665369151
-0.5593693569920353   -0.03982818417372845   -0.029167898243140273
-0.5593693569920353   -0.03982818417372845   -0.029167898243140273
-0.5593693569920353   -0.03982818417372845   -0.029167898243140273
-0.5593693569920353   -0.03982818417372845   -0.029167898243140273
-0.5549736521427552   0.01208751240586059   0.03642232376957425
-0.5549736521427552   0.01208751240586059   0.03642232376957425
-0.5549736521427552   0.01208751240586059   0.03642232376957425
-0.5549736521427552   0.01208751240586059   0.03642232376957425
-0.4528072816438533   -0.022528466835645147   -0.018013415063363816
-0.4528072816438533   -0.022528466835645147   -0.018013415063363816
-0.4528072816438533   -0.022528466835645147   -0.018013415063363816
-0.4528072816438533   -0.022528466835645147   -0.018013415063363816
-0.4858163102083749   0.0020497039753415297   -0.0005196112001610055
-0.4858163102083749   0.0020497039753415297   -0.0005196112001610055
-0.4858163102083749   0.0020497039753415297   -0.0005196112001610055
-0.4858163102083749   0.0020497039753415297   -0.0005196112001610055
-0.4300345982542285   0.037045971199566846   0.03627556384954817
-0.4300345982542285   0.037045971199566846   0.03627556384954817
-0.4300345982542285   0.037045971199566846   0.03627556384954817
-0.4300345982542285   0.037045971199566846   0.03627556384954817
-0.5794278954675963   -0.04916848556455755   -0.024592894884198156
-0.5794278954675963   -0.04916848556455755   -0.024592894884198156
-0.5794278954675963   -0.04916848556455755   -0.024592894884198156
-0.5794278954675963   -0.04916848556455755   -0.024592894884198156
-0.583206780590149   -0.009624431797843405   0.03850058840003222
-0.583206780590149   -0.009624431797843405   0.03850058840003222
-0.583206780590149   -0.009624431797843405   0.03850058840003222
-0.583206780590149   -0.009624431797843405   0.03850058840003222
-0.4619563591535991   -0.03823071677348919   -0.0155590832133937
-0.4619563591535991   -0.03823071677348919   -0.0155590832133937
-0.4619563591535991   -0.03823071677348919   -0.0155590832133937
-0.4619563591535991   -0.03823071677348919   -0.0155590832133937
-0.4945258586856906   -0.007888170891564975   -0.0072759037523933215
-0.4945258586856906   -0.007888170891564975   -0.0072759037523933215
-0.4945258586856906   -0.007888170891564975   -0.0072759037523933215
-0.4945258586856906   -0.007888170891564975   -0.0072759037523933215
-0.22287800901103175   -0.014511083109836648   -0.042499538021343916
-0.22287800901103175   -0.014511083109836648   -0.042499538021343916
-0.22287800901103175   -0.014511083109836648   -0.042499538021343916
-0.22287800901103175   -0.014511083109836648   -0.042499538021343916
-0.2221622341270304   0.03244473130944528   0.019093606785968775
-0.2221622341270304   0.03244473130944528   0.019093606785968775
-0.2221622341270304   0.03244473130944528   0.019093606785968775
-0.2221622341270304   0.03244473130944528   0.019093606785968775
-0.25024335018482097   -0.02981882943904559   -0.028852649889819185
-0.25024335018482097   -0.02981882943904559   -0.028852649889819185
-0.25024335018482097   -0.02981882943904559   -0.028852649889819185
-0.25024335018482097   -0.02981882943904559   -0.028852649889819185
-0.22760010667398245   0.017238833954592248   0.028621509612439318
-0.22760010667398245   0.017238833954592248   0.028621509612439318
-0.22760010667398245   0.017238833954592248   0.028621509612439318
-0.22760010667398245   0.017238833954592248   0.028621509612439318
-0.2191316200588995   0.005533855241736975   0.019481262078295432
-0.2191316200588995   0.005533855241736975   0.019481262078295432
-0.2191316200588995   0.005533855241736975   0.019481262078295432
-0.2191316200588995   0.005533855241736975   0.019481262078295432
-0.25013328772705207   -0.031156166090990173   -0.03564939560732634
-0.25013328772705207   -0.031156166090990173   -0.03564939560732634
-0.25013328772705207   -0.031156166090990173   -0.03564939560732634
-0.25013328772705207   -0.031156166090990173   -0.03564939560732634
-0.23049226533792916   0.015794074400361582   0.024289870505232743
-0.23049226533792916   0.015794074400361582   0.024289870505232743
-0.23049226533792916   0.015794074400361582   0.024289870505232743
-0.23049226533792916   0.015794074400361582   0.024289870505232743
-0.2587397428151697   -0.037532568248543535   -0.02444138824214938
-0.2587397428151697   -0.037532568248543535   -0.02444138824214938
-0.2587397428151697   -0.037532568248543535   -0.02444138824214938
-0.2587397428151697   -0.037532568248543535   -0.02444138824214938
-0.24938139697896278   0.006754979785838708   0.05328365460618092
-0.24938139697896278   0.006754979785838708   0.05328365460618092
-0.24938139697896278   0.006754979785838708   0.05328365460618092
-0.24938139697896278   0.006754979785838708   0.05328365460618092
-0.23916313709388468   -0.0077113923064111925   0.007818135990547275
-0.23916313709388468   -0.0077113923064111925   0.007818135990547275
-0.23916313709388468   -0.0077113923064111925   0.007818135990547275
-0.23916313709388468   -0.0077113923064111925   0.007818135990547275
-0.27525529726276865   -0.04151131241252662   -0.027819554614481143
-0.27525529726276865   -0.04151131241252662   -0.027819554614481143
-0.27525529726276865   -0.04151131241252662   -0.027819554614481143
-0.27525529726276865   -0.04151131241252662   -0.027819554614481143
-0.23947511789786352   0.004124448583325002   0.03022471951251309
-0.23947511789786352   0.004124448583325002   0.03022471951251309
-0.23947511789786352   0.004124448583325002   0.03022471951251309
-0.23947511789786352   0.004124448583325002   0.03022471951251309
-0.26570514348619   -0.052497725400270215   -0.01925720478677273
-0.26570514348619   -0.052497725400270215   -0.01925720478677273
-0.26570514348619   -0.052497725400270215   -0.01925720478677273
-0.26570514348619   -0.052497725400270215   -0.01925720478677273
-0.2832160854463568   -0.027891781713971418   0.04985248248927211
-0.2832160854463568   -0.027891781713971418   0.04985248248927211
-0.2832160854463568   -0.027891781713971418   0.04985248248927211
-0.2832160854463568   -0.027891781713971418   0.04985248248927211
-0.2566183574855224   -0.02336022490873068   -0.010699370267944465
-0.2566183574855224   -0.02336022490873068   -0.010699370267944465
-0.2566183574855224   -0.02336022490873068   -0.010699370267944465
-0.2566183574855224   -0.02336022490873068   -0.010699370267944465
-0.23820112878752622   -0.006813079570429606   -0.02184305563663708
-0.23820112878752622   -0.006813079570429606   -0.02184305563663708
-0.23820112878752622   -0.006813079570429606   -0.02184305563663708
-0.23820112878752622   -0.006813079570429606   -0.02184305563663708
-0.2426021517463524   -0.02985448186542419   -0.0012782414653084344
-0.2426021517463524   -0.02985448186542419   -0.0012782414653084344
-0.2426021517463524   -0.02985448186542419   -0.0012782414653084344
-0.2426021517463524   -0.02985448186542419   -0.0012782414653084344
-0.24444996835592947   -0.019908094689048694   -0.010967326750218215
-0.24444996835592947   -0.019908094689048694   -0.010967326750218215
-0.24444996835592947   -0.019908094689048694   -0.010967326750218215
-0.24444996835592947   -0.019908094689048694   -0.010967326750218215
-0.24665667456014698   -0.040369894702459275   -0.0003682065030354521
-0.24665667456014698   -0.040369894702459275   -0.0003682065030354521
-0.24665667456014698   -0.040369894702459275   -0.0003682065030354521
-0.24665667456014698   -0.040369894702459275   -0.0003682065030354521
-0.24091599353255957   -0.025291221373996524   -0.0007897762043124566
-0.24091599353255957   -0.025291221373996524   -0.0007897762043124566
-0.24091599353255957   -0.025291221373996524   -0.0007897762043124566
-0.24091599353255957   -0.025291221373996524   -0.0007897762043124566
-0.24667993860372614   -0.021942923061033022   -0.018911498362358514
-0.24667993860372614   -0.021942923061033022   -0.018911498362358514
-0.24667993860372614   -0.021942923061033022   -0.018911498362358514
-0.24667993860372614   -0.021942923061033022   -0.018911498362358514
-0.24598463768643872   -0.039892999704561324   0.001344231612746054
-0.24598463768643872   -0.039892999704561324   0.001344231612746054
-0.24598463768643872   -0.039892999704561324   0.001344231612746054
-0.24598463768643872   -0.039892999704561324   0.001344231612746054
-0.2486204222863442   -0.03289359260038402   -0.007099335214654221
-0.2486204222863442   -0.03289359260038402   -0.007099335214654221
-0.2486204222863442   -0.03289359260038402   -0.007099335214654221
-0.2486204222863442   -0.03289359260038402   -0.007099335214654221
-0.25570707679235255   -0.05241559975906909   0.005604973382461933
-0.25570707679235255   -0.05241559975906909   0.005604973382461933
-0.25570707679235255   -0.05241559975906909   0.005604973382461933
-0.25570707679235255   -0.05241559975906909   0.005604973382461933
-0.2465432482539979   -0.0357940701701458   -0.006820076981192041
-0.2465432482539979   -0.0357940701701458   -0.006820076981192041
-0.2465432482539979   -0.0357940701701458   -0.006820076981192041
-0.2465432482539979   -0.0357940701701458   -0.006820076981192041
-0.2563183550493851   -0.03582226303534357   -0.014044754626426362
-0.2563183550493851   -0.03582226303534357   -0.014044754626426362
-0.2563183550493851   -0.03582226303534357   -0.014044754626426362
-0.2563183550493851   -0.03582226303534357   -0.014044754626426362
-0.25000050173940247   -0.051478287034201015   0.004584961953867585
-0.25000050173940247   -0.051478287034201015   0.004584961953867585
-0.25000050173940247   -0.051478287034201015   0.004584961953867585
-0.25000050173940247   -0.051478287034201015   0.004584961953867585
-0.2523743287222104   -0.046863143001489437   -0.003270420696989255
-0.2523743287222104   -0.046863143001489437   -0.003270420696989255
-0.2523743287222104   -0.046863143001489437   -0.003270420696989255
-0.2523743287222104   -0.046863143001489437   -0.003270420696989255
-0.26264345731196237   -0.06767721769077822   0.011230718374872673
-0.26264345731196237   -0.06767721769077822   0.011230718374872673
-0.26264345731196237   -0.06767721769077822   0.011230718374872673
-0.26264345731196237   -0.06767721769077822   0.011230718374872673
-0.25424429293521955   -0.04844740922554378   -0.014475397606680753
-0.25424429293521955   -0.04844740922554378   -0.014475397606680753
-0.25424429293521955   -0.04844740922554378   -0.014475397606680753
-0.25424429293521955   -0.04844740922554378   -0.014475397606680753
-0.23591286560125146   0.006326662213540404   -0.00401295481876471
-0.23591286560125146   0.006326662213540404   -0.00401295481876471
-0.23591286560125146   0.006326662213540404   -0.00401295481876471
-0.23591286560125146   0.006326662213540404   -0.00401295481876471
-0.2678981446423529   -0.05087260334156651   -0.01286652188754494
-0.2678981446423529   -0.05087260334156651   -0.01286652188754494
-0.2678981446423529   -0.05087260334156651   -0.01286652188754494
-0.2678981446423529   -0.05087260334156651   -0.01286652188754494
-0.2570345224514503   -0.00940773667827699   0.0033321858712511074
-0.2570345224514503   -0.00940773667827699   0.0033321858712511074
-0.2570345224514503   -0.00940773667827699   0.0033321858712511074
-0.2570345224514503   -0.00940773667827699   0.0033321858712511074
-0.2508156543624191   -0.05479483821356671   -0.00790901325815022
-0.2508156543624191   -0.05479483821356671   -0.00790901325815022
-0.2508156543624191   -0.05479483821356671   -0.00790901325815022
-0.2508156543624191   -0.05479483821356671   -0.00790901325815022
-0.25273788470424813   -0.02805101577649752   -0.005679258292633813
-0.25273788470424813   -0.02805101577649752   -0.005679258292633813
-0.25273788470424813   -0.02805101577649752   -0.005679258292633813
-0.25273788470424813   -0.02805101577649752   -0.005679258292633813
-0.23960092718662457   -0.006594581598425783   -3.563399431864844e-05
-0.23960092718662457   -0.006594581598425783   -3.563399431864844e-05
-0.23960092718662457   -0.006594581598425783   -3.563399431864844e-05
-0.23960092718662457   -0.006594581598425783   -3.563399431864844e-05
-0.2696652959440438   -0.05902403961021685   -0.010205378659776203
-0.2696652959440438   -0.05902403961021685   -0.010205378659776203
-0.2696652959440438   -0.05902403961021685   -0.010205378659776203
-0.2696652959440438   -0.05902403961021685   -0.010205378659776203
-0.2600518355384771   -0.022432771388592967   0.007173601575515248
-0.2600518355384771   -0.022432771388592967   0.007173601575515248
-0.2600518355384771   -0.022432771388592967   0.007173601575515248
-0.2600518355384771   -0.022432771388592967   0.007173601575515248
-0.2547197514519682   -0.06505448536976186   -0.005435088273399986
-0.2547197514519682   -0.06505448536976186   -0.005435088273399986
-0.2547197514519682   -0.06505448536976186   -0.005435088273399986
-0.2547197514519682   -0.06505448536976186   -0.005435088273399986
-0.2559352034583681   -0.03796670819262164   -0.01085074389692077
-0.2559352034583681   -0.03796670819262164   -0.01085074389692077
-0.2559352034583681   -0.03796670819262164   -0.01085074389692077
-0.2559352034583681   -0.03796670819262164   -0.01085074389692077
-0.24382427717822108   -0.019853683738774483   0.00384148146435169
-0.24382427717822108   -0.019853683738774483   0.00384148146435169
-0.24382427717822108   -0.019853683738774483   0.00384148146435169
-0.24382427717822108   -0.019853683738774483   0.00384148146435169
-0.2725292291979556   -0.06921549240530991   -0.008430645705168181
-0.2725292291979556   -0.06921549240530991   -0.008430645705168181
-0.2725292291979556   -0.06921549240530991   -0.008430645705168181
-0.2725292291979556   -0.06921549240530991   -0.008430645705168181
-0.2625208221160238   -0.03467168901613793   0.010934044877855835
-0.2625208221160238   -0.03467168901613793   0.010934044877855835
-0.2625208221160238   -0.03467168901613793   0.010934044877855835
-0.2625208221160238   -0.03467168901613793   0.010934044877855835
-0.2576486577558165   -0.07488016418661202   -0.001625044679897371
-0.2576486577558165   -0.07488016418661202   -0.001625044679897371
-0.2576486577558165   -0.07488016418661202   -0.001625044679897371
-0.2576486577558165   -0.07488016418661202   -0.001625044679897371
-0.2597362800083262   -0.04833367673097417   -0.016531807808902572
-0.2597362800083262   -0.04833367673097417   -0.016531807808902572
-0.2597362800083262   -0.04833367673097417   -0.016531807808902572
-0.2597362800083262   -0.04833367673097417   -0.016531807808902572
-0.24735637296268106   0.02651697505382271   0.012452758115424897
-0.24735637296268106   0.02651697505382271   0.012452758115424897
-0.24735637296268106   0.02651697505382271   0.012452758115424897
-0.24735637296268106   0.02651697505382271   0.012452758115424897
-0.29322398028072927   -0.0380674588918154   -0.01796855413058399
-0.29322398028072927   -0.0380674588918154   -0.01796855413058399
-0.29322398028072927   -0.0380674588918154   -0.01796855413058399
-0.29322398028072927   -0.0380674588918154   -0.01796855413058399
-0.27752802281378536   0.007780969880578227   0.017211644513860324
-0.27752802281378536   0.007780969880578227   0.017211644513860324
-0.27752802281378536   0.007780969880578227   0.017211644513860324
-0.27752802281378536   0.007780969880578227   0.017211644513860324
-0.26644472469741565   -0.04227103733884003   -0.010855524698012282
-0.26644472469741565   -0.04227103733884003   -0.010855524698012282
-0.26644472469741565   -0.04227103733884003   -0.010855524698012282
-0.26644472469741565   -0.04227103733884003   -0.010855524698012282
-0.27110079663285397   -0.011229073270868965   -0.0033907587392365025
-0.27110079663285397   -0.011229073270868965   -0.0033907587392365025
-0.27110079663285397   -0.011229073270868965   -0.0033907587392365025
-0.27110079663285397   -0.011229073270868965   -0.0033907587392365025
-0.2499341335163032   0.013118914675867899   0.016307479192841912
-0.2499341335163032   0.013118914675867899   0.016307479192841912
-0.2499341335163032   0.013118914675867899   0.016307479192841912
-0.2499341335163032   0.013118914675867899   0.016307479192841912
-0.29592105066978663   -0.04949141880901856   -0.017481106076549294
-0.29592105066978663   -0.04949141880901856   -0.017481106076549294
-0.29592105066978663   -0.04949141880901856   -0.017481106076549294
-0.29592105066978663   -0.04949141880901856   -0.017481106076549294
-0.28271297474029494   -0.004947084283942929   0.019521722827688395
-0.28271297474029494   -0.004947084283942929   0.019521722827688395
-0.28271297474029494   -0.004947084283942929   0.019521722827688395
-0.28271297474029494   -0.004947084283942929   0.019521722827688395
-0.26907946939771116   -0.05176161140065445   -0.008635727708597142
-0.26907946939771116   -0.05176161140065445   -0.008635727708597142
-0.26907946939771116   -0.05176161140065445   -0.008635727708597142
-0.26907946939771116   -0.05176161140065445   -0.008635727708597142
-0.27374123086431074   -0.021983017562860835   -0.009458020458726174
-0.27374123086431074   -0.021983017562860835   -0.009458020458726174
-0.27374123086431074   -0.021983017562860835   -0.009458020458726174
-0.27374123086431074   -0.021983017562860835   -0.009458020458726174
-0.2527600814168277   0.001149224978535715   0.0200503758166297
-0.2527600814168277   0.001149224978535715   0.0200503758166297
-0.2527600814168277   0.001149224978535715   0.0200503758166297
-0.2527600814168277   0.001149224978535715   0.0200503758166297
-0.3006631506329635   -0.05948870857492078   -0.01568753234467643
-0.3006631506329635   -0.05948870857492078   -0.01568753234467643
-0.3006631506329635   -0.05948870857492078   -0.01568753234467643
-0.3006631506329635   -0.05948870857492078   -0.01568753234467643
-0.28616001566479765   -0.01716554705583255   0.02381321942789811
-0.28616001566479765   -0.01716554705583255   0.02381321942789811
-0.28616001566479765   -0.01716554705583255   0.02381321942789811
-0.28616001566479765   -0.01716554705583255   0.02381321942789811
-0.27135539858057833   -0.06129812113368999   -0.006612405327368745
-0.27135539858057833   -0.06129812113368999   -0.006612405327368745
-0.27135539858057833   -0.06129812113368999   -0.006612405327368745
-0.27135539858057833   -0.06129812113368999   -0.006612405327368745
-0.27833360648485617   -0.03213293141350257   -0.015341896594175229
-0.27833360648485617   -0.03213293141350257   -0.015341896594175229
-0.27833360648485617   -0.03213293141350257   -0.015341896594175229
-0.27833360648485617   -0.03213293141350257   -0.015341896594175229
-0.26942869759265786   0.03805423736332313   0.02488616305463481
-0.26942869759265786   0.03805423736332313   0.02488616305463481
-0.26942869759265786   0.03805423736332313   0.02488616305463481
-0.26942869759265786   0.03805423736332313   0.02488616305463481
-0.2890096106074886   -0.02308532565934654   -0.02600516303155115
-0.2890096106074886   -0.02308532565934654   -0.02600516303155115
-0.2890096106074886   -0.02308532565934654   -0.02600516303155115
-0.2890096106074886   -0.02308532565934654   -0.02600516303155115
-0.2826423153304339   0.02688325601934457   0.02766226106062347
-0.2826423153304339   0.02688325601934457   0.02766226106062347
-0.2826423153304339   0.02688325601934457   0.02766226106062347
-0.2826423153304339   0.02688325601934457   0.02766226106062347
-0.2915780098669739   -0.02935954383502217   -0.015897777036474367
-0.2915780098669739   -0.02935954383502217   -0.015897777036474367
-0.2915780098669739   -0.02935954383502217   -0.015897777036474367
-0.2915780098669739   -0.02935954383502217   -0.015897777036474367
-0.27350123914002   0.006739465820819822   0.0011447185123886552
-0.27350123914002   0.006739465820819822   0.0011447185123886552
-0.27350123914002   0.006739465820819822   0.0011447185123886552
-0.27350123914002   0.006739465820819822   0.0011447185123886552
-0.2708814392402344   0.029456737898080787   0.028768794364105062
-0.2708814392402344   0.029456737898080787   0.028768794364105062
-0.2708814392402344   0.029456737898080787   0.028768794364105062
-0.2708814392402344   0.029456737898080787   0.028768794364105062
-0.30487753239522086   -0.03347167215181095   -0.02315889609215596
-0.30487753239522086   -0.03347167215181095   -0.02315889609215596
-0.30487753239522086   -0.03347167215181095   -0.02315889609215596
-0.30487753239522086   -0.03347167215181095   -0.02315889609215596
-0.2950875551855251   0.019738522145077833   0.03560180338192283
-0.2950875551855251   0.019738522145077833   0.03560180338192283
-0.2950875551855251   0.019738522145077833   0.03560180338192283
-0.2950875551855251   0.019738522145077833   0.03560180338192283
-0.2955168199320591   -0.03495217603989581   -0.014492411375179228
-0.2955168199320591   -0.03495217603989581   -0.014492411375179228
-0.2955168199320591   -0.03495217603989581   -0.014492411375179228
-0.2955168199320591   -0.03495217603989581   -0.014492411375179228
-0.2869185649883111   -0.0019101476561298458   -0.006038232941149586
-0.2869185649883111   -0.0019101476561298458   -0.006038232941149586
-0.2869185649883111   -0.0019101476561298458   -0.006038232941149586
-0.2869185649883111   -0.0019101476561298458   -0.006038232941149586
-0.2739993348106521   0.023720310985048523   0.03442252720690332
-0.2739993348106521   0.023720310985048523   0.03442252720690332
-0.2739993348106521   0.023720310985048523   0.03442252720690332
-0.2739993348106521   0.023720310985048523   0.03442252720690332
-0.3186038563520207   -0.040932780924956516   -0.021308399380521034
-0.3186038563520207   -0.040932780924956516   -0.021308399380521034
-0.3186038563520207   -0.040932780924956516   -0.021308399380521034
-0.3186038563520207   -0.040932780924956516   -0.021308399380521034
-0.3169525000776382   0.0014885916101278485   0.03803359962873055
-0.3169525000776382   0.0014885916101278485   0.03803359962873055
-0.3169525000776382   0.0014885916101278485   0.03803359962873055
-0.3169525000776382   0.0014885916101278485   0.03803359962873055
-0.29911785377611455   -0.045550655771823934   -0.012590862412687361
-0.29911785377611455   -0.045550655771823934   -0.012590862412687361
-0.29911785377611455   -0.045550655771823934   -0.012590862412687361
-0.29911785377611455   -0.045550655771823934   -0.012590862412687361
-0.293275347144362   -0.00988252717837125   -0.012501934157970875
-0.293275347144362   -0.00988252717837125   -0.012501934157970875
-0.293275347144362   -0.00988252717837125   -0.012501934157970875
-0.293275347144362   -0.00988252717837125   -0.012501934157970875
-0.5729878954860569   -0.05241654719555798   -0.054387124380005675
-0.5729878954860569   -0.05241654719555798   -0.054387124380005675
-0.5729878954860569   -0.05241654719555798   -0.054387124380005675
-0.5729878954860569   -0.05241654719555798   -0.054387124380005675
-0.3641780391493827   0.03082688452412226   0.012799503109669378
-0.3641780391493827   0.03082688452412226   0.012799503109669378
-0.3641780391493827   0.03082688452412226   0.012799503109669378
-0.3641780391493827   0.03082688452412226   0.012799503109669378
-0.38248960079178584   -0.024328676409615183   -0.024326548090794396
-0.38248960079178584   -0.024328676409615183   -0.024326548090794396
-0.38248960079178584   -0.024328676409615183   -0.024326548090794396
-0.38248960079178584   -0.024328676409615183   -0.024326548090794396
-0.6095346649156846   -0.069022753062532   0.060796621426709364
-0.6095346649156846   -0.069022753062532   0.060796621426709364
-0.6095346649156846   -0.069022753062532   0.060796621426709364
-0.6095346649156846   -0.069022753062532   0.060796621426709364
-0.443297016039589   -0.016993423613238898   0.059040660852693286
-0.443297016039589   -0.016993423613238898   0.059040660852693286
-0.443297016039589   -0.016993423613238898   0.059040660852693286
-0.443297016039589   -0.016993423613238898   0.059040660852693286
-0.6313095174839938   -0.0772061908544755   -0.03989420362288803
-0.6313095174839938   -0.0772061908544755   -0.03989420362288803
-0.6313095174839938   -0.0772061908544755   -0.03989420362288803
-0.6313095174839938   -0.0772061908544755   -0.03989420362288803
-0.3760386919598663   -0.03146918235406042   0.015068502013248823
-0.3760386919598663   -0.03146918235406042   0.015068502013248823
-0.3760386919598663   -0.03146918235406042   0.015068502013248823
-0.3760386919598663   -0.03146918235406042   0.015068502013248823
-0.3884748907987651   -0.0352224414507909   -0.017509957757164817
-0.3884748907987651   -0.0352224414507909   -0.017509957757164817
-0.3884748907987651   -0.0352224414507909   -0.017509957757164817
-0.3884748907987651   -0.0352224414507909   -0.017509957757164817
-0.6291037466733843   -0.09639815503560248   0.001408978404340025
-0.6291037466733843   -0.09639815503560248   0.001408978404340025
-0.6291037466733843   -0.09639815503560248   0.001408978404340025
-0.6291037466733843   -0.09639815503560248   0.001408978404340025
-0.4910420444022824   -0.05816321300996323   0.013674598575310244
-0.4910420444022824   -0.05816321300996323   0.013674598575310244
-0.4910420444022824   -0.05816321300996323   0.013674598575310244
-0.4910420444022824   -0.05816321300996323   0.013674598575310244
-0.633993072557444   -0.08725937288450408   -0.032176433167051786
-0.633993072557444   -0.08725937288450408   -0.032176433167051786
-0.633993072557444   -0.08725937288450408   -0.032176433167051786
-0.633993072557444   -0.08725937288450408   -0.032176433167051786
-0.3882161817911411   -0.04899184047832485   -0.0024470136915149543
-0.3882161817911411   -0.04899184047832485   -0.0024470136915149543
-0.3882161817911411   -0.04899184047832485   -0.0024470136915149543
-0.3882161817911411   -0.04899184047832485   -0.0024470136915149543
-0.3888431763640344   -0.061544221640456837   -0.012782626225477323
-0.3888431763640344   -0.061544221640456837   -0.012782626225477323
-0.3888431763640344   -0.061544221640456837   -0.012782626225477323
-0.3888431763640344   -0.061544221640456837   -0.012782626225477323
-0.6443650437848789   -0.14713910253541787   0.009522598246358214
-0.6443650437848789   -0.14713910253541787   0.009522598246358214
-0.6443650437848789   -0.14713910253541787   0.009522598246358214
-0.6443650437848789   -0.14713910253541787   0.009522598246358214
-0.4906435152976673   -0.07992572359100873   0.0010666919024402881
-0.4906435152976673   -0.07992572359100873   0.0010666919024402881
-0.4906435152976673   -0.07992572359100873   0.0010666919024402881
-0.4906435152976673   -0.07992572359100873   0.0010666919024402881
-0.3932373784939361   -0.06671661728305879   -0.03495369180591307
-0.3932373784939361   -0.06671661728305879   -0.03495369180591307
-0.3932373784939361   -0.06671661728305879   -0.03495369180591307
-0.3932373784939361   -0.06671661728305879   -0.03495369180591307
-0.2707548826751668   -0.17564520036500167   -0.032898884273287736
-0.2707548826751668   -0.17564520036500167   -0.032898884273287736
-0.2707548826751668   -0.17564520036500167   -0.032898884273287736
-0.2707548826751668   -0.17564520036500167   -0.032898884273287736
-0.23778189107172326   -0.03894787009961144   -0.002132866977220006
-0.23778189107172326   -0.03894787009961144   -0.002132866977220006
-0.23778189107172326   -0.03894787009961144   -0.002132866977220006
-0.23778189107172326   -0.03894787009961144   -0.002132866977220006
-0.4182647676563869   -0.18612319943904915   -0.04140785938436575
-0.4182647676563869   -0.18612319943904915   -0.04140785938436575
-0.4182647676563869   -0.18612319943904915   -0.04140785938436575
-0.4182647676563869   -0.18612319943904915   -0.04140785938436575
-0.32619482692610696   -0.12398838548345242   -0.009525781729484501
-0.32619482692610696   -0.12398838548345242   -0.009525781729484501
-0.32619482692610696   -0.12398838548345242   -0.009525781729484501
-0.32619482692610696   -0.12398838548345242   -0.009525781729484501
-0.39299156482330383   -0.07483020032173586   -0.026334844336261553
-0.39299156482330383   -0.07483020032173586   -0.026334844336261553
-0.39299156482330383   -0.07483020032173586   -0.026334844336261553
-0.39299156482330383   -0.07483020032173586   -0.026334844336261553
-0.26464525685858487   -0.15183103217070323   -0.023566533840438175
-0.26464525685858487   -0.15183103217070323   -0.023566533840438175
-0.26464525685858487   -0.15183103217070323   -0.023566533840438175
-0.26464525685858487   -0.15183103217070323   -0.023566533840438175
-0.24057341671072094   -0.050446715905702905   0.0003157325676612468
-0.24057341671072094   -0.050446715905702905   0.0003157325676612468
-0.24057341671072094   -0.050446715905702905   0.0003157325676612468
-0.24057341671072094   -0.050446715905702905   0.0003157325676612468
-0.4198435394718854   -0.18514750962934845   -0.02442813294421261
-0.4198435394718854   -0.18514750962934845   -0.02442813294421261
-0.4198435394718854   -0.18514750962934845   -0.02442813294421261
-0.4198435394718854   -0.18514750962934845   -0.02442813294421261
-0.3226315142136358   -0.11621907555679198   -0.010121550518459498
-0.3226315142136358   -0.11621907555679198   -0.010121550518459498
-0.3226315142136358   -0.11621907555679198   -0.010121550518459498
-0.3226315142136358   -0.11621907555679198   -0.010121550518459498
-0.39911499153621277   -0.0861706316361436   -0.019762271259050338
-0.39911499153621277   -0.0861706316361436   -0.019762271259050338
-0.39911499153621277   -0.0861706316361436   -0.019762271259050338
-0.39911499153621277   -0.0861706316361436   -0.019762271259050338
-0.2646041957380706   -0.15272582499058449   -0.01755905348420749
-0.2646041957380706   -0.15272582499058449   -0.01755905348420749
-0.2646041957380706   -0.15272582499058449   -0.01755905348420749
-0.2646041957380706   -0.15272582499058449   -0.01755905348420749
-0.24057884072819338   -0.06474734139209273   0.0038154832845311137
-0.24057884072819338   -0.06474734139209273   0.0038154832845311137
-0.24057884072819338   -0.06474734139209273   0.0038154832845311137
-0.24057884072819338   -0.06474734139209273   0.0038154832845311137
-0.4188877668818448   -0.18813903153416678   -0.03641076892082408
-0.4188877668818448   -0.18813903153416678   -0.03641076892082408
-0.4188877668818448   -0.18813903153416678   -0.03641076892082408
-0.4188877668818448   -0.18813903153416678   -0.03641076892082408
-0.32759239610364305   -0.12498931682906583   -0.018811791115933597
-0.32759239610364305   -0.12498931682906583   -0.018811791115933597
-0.32759239610364305   -0.12498931682906583   -0.018811791115933597
-0.32759239610364305   -0.12498931682906583   -0.018811791115933597
-0.2382474577134932   -0.042975461286891566   -0.003031498543029927
-0.2382474577134932   -0.042975461286891566   -0.003031498543029927
-0.2382474577134932   -0.042975461286891566   -0.003031498543029927
-0.2382474577134932   -0.042975461286891566   -0.003031498543029927
-0.20039177409210154   -0.1345027933599151   -0.023217495492604347
-0.20039177409210154   -0.1345027933599151   -0.023217495492604347
-0.20039177409210154   -0.1345027933599151   -0.023217495492604347
-0.20039177409210154   -0.1345027933599151   -0.023217495492604347
-0.17272022084648322   -0.03575545015704275   0.00919249350853375
-0.17272022084648322   -0.03575545015704275   0.00919249350853375
-0.17272022084648322   -0.03575545015704275   0.00919249350853375
-0.17272022084648322   -0.03575545015704275   0.00919249350853375
-0.26390489961245434   -0.14607994349395304   -0.025615836286535673
-0.26390489961245434   -0.14607994349395304   -0.025615836286535673
-0.26390489961245434   -0.14607994349395304   -0.025615836286535673
-0.26390489961245434   -0.14607994349395304   -0.025615836286535673
-0.2178593853176635   -0.09106458407131046   -0.010701964065685668
-0.2178593853176635   -0.09106458407131046   -0.010701964065685668
-0.2178593853176635   -0.09106458407131046   -0.010701964065685668
-0.2178593853176635   -0.09106458407131046   -0.010701964065685668
-0.23966475561775918   -0.05090155647867277   0.0004064966716596476
-0.23966475561775918   -0.05090155647867277   0.0004064966716596476
-0.23966475561775918   -0.05090155647867277   0.0004064966716596476
-0.23966475561775918   -0.05090155647867277   0.0004064966716596476
-0.1983736488843908   -0.13234712121553482   -0.022482975622508138
-0.1983736488843908   -0.13234712121553482   -0.022482975622508138
-0.1983736488843908   -0.13234712121553482   -0.022482975622508138
-0.1983736488843908   -0.13234712121553482   -0.022482975622508138
-0.17285356127103177   -0.04521028587450067   0.011919719021969576
-0.17285356127103177   -0.04521028587450067   0.011919719021969576
-0.17285356127103177   -0.04521028587450067   0.011919719021969576
-0.17285356127103177   -0.04521028587450067   0.011919719021969576
-0.2648083591824481   -0.14839395652134116   -0.02291173917533849
-0.2648083591824481   -0.14839395652134116   -0.02291173917533849
-0.2648083591824481   -0.14839395652134116   -0.02291173917533849
-0.2648083591824481   -0.14839395652134116   -0.02291173917533849
-0.2175317432056972   -0.09461072030051892   -0.013889574166915004
-0.2175317432056972   -0.09461072030051892   -0.013889574166915004
-0.2175317432056972   -0.09461072030051892   -0.013889574166915004
-0.2175317432056972   -0.09461072030051892   -0.013889574166915004
-0.2417587994134849   -0.06048904723146236   0.004431150379598882
-0.2417587994134849   -0.06048904723146236   0.004431150379598882
-0.2417587994134849   -0.06048904723146236   0.004431150379598882
-0.2417587994134849   -0.06048904723146236   0.004431150379598882
-0.19668148810884187   -0.13389356223322313   -0.018536638808354555
-0.19668148810884187   -0.13389356223322313   -0.018536638808354555
-0.19668148810884187   -0.13389356223322313   -0.018536638808354555
-0.19668148810884187   -0.13389356223322313   -0.018536638808354555
-0.17089972147393098   -0.0542267678438737   0.014893000751923988
-0.17089972147393098   -0.0542267678438737   0.014893000751923988
-0.17089972147393098   -0.0542267678438737   0.014893000751923988
-0.17089972147393098   -0.0542267678438737   0.014893000751923988
-0.26174204045244265   -0.1502553327498692   -0.0164925239789389
-0.26174204045244265   -0.1502553327498692   -0.0164925239789389
-0.26174204045244265   -0.1502553327498692   -0.0164925239789389
-0.26174204045244265   -0.1502553327498692   -0.0164925239789389
-0.21696126143780675   -0.0992954757161868   -0.01611348962039483
-0.21696126143780675   -0.0992954757161868   -0.01611348962039483
-0.21696126143780675   -0.0992954757161868   -0.01611348962039483
-0.21696126143780675   -0.0992954757161868   -0.01611348962039483
-0.16675894155186233   -0.005909971291828107   0.016353845140500856
-0.16675894155186233   -0.005909971291828107   0.016353845140500856
-0.16675894155186233   -0.005909971291828107   0.016353845140500856
-0.16675894155186233   -0.005909971291828107   0.016353845140500856
-0.15822698814774358   -0.07130964610870391   -0.013949120478102596
-0.15822698814774358   -0.07130964610870391   -0.013949120478102596
-0.15822698814774358   -0.07130964610870391   -0.013949120478102596
-0.15822698814774358   -0.07130964610870391   -0.013949120478102596
-0.13650238786404983   -0.010326681048272328   0.018923919921460423
-0.13650238786404983   -0.010326681048272328   0.018923919921460423
-0.13650238786404983   -0.010326681048272328   0.018923919921460423
-0.13650238786404983   -0.010326681048272328   0.018923919921460423
-0.18583390340997935   -0.08227167231816046   -0.009859697147829126
-0.18583390340997935   -0.08227167231816046   -0.009859697147829126
-0.18583390340997935   -0.08227167231816046   -0.009859697147829126
-0.18583390340997935   -0.08227167231816046   -0.009859697147829126
-0.16236629820186624   -0.0420532423757642   -0.005810692494432079
-0.16236629820186624   -0.0420532423757642   -0.005810692494432079
-0.16236629820186624   -0.0420532423757642   -0.005810692494432079
-0.16236629820186624   -0.0420532423757642   -0.005810692494432079
-0.16691917140994564   -0.016421969695756468   0.018864260229935505
-0.16691917140994564   -0.016421969695756468   0.018864260229935505
-0.16691917140994564   -0.016421969695756468   0.018864260229935505
-0.16691917140994564   -0.016421969695756468   0.018864260229935505
-0.1569264304028449   -0.07768569420943769   -0.015837279611349682
-0.1569264304028449   -0.07768569420943769   -0.015837279611349682
-0.1569264304028449   -0.07768569420943769   -0.015837279611349682
-0.1569264304028449   -0.07768569420943769   -0.015837279611349682
-0.13676856127392006   -0.019502863668011742   0.020347102830825387
-0.13676856127392006   -0.019502863668011742   0.020347102830825387
-0.13676856127392006   -0.019502863668011742   0.020347102830825387
-0.13676856127392006   -0.019502863668011742   0.020347102830825387
-0.1858471238172268   -0.08729177768128143   -0.010966601902224732
-0.1858471238172268   -0.08729177768128143   -0.010966601902224732
-0.1858471238172268   -0.08729177768128143   -0.010966601902224732
-0.1858471238172268   -0.08729177768128143   -0.010966601902224732
-0.1617192858481266   -0.04941473669628392   -0.009870347857558654
-0.1617192858481266   -0.04941473669628392   -0.009870347857558654
-0.1617192858481266   -0.04941473669628392   -0.009870347857558654
-0.1617192858481266   -0.04941473669628392   -0.009870347857558654
-0.16696724026833532   -0.02531984366739197   0.021460881828339474
-0.16696724026833532   -0.02531984366739197   0.021460881828339474
-0.16696724026833532   -0.02531984366739197   0.021460881828339474
-0.16696724026833532   -0.02531984366739197   0.021460881828339474
-0.1565628058257721   -0.08238915868486237   -0.01573782491158411
-0.1565628058257721   -0.08238915868486237   -0.01573782491158411
-0.1565628058257721   -0.08238915868486237   -0.01573782491158411
-0.1565628058257721   -0.08238915868486237   -0.01573782491158411
-0.1356734663051135   -0.028122525381195564   0.02358364115963852
-0.1356734663051135   -0.028122525381195564   0.02358364115963852
-0.1356734663051135   -0.028122525381195564   0.02358364115963852
-0.1356734663051135   -0.028122525381195564   0.02358364115963852
-0.18299017017095534   -0.09230528983578218   -0.007480720741289226
-0.18299017017095534   -0.09230528983578218   -0.007480720741289226
-0.18299017017095534   -0.09230528983578218   -0.007480720741289226
-0.18299017017095534   -0.09230528983578218   -0.007480720741289226
-0.1613115352726119   -0.05576076473178337   -0.012703853154886143
-0.1613115352726119   -0.05576076473178337   -0.012703853154886143
-0.1613115352726119   -0.05576076473178337   -0.012703853154886143
-0.1613115352726119   -0.05576076473178337   -0.012703853154886143
-0.13235932681920634   0.018551393096496727   0.02552814695938293
-0.13235932681920634   0.018551393096496727   0.02552814695938293
-0.13235932681920634   0.018551393096496727   0.02552814695938293
-0.13235932681920634   0.018551393096496727   0.02552814695938293
-0.0886949746956715   -0.02353366872173448   -0.008616205821127997
-0.0886949746956715   -0.02353366872173448   -0.008616205821127997
-0.0886949746956715   -0.02353366872173448   -0.008616205821127997
-0.0886949746956715   -0.02353366872173448   -0.008616205821127997
-0.07762462893121225   0.021654653590142348   0.0252198291536019
-0.07762462893121225   0.021654653590142348   0.0252198291536019
-0.07762462893121225   0.021654653590142348   0.0252198291536019
-0.07762462893121225   0.021654653590142348   0.0252198291536019
-0.14628575046143827   -0.03585052532887778   -0.004469048784876402
-0.14628575046143827   -0.03585052532887778   -0.004469048784876402
-0.14628575046143827   -0.03585052532887778   -0.004469048784876402
-0.14628575046143827   -0.03585052532887778   -0.004469048784876402
-0.10968338844043438   -0.0023164548067642864   -0.004568352991199714
-0.10968338844043438   -0.0023164548067642864   -0.004568352991199714
-0.10968338844043438   -0.0023164548067642864   -0.004568352991199714
-0.10968338844043438   -0.0023164548067642864   -0.004568352991199714
-0.13031953921940848   0.011645001767553953   0.027866480328840842
-0.13031953921940848   0.011645001767553953   0.027866480328840842
-0.13031953921940848   0.011645001767553953   0.027866480328840842
-0.13031953921940848   0.011645001767553953   0.027866480328840842
-0.09375084708025072   -0.02600088041329551   -0.007755727588152592
-0.09375084708025072   -0.02600088041329551   -0.007755727588152592
-0.09375084708025072   -0.02600088041329551   -0.007755727588152592
-0.09375084708025072   -0.02600088041329551   -0.007755727588152592
-0.08111732340286101   0.017170522466995082   0.03172158463007722
-0.08111732340286101   0.017170522466995082   0.03172158463007722
-0.08111732340286101   0.017170522466995082   0.03172158463007722
-0.08111732340286101   0.017170522466995082   0.03172158463007722
-0.14571124664284535   -0.038176736386958766   -0.0056924512948540885
-0.14571124664284535   -0.038176736386958766   -0.0056924512948540885
-0.14571124664284535   -0.038176736386958766   -0.0056924512948540885
-0.14571124664284535   -0.038176736386958766   -0.0056924512948540885
-0.11304158618605872   -0.0072109370089136135   -0.006506901413371642
-0.11304158618605872   -0.0072109370089136135   -0.006506901413371642
-0.11304158618605872   -0.0072109370089136135   -0.006506901413371642
-0.11304158618605872   -0.0072109370089136135   -0.006506901413371642
-0.12898809075207834   0.007667808687947961   0.03207878308407426
-0.12898809075207834   0.007667808687947961   0.03207878308407426
-0.12898809075207834   0.007667808687947961   0.03207878308407426
-0.12898809075207834   0.007667808687947961   0.03207878308407426
-0.09898550310573338   -0.02981904642001828   -0.010629744997263624
-0.09898550310573338   -0.02981904642001828   -0.010629744997263624
-0.09898550310573338   -0.02981904642001828   -0.010629744997263624
-0.09898550310573338   -0.02981904642001828   -0.010629744997263624
-0.09277850377912687   0.004837533514500914   0.03301073402194922
-0.09277850377912687   0.004837533514500914   0.03301073402194922
-0.09277850377912687   0.004837533514500914   0.03301073402194922
-0.09277850377912687   0.004837533514500914   0.03301073402194922
-0.14377706184674657   -0.04029501462576303   -0.004761847303959284
-0.14377706184674657   -0.04029501462576303   -0.004761847303959284
-0.14377706184674657   -0.04029501462576303   -0.004761847303959284
-0.14377706184674657   -0.04029501462576303   -0.004761847303959284
-0.11469492304406426   -0.010770772235814099   -0.009610578692137819
-0.11469492304406426   -0.010770772235814099   -0.009610578692137819
-0.11469492304406426   -0.010770772235814099   -0.009610578692137819
-0.11469492304406426   -0.010770772235814099   -0.009610578692137819
-1.3560641876245874   -0.19276165863892225   -0.11325706423034848
-1.3560641876245874   -0.19276165863892225   -0.11325706423034848
-1.3560641876245874   -0.19276165863892225   -0.11325706423034848
-1.3560641876245874   -0.19276165863892225   -0.11325706423034848
-0.47144585406028494   -0.7483885614937463   -0.08852096491573143
-0.47144585406028494   -0.7483885614937463   -0.08852096491573143
-0.47144585406028494   -0.7483885614937463   -0.08852096491573143
-0.47144585406028494   -0.7483885614937463   -0.08852096491573143
-0.3634222993725031   -0.03187765563249308   0.00040974303372229987
-0.3634222993725031   -0.03187765563249308   0.00040974303372229987
-0.3634222993725031   -0.03187765563249308   0.00040974303372229987
-0.3634222993725031   -0.03187765563249308   0.00040974303372229987
-1.4497223779668094   -0.8782537206691985   -0.4655952197272016
-1.4497223779668094   -0.8782537206691985   -0.4655952197272016
-1.4497223779668094   -0.8782537206691985   -0.4655952197272016
-1.4497223779668094   -0.8782537206691985   -0.4655952197272016
-0.8873797789924072   -0.43671400485924095   -0.06366156106835207
-0.8873797789924072   -0.43671400485924095   -0.06366156106835207
-0.8873797789924072   -0.43671400485924095   -0.06366156106835207
-0.8873797789924072   -0.43671400485924095   -0.06366156106835207
-1.2601600403246414   -0.24209550238898267   -0.15394174979658726
-1.2601600403246414   -0.24209550238898267   -0.15394174979658726
-1.2601600403246414   -0.24209550238898267   -0.15394174979658726
-1.2601600403246414   -0.24209550238898267   -0.15394174979658726
-0.5093865911385667   -0.6244378280366056   -0.1368515433924802
-0.5093865911385667   -0.6244378280366056   -0.1368515433924802
-0.5093865911385667   -0.6244378280366056   -0.1368515433924802
-0.5093865911385667   -0.6244378280366056   -0.1368515433924802
-0.3709933226596512   -0.04227456608843911   0.013916499126416149
-0.3709933226596512   -0.04227456608843911   0.013916499126416149
-0.3709933226596512   -0.04227456608843911   0.013916499126416149
-0.3709933226596512   -0.04227456608843911   0.013916499126416149
-1.356770303888788   -0.7842170731053646   -0.4281974753988305
-1.356770303888788   -0.7842170731053646   -0.4281974753988305
-1.356770303888788   -0.7842170731053646   -0.4281974753988305
-1.356770303888788   -0.7842170731053646   -0.4281974753988305
-0.835933536094264   -0.39405705347069103   0.03363556036597164
-0.835933536094264   -0.39405705347069103   0.03363556036597164
-0.835933536094264   -0.39405705347069103   0.03363556036597164
-0.835933536094264   -0.39405705347069103   0.03363556036597164
-1.1833848196175447   -0.23052799227908258   -0.11495913486890755
-1.1833848196175447   -0.23052799227908258   -0.11495913486890755
-1.1833848196175447   -0.23052799227908258   -0.11495913486890755
-1.1833848196175447   -0.23052799227908258   -0.11495913486890755
-0.49590833770627046   -0.5474931776900984   -0.10543996450501687
-0.49590833770627046   -0.5474931776900984   -0.10543996450501687
-0.49590833770627046   -0.5474931776900984   -0.10543996450501687
-0.49590833770627046   -0.5474931776900984   -0.10543996450501687
-0.4268925439216551   -0.11002698522545343   -0.022389315067043385
-0.4268925439216551   -0.11002698522545343   -0.022389315067043385
-0.4268925439216551   -0.11002698522545343   -0.022389315067043385
-0.4268925439216551   -0.11002698522545343   -0.022389315067043385
-1.2366924698052566   -0.6601282689333869   -0.37936414774772875
-1.2366924698052566   -0.6601282689333869   -0.37936414774772875
-1.2366924698052566   -0.6601282689333869   -0.37936414774772875
-1.2366924698052566   -0.6601282689333869   -0.37936414774772875
-0.7744769202331465   -0.3418290706545554   0.14361932470574257
-0.7744769202331465   -0.3418290706545554   0.14361932470574257
-0.7744769202331465   -0.3418290706545554   0.14361932470574257
-0.7744769202331465   -0.3418290706545554   0.14361932470574257
-0.3476945855705959   -0.19007000073469738   -0.02808318322633712
-0.3476945855705959   -0.19007000073469738   -0.02808318322633712
-0.3476945855705959   -0.19007000073469738   -0.02808318322633712
-0.3476945855705959   -0.19007000073469738   -0.02808318322633712
-0.16152374042386108   -0.23858562617887247   -0.03994593455701127
-0.16152374042386108   -0.23858562617887247   -0.03994593455701127
-0.16152374042386108   -0.23858562617887247   -0.03994593455701127
-0.16152374042386108   -0.23858562617887247   -0.03994593455701127
-0.14199904264093063   -0.12186689353934667   0.003607945098690387
-0.14199904264093063   -0.12186689353934667   0.003607945098690387
-0.14199904264093063   -0.12186689353934667   0.003607945098690387
-0.14199904264093063   -0.12186689353934667   0.003607945098690387
-0.4265409392976539   -0.34766570213338827   0.0006045899088663875
-0.4265409392976539   -0.34766570213338827   0.0006045899088663875
-0.4265409392976539   -0.34766570213338827   0.0006045899088663875
-0.4265409392976539   -0.34766570213338827   0.0006045899088663875
-0.22876307181049338   -0.16840617339500466   0.07356723199007298
-0.22876307181049338   -0.16840617339500466   0.07356723199007298
-0.22876307181049338   -0.16840617339500466   0.07356723199007298
-0.22876307181049338   -0.16840617339500466   0.07356723199007298
-0.39614818460162715   -0.17703148225008575   -0.018065856494308374
-0.39614818460162715   -0.17703148225008575   -0.018065856494308374
-0.39614818460162715   -0.17703148225008575   -0.018065856494308374
-0.39614818460162715   -0.17703148225008575   -0.018065856494308374
-0.18451505636112708   -0.3046243724468199   -0.026214644594818613
-0.18451505636112708   -0.3046243724468199   -0.026214644594818613
-0.18451505636112708   -0.3046243724468199   -0.026214644594818613
-0.18451505636112708   -0.3046243724468199   -0.026214644594818613
-0.1535932529532062   -0.12626021985605673   0.003758029403566829
-0.1535932529532062   -0.12626021985605673   0.003758029403566829
-0.1535932529532062   -0.12626021985605673   0.003758029403566829
-0.1535932529532062   -0.12626021985605673   0.003758029403566829
-0.44768420934459285   -0.3434908324669695   -0.0683216679197581
-0.44768420934459285   -0.3434908324669695   -0.0683216679197581
-0.44768420934459285   -0.3434908324669695   -0.0683216679197581
-0.44768420934459285   -0.3434908324669695   -0.0683216679197581
-0.27320583833388007   -0.21577654253545508   0.033382738613797945
-0.27320583833388007   -0.21577654253545508   0.033382738613797945
-0.27320583833388007   -0.21577654253545508   0.033382738613797945
-0.27320583833388007   -0.21577654253545508   0.033382738613797945
-0.4090515059590936   -0.18486106085816215   -0.03378792260107282
-0.4090515059590936   -0.18486106085816215   -0.03378792260107282
-0.4090515059590936   -0.18486106085816215   -0.03378792260107282
-0.4090515059590936   -0.18486106085816215   -0.03378792260107282
-0.19110649502053187   -0.28377053014669107   -0.026297870642427147
-0.19110649502053187   -0.28377053014669107   -0.026297870642427147
-0.19110649502053187   -0.28377053014669107   -0.026297870642427147
-0.19110649502053187   -0.28377053014669107   -0.026297870642427147
-0.1715428264564991   -0.13027938811551   0.005542507747121821
-0.1715428264564991   -0.13027938811551   0.005542507747121821
-0.1715428264564991   -0.13027938811551   0.005542507747121821
-0.1715428264564991   -0.13027938811551   0.005542507747121821
-0.47907400634777647   -0.3339576247731696   -0.05936598764993213
-0.47907400634777647   -0.3339576247731696   -0.05936598764993213
-0.47907400634777647   -0.3339576247731696   -0.05936598764993213
-0.47907400634777647   -0.3339576247731696   -0.05936598764993213
-0.2861557236948856   -0.20341709523528492   0.03527968137434195
-0.2861557236948856   -0.20341709523528492   0.03527968137434195
-0.2861557236948856   -0.20341709523528492   0.03527968137434195
-0.2861557236948856   -0.20341709523528492   0.03527968137434195
-0.126852644504157   -0.11348890380939833   0.008312822672034894
-0.126852644504157   -0.11348890380939833   0.008312822672034894
-0.126852644504157   -0.11348890380939833   0.008312822672034894
-0.126852644504157   -0.11348890380939833   0.008312822672034894
-0.07811249161805343   -0.07550421406609129   -0.01955601337666657
-0.07811249161805343   -0.07550421406609129   -0.01955601337666657
-0.07811249161805343   -0.07550421406609129   -0.01955601337666657
-0.07811249161805343   -0.07550421406609129   -0.01955601337666657
-0.07553733324359092   -0.10161715905526779   0.008330519538027131
-0.07553733324359092   -0.10161715905526779   0.008330519538027131
-0.07553733324359092   -0.10161715905526779   0.008330519538027131
-0.07553733324359092   -0.10161715905526779   0.008330519538027131
-0.14066347422286332   -0.10293695855773555   -0.008644147792584274
-0.14066347422286332   -0.10293695855773555   -0.008644147792584274
-0.14066347422286332   -0.10293695855773555   -0.008644147792584274
-0.14066347422286332   -0.10293695855773555   -0.008644147792584274
-0.08884751735596123   -0.0829366399503195   0.03693936571901768
-0.08884751735596123   -0.0829366399503195   0.03693936571901768
-0.08884751735596123   -0.0829366399503195   0.03693936571901768
-0.08884751735596123   -0.0829366399503195   0.03693936571901768
-0.13939891226664808   -0.11425603173444446   0.008997735165200936
-0.13939891226664808   -0.11425603173444446   0.008997735165200936
-0.13939891226664808   -0.11425603173444446   0.008997735165200936
-0.13939891226664808   -0.11425603173444446   0.008997735165200936
-0.07806535525939656   -0.0915615459381499   -0.014365203658122827
-0.07806535525939656   -0.0915615459381499   -0.014365203658122827
-0.07806535525939656   -0.0915615459381499   -0.014365203658122827
-0.07806535525939656   -0.0915615459381499   -0.014365203658122827
-0.07650672096466556   -0.10466595229355177   0.007426643745833565
-0.07650672096466556   -0.10466595229355177   0.007426643745833565
-0.07650672096466556   -0.10466595229355177   0.007426643745833565
-0.07650672096466556   -0.10466595229355177   0.007426643745833565
-0.14954961458892602   -0.11998943073339556   0.017705432102306604
-0.14954961458892602   -0.11998943073339556   0.017705432102306604
-0.14954961458892602   -0.11998943073339556   0.017705432102306604
-0.14954961458892602   -0.11998943073339556   0.017705432102306604
-0.09681433545487703   -0.09245350089608413   0.0311684018028174
-0.09681433545487703   -0.09245350089608413   0.0311684018028174
-0.09681433545487703   -0.09245350089608413   0.0311684018028174
-0.09681433545487703   -0.09245350089608413   0.0311684018028174
-0.1503650682330806   -0.11849600322231091   0.01213473637044522
-0.1503650682330806   -0.11849600322231091   0.01213473637044522
-0.1503650682330806   -0.11849600322231091   0.01213473637044522
-0.1503650682330806   -0.11849600322231091   0.01213473637044522
-0.08221523300725157   -0.11268334549137637   -0.013098523269271908
-0.08221523300725157   -0.11268334549137637   -0.013098523269271908
-0.08221523300725157   -0.11268334549137637   -0.013098523269271908
-0.08221523300725157   -0.11268334549137637   -0.013098523269271908
-0.07759290284114403   -0.10803650238901484   0.010452490214026618
-0.07759290284114403   -0.10803650238901484   0.010452490214026618
-0.07759290284114403   -0.10803650238901484   0.010452490214026618
-0.07759290284114403   -0.10803650238901484   0.010452490214026618
-0.17523273122384284   -0.14734782695946316   0.004161422754356353
-0.17523273122384284   -0.14734782695946316   0.004161422754356353
-0.17523273122384284   -0.14734782695946316   0.004161422754356353
-0.17523273122384284   -0.14734782695946316   0.004161422754356353
-0.10831949619538031   -0.10530214589010642   0.014554502419777064
-0.10831949619538031   -0.10530214589010642   0.014554502419777064
-0.10831949619538031   -0.10530214589010642   0.014554502419777064
-0.10831949619538031   -0.10530214589010642   0.014554502419777064
-0.06375410858437354   -0.04523242379606884   0.021964111521710447
-0.06375410858437354   -0.04523242379606884   0.021964111521710447
-0.06375410858437354   -0.04523242379606884   0.021964111521710447
-0.06375410858437354   -0.04523242379606884   0.021964111521710447
-0.04511270345307428   -0.0009272557984570853   -0.004416852421447466
-0.04511270345307428   -0.0009272557984570853   -0.004416852421447466
-0.04511270345307428   -0.0009272557984570853   -0.004416852421447466
-0.04511270345307428   -0.0009272557984570853   -0.004416852421447466
-0.0427834011164693   -0.04896804916657713   0.013607916316577524
-0.0427834011164693   -0.04896804916657713   0.013607916316577524
-0.0427834011164693   -0.04896804916657713   0.013607916316577524
-0.0427834011164693   -0.04896804916657713   0.013607916316577524
-0.059321275314867736   -0.009591185475681174   -0.002615164397947409
-0.059321275314867736   -0.009591185475681174   -0.002615164397947409
-0.059321275314867736   -0.009591185475681174   -0.002615164397947409
-0.059321275314867736   -0.009591185475681174   -0.002615164397947409
-0.0487478760614278   -0.025092064810075518   0.010892631464084514
-0.0487478760614278   -0.025092064810075518   0.010892631464084514
-0.0487478760614278   -0.025092064810075518   0.010892631464084514
-0.0487478760614278   -0.025092064810075518   0.010892631464084514
-0.06305327643602497   -0.05159739882473892   0.020731043345324204
-0.06305327643602497   -0.05159739882473892   0.020731043345324204
-0.06305327643602497   -0.05159739882473892   0.020731043345324204
-0.06305327643602497   -0.05159739882473892   0.020731043345324204
-0.037961246714732964   -0.005871682536940272   -0.005377678304377672
-0.037961246714732964   -0.005871682536940272   -0.005377678304377672
-0.037961246714732964   -0.005871682536940272   -0.005377678304377672
-0.037961246714732964   -0.005871682536940272   -0.005377678304377672
-0.039313290788258105   -0.05327832631703303   0.012566821890048558
-0.039313290788258105   -0.05327832631703303   0.012566821890048558
-0.039313290788258105   -0.05327832631703303   0.012566821890048558
-0.039313290788258105   -0.05327832631703303   0.012566821890048558
-0.059893044695112724   -0.018127079035264965   0.003956151835310929
-0.059893044695112724   -0.018127079035264965   0.003956151835310929
-0.059893044695112724   -0.018127079035264965   0.003956151835310929
-0.059893044695112724   -0.018127079035264965   0.003956151835310929
-0.04485876628111064   -0.02879112478873904   0.012892917329457642
-0.04485876628111064   -0.02879112478873904   0.012892917329457642
-0.04485876628111064   -0.02879112478873904   0.012892917329457642
-0.04485876628111064   -0.02879112478873904   0.012892917329457642
-0.06349613841606122   -0.0558879494846189   0.02370155367992234
-0.06349613841606122   -0.0558879494846189   0.02370155367992234
-0.06349613841606122   -0.0558879494846189   0.02370155367992234
-0.06349613841606122   -0.0558879494846189   0.02370155367992234
-0.03607902607798839   -0.015886284878357883   -0.008653895997278
-0.03607902607798839   -0.015886284878357883   -0.008653895997278
-0.03607902607798839   -0.015886284878357883   -0.008653895997278
-0.03607902607798839   -0.015886284878357883   -0.008653895997278
-0.03305646365676715   -0.05805640555505249   0.013829994148178799
-0.03305646365676715   -0.05805640555505249   0.013829994148178799
-0.03305646365676715   -0.05805640555505249   0.013829994148178799
-0.03305646365676715   -0.05805640555505249   0.013829994148178799
-0.06479929555973175   -0.038781090905361804   0.005165115137435007
-0.06479929555973175   -0.038781090905361804   0.005165115137435007
-0.06479929555973175   -0.038781090905361804   0.005165115137435007
-0.06479929555973175   -0.038781090905361804   0.005165115137435007
-0.043316959488385945   -0.03628182643403348   0.011039246139721914
-0.043316959488385945   -0.03628182643403348   0.011039246139721914
-0.043316959488385945   -0.03628182643403348   0.011039246139721914
-0.043316959488385945   -0.03628182643403348   0.011039246139721914
-0.04119132041154433   -0.007880946085944064   0.022143753073689224
-0.04119132041154433   -0.007880946085944064   0.022143753073689224
-0.04119132041154433   -0.007880946085944064   0.022143753073689224
-0.04119132041154433   -0.007880946085944064   0.022143753073689224
-0.007517501158854549   0.004647274301349149   -0.0004474106678820028
-0.007517501158854549   0.004647274301349149   -0.0004474106678820028
-0.007517501158854549   0.004647274301349149   -0.0004474106678820028
-0.007517501158854549   0.004647274301349149   -0.0004474106678820028
0.0020569605400536633   -0.0025416566432617995   0.01373258364171157
0.0020569605400536633   -0.0025416566432617995   0.01373258364171157
0.0020569605400536633   -0.0025416566432617995   0.01373258364171157
0.0020569605400536633   -0.0025416566432617995   0.01373258364171157
-0.03535685999752324   0.00337733776281382   -0.0016047650180831263
-0.03535685999752324   0.00337733776281382   -0.0016047650180831263
-0.03535685999752324   0.00337733776281382   -0.0016047650180831263
-0.03535685999752324   0.00337733776281382   -0.0016047650180831263
-0.02083214261422213   -0.0015981341970849623   -0.0016847663624520444
-0.02083214261422213   -0.0015981341970849623   -0.0016847663624520444
-0.02083214261422213   -0.0015981341970849623   -0.0016847663624520444
-0.02083214261422213   -0.0015981341970849623   -0.0016847663624520444
-0.03262775509844044   -0.0076179142093949935   0.0230360114495397
-0.03262775509844044   -0.0076179142093949935   0.0230360114495397
-0.03262775509844044   -0.0076179142093949935   0.0230360114495397
-0.03262775509844044   -0.0076179142093949935   0.0230360114495397
0.000551140080873788   0.009676879768849941   -0.006015055066299545
0.000551140080873788   0.009676879768849941   -0.006015055066299545
0.000551140080873788   0.009676879768849941   -0.006015055066299545
0.000551140080873788   0.009676879768849941   -0.006015055066299545
0.006825374050159984   -0.0031447744221537836   0.016930737836157797
0.006825374050159984   -0.0031447744221537836   0.016930737836157797
0.006825374050159984   -0.0031447744221537836   0.016930737836157797
0.006825374050159984   -0.0031447744221537836   0.016930737836157797
-0.031152814125513677   0.0024437784715695106   -0.0023528995848318577
-0.031152814125513677   0.0024437784715695106   -0.0023528995848318577
-0.031152814125513677   0.0024437784715695106   -0.0023528995848318577
-0.031152814125513677   0.0024437784715695106   -0.0023528995848318577
-0.013808389526734218   -0.00043977644190719856   0.0021535677979063837
-0.013808389526734218   -0.00043977644190719856   0.0021535677979063837
-0.013808389526734218   -0.00043977644190719856   0.0021535677979063837
-0.013808389526734218   -0.00043977644190719856   0.0021535677979063837
-0.027924274561200273   -0.008528446974998327   0.02476202368330301
-0.027924274561200273   -0.008528446974998327   0.02476202368330301
-0.027924274561200273   -0.008528446974998327   0.02476202368330301
-0.027924274561200273   -0.008528446974998327   0.02476202368330301
0.004685324107206535   0.008915940645771453   -0.0058302269465423575
0.004685324107206535   0.008915940645771453   -0.0058302269465423575
0.004685324107206535   0.008915940645771453   -0.0058302269465423575
0.004685324107206535   0.008915940645771453   -0.0058302269465423575
0.01163326966352798   -0.004967724057081062   0.016464274029175996
0.01163326966352798   -0.004967724057081062   0.016464274029175996
0.01163326966352798   -0.004967724057081062   0.016464274029175996
0.01163326966352798   -0.004967724057081062   0.016464274029175996
-0.024280347914277606   0.0023092255786985602   -0.002655058273124508
-0.024280347914277606   0.0023092255786985602   -0.002655058273124508
-0.024280347914277606   0.0023092255786985602   -0.002655058273124508
-0.024280347914277606   0.0023092255786985602   -0.002655058273124508
-0.007559456589656695   0.0002369835238529484   0.005497987696919491
-0.007559456589656695   0.0002369835238529484   0.005497987696919491
-0.007559456589656695   0.0002369835238529484   0.005497987696919491
-0.007559456589656695   0.0002369835238529484   0.005497987696919491
              </DataArray>   
             <DataArray type="Float64" NumberOfComponents="3" Name="Displacements" format="ascii">   
0.0   0.0   0.0
-0.0037798758972986397   -0.0024833625100025413   -0.0012664316147621437
0.0   0.0   0.0
0.0   0.0   0.0
-0.0037798758972986397   -0.0024833625100025413   -0.0012664316147621437
-0.0024049487773935606   -0.002232328699145499   -0.0009304939640053835
0.0   0.0   0.0
-0.0023572140463366067   -0.0023441497855904822   -0.0007796162269430948
0.0   0.0   0.0
0.0   0.0   0.0
-0.0023572140463366067   -0.0023441497855904822   -0.0007796162269430948
0.0   0.0   0.0
0.0   0.0   0.0
-0.0023572140463366067   -0.0023441497855904822   -0.0007796162269430948
-0.003955605543195916   -0.0026455027896770166   -0.001016860044378528
-0.0037798758972986397   -0.0024833625100025413   -0.0012664316147621437
0.0   0.0   0.0
-0.0023572140463366067   -0.0023441497855904822   -0.0007796162269430948
-0.0037798758972986397   -0.0024833625100025413   -0.0012664316147621437
0.0   0.0   0.0
0.0   0.0   0.0
-0.003955605543195916   -0.0026455027896770166   -0.001016860044378528
0.0   0.0   0.0
0.0   0.0   0.0
-0.003955605543195916   -0.0026455027896770166   -0.001016860044378528
-0.0023572140463366067   -0.0023441497855904822   -0.0007796162269430948
0.0   0.0   0.0
-0.0023636751406081644   -0.0024014760923829386   -0.0006289771087944948
0.0   0.0   0.0
0.0   0.0   0.0
-0.0023636751406081644   -0.0024014760923829386   -0.0006289771087944948
0.0   0.0   0.0
0.0   0.0   0.0
-0.0023636751406081644   -0.0024014760923829386   -0.0006289771087944948
-0.004078933056799156   -0.0027243575465412347   -0.0007777720709803633
-0.003955605543195916   -0.0026455027896770166   -0.001016860044378528
0.0   0.0   0.0
-0.0023636751406081644   -0.0024014760923829386   -0.0006289771087944948
-0.003955605543195916   -0.0026455027896770166   -0.001016860044378528
0.0   0.0   0.0
0.0   0.0   0.0
-0.004078933056799156   -0.0027243575465412347   -0.0007777720709803633
0.0   0.0   0.0
0.0   0.0   0.0
-0.004078933056799156   -0.0027243575465412347   -0.0007777720709803633
-0.0023636751406081644   -0.0024014760923829386   -0.0006289771087944948
0.0   0.0   0.0
-0.002362222315512457   -0.0024162361022445652   -0.00047324080520821834
0.0   0.0   0.0
0.0   0.0   0.0
-0.002362222315512457   -0.0024162361022445652   -0.00047324080520821834
0.0   0.0   0.0
0.0   0.0   0.0
-0.002362222315512457   -0.0024162361022445652   -0.00047324080520821834
-0.004344799742996257   -0.0027841489714485633   -0.0005004222911996928
-0.004078933056799156   -0.0027243575465412347   -0.0007777720709803633
0.0   0.0   0.0
-0.002362222315512457   -0.0024162361022445652   -0.00047324080520821834
-0.004078933056799156   -0.0027243575465412347   -0.0007777720709803633
0.0   0.0   0.0
0.0   0.0   0.0
-0.0024049487773935606   -0.002232328699145499   -0.0009304939640053835
0.0   0.0   0.0
0.0   0.0   0.0
-0.0024049487773935606   -0.002232328699145499   -0.0009304939640053835
-0.0010954425443420197   -0.0021402996641439473   -0.0007078329525138163
0.0   0.0   0.0
-0.0010533992093594683   -0.002213060147117637   -0.0006365825703824506
0.0   0.0   0.0
0.0   0.0   0.0
-0.0010533992093594683   -0.002213060147117637   -0.0006365825703824506
0.0   0.0   0.0
0.0   0.0   0.0
-0.0010533992093594683   -0.002213060147117637   -0.0006365825703824506
-0.0023572140463366067   -0.0023441497855904822   -0.0007796162269430948
-0.0024049487773935606   -0.002232328699145499   -0.0009304939640053835
0.0   0.0   0.0
-0.0010533992093594683   -0.002213060147117637   -0.0006365825703824506
-0.0024049487773935606   -0.002232328699145499   -0.0009304939640053835
0.0   0.0   0.0
0.0   0.0   0.0
-0.0023572140463366067   -0.0023441497855904822   -0.0007796162269430948
0.0   0.0   0.0
0.0   0.0   0.0
-0.0023572140463366067   -0.0023441497855904822   -0.0007796162269430948
-0.0010533992093594683   -0.002213060147117637   -0.0006365825703824506
0.0   0.0   0.0
-0.0010297100733796549   -0.002240801419563368   -0.0005672138194891446
0.0   0.0   0.0
0.0   0.0   0.0
-0.0010297100733796549   -0.002240801419563368   -0.0005672138194891446
0.0   0.0   0.0
0.0   0.0   0.0
-0.0010297100733796549   -0.002240801419563368   -0.0005672138194891446
-0.0023636751406081644   -0.0024014760923829386   -0.0006289771087944948
-0.0023572140463366067   -0.0023441497855904822   -0.0007796162269430948
0.0   0.0   0.0
-0.0010297100733796549   -0.002240801419563368   -0.0005672138194891446
-0.0023572140463366067   -0.0023441497855904822   -0.0007796162269430948
0.0   0.0   0.0
0.0   0.0   0.0
-0.0023636751406081644   -0.0024014760923829386   -0.0006289771087944948
0.0   0.0   0.0
0.0   0.0   0.0
-0.0023636751406081644   -0.0024014760923829386   -0.0006289771087944948
-0.0010297100733796549   -0.002240801419563368   -0.0005672138194891446
0.0   0.0   0.0
-0.0010081084232931423   -0.0022292458017755946   -0.000495520985968132
0.0   0.0   0.0
0.0   0.0   0.0
-0.0010081084232931423   -0.0022292458017755946   -0.000495520985968132
0.0   0.0   0.0
0.0   0.0   0.0
-0.0010081084232931423   -0.0022292458017755946   -0.000495520985968132
-0.002362222315512457   -0.0024162361022445652   -0.00047324080520821834
-0.0023636751406081644   -0.0024014760923829386   -0.0006289771087944948
0.0   0.0   0.0
-0.0010081084232931423   -0.0022292458017755946   -0.000495520985968132
-0.0023636751406081644   -0.0024014760923829386   -0.0006289771087944948
0.0   0.0   0.0
0.0   0.0   0.0
-0.0010954425443420197   -0.0021402996641439473   -0.0007078329525138163
0.0   0.0   0.0
0.0   0.0   0.0
-0.0010954425443420197   -0.0021402996641439473   -0.0007078329525138163
0.00014163531636429642   -0.0021521202643884187   -0.000566008970678833
0.0   0.0   0.0
0.00016855803809408485   -0.0021898065109570417   -0.0005758139847742164
0.0   0.0   0.0
0.0   0.0   0.0
0.00016855803809408485   -0.0021898065109570417   -0.0005758139847742164
0.0   0.0   0.0
0.0   0.0   0.0
0.00016855803809408485   -0.0021898065109570417   -0.0005758139847742164
-0.0010533992093594683   -0.002213060147117637   -0.0006365825703824506
-0.0010954425443420197   -0.0021402996641439473   -0.0007078329525138163
0.0   0.0   0.0
0.00016855803809408485   -0.0021898065109570417   -0.0005758139847742164
-0.0010954425443420197   -0.0021402996641439473   -0.0007078329525138163
0.0   0.0   0.0
0.0   0.0   0.0
-0.0010533992093594683   -0.002213060147117637   -0.0006365825703824506
0.0   0.0   0.0
0.0   0.0   0.0
-0.0010533992093594683   -0.002213060147117637   -0.0006365825703824506
0.00016855803809408485   -0.0021898065109570417   -0.0005758139847742164
0.0   0.0   0.0
0.00018983182917952217   -0.002186659327717211   -0.0005846888651156156
0.0   0.0   0.0
0.0   0.0   0.0
0.00018983182917952217   -0.002186659327717211   -0.0005846888651156156
0.0   0.0   0.0
0.0   0.0   0.0
0.00018983182917952217   -0.002186659327717211   -0.0005846888651156156
-0.0010297100733796549   -0.002240801419563368   -0.0005672138194891446
-0.0010533992093594683   -0.002213060147117637   -0.0006365825703824506
0.0   0.0   0.0
0.00018983182917952217   -0.002186659327717211   -0.0005846888651156156
-0.0010533992093594683   -0.002213060147117637   -0.0006365825703824506
0.0   0.0   0.0
0.0   0.0   0.0
-0.0010297100733796549   -0.002240801419563368   -0.0005672138194891446
0.0   0.0   0.0
0.0   0.0   0.0
-0.0010297100733796549   -0.002240801419563368   -0.0005672138194891446
0.00018983182917952217   -0.002186659327717211   -0.0005846888651156156
0.0   0.0   0.0
0.00021839385165463467   -0.0021393336651017426   -0.000593832102010943
0.0   0.0   0.0
0.0   0.0   0.0
0.00021839385165463467   -0.0021393336651017426   -0.000593832102010943
0.0   0.0   0.0
0.0   0.0   0.0
0.00021839385165463467   -0.0021393336651017426   -0.000593832102010943
-0.0010081084232931423   -0.0022292458017755946   -0.000495520985968132
-0.0010297100733796549   -0.002240801419563368   -0.0005672138194891446
0.0   0.0   0.0
0.00021839385165463467   -0.0021393336651017426   -0.000593832102010943
-0.0010297100733796549   -0.002240801419563368   -0.0005672138194891446
0.0   0.0   0.0
0.0   0.0   0.0
0.00014163531636429642   -0.0021521202643884187   -0.000566008970678833
0.0   0.0   0.0
0.0   0.0   0.0
0.00014163531636429642   -0.0021521202643884187   -0.000566008970678833
0.0014846234274070635   -0.0022565995528971545   -0.000495954592471271
0.0   0.0   0.0
0.0014874751376259907   -0.0022685384989995813   -0.0005910497334553149
0.0   0.0   0.0
0.0   0.0   0.0
0.0014874751376259907   -0.0022685384989995813   -0.0005910497334553149
0.0   0.0   0.0
0.0   0.0   0.0
0.0014874751376259907   -0.0022685384989995813   -0.0005910497334553149
0.00016855803809408485   -0.0021898065109570417   -0.0005758139847742164
0.00014163531636429642   -0.0021521202643884187   -0.000566008970678833
0.0   0.0   0.0
0.0014874751376259907   -0.0022685384989995813   -0.0005910497334553149
0.00014163531636429642   -0.0021521202643884187   -0.000566008970678833
0.0   0.0   0.0
0.0   0.0   0.0
0.00016855803809408485   -0.0021898065109570417   -0.0005758139847742164
0.0   0.0   0.0
0.0   0.0   0.0
0.00016855803809408485   -0.0021898065109570417   -0.0005758139847742164
0.0014874751376259907   -0.0022685384989995813   -0.0005910497334553149
0.0   0.0   0.0
0.001481287022540393   -0.002236146143122641   -0.0006823059015554173
0.0   0.0   0.0
0.0   0.0   0.0
0.001481287022540393   -0.002236146143122641   -0.0006823059015554173
0.0   0.0   0.0
0.0   0.0   0.0
0.001481287022540393   -0.002236146143122641   -0.0006823059015554173
0.00018983182917952217   -0.002186659327717211   -0.0005846888651156156
0.00016855803809408485   -0.0021898065109570417   -0.0005758139847742164
0.0   0.0   0.0
0.001481287022540393   -0.002236146143122641   -0.0006823059015554173
0.00016855803809408485   -0.0021898065109570417   -0.0005758139847742164
0.0   0.0   0.0
0.0   0.0   0.0
0.00018983182917952217   -0.002186659327717211   -0.0005846888651156156
0.0   0.0   0.0
0.0   0.0   0.0
0.00018983182917952217   -0.002186659327717211   -0.0005846888651156156
0.001481287022540393   -0.002236146143122641   -0.0006823059015554173
0.0   0.0   0.0
0.0015101504773995741   -0.0021495281720597986   -0.0007718477824495786
0.0   0.0   0.0
0.0   0.0   0.0
0.0015101504773995741   -0.0021495281720597986   -0.0007718477824495786
0.0   0.0   0.0
0.0   0.0   0.0
0.0015101504773995741   -0.0021495281720597986   -0.0007718477824495786
0.00021839385165463467   -0.0021393336651017426   -0.000593832102010943
0.00018983182917952217   -0.002186659327717211   -0.0005846888651156156
0.0   0.0   0.0
0.0015101504773995741   -0.0021495281720597986   -0.0007718477824495786
0.00018983182917952217   -0.002186659327717211   -0.0005846888651156156
0.0   0.0   0.0
0.0   0.0   0.0
0.0014846234274070635   -0.0022565995528971545   -0.000495954592471271
0.0   0.0   0.0
0.0   0.0   0.0
0.0014846234274070635   -0.0022565995528971545   -0.000495954592471271
0.0033528692568300243   -0.002521539558580633   -0.00046817651210429744
0.0   0.0   0.0
0.003149160426157828   -0.002493893164413529   -0.000683857637266725
0.0   0.0   0.0
0.0   0.0   0.0
0.003149160426157828   -0.002493893164413529   -0.000683857637266725
0.0   0.0   0.0
0.0   0.0   0.0
0.003149160426157828   -0.002493893164413529   -0.000683857637266725
0.0014874751376259907   -0.0022685384989995813   -0.0005910497334553149
0.0014846234274070635   -0.0022565995528971545   -0.000495954592471271
0.0   0.0   0.0
0.003149160426157828   -0.002493893164413529   -0.000683857637266725
0.0014846234274070635   -0.0022565995528971545   -0.000495954592471271
0.0   0.0   0.0
0.0   0.0   0.0
0.0014874751376259907   -0.0022685384989995813   -0.0005910497334553149
0.0   0.0   0.0
0.0   0.0   0.0
0.0014874751376259907   -0.0022685384989995813   -0.0005910497334553149
0.003149160426157828   -0.002493893164413529   -0.000683857637266725
0.0   0.0   0.0
0.0030553045839220765   -0.0024420457615590167   -0.0008662671540807742
0.0   0.0   0.0
0.0   0.0   0.0
0.0030553045839220765   -0.0024420457615590167   -0.0008662671540807742
0.0   0.0   0.0
0.0   0.0   0.0
0.0030553045839220765   -0.0024420457615590167   -0.0008662671540807742
0.001481287022540393   -0.002236146143122641   -0.0006823059015554173
0.0014874751376259907   -0.0022685384989995813   -0.0005910497334553149
0.0   0.0   0.0
0.0030553045839220765   -0.0024420457615590167   -0.0008662671540807742
0.0014874751376259907   -0.0022685384989995813   -0.0005910497334553149
0.0   0.0   0.0
0.0   0.0   0.0
0.001481287022540393   -0.002236146143122641   -0.0006823059015554173
0.0   0.0   0.0
0.0   0.0   0.0
0.001481287022540393   -0.002236146143122641   -0.0006823059015554173
0.0030553045839220765   -0.0024420457615590167   -0.0008662671540807742
0.0   0.0   0.0
0.002915452059821334   -0.0023094794243231852   -0.0010593480205537875
0.0   0.0   0.0
0.0   0.0   0.0
0.002915452059821334   -0.0023094794243231852   -0.0010593480205537875
0.0   0.0   0.0
0.0   0.0   0.0
0.002915452059821334   -0.0023094794243231852   -0.0010593480205537875
0.0015101504773995741   -0.0021495281720597986   -0.0007718477824495786
0.001481287022540393   -0.002236146143122641   -0.0006823059015554173
0.0   0.0   0.0
0.002915452059821334   -0.0023094794243231852   -0.0010593480205537875
0.001481287022540393   -0.002236146143122641   -0.0006823059015554173
0.0   0.0   0.0
-0.0037798758972986397   -0.0024833625100025413   -0.0012664316147621437
-0.007057513419004907   -0.006927205920461885   -0.001706337731040135
-0.0024049487773935606   -0.002232328699145499   -0.0009304939640053835
-0.003955605543195916   -0.0026455027896770166   -0.001016860044378528
-0.007057513419004907   -0.006927205920461885   -0.001706337731040135
-0.004504423487143168   -0.00670152606746748   -0.0014047718508629048
-0.0024049487773935606   -0.002232328699145499   -0.0009304939640053835
-0.00450941924471485   -0.006815885990483223   -0.0012652915283544919
-0.003955605543195916   -0.0026455027896770166   -0.001016860044378528
-0.0023572140463366067   -0.0023441497855904822   -0.0007796162269430948
-0.00450941924471485   -0.006815885990483223   -0.0012652915283544919
-0.0024049487773935606   -0.002232328699145499   -0.0009304939640053835
-0.003955605543195916   -0.0026455027896770166   -0.001016860044378528
-0.00450941924471485   -0.006815885990483223   -0.0012652915283544919
-0.007268528681967455   -0.0070868173085079375   -0.0014798931605887076
-0.007057513419004907   -0.006927205920461885   -0.001706337731040135
-0.003955605543195916   -0.0026455027896770166   -0.001016860044378528
-0.00450941924471485   -0.006815885990483223   -0.0012652915283544919
-0.007057513419004907   -0.006927205920461885   -0.001706337731040135
-0.0024049487773935606   -0.002232328699145499   -0.0009304939640053835
-0.003955605543195916   -0.0026455027896770166   -0.001016860044378528
-0.007268528681967455   -0.0070868173085079375   -0.0014798931605887076
-0.0023572140463366067   -0.0023441497855904822   -0.0007796162269430948
-0.004078933056799156   -0.0027243575465412347   -0.0007777720709803633
-0.007268528681967455   -0.0070868173085079375   -0.0014798931605887076
-0.00450941924471485   -0.006815885990483223   -0.0012652915283544919
-0.0023572140463366067   -0.0023441497855904822   -0.0007796162269430948
-0.004526828929084536   -0.006885630939354232   -0.001131277980644532
-0.004078933056799156   -0.0027243575465412347   -0.0007777720709803633
-0.0023636751406081644   -0.0024014760923829386   -0.0006289771087944948
-0.004526828929084536   -0.006885630939354232   -0.001131277980644532
-0.0023572140463366067   -0.0023441497855904822   -0.0007796162269430948
-0.004078933056799156   -0.0027243575465412347   -0.0007777720709803633
-0.004526828929084536   -0.006885630939354232   -0.001131277980644532
-0.0074150029370554215   -0.007176987968509613   -0.001258194707500079
-0.007268528681967455   -0.0070868173085079375   -0.0014798931605887076
-0.004078933056799156   -0.0027243575465412347   -0.0007777720709803633
-0.004526828929084536   -0.006885630939354232   -0.001131277980644532
-0.007268528681967455   -0.0070868173085079375   -0.0014798931605887076
-0.0023572140463366067   -0.0023441497855904822   -0.0007796162269430948
-0.004078933056799156   -0.0027243575465412347   -0.0007777720709803633
-0.0074150029370554215   -0.007176987968509613   -0.001258194707500079
-0.0023636751406081644   -0.0024014760923829386   -0.0006289771087944948
-0.004344799742996257   -0.0027841489714485633   -0.0005004222911996928
-0.0074150029370554215   -0.007176987968509613   -0.001258194707500079
-0.004526828929084536   -0.006885630939354232   -0.001131277980644532
-0.0023636751406081644   -0.0024014760923829386   -0.0006289771087944948
-0.004512978966128698   -0.006921874148593486   -0.0010058580351805318
-0.004344799742996257   -0.0027841489714485633   -0.0005004222911996928
-0.002362222315512457   -0.0024162361022445652   -0.00047324080520821834
-0.004512978966128698   -0.006921874148593486   -0.0010058580351805318
-0.0023636751406081644   -0.0024014760923829386   -0.0006289771087944948
-0.004344799742996257   -0.0027841489714485633   -0.0005004222911996928
-0.004512978966128698   -0.006921874148593486   -0.0010058580351805318
-0.007588114742744406   -0.007229507562461816   -0.00105653766331451
-0.0074150029370554215   -0.007176987968509613   -0.001258194707500079
-0.004344799742996257   -0.0027841489714485633   -0.0005004222911996928
-0.004512978966128698   -0.006921874148593486   -0.0010058580351805318
-0.0074150029370554215   -0.007176987968509613   -0.001258194707500079
-0.0023636751406081644   -0.0024014760923829386   -0.0006289771087944948
-0.0024049487773935606   -0.002232328699145499   -0.0009304939640053835
-0.004504423487143168   -0.00670152606746748   -0.0014047718508629048
-0.0010954425443420197   -0.0021402996641439473   -0.0007078329525138163
-0.0023572140463366067   -0.0023441497855904822   -0.0007796162269430948
-0.004504423487143168   -0.00670152606746748   -0.0014047718508629048
-0.002090604321551198   -0.00659651154194641   -0.001198945296463211
-0.0010954425443420197   -0.0021402996641439473   -0.0007078329525138163
-0.002072238040100776   -0.006669261314133549   -0.0011274383035486646
-0.0023572140463366067   -0.0023441497855904822   -0.0007796162269430948
-0.0010533992093594683   -0.002213060147117637   -0.0006365825703824506
-0.002072238040100776   -0.006669261314133549   -0.0011274383035486646
-0.0010954425443420197   -0.0021402996641439473   -0.0007078329525138163
-0.0023572140463366067   -0.0023441497855904822   -0.0007796162269430948
-0.002072238040100776   -0.006669261314133549   -0.0011274383035486646
-0.00450941924471485   -0.006815885990483223   -0.0012652915283544919
-0.004504423487143168   -0.00670152606746748   -0.0014047718508629048
-0.0023572140463366067   -0.0023441497855904822   -0.0007796162269430948
-0.002072238040100776   -0.006669261314133549   -0.0011274383035486646
-0.004504423487143168   -0.00670152606746748   -0.0014047718508629048
-0.0010954425443420197   -0.0021402996641439473   -0.0007078329525138163
-0.0023572140463366067   -0.0023441497855904822   -0.0007796162269430948
-0.00450941924471485   -0.006815885990483223   -0.0012652915283544919
-0.0010533992093594683   -0.002213060147117637   -0.0006365825703824506
-0.0023636751406081644   -0.0024014760923829386   -0.0006289771087944948
-0.00450941924471485   -0.006815885990483223   -0.0012652915283544919
-0.002072238040100776   -0.006669261314133549   -0.0011274383035486646
-0.0010533992093594683   -0.002213060147117637   -0.0006365825703824506
-0.00205592538561828   -0.0067045565591012084   -0.001062630185120996
-0.0023636751406081644   -0.0024014760923829386   -0.0006289771087944948
-0.0010297100733796549   -0.002240801419563368   -0.0005672138194891446
-0.00205592538561828   -0.0067045565591012084   -0.001062630185120996
-0.0010533992093594683   -0.002213060147117637   -0.0006365825703824506
-0.0023636751406081644   -0.0024014760923829386   -0.0006289771087944948
-0.00205592538561828   -0.0067045565591012084   -0.001062630185120996
-0.004526828929084536   -0.006885630939354232   -0.001131277980644532
-0.00450941924471485   -0.006815885990483223   -0.0012652915283544919
-0.0023636751406081644   -0.0024014760923829386   -0.0006289771087944948
-0.00205592538561828   -0.0067045565591012084   -0.001062630185120996
-0.00450941924471485   -0.006815885990483223   -0.0012652915283544919
-0.0010533992093594683   -0.002213060147117637   -0.0006365825703824506
-0.0023636751406081644   -0.0024014760923829386   -0.0006289771087944948
-0.004526828929084536   -0.006885630939354232   -0.001131277980644532
-0.0010297100733796549   -0.002240801419563368   -0.0005672138194891446
-0.002362222315512457   -0.0024162361022445652   -0.00047324080520821834
-0.004526828929084536   -0.006885630939354232   -0.001131277980644532
-0.00205592538561828   -0.0067045565591012084   -0.001062630185120996
-0.0010297100733796549   -0.002240801419563368   -0.0005672138194891446
-0.002031735948410079   -0.0067037268730995355   -0.0010062241182078897
-0.002362222315512457   -0.0024162361022445652   -0.00047324080520821834
-0.0010081084232931423   -0.0022292458017755946   -0.000495520985968132
-0.002031735948410079   -0.0067037268730995355   -0.0010062241182078897
-0.0010297100733796549   -0.002240801419563368   -0.0005672138194891446
-0.002362222315512457   -0.0024162361022445652   -0.00047324080520821834
-0.002031735948410079   -0.0067037268730995355   -0.0010062241182078897
-0.004512978966128698   -0.006921874148593486   -0.0010058580351805318
-0.004526828929084536   -0.006885630939354232   -0.001131277980644532
-0.002362222315512457   -0.0024162361022445652   -0.00047324080520821834
-0.002031735948410079   -0.0067037268730995355   -0.0010062241182078897
-0.004526828929084536   -0.006885630939354232   -0.001131277980644532
-0.0010297100733796549   -0.002240801419563368   -0.0005672138194891446
-0.0010954425443420197   -0.0021402996641439473   -0.0007078329525138163
-0.002090604321551198   -0.00659651154194641   -0.001198945296463211
0.00014163531636429642   -0.0021521202643884187   -0.000566008970678833
-0.0010533992093594683   -0.002213060147117637   -0.0006365825703824506
-0.002090604321551198   -0.00659651154194641   -0.001198945296463211
0.00023683933462385478   -0.00659965801814505   -0.001068902254121377
0.00014163531636429642   -0.0021521202643884187   -0.000566008970678833
0.00025935669333196115   -0.006634066501641905   -0.0010641064102928444
-0.0010533992093594683   -0.002213060147117637   -0.0006365825703824506
0.00016855803809408485   -0.0021898065109570417   -0.0005758139847742164
0.00025935669333196115   -0.006634066501641905   -0.0010641064102928444
0.00014163531636429642   -0.0021521202643884187   -0.000566008970678833
-0.0010533992093594683   -0.002213060147117637   -0.0006365825703824506
0.00025935669333196115   -0.006634066501641905   -0.0010641064102928444
-0.002072238040100776   -0.006669261314133549   -0.0011274383035486646
-0.002090604321551198   -0.00659651154194641   -0.001198945296463211
-0.0010533992093594683   -0.002213060147117637   -0.0006365825703824506
0.00025935669333196115   -0.006634066501641905   -0.0010641064102928444
-0.002090604321551198   -0.00659651154194641   -0.001198945296463211
0.00014163531636429642   -0.0021521202643884187   -0.000566008970678833
-0.0010533992093594683   -0.002213060147117637   -0.0006365825703824506
-0.002072238040100776   -0.006669261314133549   -0.0011274383035486646
0.00016855803809408485   -0.0021898065109570417   -0.0005758139847742164
-0.0010297100733796549   -0.002240801419563368   -0.0005672138194891446
-0.002072238040100776   -0.006669261314133549   -0.0011274383035486646
0.00025935669333196115   -0.006634066501641905   -0.0010641064102928444
0.00016855803809408485   -0.0021898065109570417   -0.0005758139847742164
0.0002746123339151954   -0.006631897309045181   -0.0010669124251544287
-0.0010297100733796549   -0.002240801419563368   -0.0005672138194891446
0.00018983182917952217   -0.002186659327717211   -0.0005846888651156156
0.0002746123339151954   -0.006631897309045181   -0.0010669124251544287
0.00016855803809408485   -0.0021898065109570417   -0.0005758139847742164
-0.0010297100733796549   -0.002240801419563368   -0.0005672138194891446
0.0002746123339151954   -0.006631897309045181   -0.0010669124251544287
-0.00205592538561828   -0.0067045565591012084   -0.001062630185120996
-0.002072238040100776   -0.006669261314133549   -0.0011274383035486646
-0.0010297100733796549   -0.002240801419563368   -0.0005672138194891446
0.0002746123339151954   -0.006631897309045181   -0.0010669124251544287
-0.002072238040100776   -0.006669261314133549   -0.0011274383035486646
0.00016855803809408485   -0.0021898065109570417   -0.0005758139847742164
-0.0010297100733796549   -0.002240801419563368   -0.0005672138194891446
-0.00205592538561828   -0.0067045565591012084   -0.001062630185120996
0.00018983182917952217   -0.002186659327717211   -0.0005846888651156156
-0.0010081084232931423   -0.0022292458017755946   -0.000495520985968132
-0.00205592538561828   -0.0067045565591012084   -0.001062630185120996
0.0002746123339151954   -0.006631897309045181   -0.0010669124251544287
0.00018983182917952217   -0.002186659327717211   -0.0005846888651156156
0.00029095477764591436   -0.006592035871227963   -0.00107744008497391
-0.0010081084232931423   -0.0022292458017755946   -0.000495520985968132
0.00021839385165463467   -0.0021393336651017426   -0.000593832102010943
0.00029095477764591436   -0.006592035871227963   -0.00107744008497391
0.00018983182917952217   -0.002186659327717211   -0.0005846888651156156
-0.0010081084232931423   -0.0022292458017755946   -0.000495520985968132
0.00029095477764591436   -0.006592035871227963   -0.00107744008497391
-0.002031735948410079   -0.0067037268730995355   -0.0010062241182078897
-0.00205592538561828   -0.0067045565591012084   -0.001062630185120996
-0.0010081084232931423   -0.0022292458017755946   -0.000495520985968132
0.00029095477764591436   -0.006592035871227963   -0.00107744008497391
-0.00205592538561828   -0.0067045565591012084   -0.001062630185120996
0.00018983182917952217   -0.002186659327717211   -0.0005846888651156156
0.00014163531636429642   -0.0021521202643884187   -0.000566008970678833
0.00023683933462385478   -0.00659965801814505   -0.001068902254121377
0.0014846234274070635   -0.0022565995528971545   -0.000495954592471271
0.00016855803809408485   -0.0021898065109570417   -0.0005758139847742164
0.00023683933462385478   -0.00659965801814505   -0.001068902254121377
0.0027034613445135343   -0.0067070677839476435   -0.001008379877821516
0.0014846234274070635   -0.0022565995528971545   -0.000495954592471271
0.002716401564305823   -0.006706625905492541   -0.0010724562170411013
0.00016855803809408485   -0.0021898065109570417   -0.0005758139847742164
0.0014874751376259907   -0.0022685384989995813   -0.0005910497334553149
0.002716401564305823   -0.006706625905492541   -0.0010724562170411013
0.0014846234274070635   -0.0022565995528971545   -0.000495954592471271
0.00016855803809408485   -0.0021898065109570417   -0.0005758139847742164
0.002716401564305823   -0.006706625905492541   -0.0010724562170411013
0.00025935669333196115   -0.006634066501641905   -0.0010641064102928444
0.00023683933462385478   -0.00659965801814505   -0.001068902254121377
0.00016855803809408485   -0.0021898065109570417   -0.0005758139847742164
0.002716401564305823   -0.006706625905492541   -0.0010724562170411013
0.00023683933462385478   -0.00659965801814505   -0.001068902254121377
0.0014846234274070635   -0.0022565995528971545   -0.000495954592471271
0.00016855803809408485   -0.0021898065109570417   -0.0005758139847742164
0.00025935669333196115   -0.006634066501641905   -0.0010641064102928444
0.0014874751376259907   -0.0022685384989995813   -0.0005910497334553149
0.00018983182917952217   -0.002186659327717211   -0.0005846888651156156
0.00025935669333196115   -0.006634066501641905   -0.0010641064102928444
0.002716401564305823   -0.006706625905492541   -0.0010724562170411013
0.0014874751376259907   -0.0022685384989995813   -0.0005910497334553149
0.0027042410412426365   -0.006670327507941243   -0.0011451329389526236
0.00018983182917952217   -0.002186659327717211   -0.0005846888651156156
0.001481287022540393   -0.002236146143122641   -0.0006823059015554173
0.0027042410412426365   -0.006670327507941243   -0.0011451329389526236
0.0014874751376259907   -0.0022685384989995813   -0.0005910497334553149
0.00018983182917952217   -0.002186659327717211   -0.0005846888651156156
0.0027042410412426365   -0.006670327507941243   -0.0011451329389526236
0.0002746123339151954   -0.006631897309045181   -0.0010669124251544287
0.00025935669333196115   -0.006634066501641905   -0.0010641064102928444
0.00018983182917952217   -0.002186659327717211   -0.0005846888651156156
0.0027042410412426365   -0.006670327507941243   -0.0011451329389526236
0.00025935669333196115   -0.006634066501641905   -0.0010641064102928444
0.0014874751376259907   -0.0022685384989995813   -0.0005910497334553149
0.00018983182917952217   -0.002186659327717211   -0.0005846888651156156
0.0002746123339151954   -0.006631897309045181   -0.0010669124251544287
0.001481287022540393   -0.002236146143122641   -0.0006823059015554173
0.00021839385165463467   -0.0021393336651017426   -0.000593832102010943
0.0002746123339151954   -0.006631897309045181   -0.0010669124251544287
0.0027042410412426365   -0.006670327507941243   -0.0011451329389526236
0.001481287022540393   -0.002236146143122641   -0.0006823059015554173
0.002697414464276169   -0.006588262992074572   -0.0012237197825567725
0.00021839385165463467   -0.0021393336651017426   -0.000593832102010943
0.0015101504773995741   -0.0021495281720597986   -0.0007718477824495786
0.002697414464276169   -0.006588262992074572   -0.0012237197825567725
0.001481287022540393   -0.002236146143122641   -0.0006823059015554173
0.00021839385165463467   -0.0021393336651017426   -0.000593832102010943
0.002697414464276169   -0.006588262992074572   -0.0012237197825567725
0.00029095477764591436   -0.006592035871227963   -0.00107744008497391
0.0002746123339151954   -0.006631897309045181   -0.0010669124251544287
0.00021839385165463467   -0.0021393336651017426   -0.000593832102010943
0.002697414464276169   -0.006588262992074572   -0.0012237197825567725
0.0002746123339151954   -0.006631897309045181   -0.0010669124251544287
0.001481287022540393   -0.002236146143122641   -0.0006823059015554173
0.0014846234274070635   -0.0022565995528971545   -0.000495954592471271
0.0027034613445135343   -0.0067070677839476435   -0.001008379877821516
0.0033528692568300243   -0.002521539558580633   -0.00046817651210429744
0.0014874751376259907   -0.0022685384989995813   -0.0005910497334553149
0.0027034613445135343   -0.0067070677839476435   -0.001008379877821516
0.005680479807617382   -0.006906646417442593   -0.0009923927261944732
0.0033528692568300243   -0.002521539558580633   -0.00046817651210429744
0.005565502220719953   -0.006887624191709663   -0.001136601606991873
0.0014874751376259907   -0.0022685384989995813   -0.0005910497334553149
0.003149160426157828   -0.002493893164413529   -0.000683857637266725
0.005565502220719953   -0.006887624191709663   -0.001136601606991873
0.0033528692568300243   -0.002521539558580633   -0.00046817651210429744
0.0014874751376259907   -0.0022685384989995813   -0.0005910497334553149
0.005565502220719953   -0.006887624191709663   -0.001136601606991873
0.002716401564305823   -0.006706625905492541   -0.0010724562170411013
0.0027034613445135343   -0.0067070677839476435   -0.001008379877821516
0.0014874751376259907   -0.0022685384989995813   -0.0005910497334553149
0.005565502220719953   -0.006887624191709663   -0.001136601606991873
0.0027034613445135343   -0.0067070677839476435   -0.001008379877821516
0.0033528692568300243   -0.002521539558580633   -0.00046817651210429744
0.0014874751376259907   -0.0022685384989995813   -0.0005910497334553149
0.002716401564305823   -0.006706625905492541   -0.0010724562170411013
0.003149160426157828   -0.002493893164413529   -0.000683857637266725
0.001481287022540393   -0.002236146143122641   -0.0006823059015554173
0.002716401564305823   -0.006706625905492541   -0.0010724562170411013
0.005565502220719953   -0.006887624191709663   -0.001136601606991873
0.003149160426157828   -0.002493893164413529   -0.000683857637266725
0.005462698434641853   -0.006831686931587826   -0.0012989015183904444
0.001481287022540393   -0.002236146143122641   -0.0006823059015554173
0.0030553045839220765   -0.0024420457615590167   -0.0008662671540807742
0.005462698434641853   -0.006831686931587826   -0.0012989015183904444
0.003149160426157828   -0.002493893164413529   -0.000683857637266725
0.001481287022540393   -0.002236146143122641   -0.0006823059015554173
0.005462698434641853   -0.006831686931587826   -0.0012989015183904444
0.0027042410412426365   -0.006670327507941243   -0.0011451329389526236
0.002716401564305823   -0.006706625905492541   -0.0010724562170411013
0.001481287022540393   -0.002236146143122641   -0.0006823059015554173
0.005462698434641853   -0.006831686931587826   -0.0012989015183904444
0.002716401564305823   -0.006706625905492541   -0.0010724562170411013
0.003149160426157828   -0.002493893164413529   -0.000683857637266725
0.001481287022540393   -0.002236146143122641   -0.0006823059015554173
0.0027042410412426365   -0.006670327507941243   -0.0011451329389526236
0.0030553045839220765   -0.0024420457615590167   -0.0008662671540807742
0.0015101504773995741   -0.0021495281720597986   -0.0007718477824495786
0.0027042410412426365   -0.006670327507941243   -0.0011451329389526236
0.005462698434641853   -0.006831686931587826   -0.0012989015183904444
0.0030553045839220765   -0.0024420457615590167   -0.0008662671540807742
0.005308399741785775   -0.006707365719409291   -0.0014678911324069845
0.0015101504773995741   -0.0021495281720597986   -0.0007718477824495786
0.002915452059821334   -0.0023094794243231852   -0.0010593480205537875
0.005308399741785775   -0.006707365719409291   -0.0014678911324069845
0.0030553045839220765   -0.0024420457615590167   -0.0008662671540807742
0.0015101504773995741   -0.0021495281720597986   -0.0007718477824495786
0.005308399741785775   -0.006707365719409291   -0.0014678911324069845
0.002697414464276169   -0.006588262992074572   -0.0012237197825567725
0.0027042410412426365   -0.006670327507941243   -0.0011451329389526236
0.0015101504773995741   -0.0021495281720597986   -0.0007718477824495786
0.005308399741785775   -0.006707365719409291   -0.0014678911324069845
0.0027042410412426365   -0.006670327507941243   -0.0011451329389526236
0.0030553045839220765   -0.0024420457615590167   -0.0008662671540807742
-0.007057513419004907   -0.006927205920461885   -0.001706337731040135
-0.009666851153792622   -0.012984610765050536   -0.001943887643077238
-0.004504423487143168   -0.00670152606746748   -0.0014047718508629048
-0.007268528681967455   -0.0070868173085079375   -0.0014798931605887076
-0.009666851153792622   -0.012984610765050536   -0.001943887643077238
-0.006215468590833598   -0.012812251993396518   -0.0016994962745160132
-0.004504423487143168   -0.00670152606746748   -0.0014047718508629048
-0.00622868763709765   -0.012910890293042526   -0.0015913455511353406
-0.007268528681967455   -0.0070868173085079375   -0.0014798931605887076
-0.00450941924471485   -0.006815885990483223   -0.0012652915283544919
-0.00622868763709765   -0.012910890293042526   -0.0015913455511353406
-0.004504423487143168   -0.00670152606746748   -0.0014047718508629048
-0.007268528681967455   -0.0070868173085079375   -0.0014798931605887076
-0.00622868763709765   -0.012910890293042526   -0.0015913455511353406
-0.009838185944560216   -0.01311944018564292   -0.0017751577972793429
-0.009666851153792622   -0.012984610765050536   -0.001943887643077238
-0.007268528681967455   -0.0070868173085079375   -0.0014798931605887076
-0.00622868763709765   -0.012910890293042526   -0.0015913455511353406
-0.009666851153792622   -0.012984610765050536   -0.001943887643077238
-0.004504423487143168   -0.00670152606746748   -0.0014047718508629048
-0.007268528681967455   -0.0070868173085079375   -0.0014798931605887076
-0.009838185944560216   -0.01311944018564292   -0.0017751577972793429
-0.00450941924471485   -0.006815885990483223   -0.0012652915283544919
-0.0074150029370554215   -0.007176987968509613   -0.001258194707500079
-0.009838185944560216   -0.01311944018564292   -0.0017751577972793429
-0.00622868763709765   -0.012910890293042526   -0.0015913455511353406
-0.00450941924471485   -0.006815885990483223   -0.0012652915283544919
-0.006244303961185503   -0.012979571326757035   -0.0014910367682292869
-0.0074150029370554215   -0.007176987968509613   -0.001258194707500079
-0.004526828929084536   -0.006885630939354232   -0.001131277980644532
-0.006244303961185503   -0.012979571326757035   -0.0014910367682292869
-0.00450941924471485   -0.006815885990483223   -0.0012652915283544919
-0.0074150029370554215   -0.007176987968509613   -0.001258194707500079
-0.006244303961185503   -0.012979571326757035   -0.0014910367682292869
-0.00994600992252197   -0.01320403004410621   -0.0016179216575967037
-0.009838185944560216   -0.01311944018564292   -0.0017751577972793429
-0.0074150029370554215   -0.007176987968509613   -0.001258194707500079
-0.006244303961185503   -0.012979571326757035   -0.0014910367682292869
-0.009838185944560216   -0.01311944018564292   -0.0017751577972793429
-0.00450941924471485   -0.006815885990483223   -0.0012652915283544919
-0.0074150029370554215   -0.007176987968509613   -0.001258194707500079
-0.00994600992252197   -0.01320403004410621   -0.0016179216575967037
-0.004526828929084536   -0.006885630939354232   -0.001131277980644532
-0.007588114742744406   -0.007229507562461816   -0.00105653766331451
-0.00994600992252197   -0.01320403004410621   -0.0016179216575967037
-0.006244303961185503   -0.012979571326757035   -0.0014910367682292869
-0.004526828929084536   -0.006885630939354232   -0.001131277980644532
-0.00623216627852744   -0.013024814522644526   -0.0013968982112952863
-0.007588114742744406   -0.007229507562461816   -0.00105653766331451
-0.004512978966128698   -0.006921874148593486   -0.0010058580351805318
-0.00623216627852744   -0.013024814522644526   -0.0013968982112952863
-0.004526828929084536   -0.006885630939354232   -0.001131277980644532
-0.007588114742744406   -0.007229507562461816   -0.00105653766331451
-0.00623216627852744   -0.013024814522644526   -0.0013968982112952863
-0.010068691429450525   -0.013264958564427122   -0.001473254460905076
-0.00994600992252197   -0.01320403004410621   -0.0016179216575967037
-0.007588114742744406   -0.007229507562461816   -0.00105653766331451
-0.00623216627852744   -0.013024814522644526   -0.0013968982112952863
-0.00994600992252197   -0.01320403004410621   -0.0016179216575967037
-0.004526828929084536   -0.006885630939354232   -0.001131277980644532
-0.004504423487143168   -0.00670152606746748   -0.0014047718508629048
-0.006215468590833598   -0.012812251993396518   -0.0016994962745160132
-0.002090604321551198   -0.00659651154194641   -0.001198945296463211
-0.00450941924471485   -0.006815885990483223   -0.0012652915283544919
-0.006215468590833598   -0.012812251993396518   -0.0016994962745160132
-0.002961884227328649   -0.012726277011738996   -0.001529723813057283
-0.002090604321551198   -0.00659651154194641   -0.001198945296463211
-0.0029540623830564606   -0.012789314898438419   -0.0014685603988053772
-0.00450941924471485   -0.006815885990483223   -0.0012652915283544919
-0.002072238040100776   -0.006669261314133549   -0.0011274383035486646
-0.0029540623830564606   -0.012789314898438419   -0.0014685603988053772
-0.002090604321551198   -0.00659651154194641   -0.001198945296463211
-0.00450941924471485   -0.006815885990483223   -0.0012652915283544919
-0.0029540623830564606   -0.012789314898438419   -0.0014685603988053772
-0.00622868763709765   -0.012910890293042526   -0.0015913455511353406
-0.006215468590833598   -0.012812251993396518   -0.0016994962745160132
-0.00450941924471485   -0.006815885990483223   -0.0012652915283544919
-0.0029540623830564606   -0.012789314898438419   -0.0014685603988053772
-0.006215468590833598   -0.012812251993396518   -0.0016994962745160132
-0.002090604321551198   -0.00659651154194641   -0.001198945296463211
-0.00450941924471485   -0.006815885990483223   -0.0012652915283544919
-0.00622868763709765   -0.012910890293042526   -0.0015913455511353406
-0.002072238040100776   -0.006669261314133549   -0.0011274383035486646
-0.004526828929084536   -0.006885630939354232   -0.001131277980644532
-0.00622868763709765   -0.012910890293042526   -0.0015913455511353406
-0.0029540623830564606   -0.012789314898438419   -0.0014685603988053772
-0.002072238040100776   -0.006669261314133549   -0.0011274383035486646
-0.002944574513578838   -0.012826357775239059   -0.0014148617063438093
-0.004526828929084536   -0.006885630939354232   -0.001131277980644532
-0.00205592538561828   -0.0067045565591012084   -0.001062630185120996
-0.002944574513578838   -0.012826357775239059   -0.0014148617063438093
-0.002072238040100776   -0.006669261314133549   -0.0011274383035486646
-0.004526828929084536   -0.006885630939354232   -0.001131277980644532
-0.002944574513578838   -0.012826357775239059   -0.0014148617063438093
-0.006244303961185503   -0.012979571326757035   -0.0014910367682292869
-0.00622868763709765   -0.012910890293042526   -0.0015913455511353406
-0.004526828929084536   -0.006885630939354232   -0.001131277980644532
-0.002944574513578838   -0.012826357775239059   -0.0014148617063438093
-0.00622868763709765   -0.012910890293042526   -0.0015913455511353406
-0.002072238040100776   -0.006669261314133549   -0.0011274383035486646
-0.004526828929084536   -0.006885630939354232   -0.001131277980644532
-0.006244303961185503   -0.012979571326757035   -0.0014910367682292869
-0.00205592538561828   -0.0067045565591012084   -0.001062630185120996
-0.004512978966128698   -0.006921874148593486   -0.0010058580351805318
-0.006244303961185503   -0.012979571326757035   -0.0014910367682292869
-0.002944574513578838   -0.012826357775239059   -0.0014148617063438093
-0.00205592538561828   -0.0067045565591012084   -0.001062630185120996
-0.0029292303308391813   -0.012837935115904944   -0.00136860671835382
-0.004512978966128698   -0.006921874148593486   -0.0010058580351805318
-0.002031735948410079   -0.0067037268730995355   -0.0010062241182078897
-0.0029292303308391813   -0.012837935115904944   -0.00136860671835382
-0.00205592538561828   -0.0067045565591012084   -0.001062630185120996
-0.004512978966128698   -0.006921874148593486   -0.0010058580351805318
-0.0029292303308391813   -0.012837935115904944   -0.00136860671835382
-0.00623216627852744   -0.013024814522644526   -0.0013968982112952863
-0.006244303961185503   -0.012979571326757035   -0.0014910367682292869
-0.004512978966128698   -0.006921874148593486   -0.0010058580351805318
-0.0029292303308391813   -0.012837935115904944   -0.00136860671835382
-0.006244303961185503   -0.012979571326757035   -0.0014910367682292869
-0.00205592538561828   -0.0067045565591012084   -0.001062630185120996
-0.002090604321551198   -0.00659651154194641   -0.001198945296463211
-0.002961884227328649   -0.012726277011738996   -0.001529723813057283
0.00023683933462385478   -0.00659965801814505   -0.001068902254121377
-0.002072238040100776   -0.006669261314133549   -0.0011274383035486646
-0.002961884227328649   -0.012726277011738996   -0.001529723813057283
0.00019597098150252727   -0.012721693497565347   -0.00142455723225999
0.00023683933462385478   -0.00659965801814505   -0.001068902254121377
0.0002100326231895995   -0.012749678602807953   -0.0014101320741271707
-0.002072238040100776   -0.006669261314133549   -0.0011274383035486646
0.00025935669333196115   -0.006634066501641905   -0.0010641064102928444
0.0002100326231895995   -0.012749678602807953   -0.0014101320741271707
0.00023683933462385478   -0.00659965801814505   -0.001068902254121377
-0.002072238040100776   -0.006669261314133549   -0.0011274383035486646
0.0002100326231895995   -0.012749678602807953   -0.0014101320741271707
-0.0029540623830564606   -0.012789314898438419   -0.0014685603988053772
-0.002961884227328649   -0.012726277011738996   -0.001529723813057283
-0.002072238040100776   -0.006669261314133549   -0.0011274383035486646
0.0002100326231895995   -0.012749678602807953   -0.0014101320741271707
-0.002961884227328649   -0.012726277011738996   -0.001529723813057283
0.00023683933462385478   -0.00659965801814505   -0.001068902254121377
-0.002072238040100776   -0.006669261314133549   -0.0011274383035486646
-0.0029540623830564606   -0.012789314898438419   -0.0014685603988053772
0.00025935669333196115   -0.006634066501641905   -0.0010641064102928444
-0.00205592538561828   -0.0067045565591012084   -0.001062630185120996
-0.0029540623830564606   -0.012789314898438419   -0.0014685603988053772
0.0002100326231895995   -0.012749678602807953   -0.0014101320741271707
0.00025935669333196115   -0.006634066501641905   -0.0010641064102928444
0.00021919147739336386   -0.012751772203806792   -0.0014029780619378219
-0.00205592538561828   -0.0067045565591012084   -0.001062630185120996
0.0002746123339151954   -0.006631897309045181   -0.0010669124251544287
0.00021919147739336386   -0.012751772203806792   -0.0014029780619378219
0.00025935669333196115   -0.006634066501641905   -0.0010641064102928444
-0.00205592538561828   -0.0067045565591012084   -0.001062630185120996
0.00021919147739336386   -0.012751772203806792   -0.0014029780619378219
-0.002944574513578838   -0.012826357775239059   -0.0014148617063438093
-0.0029540623830564606   -0.012789314898438419   -0.0014685603988053772
-0.00205592538561828   -0.0067045565591012084   -0.001062630185120996
0.00021919147739336386   -0.012751772203806792   -0.0014029780619378219
-0.0029540623830564606   -0.012789314898438419   -0.0014685603988053772
0.00025935669333196115   -0.006634066501641905   -0.0010641064102928444
-0.00205592538561828   -0.0067045565591012084   -0.001062630185120996
-0.002944574513578838   -0.012826357775239059   -0.0014148617063438093
0.0002746123339151954   -0.006631897309045181   -0.0010669124251544287
-0.002031735948410079   -0.0067037268730995355   -0.0010062241182078897
-0.002944574513578838   -0.012826357775239059   -0.0014148617063438093
0.00021919147739336386   -0.012751772203806792   -0.0014029780619378219
0.0002746123339151954   -0.006631897309045181   -0.0010669124251544287
0.0002259330417138623   -0.012727588849157985   -0.0014035354886400148
-0.002031735948410079   -0.0067037268730995355   -0.0010062241182078897
0.00029095477764591436   -0.006592035871227963   -0.00107744008497391
0.0002259330417138623   -0.012727588849157985   -0.0014035354886400148
0.0002746123339151954   -0.006631897309045181   -0.0010669124251544287
-0.002031735948410079   -0.0067037268730995355   -0.0010062241182078897
0.0002259330417138623   -0.012727588849157985   -0.0014035354886400148
-0.0029292303308391813   -0.012837935115904944   -0.00136860671835382
-0.002944574513578838   -0.012826357775239059   -0.0014148617063438093
-0.002031735948410079   -0.0067037268730995355   -0.0010062241182078897
0.0002259330417138623   -0.012727588849157985   -0.0014035354886400148
-0.002944574513578838   -0.012826357775239059   -0.0014148617063438093
0.0002746123339151954   -0.006631897309045181   -0.0010669124251544287
0.00023683933462385478   -0.00659965801814505   -0.001068902254121377
0.00019597098150252727   -0.012721693497565347   -0.00142455723225999
0.0027034613445135343   -0.0067070677839476435   -0.001008379877821516
0.00025935669333196115   -0.006634066501641905   -0.0010641064102928444
0.00019597098150252727   -0.012721693497565347   -0.00142455723225999
0.0034887216831645767   -0.01279365964368388   -0.0013822119516386532
0.0027034613445135343   -0.0067070677839476435   -0.001008379877821516
0.003501097059096197   -0.012789500894575704   -0.001415492283746282
0.00025935669333196115   -0.006634066501641905   -0.0010641064102928444
0.002716401564305823   -0.006706625905492541   -0.0010724562170411013
0.003501097059096197   -0.012789500894575704   -0.001415492283746282
0.0027034613445135343   -0.0067070677839476435   -0.001008379877821516
0.00025935669333196115   -0.006634066501641905   -0.0010641064102928444
0.003501097059096197   -0.012789500894575704   -0.001415492283746282
0.0002100326231895995   -0.012749678602807953   -0.0014101320741271707
0.00019597098150252727   -0.012721693497565347   -0.00142455723225999
0.00025935669333196115   -0.006634066501641905   -0.0010641064102928444
0.003501097059096197   -0.012789500894575704   -0.001415492283746282
0.00019597098150252727   -0.012721693497565347   -0.00142455723225999
0.0027034613445135343   -0.0067070677839476435   -0.001008379877821516
0.00025935669333196115   -0.006634066501641905   -0.0010641064102928444
0.0002100326231895995   -0.012749678602807953   -0.0014101320741271707
0.002716401564305823   -0.006706625905492541   -0.0010724562170411013
0.0002746123339151954   -0.006631897309045181   -0.0010669124251544287
0.0002100326231895995   -0.012749678602807953   -0.0014101320741271707
0.003501097059096197   -0.012789500894575704   -0.001415492283746282
0.002716401564305823   -0.006706625905492541   -0.0010724562170411013
0.003492705578513045   -0.012760020651108038   -0.0014555094879831621
0.0002746123339151954   -0.006631897309045181   -0.0010669124251544287
0.0027042410412426365   -0.006670327507941243   -0.0011451329389526236
0.003492705578513045   -0.012760020651108038   -0.0014555094879831621
0.002716401564305823   -0.006706625905492541   -0.0010724562170411013
0.0002746123339151954   -0.006631897309045181   -0.0010669124251544287
0.003492705578513045   -0.012760020651108038   -0.0014555094879831621
0.00021919147739336386   -0.012751772203806792   -0.0014029780619378219
0.0002100326231895995   -0.012749678602807953   -0.0014101320741271707
0.0002746123339151954   -0.006631897309045181   -0.0010669124251544287
0.003492705578513045   -0.012760020651108038   -0.0014555094879831621
0.0002100326231895995   -0.012749678602807953   -0.0014101320741271707
0.002716401564305823   -0.006706625905492541   -0.0010724562170411013
0.0002746123339151954   -0.006631897309045181   -0.0010669124251544287
0.00021919147739336386   -0.012751772203806792   -0.0014029780619378219
0.0027042410412426365   -0.006670327507941243   -0.0011451329389526236
0.00029095477764591436   -0.006592035871227963   -0.00107744008497391
0.00021919147739336386   -0.012751772203806792   -0.0014029780619378219
0.003492705578513045   -0.012760020651108038   -0.0014555094879831621
0.0027042410412426365   -0.006670327507941243   -0.0011451329389526236
0.0034798689235588528   -0.012698932480047952   -0.0015030630123209635
0.00029095477764591436   -0.006592035871227963   -0.00107744008497391
0.002697414464276169   -0.006588262992074572   -0.0012237197825567725
0.0034798689235588528   -0.012698932480047952   -0.0015030630123209635
0.0027042410412426365   -0.006670327507941243   -0.0011451329389526236
0.00029095477764591436   -0.006592035871227963   -0.00107744008497391
0.0034798689235588528   -0.012698932480047952   -0.0015030630123209635
0.0002259330417138623   -0.012727588849157985   -0.0014035354886400148
0.00021919147739336386   -0.012751772203806792   -0.0014029780619378219
0.00029095477764591436   -0.006592035871227963   -0.00107744008497391
0.0034798689235588528   -0.012698932480047952   -0.0015030630123209635
0.00021919147739336386   -0.012751772203806792   -0.0014029780619378219
0.0027042410412426365   -0.006670327507941243   -0.0011451329389526236
0.0027034613445135343   -0.0067070677839476435   -0.001008379877821516
0.0034887216831645767   -0.01279365964368388   -0.0013822119516386532
0.005680479807617382   -0.006906646417442593   -0.0009923927261944732
0.002716401564305823   -0.006706625905492541   -0.0010724562170411013
0.0034887216831645767   -0.01279365964368388   -0.0013822119516386532
0.007238918687594688   -0.012924095042329737   -0.0013834282402438928
0.005680479807617382   -0.006906646417442593   -0.0009923927261944732
0.00717666336523835   -0.012901391532668742   -0.0014705059827035331
0.002716401564305823   -0.006706625905492541   -0.0010724562170411013
0.005565502220719953   -0.006887624191709663   -0.001136601606991873
0.00717666336523835   -0.012901391532668742   -0.0014705059827035331
0.005680479807617382   -0.006906646417442593   -0.0009923927261944732
0.002716401564305823   -0.006706625905492541   -0.0010724562170411013
0.00717666336523835   -0.012901391532668742   -0.0014705059827035331
0.003501097059096197   -0.012789500894575704   -0.001415492283746282
0.0034887216831645767   -0.01279365964368388   -0.0013822119516386532
0.002716401564305823   -0.006706625905492541   -0.0010724562170411013
0.00717666336523835   -0.012901391532668742   -0.0014705059827035331
0.0034887216831645767   -0.01279365964368388   -0.0013822119516386532
0.005680479807617382   -0.006906646417442593   -0.0009923927261944732
0.002716401564305823   -0.006706625905492541   -0.0010724562170411013
0.003501097059096197   -0.012789500894575704   -0.001415492283746282
0.005565502220719953   -0.006887624191709663   -0.001136601606991873
0.0027042410412426365   -0.006670327507941243   -0.0011451329389526236
0.003501097059096197   -0.012789500894575704   -0.001415492283746282
0.00717666336523835   -0.012901391532668742   -0.0014705059827035331
0.005565502220719953   -0.006887624191709663   -0.001136601606991873
0.007114418597406522   -0.012856031589736172   -0.0015697323718252604
0.0027042410412426365   -0.006670327507941243   -0.0011451329389526236
0.005462698434641853   -0.006831686931587826   -0.0012989015183904444
0.007114418597406522   -0.012856031589736172   -0.0015697323718252604
0.005565502220719953   -0.006887624191709663   -0.001136601606991873
0.0027042410412426365   -0.006670327507941243   -0.0011451329389526236
0.007114418597406522   -0.012856031589736172   -0.0015697323718252604
0.003492705578513045   -0.012760020651108038   -0.0014555094879831621
0.003501097059096197   -0.012789500894575704   -0.001415492283746282
0.0027042410412426365   -0.006670327507941243   -0.0011451329389526236
0.007114418597406522   -0.012856031589736172   -0.0015697323718252604
0.003501097059096197   -0.012789500894575704   -0.001415492283746282
0.005565502220719953   -0.006887624191709663   -0.001136601606991873
0.0027042410412426365   -0.006670327507941243   -0.0011451329389526236
0.003492705578513045   -0.012760020651108038   -0.0014555094879831621
0.005462698434641853   -0.006831686931587826   -0.0012989015183904444
0.002697414464276169   -0.006588262992074572   -0.0012237197825567725
0.003492705578513045   -0.012760020651108038   -0.0014555094879831621
0.007114418597406522   -0.012856031589736172   -0.0015697323718252604
0.005462698434641853   -0.006831686931587826   -0.0012989015183904444
0.00700337175330659   -0.012761042324503213   -0.0016811205064498282
0.002697414464276169   -0.006588262992074572   -0.0012237197825567725
0.005308399741785775   -0.006707365719409291   -0.0014678911324069845
0.00700337175330659   -0.012761042324503213   -0.0016811205064498282
0.005462698434641853   -0.006831686931587826   -0.0012989015183904444
0.002697414464276169   -0.006588262992074572   -0.0012237197825567725
0.00700337175330659   -0.012761042324503213   -0.0016811205064498282
0.0034798689235588528   -0.012698932480047952   -0.0015030630123209635
0.003492705578513045   -0.012760020651108038   -0.0014555094879831621
0.002697414464276169   -0.006588262992074572   -0.0012237197825567725
0.00700337175330659   -0.012761042324503213   -0.0016811205064498282
0.003492705578513045   -0.012760020651108038   -0.0014555094879831621
0.005462698434641853   -0.006831686931587826   -0.0012989015183904444
-0.009666851153792622   -0.012984610765050536   -0.001943887643077238
-0.011540543188696505   -0.02016333296427591   -0.0020736286659827395
-0.006215468590833598   -0.012812251993396518   -0.0016994962745160132
-0.009838185944560216   -0.01311944018564292   -0.0017751577972793429
-0.011540543188696505   -0.02016333296427591   -0.0020736286659827395
-0.0074918217030893455   -0.020053770693175262   -0.0018745478799531007
-0.006215468590833598   -0.012812251993396518   -0.0016994962745160132
-0.007500383697796783   -0.020138548631299796   -0.0017971877588933156
-0.009838185944560216   -0.01311944018564292   -0.0017751577972793429
-0.00622868763709765   -0.012910890293042526   -0.0015913455511353406
-0.007500383697796783   -0.020138548631299796   -0.0017971877588933156
-0.006215468590833598   -0.012812251993396518   -0.0016994962745160132
-0.009838185944560216   -0.01311944018564292   -0.0017751577972793429
-0.007500383697796783   -0.020138548631299796   -0.0017971877588933156
-0.011655702113304994   -0.020278049038782865   -0.0019617113902655036
-0.011540543188696505   -0.02016333296427591   -0.0020736286659827395
-0.009838185944560216   -0.01311944018564292   -0.0017751577972793429
-0.007500383697796783   -0.020138548631299796   -0.0017971877588933156
-0.011540543188696505   -0.02016333296427591   -0.0020736286659827395
-0.006215468590833598   -0.012812251993396518   -0.0016994962745160132
-0.009838185944560216   -0.01311944018564292   -0.0017751577972793429
-0.011655702113304994   -0.020278049038782865   -0.0019617113902655036
-0.00622868763709765   -0.012910890293042526   -0.0015913455511353406
-0.00994600992252197   -0.01320403004410621   -0.0016179216575967037
-0.011655702113304994   -0.020278049038782865   -0.0019617113902655036
-0.007500383697796783   -0.020138548631299796   -0.0017971877588933156
-0.00622868763709765   -0.012910890293042526   -0.0015913455511353406
-0.007506348303973006   -0.020205800429298825   -0.0017275445658724259
-0.00994600992252197   -0.01320403004410621   -0.0016179216575967037
-0.006244303961185503   -0.012979571326757035   -0.0014910367682292869
-0.007506348303973006   -0.020205800429298825   -0.0017275445658724259
-0.00622868763709765   -0.012910890293042526   -0.0015913455511353406
-0.00994600992252197   -0.01320403004410621   -0.0016179216575967037
-0.007506348303973006   -0.020205800429298825   -0.0017275445658724259
-0.01172155707282188   -0.020359262020510038   -0.0018605527952567289
-0.011655702113304994   -0.020278049038782865   -0.0019617113902655036
-0.00994600992252197   -0.01320403004410621   -0.0016179216575967037
-0.007506348303973006   -0.020205800429298825   -0.0017275445658724259
-0.011655702113304994   -0.020278049038782865   -0.0019617113902655036
-0.00622868763709765   -0.012910890293042526   -0.0015913455511353406
-0.00994600992252197   -0.01320403004410621   -0.0016179216575967037
-0.01172155707282188   -0.020359262020510038   -0.0018605527952567289
-0.006244303961185503   -0.012979571326757035   -0.0014910367682292869
-0.010068691429450525   -0.013264958564427122   -0.001473254460905076
-0.01172155707282188   -0.020359262020510038   -0.0018605527952567289
-0.007506348303973006   -0.020205800429298825   -0.0017275445658724259
-0.006244303961185503   -0.012979571326757035   -0.0014910367682292869
-0.0074903626500905035   -0.02026110769987561   -0.001664589613931297
-0.010068691429450525   -0.013264958564427122   -0.001473254460905076
-0.00623216627852744   -0.013024814522644526   -0.0013968982112952863
-0.0074903626500905035   -0.02026110769987561   -0.001664589613931297
-0.006244303961185503   -0.012979571326757035   -0.0014910367682292869
-0.010068691429450525   -0.013264958564427122   -0.001473254460905076
-0.0074903626500905035   -0.02026110769987561   -0.001664589613931297
-0.011789353444750655   -0.02043214404058596   -0.0017714343613848425
-0.01172155707282188   -0.020359262020510038   -0.0018605527952567289
-0.010068691429450525   -0.013264958564427122   -0.001473254460905076
-0.0074903626500905035   -0.02026110769987561   -0.001664589613931297
-0.01172155707282188   -0.020359262020510038   -0.0018605527952567289
-0.006244303961185503   -0.012979571326757035   -0.0014910367682292869
-0.006215468590833598   -0.012812251993396518   -0.0016994962745160132
-0.0074918217030893455   -0.020053770693175262   -0.0018745478799531007
-0.002961884227328649   -0.012726277011738996   -0.001529723813057283
-0.00622868763709765   -0.012910890293042526   -0.0015913455511353406
-0.0074918217030893455   -0.020053770693175262   -0.0018745478799531007
-0.0036966298662823105   -0.019997070784297806   -0.001736710640708214
-0.002961884227328649   -0.012726277011738996   -0.001529723813057283
-0.003689170360950649   -0.02005023378106871   -0.0016855824475817155
-0.00622868763709765   -0.012910890293042526   -0.0015913455511353406
-0.0029540623830564606   -0.012789314898438419   -0.0014685603988053772
-0.003689170360950649   -0.02005023378106871   -0.0016855824475817155
-0.002961884227328649   -0.012726277011738996   -0.001529723813057283
-0.00622868763709765   -0.012910890293042526   -0.0015913455511353406
-0.003689170360950649   -0.02005023378106871   -0.0016855824475817155
-0.007500383697796783   -0.020138548631299796   -0.0017971877588933156
-0.0074918217030893455   -0.020053770693175262   -0.0018745478799531007
-0.00622868763709765   -0.012910890293042526   -0.0015913455511353406
-0.003689170360950649   -0.02005023378106871   -0.0016855824475817155
-0.0074918217030893455   -0.020053770693175262   -0.0018745478799531007
-0.002961884227328649   -0.012726277011738996   -0.001529723813057283
-0.00622868763709765   -0.012910890293042526   -0.0015913455511353406
-0.007500383697796783   -0.020138548631299796   -0.0017971877588933156
-0.0029540623830564606   -0.012789314898438419   -0.0014685603988053772
-0.006244303961185503   -0.012979571326757035   -0.0014910367682292869
-0.007500383697796783   -0.020138548631299796   -0.0017971877588933156
-0.003689170360950649   -0.02005023378106871   -0.0016855824475817155
-0.0029540623830564606   -0.012789314898438419   -0.0014685603988053772
-0.0036791462817533454   -0.02008870587808154   -0.0016420528793566896
-0.006244303961185503   -0.012979571326757035   -0.0014910367682292869
-0.002944574513578838   -0.012826357775239059   -0.0014148617063438093
-0.0036791462817533454   -0.02008870587808154   -0.0016420528793566896
-0.0029540623830564606   -0.012789314898438419   -0.0014685603988053772
-0.006244303961185503   -0.012979571326757035   -0.0014910367682292869
-0.0036791462817533454   -0.02008870587808154   -0.0016420528793566896
-0.007506348303973006   -0.020205800429298825   -0.0017275445658724259
-0.007500383697796783   -0.020138548631299796   -0.0017971877588933156
-0.006244303961185503   -0.012979571326757035   -0.0014910367682292869
-0.0036791462817533454   -0.02008870587808154   -0.0016420528793566896
-0.007500383697796783   -0.020138548631299796   -0.0017971877588933156
-0.0029540623830564606   -0.012789314898438419   -0.0014685603988053772
-0.006244303961185503   -0.012979571326757035   -0.0014910367682292869
-0.007506348303973006   -0.020205800429298825   -0.0017275445658724259
-0.002944574513578838   -0.012826357775239059   -0.0014148617063438093
-0.00623216627852744   -0.013024814522644526   -0.0013968982112952863
-0.007506348303973006   -0.020205800429298825   -0.0017275445658724259
-0.0036791462817533454   -0.02008870587808154   -0.0016420528793566896
-0.002944574513578838   -0.012826357775239059   -0.0014148617063438093
-0.0036644005790968915   -0.0201127397484208   -0.001606249532741479
-0.00623216627852744   -0.013024814522644526   -0.0013968982112952863
-0.0029292303308391813   -0.012837935115904944   -0.00136860671835382
-0.0036644005790968915   -0.0201127397484208   -0.001606249532741479
-0.002944574513578838   -0.012826357775239059   -0.0014148617063438093
-0.00623216627852744   -0.013024814522644526   -0.0013968982112952863
-0.0036644005790968915   -0.0201127397484208   -0.001606249532741479
-0.0074903626500905035   -0.02026110769987561   -0.001664589613931297
-0.007506348303973006   -0.020205800429298825   -0.0017275445658724259
-0.00623216627852744   -0.013024814522644526   -0.0013968982112952863
-0.0036644005790968915   -0.0201127397484208   -0.001606249532741479
-0.007506348303973006   -0.020205800429298825   -0.0017275445658724259
-0.002944574513578838   -0.012826357775239059   -0.0014148617063438093
-0.002961884227328649   -0.012726277011738996   -0.001529723813057283
-0.0036966298662823105   -0.019997070784297806   -0.001736710640708214
0.00019597098150252727   -0.012721693497565347   -0.00142455723225999
-0.0029540623830564606   -0.012789314898438419   -0.0014685603988053772
-0.0036966298662823105   -0.019997070784297806   -0.001736710640708214
-4.607156927283763e-06   -0.019987274229522164   -0.0016565351197595536
0.00019597098150252727   -0.012721693497565347   -0.00142455723225999
9.064514576825184e-06   -0.020008637959235645   -0.0016318481995532448
-0.0029540623830564606   -0.012789314898438419   -0.0014685603988053772
0.0002100326231895995   -0.012749678602807953   -0.0014101320741271707
9.064514576825184e-06   -0.020008637959235645   -0.0016318481995532448
0.00019597098150252727   -0.012721693497565347   -0.00142455723225999
-0.0029540623830564606   -0.012789314898438419   -0.0014685603988053772
9.064514576825184e-06   -0.020008637959235645   -0.0016318481995532448
-0.003689170360950649   -0.02005023378106871   -0.0016855824475817155
-0.0036966298662823105   -0.019997070784297806   -0.001736710640708214
-0.0029540623830564606   -0.012789314898438419   -0.0014685603988053772
9.064514576825184e-06   -0.020008637959235645   -0.0016318481995532448
-0.0036966298662823105   -0.019997070784297806   -0.001736710640708214
0.00019597098150252727   -0.012721693497565347   -0.00142455723225999
-0.0029540623830564606   -0.012789314898438419   -0.0014685603988053772
-0.003689170360950649   -0.02005023378106871   -0.0016855824475817155
0.0002100326231895995   -0.012749678602807953   -0.0014101320741271707
-0.002944574513578838   -0.012826357775239059   -0.0014148617063438093
-0.003689170360950649   -0.02005023378106871   -0.0016855824475817155
9.064514576825184e-06   -0.020008637959235645   -0.0016318481995532448
0.0002100326231895995   -0.012749678602807953   -0.0014101320741271707
1.8921286720645704e-05   -0.020015208930106932   -0.0016146652038163312
-0.002944574513578838   -0.012826357775239059   -0.0014148617063438093
0.00021919147739336386   -0.012751772203806792   -0.0014029780619378219
1.8921286720645704e-05   -0.020015208930106932   -0.0016146652038163312
0.0002100326231895995   -0.012749678602807953   -0.0014101320741271707
-0.002944574513578838   -0.012826357775239059   -0.0014148617063438093
1.8921286720645704e-05   -0.020015208930106932   -0.0016146652038163312
-0.0036791462817533454   -0.02008870587808154   -0.0016420528793566896
-0.003689170360950649   -0.02005023378106871   -0.0016855824475817155
-0.002944574513578838   -0.012826357775239059   -0.0014148617063438093
1.8921286720645704e-05   -0.020015208930106932   -0.0016146652038163312
-0.003689170360950649   -0.02005023378106871   -0.0016855824475817155
0.0002100326231895995   -0.012749678602807953   -0.0014101320741271707
-0.002944574513578838   -0.012826357775239059   -0.0014148617063438093
-0.0036791462817533454   -0.02008870587808154   -0.0016420528793566896
0.00021919147739336386   -0.012751772203806792   -0.0014029780619378219
-0.0029292303308391813   -0.012837935115904944   -0.00136860671835382
-0.0036791462817533454   -0.02008870587808154   -0.0016420528793566896
1.8921286720645704e-05   -0.020015208930106932   -0.0016146652038163312
0.00021919147739336386   -0.012751772203806792   -0.0014029780619378219
2.534555177121946e-05   -0.020006783922104688   -0.001605316841396268
-0.0029292303308391813   -0.012837935115904944   -0.00136860671835382
0.0002259330417138623   -0.012727588849157985   -0.0014035354886400148
2.534555177121946e-05   -0.020006783922104688   -0.001605316841396268
0.00021919147739336386   -0.012751772203806792   -0.0014029780619378219
-0.0029292303308391813   -0.012837935115904944   -0.00136860671835382
2.534555177121946e-05   -0.020006783922104688   -0.001605316841396268
-0.0036644005790968915   -0.0201127397484208   -0.001606249532741479
-0.0036791462817533454   -0.02008870587808154   -0.0016420528793566896
-0.0029292303308391813   -0.012837935115904944   -0.00136860671835382
2.534555177121946e-05   -0.020006783922104688   -0.001605316841396268
-0.0036791462817533454   -0.02008870587808154   -0.0016420528793566896
0.00021919147739336386   -0.012751772203806792   -0.0014029780619378219
0.00019597098150252727   -0.012721693497565347   -0.00142455723225999
-4.607156927283763e-06   -0.019987274229522164   -0.0016565351197595536
0.0034887216831645767   -0.01279365964368388   -0.0013822119516386532
0.0002100326231895995   -0.012749678602807953   -0.0014101320741271707
-4.607156927283763e-06   -0.019987274229522164   -0.0016565351197595536
0.0038144026762455554   -0.02002036313135486   -0.001633714579317197
0.0034887216831645767   -0.01279365964368388   -0.0013822119516386532
0.003831070097911363   -0.02001176225849605   -0.0016360226987625652
0.0002100326231895995   -0.012749678602807953   -0.0014101320741271707
0.003501097059096197   -0.012789500894575704   -0.001415492283746282
0.003831070097911363   -0.02001176225849605   -0.0016360226987625652
0.0034887216831645767   -0.01279365964368388   -0.0013822119516386532
0.0002100326231895995   -0.012749678602807953   -0.0014101320741271707
0.003831070097911363   -0.02001176225849605   -0.0016360226987625652
9.064514576825184e-06   -0.020008637959235645   -0.0016318481995532448
-4.607156927283763e-06   -0.019987274229522164   -0.0016565351197595536
0.0002100326231895995   -0.012749678602807953   -0.0014101320741271707
0.003831070097911363   -0.02001176225849605   -0.0016360226987625652
-4.607156927283763e-06   -0.019987274229522164   -0.0016565351197595536
0.0034887216831645767   -0.01279365964368388   -0.0013822119516386532
0.0002100326231895995   -0.012749678602807953   -0.0014101320741271707
9.064514576825184e-06   -0.020008637959235645   -0.0016318481995532448
0.003501097059096197   -0.012789500894575704   -0.001415492283746282
0.00021919147739336386   -0.012751772203806792   -0.0014029780619378219
9.064514576825184e-06   -0.020008637959235645   -0.0016318481995532448
0.003831070097911363   -0.02001176225849605   -0.0016360226987625652
0.003501097059096197   -0.012789500894575704   -0.001415492283746282
0.0038328284138284176   -0.0199895181369227   -0.001645429589742406
0.00021919147739336386   -0.012751772203806792   -0.0014029780619378219
0.003492705578513045   -0.012760020651108038   -0.0014555094879831621
0.0038328284138284176   -0.0199895181369227   -0.001645429589742406
0.003501097059096197   -0.012789500894575704   -0.001415492283746282
0.00021919147739336386   -0.012751772203806792   -0.0014029780619378219
0.0038328284138284176   -0.0199895181369227   -0.001645429589742406
1.8921286720645704e-05   -0.020015208930106932   -0.0016146652038163312
9.064514576825184e-06   -0.020008637959235645   -0.0016318481995532448
0.00021919147739336386   -0.012751772203806792   -0.0014029780619378219
0.0038328284138284176   -0.0199895181369227   -0.001645429589742406
9.064514576825184e-06   -0.020008637959235645   -0.0016318481995532448
0.003501097059096197   -0.012789500894575704   -0.001415492283746282
0.00021919147739336386   -0.012751772203806792   -0.0014029780619378219
1.8921286720645704e-05   -0.020015208930106932   -0.0016146652038163312
0.003492705578513045   -0.012760020651108038   -0.0014555094879831621
0.0002259330417138623   -0.012727588849157985   -0.0014035354886400148
1.8921286720645704e-05   -0.020015208930106932   -0.0016146652038163312
0.0038328284138284176   -0.0199895181369227   -0.001645429589742406
0.003492705578513045   -0.012760020651108038   -0.0014555094879831621
0.0038249679389813244   -0.019948080320317304   -0.0016622071812768852
0.0002259330417138623   -0.012727588849157985   -0.0014035354886400148
0.0034798689235588528   -0.012698932480047952   -0.0015030630123209635
0.0038249679389813244   -0.019948080320317304   -0.0016622071812768852
0.003492705578513045   -0.012760020651108038   -0.0014555094879831621
0.0002259330417138623   -0.012727588849157985   -0.0014035354886400148
0.0038249679389813244   -0.019948080320317304   -0.0016622071812768852
2.534555177121946e-05   -0.020006783922104688   -0.001605316841396268
1.8921286720645704e-05   -0.020015208930106932   -0.0016146652038163312
0.0002259330417138623   -0.012727588849157985   -0.0014035354886400148
0.0038249679389813244   -0.019948080320317304   -0.0016622071812768852
1.8921286720645704e-05   -0.020015208930106932   -0.0016146652038163312
0.003492705578513045   -0.012760020651108038   -0.0014555094879831621
0.0034887216831645767   -0.01279365964368388   -0.0013822119516386532
0.0038144026762455554   -0.02002036313135486   -0.001633714579317197
0.007238918687594688   -0.012924095042329737   -0.0013834282402438928
0.003501097059096197   -0.012789500894575704   -0.001415492283746282
0.0038144026762455554   -0.02002036313135486   -0.001633714579317197
0.008031482590850885   -0.02008109259373601   -0.0016558055305050678
0.007238918687594688   -0.012924095042329737   -0.0013834282402438928
0.008024863284342027   -0.020052179416487362   -0.0016871891334749468
0.003501097059096197   -0.012789500894575704   -0.001415492283746282
0.00717666336523835   -0.012901391532668742   -0.0014705059827035331
0.008024863284342027   -0.020052179416487362   -0.0016871891334749468
0.007238918687594688   -0.012924095042329737   -0.0013834282402438928
0.003501097059096197   -0.012789500894575704   -0.001415492283746282
0.008024863284342027   -0.020052179416487362   -0.0016871891334749468
0.003831070097911363   -0.02001176225849605   -0.0016360226987625652
0.0038144026762455554   -0.02002036313135486   -0.001633714579317197
0.003501097059096197   -0.012789500894575704   -0.001415492283746282
0.008024863284342027   -0.020052179416487362   -0.0016871891334749468
0.0038144026762455554   -0.02002036313135486   -0.001633714579317197
0.007238918687594688   -0.012924095042329737   -0.0013834282402438928
0.003501097059096197   -0.012789500894575704   -0.001415492283746282
0.003831070097911363   -0.02001176225849605   -0.0016360226987625652
0.00717666336523835   -0.012901391532668742   -0.0014705059827035331
0.003492705578513045   -0.012760020651108038   -0.0014555094879831621
0.003831070097911363   -0.02001176225849605   -0.0016360226987625652
0.008024863284342027   -0.020052179416487362   -0.0016871891334749468
0.00717666336523835   -0.012901391532668742   -0.0014705059827035331
0.008005465396997627   -0.020015927148785098   -0.0017300932576089102
0.003492705578513045   -0.012760020651108038   -0.0014555094879831621
0.007114418597406522   -0.012856031589736172   -0.0015697323718252604
0.008005465396997627   -0.020015927148785098   -0.0017300932576089102
0.00717666336523835   -0.012901391532668742   -0.0014705059827035331
0.003492705578513045   -0.012760020651108038   -0.0014555094879831621
0.008005465396997627   -0.020015927148785098   -0.0017300932576089102
0.0038328284138284176   -0.0199895181369227   -0.001645429589742406
0.003831070097911363   -0.02001176225849605   -0.0016360226987625652
0.003492705578513045   -0.012760020651108038   -0.0014555094879831621
0.008005465396997627   -0.020015927148785098   -0.0017300932576089102
0.003831070097911363   -0.02001176225849605   -0.0016360226987625652
0.00717666336523835   -0.012901391532668742   -0.0014705059827035331
0.003492705578513045   -0.012760020651108038   -0.0014555094879831621
0.0038328284138284176   -0.0199895181369227   -0.001645429589742406
0.007114418597406522   -0.012856031589736172   -0.0015697323718252604
0.0034798689235588528   -0.012698932480047952   -0.0015030630123209635
0.0038328284138284176   -0.0199895181369227   -0.001645429589742406
0.008005465396997627   -0.020015927148785098   -0.0017300932576089102
0.007114418597406522   -0.012856031589736172   -0.0015697323718252604
0.007951392285716114   -0.019946979491106017   -0.0017844342972409312
0.0034798689235588528   -0.012698932480047952   -0.0015030630123209635
0.00700337175330659   -0.012761042324503213   -0.0016811205064498282
0.007951392285716114   -0.019946979491106017   -0.0017844342972409312
0.007114418597406522   -0.012856031589736172   -0.0015697323718252604
0.0034798689235588528   -0.012698932480047952   -0.0015030630123209635
0.007951392285716114   -0.019946979491106017   -0.0017844342972409312
0.0038249679389813244   -0.019948080320317304   -0.0016622071812768852
0.0038328284138284176   -0.0199895181369227   -0.001645429589742406
0.0034798689235588528   -0.012698932480047952   -0.0015030630123209635
0.007951392285716114   -0.019946979491106017   -0.0017844342972409312
0.0038328284138284176   -0.0199895181369227   -0.001645429589742406
0.007114418597406522   -0.012856031589736172   -0.0015697323718252604
-0.011540543188696505   -0.02016333296427591   -0.0020736286659827395
-0.012673425991987175   -0.027973780679848823   -0.00211217908803786
-0.0074918217030893455   -0.020053770693175262   -0.0018745478799531007
-0.011655702113304994   -0.020278049038782865   -0.0019617113902655036
-0.012673425991987175   -0.027973780679848823   -0.00211217908803786
-0.008329142989041435   -0.027929224035640212   -0.001953762679433506
-0.0074918217030893455   -0.020053770693175262   -0.0018745478799531007
-0.008325435459768235   -0.028001470995997597   -0.0019063502161124318
-0.011655702113304994   -0.020278049038782865   -0.0019617113902655036
-0.007500383697796783   -0.020138548631299796   -0.0017971877588933156
-0.008325435459768235   -0.028001470995997597   -0.0019063502161124318
-0.0074918217030893455   -0.020053770693175262   -0.0018745478799531007
-0.011655702113304994   -0.020278049038782865   -0.0019617113902655036
-0.008325435459768235   -0.028001470995997597   -0.0019063502161124318
-0.012726925621411403   -0.028070921570880515   -0.0020545799112121716
-0.012673425991987175   -0.027973780679848823   -0.00211217908803786
-0.011655702113304994   -0.020278049038782865   -0.0019617113902655036
-0.008325435459768235   -0.028001470995997597   -0.0019063502161124318
-0.012673425991987175   -0.027973780679848823   -0.00211217908803786
-0.0074918217030893455   -0.020053770693175262   -0.0018745478799531007
-0.011655702113304994   -0.020278049038782865   -0.0019617113902655036
-0.012726925621411403   -0.028070921570880515   -0.0020545799112121716
-0.007500383697796783   -0.020138548631299796   -0.0017971877588933156
-0.01172155707282188   -0.020359262020510038   -0.0018605527952567289
-0.012726925621411403   -0.028070921570880515   -0.0020545799112121716
-0.008325435459768235   -0.028001470995997597   -0.0019063502161124318
-0.007500383697796783   -0.020138548631299796   -0.0017971877588933156
-0.008313874512022796   -0.028068169011967365   -0.0018668119727741491
-0.01172155707282188   -0.020359262020510038   -0.0018605527952567289
-0.007506348303973006   -0.020205800429298825   -0.0017275445658724259
-0.008313874512022796   -0.028068169011967365   -0.0018668119727741491
-0.007500383697796783   -0.020138548631299796   -0.0017971877588933156
-0.01172155707282188   -0.020359262020510038   -0.0018605527952567289
-0.008313874512022796   -0.028068169011967365   -0.0018668119727741491
-0.012743638289537732   -0.028150212939628588   -0.0020083128091355046
-0.012726925621411403   -0.028070921570880515   -0.0020545799112121716
-0.01172155707282188   -0.020359262020510038   -0.0018605527952567289
-0.008313874512022796   -0.028068169011967365   -0.0018668119727741491
-0.012726925621411403   -0.028070921570880515   -0.0020545799112121716
-0.007500383697796783   -0.020138548631299796   -0.0017971877588933156
-0.01172155707282188   -0.020359262020510038   -0.0018605527952567289
-0.012743638289537732   -0.028150212939628588   -0.0020083128091355046
-0.007506348303973006   -0.020205800429298825   -0.0017275445658724259
-0.011789353444750655   -0.02043214404058596   -0.0017714343613848425
-0.012743638289537732   -0.028150212939628588   -0.0020083128091355046
-0.008313874512022796   -0.028068169011967365   -0.0018668119727741491
-0.007506348303973006   -0.020205800429298825   -0.0017275445658724259
-0.008285985883491826   -0.028134406919513966   -0.0018345918980170722
-0.011789353444750655   -0.02043214404058596   -0.0017714343613848425
-0.0074903626500905035   -0.02026110769987561   -0.001664589613931297
-0.008285985883491826   -0.028134406919513966   -0.0018345918980170722
-0.007506348303973006   -0.020205800429298825   -0.0017275445658724259
-0.011789353444750655   -0.02043214404058596   -0.0017714343613848425
-0.008285985883491826   -0.028134406919513966   -0.0018345918980170722
-0.01274886904073351   -0.028236407006328935   -0.001974355906804168
-0.012743638289537732   -0.028150212939628588   -0.0020083128091355046
-0.011789353444750655   -0.02043214404058596   -0.0017714343613848425
-0.008285985883491826   -0.028134406919513966   -0.0018345918980170722
-0.012743638289537732   -0.028150212939628588   -0.0020083128091355046
-0.007506348303973006   -0.020205800429298825   -0.0017275445658724259
-0.0074918217030893455   -0.020053770693175262   -0.0018745478799531007
-0.008329142989041435   -0.027929224035640212   -0.001953762679433506
-0.0036966298662823105   -0.019997070784297806   -0.001736710640708214
-0.007500383697796783   -0.020138548631299796   -0.0017971877588933156
-0.008329142989041435   -0.027929224035640212   -0.001953762679433506
-0.004293701444550002   -0.027903558663774253   -0.001845928220200851
-0.0036966298662823105   -0.019997070784297806   -0.001736710640708214
-0.004278240015227096   -0.027947252289886197   -0.0018045249624211335
-0.007500383697796783   -0.020138548631299796   -0.0017971877588933156
-0.003689170360950649   -0.02005023378106871   -0.0016855824475817155
-0.004278240015227096   -0.027947252289886197   -0.0018045249624211335
-0.0036966298662823105   -0.019997070784297806   -0.001736710640708214
-0.007500383697796783   -0.020138548631299796   -0.0017971877588933156
-0.004278240015227096   -0.027947252289886197   -0.0018045249624211335
-0.008325435459768235   -0.028001470995997597   -0.0019063502161124318
-0.008329142989041435   -0.027929224035640212   -0.001953762679433506
-0.007500383697796783   -0.020138548631299796   -0.0017971877588933156
-0.004278240015227096   -0.027947252289886197   -0.0018045249624211335
-0.008329142989041435   -0.027929224035640212   -0.001953762679433506
-0.0036966298662823105   -0.019997070784297806   -0.001736710640708214
-0.007500383697796783   -0.020138548631299796   -0.0017971877588933156
-0.008325435459768235   -0.028001470995997597   -0.0019063502161124318
-0.003689170360950649   -0.02005023378106871   -0.0016855824475817155
-0.007506348303973006   -0.020205800429298825   -0.0017275445658724259
-0.008325435459768235   -0.028001470995997597   -0.0019063502161124318
-0.004278240015227096   -0.027947252289886197   -0.0018045249624211335
-0.003689170360950649   -0.02005023378106871   -0.0016855824475817155
-0.004259374205766704   -0.027987387016895748   -0.0017710001666479975
-0.007506348303973006   -0.020205800429298825   -0.0017275445658724259
-0.0036791462817533454   -0.02008870587808154   -0.0016420528793566896
-0.004259374205766704   -0.027987387016895748   -0.0017710001666479975
-0.003689170360950649   -0.02005023378106871   -0.0016855824475817155
-0.007506348303973006   -0.020205800429298825   -0.0017275445658724259
-0.004259374205766704   -0.027987387016895748   -0.0017710001666479975
-0.008313874512022796   -0.028068169011967365   -0.0018668119727741491
-0.008325435459768235   -0.028001470995997597   -0.0019063502161124318
-0.007506348303973006   -0.020205800429298825   -0.0017275445658724259
-0.004259374205766704   -0.027987387016895748   -0.0017710001666479975
-0.008325435459768235   -0.028001470995997597   -0.0019063502161124318
-0.003689170360950649   -0.02005023378106871   -0.0016855824475817155
-0.007506348303973006   -0.020205800429298825   -0.0017275445658724259
-0.008313874512022796   -0.028068169011967365   -0.0018668119727741491
-0.0036791462817533454   -0.02008870587808154   -0.0016420528793566896
-0.0074903626500905035   -0.02026110769987561   -0.001664589613931297
-0.008313874512022796   -0.028068169011967365   -0.0018668119727741491
-0.004259374205766704   -0.027987387016895748   -0.0017710001666479975
-0.0036791462817533454   -0.02008870587808154   -0.0016420528793566896
-0.004236777758516265   -0.028024095650066395   -0.0017455453740048948
-0.0074903626500905035   -0.02026110769987561   -0.001664589613931297
-0.0036644005790968915   -0.0201127397484208   -0.001606249532741479
-0.004236777758516265   -0.028024095650066395   -0.0017455453740048948
-0.0036791462817533454   -0.02008870587808154   -0.0016420528793566896
-0.0074903626500905035   -0.02026110769987561   -0.001664589613931297
-0.004236777758516265   -0.028024095650066395   -0.0017455453740048948
-0.008285985883491826   -0.028134406919513966   -0.0018345918980170722
-0.008313874512022796   -0.028068169011967365   -0.0018668119727741491
-0.0074903626500905035   -0.02026110769987561   -0.001664589613931297
-0.004236777758516265   -0.028024095650066395   -0.0017455453740048948
-0.008313874512022796   -0.028068169011967365   -0.0018668119727741491
-0.0036791462817533454   -0.02008870587808154   -0.0016420528793566896
-0.0036966298662823105   -0.019997070784297806   -0.001736710640708214
-0.004293701444550002   -0.027903558663774253   -0.001845928220200851
-4.607156927283763e-06   -0.019987274229522164   -0.0016565351197595536
-0.003689170360950649   -0.02005023378106871   -0.0016855824475817155
-0.004293701444550002   -0.027903558663774253   -0.001845928220200851
-0.0003674798799789606   -0.027888793186906086   -0.0017902641636672657
-4.607156927283763e-06   -0.019987274229522164   -0.0016565351197595536
-0.00034601736557658924   -0.027903389935312776   -0.0017552888976606147
-0.003689170360950649   -0.02005023378106871   -0.0016855824475817155
9.064514576825184e-06   -0.020008637959235645   -0.0016318481995532448
-0.00034601736557658924   -0.027903389935312776   -0.0017552888976606147
-4.607156927283763e-06   -0.019987274229522164   -0.0016565351197595536
-0.003689170360950649   -0.02005023378106871   -0.0016855824475817155
-0.00034601736557658924   -0.027903389935312776   -0.0017552888976606147
-0.004278240015227096   -0.027947252289886197   -0.0018045249624211335
-0.004293701444550002   -0.027903558663774253   -0.001845928220200851
-0.003689170360950649   -0.02005023378106871   -0.0016855824475817155
-0.00034601736557658924   -0.027903389935312776   -0.0017552888976606147
-0.004293701444550002   -0.027903558663774253   -0.001845928220200851
-4.607156927283763e-06   -0.019987274229522164   -0.0016565351197595536
-0.003689170360950649   -0.02005023378106871   -0.0016855824475817155
-0.004278240015227096   -0.027947252289886197   -0.0018045249624211335
9.064514576825184e-06   -0.020008637959235645   -0.0016318481995532448
-0.0036791462817533454   -0.02008870587808154   -0.0016420528793566896
-0.004278240015227096   -0.027947252289886197   -0.0018045249624211335
-0.00034601736557658924   -0.027903389935312776   -0.0017552888976606147
9.064514576825184e-06   -0.020008637959235645   -0.0016318481995532448
-0.0003273812730352975   -0.027914173559162807   -0.0017281259700508097
-0.0036791462817533454   -0.02008870587808154   -0.0016420528793566896
1.8921286720645704e-05   -0.020015208930106932   -0.0016146652038163312
-0.0003273812730352975   -0.027914173559162807   -0.0017281259700508097
9.064514576825184e-06   -0.020008637959235645   -0.0016318481995532448
-0.0036791462817533454   -0.02008870587808154   -0.0016420528793566896
-0.0003273812730352975   -0.027914173559162807   -0.0017281259700508097
-0.004259374205766704   -0.027987387016895748   -0.0017710001666479975
-0.004278240015227096   -0.027947252289886197   -0.0018045249624211335
-0.0036791462817533454   -0.02008870587808154   -0.0016420528793566896
-0.0003273812730352975   -0.027914173559162807   -0.0017281259700508097
-0.004278240015227096   -0.027947252289886197   -0.0018045249624211335
9.064514576825184e-06   -0.020008637959235645   -0.0016318481995532448
-0.0036791462817533454   -0.02008870587808154   -0.0016420528793566896
-0.004259374205766704   -0.027987387016895748   -0.0017710001666479975
1.8921286720645704e-05   -0.020015208930106932   -0.0016146652038163312
-0.0036644005790968915   -0.0201127397484208   -0.001606249532741479
-0.004259374205766704   -0.027987387016895748   -0.0017710001666479975
-0.0003273812730352975   -0.027914173559162807   -0.0017281259700508097
1.8921286720645704e-05   -0.020015208930106932   -0.0016146652038163312
-0.0003130735041198533   -0.027921087349498497   -0.0017090590417865594
-0.0036644005790968915   -0.0201127397484208   -0.001606249532741479
2.534555177121946e-05   -0.020006783922104688   -0.001605316841396268
-0.0003130735041198533   -0.027921087349498497   -0.0017090590417865594
1.8921286720645704e-05   -0.020015208930106932   -0.0016146652038163312
-0.0036644005790968915   -0.0201127397484208   -0.001606249532741479
-0.0003130735041198533   -0.027921087349498497   -0.0017090590417865594
-0.004236777758516265   -0.028024095650066395   -0.0017455453740048948
-0.004259374205766704   -0.027987387016895748   -0.0017710001666479975
-0.0036644005790968915   -0.0201127397484208   -0.001606249532741479
-0.0003130735041198533   -0.027921087349498497   -0.0017090590417865594
-0.004259374205766704   -0.027987387016895748   -0.0017710001666479975
1.8921286720645704e-05   -0.020015208930106932   -0.0016146652038163312
-4.607156927283763e-06   -0.019987274229522164   -0.0016565351197595536
-0.0003674798799789606   -0.027888793186906086   -0.0017902641636672657
0.0038144026762455554   -0.02002036313135486   -0.001633714579317197
9.064514576825184e-06   -0.020008637959235645   -0.0016318481995532448
-0.0003674798799789606   -0.027888793186906086   -0.0017902641636672657
0.0036784859211403025   -0.027882380674355788   -0.0017872777730246962
0.0038144026762455554   -0.02002036313135486   -0.001633714579317197
0.0037068276662256803   -0.027868780909392567   -0.001759050770872735
9.064514576825184e-06   -0.020008637959235645   -0.0016318481995532448
0.003831070097911363   -0.02001176225849605   -0.0016360226987625652
0.0037068276662256803   -0.027868780909392567   -0.001759050770872735
0.0038144026762455554   -0.02002036313135486   -0.001633714579317197
9.064514576825184e-06   -0.020008637959235645   -0.0016318481995532448
0.0037068276662256803   -0.027868780909392567   -0.001759050770872735
-0.00034601736557658924   -0.027903389935312776   -0.0017552888976606147
-0.0003674798799789606   -0.027888793186906086   -0.0017902641636672657
9.064514576825184e-06   -0.020008637959235645   -0.0016318481995532448
0.0037068276662256803   -0.027868780909392567   -0.001759050770872735
-0.0003674798799789606   -0.027888793186906086   -0.0017902641636672657
0.0038144026762455554   -0.02002036313135486   -0.001633714579317197
9.064514576825184e-06   -0.020008637959235645   -0.0016318481995532448
-0.00034601736557658924   -0.027903389935312776   -0.0017552888976606147
0.003831070097911363   -0.02001176225849605   -0.0016360226987625652
1.8921286720645704e-05   -0.020015208930106932   -0.0016146652038163312
-0.00034601736557658924   -0.027903389935312776   -0.0017552888976606147
0.0037068276662256803   -0.027868780909392567   -0.001759050770872735
0.003831070097911363   -0.02001176225849605   -0.0016360226987625652
0.0037259738106850313   -0.02785300484258096   -0.0017384107606108615
1.8921286720645704e-05   -0.020015208930106932   -0.0016146652038163312
0.0038328284138284176   -0.0199895181369227   -0.001645429589742406
0.0037259738106850313   -0.02785300484258096   -0.0017384107606108615
0.003831070097911363   -0.02001176225849605   -0.0016360226987625652
1.8921286720645704e-05   -0.020015208930106932   -0.0016146652038163312
0.0037259738106850313   -0.02785300484258096   -0.0017384107606108615
-0.0003273812730352975   -0.027914173559162807   -0.0017281259700508097
-0.00034601736557658924   -0.027903389935312776   -0.0017552888976606147
1.8921286720645704e-05   -0.020015208930106932   -0.0016146652038163312
0.0037259738106850313   -0.02785300484258096   -0.0017384107606108615
-0.00034601736557658924   -0.027903389935312776   -0.0017552888976606147
0.003831070097911363   -0.02001176225849605   -0.0016360226987625652
1.8921286720645704e-05   -0.020015208930106932   -0.0016146652038163312
-0.0003273812730352975   -0.027914173559162807   -0.0017281259700508097
0.0038328284138284176   -0.0199895181369227   -0.001645429589742406
2.534555177121946e-05   -0.020006783922104688   -0.001605316841396268
-0.0003273812730352975   -0.027914173559162807   -0.0017281259700508097
0.0037259738106850313   -0.02785300484258096   -0.0017384107606108615
0.0038328284138284176   -0.0199895181369227   -0.001645429589742406
0.003730244191023253   -0.027829901069723238   -0.0017252032179375955
2.534555177121946e-05   -0.020006783922104688   -0.001605316841396268
0.0038249679389813244   -0.019948080320317304   -0.0016622071812768852
0.003730244191023253   -0.027829901069723238   -0.0017252032179375955
0.0038328284138284176   -0.0199895181369227   -0.001645429589742406
2.534555177121946e-05   -0.020006783922104688   -0.001605316841396268
0.003730244191023253   -0.027829901069723238   -0.0017252032179375955
-0.0003130735041198533   -0.027921087349498497   -0.0017090590417865594
-0.0003273812730352975   -0.027914173559162807   -0.0017281259700508097
2.534555177121946e-05   -0.020006783922104688   -0.001605316841396268
0.003730244191023253   -0.027829901069723238   -0.0017252032179375955
-0.0003273812730352975   -0.027914173559162807   -0.0017281259700508097
0.0038328284138284176   -0.0199895181369227   -0.001645429589742406
0.0038144026762455554   -0.02002036313135486   -0.001633714579317197
0.0036784859211403025   -0.027882380674355788   -0.0017872777730246962
0.008031482590850885   -0.02008109259373601   -0.0016558055305050678
0.003831070097911363   -0.02001176225849605   -0.0016360226987625652
0.0036784859211403025   -0.027882380674355788   -0.0017872777730246962
0.008062737565836262   -0.027873375577928478   -0.0018317582447274607
0.008031482590850885   -0.02008109259373601   -0.0016558055305050678
0.008118073238651026   -0.02783747542665463   -0.001808464123162939
0.003831070097911363   -0.02001176225849605   -0.0016360226987625652
0.008024863284342027   -0.020052179416487362   -0.0016871891334749468
0.008118073238651026   -0.02783747542665463   -0.001808464123162939
0.008031482590850885   -0.02008109259373601   -0.0016558055305050678
0.003831070097911363   -0.02001176225849605   -0.0016360226987625652
0.008118073238651026   -0.02783747542665463   -0.001808464123162939
0.0037068276662256803   -0.027868780909392567   -0.001759050770872735
0.0036784859211403025   -0.027882380674355788   -0.0017872777730246962
0.003831070097911363   -0.02001176225849605   -0.0016360226987625652
0.008118073238651026   -0.02783747542665463   -0.001808464123162939
0.0036784859211403025   -0.027882380674355788   -0.0017872777730246962
0.008031482590850885   -0.02008109259373601   -0.0016558055305050678
0.003831070097911363   -0.02001176225849605   -0.0016360226987625652
0.0037068276662256803   -0.027868780909392567   -0.001759050770872735
0.008024863284342027   -0.020052179416487362   -0.0016871891334749468
0.0038328284138284176   -0.0199895181369227   -0.001645429589742406
0.0037068276662256803   -0.027868780909392567   -0.001759050770872735
0.008118073238651026   -0.02783747542665463   -0.001808464123162939
0.008024863284342027   -0.020052179416487362   -0.0016871891334749468
0.008147603014016234   -0.027809164881451357   -0.0017967029373333189
0.0038328284138284176   -0.0199895181369227   -0.001645429589742406
0.008005465396997627   -0.020015927148785098   -0.0017300932576089102
0.008147603014016234   -0.027809164881451357   -0.0017967029373333189
0.008024863284342027   -0.020052179416487362   -0.0016871891334749468
0.0038328284138284176   -0.0199895181369227   -0.001645429589742406
0.008147603014016234   -0.027809164881451357   -0.0017967029373333189
0.0037259738106850313   -0.02785300484258096   -0.0017384107606108615
0.0037068276662256803   -0.027868780909392567   -0.001759050770872735
0.0038328284138284176   -0.0199895181369227   -0.001645429589742406
0.008147603014016234   -0.027809164881451357   -0.0017967029373333189
0.0037068276662256803   -0.027868780909392567   -0.001759050770872735
0.008024863284342027   -0.020052179416487362   -0.0016871891334749468
0.0038328284138284176   -0.0199895181369227   -0.001645429589742406
0.0037259738106850313   -0.02785300484258096   -0.0017384107606108615
0.008005465396997627   -0.020015927148785098   -0.0017300932576089102
0.0038249679389813244   -0.019948080320317304   -0.0016622071812768852
0.0037259738106850313   -0.02785300484258096   -0.0017384107606108615
0.008147603014016234   -0.027809164881451357   -0.0017967029373333189
0.008005465396997627   -0.020015927148785098   -0.0017300932576089102
0.008155316802010834   -0.0277638664832287   -0.0017966714233943362
0.0038249679389813244   -0.019948080320317304   -0.0016622071812768852
0.007951392285716114   -0.019946979491106017   -0.0017844342972409312
0.008155316802010834   -0.0277638664832287   -0.0017966714233943362
0.008005465396997627   -0.020015927148785098   -0.0017300932576089102
0.0038249679389813244   -0.019948080320317304   -0.0016622071812768852
0.008155316802010834   -0.0277638664832287   -0.0017966714233943362
0.003730244191023253   -0.027829901069723238   -0.0017252032179375955
0.0037259738106850313   -0.02785300484258096   -0.0017384107606108615
0.0038249679389813244   -0.019948080320317304   -0.0016622071812768852
0.008155316802010834   -0.0277638664832287   -0.0017966714233943362
0.0037259738106850313   -0.02785300484258096   -0.0017384107606108615
0.008005465396997627   -0.020015927148785098   -0.0017300932576089102
-0.012673425991987175   -0.027973780679848823   -0.00211217908803786
-0.013066633919701856   -0.035921398768207   -0.0020770564407918105
-0.008329142989041435   -0.027929224035640212   -0.001953762679433506
-0.012726925621411403   -0.028070921570880515   -0.0020545799112121716
-0.013066633919701856   -0.035921398768207   -0.0020770564407918105
-0.008729048176218284   -0.035942250719582174   -0.001960058557445166
-0.008329142989041435   -0.027929224035640212   -0.001953762679433506
-0.008705392251771586   -0.03600173820853608   -0.001942101641694561
-0.012726925621411403   -0.028070921570880515   -0.0020545799112121716
-0.008325435459768235   -0.028001470995997597   -0.0019063502161124318
-0.008705392251771586   -0.03600173820853608   -0.001942101641694561
-0.008329142989041435   -0.027929224035640212   -0.001953762679433506
-0.012726925621411403   -0.028070921570880515   -0.0020545799112121716
-0.008705392251771586   -0.03600173820853608   -0.001942101641694561
-0.013051192893650797   -0.036001007812906376   -0.002073477166487362
-0.013066633919701856   -0.035921398768207   -0.0020770564407918105
-0.012726925621411403   -0.028070921570880515   -0.0020545799112121716
-0.008705392251771586   -0.03600173820853608   -0.001942101641694561
-0.013066633919701856   -0.035921398768207   -0.0020770564407918105
-0.008329142989041435   -0.027929224035640212   -0.001953762679433506
-0.012726925621411403   -0.028070921570880515   -0.0020545799112121716
-0.013051192893650797   -0.036001007812906376   -0.002073477166487362
-0.008325435459768235   -0.028001470995997597   -0.0019063502161124318
-0.012743638289537732   -0.028150212939628588   -0.0020083128091355046
-0.013051192893650797   -0.036001007812906376   -0.002073477166487362
-0.008705392251771586   -0.03600173820853608   -0.001942101641694561
-0.008325435459768235   -0.028001470995997597   -0.0019063502161124318
-0.008668650482749975   -0.03606771044982417   -0.0019322481906043013
-0.012743638289537732   -0.028150212939628588   -0.0020083128091355046
-0.008313874512022796   -0.028068169011967365   -0.0018668119727741491
-0.008668650482749975   -0.03606771044982417   -0.0019322481906043013
-0.008325435459768235   -0.028001470995997597   -0.0019063502161124318
-0.012743638289537732   -0.028150212939628588   -0.0020083128091355046
-0.008668650482749975   -0.03606771044982417   -0.0019322481906043013
-0.013010943076313924   -0.03607838062729523   -0.002082006074258315
-0.013051192893650797   -0.036001007812906376   -0.002073477166487362
-0.012743638289537732   -0.028150212939628588   -0.0020083128091355046
-0.008668650482749975   -0.03606771044982417   -0.0019322481906043013
-0.013051192893650797   -0.036001007812906376   -0.002073477166487362
-0.008325435459768235   -0.028001470995997597   -0.0019063502161124318
-0.012743638289537732   -0.028150212939628588   -0.0020083128091355046
-0.013010943076313924   -0.03607838062729523   -0.002082006074258315
-0.008313874512022796   -0.028068169011967365   -0.0018668119727741491
-0.01274886904073351   -0.028236407006328935   -0.001974355906804168
-0.013010943076313924   -0.03607838062729523   -0.002082006074258315
-0.008668650482749975   -0.03606771044982417   -0.0019322481906043013
-0.008313874512022796   -0.028068169011967365   -0.0018668119727741491
-0.008621161380245709   -0.036144714383303744   -0.0019303622544232634
-0.01274886904073351   -0.028236407006328935   -0.001974355906804168
-0.008285985883491826   -0.028134406919513966   -0.0018345918980170722
-0.008621161380245709   -0.036144714383303744   -0.0019303622544232634
-0.008313874512022796   -0.028068169011967365   -0.0018668119727741491
-0.01274886904073351   -0.028236407006328935   -0.001974355906804168
-0.008621161380245709   -0.036144714383303744   -0.0019303622544232634
-0.012945843388337942   -0.036178115986615925   -0.002103261038274418
-0.013010943076313924   -0.03607838062729523   -0.002082006074258315
-0.01274886904073351   -0.028236407006328935   -0.001974355906804168
-0.008621161380245709   -0.036144714383303744   -0.0019303622544232634
-0.013010943076313924   -0.03607838062729523   -0.002082006074258315
-0.008313874512022796   -0.028068169011967365   -0.0018668119727741491
-0.008329142989041435   -0.027929224035640212   -0.001953762679433506
-0.008729048176218284   -0.035942250719582174   -0.001960058557445166
-0.004293701444550002   -0.027903558663774253   -0.001845928220200851
-0.008325435459768235   -0.028001470995997597   -0.0019063502161124318
-0.008729048176218284   -0.035942250719582174   -0.001960058557445166
-0.004755567408832488   -0.03594670874094038   -0.0018823110869097119
-0.004293701444550002   -0.027903558663774253   -0.001845928220200851
-0.004724020049250543   -0.03598079616412954   -0.0018503385501602038
-0.008325435459768235   -0.028001470995997597   -0.0019063502161124318
-0.004278240015227096   -0.027947252289886197   -0.0018045249624211335
-0.004724020049250543   -0.03598079616412954   -0.0018503385501602038
-0.004293701444550002   -0.027903558663774253   -0.001845928220200851
-0.008325435459768235   -0.028001470995997597   -0.0019063502161124318
-0.004724020049250543   -0.03598079616412954   -0.0018503385501602038
-0.008705392251771586   -0.03600173820853608   -0.001942101641694561
-0.008729048176218284   -0.035942250719582174   -0.001960058557445166
-0.008325435459768235   -0.028001470995997597   -0.0019063502161124318
-0.004724020049250543   -0.03598079616412954   -0.0018503385501602038
-0.008729048176218284   -0.035942250719582174   -0.001960058557445166
-0.004293701444550002   -0.027903558663774253   -0.001845928220200851
-0.008325435459768235   -0.028001470995997597   -0.0019063502161124318
-0.008705392251771586   -0.03600173820853608   -0.001942101641694561
-0.004278240015227096   -0.027947252289886197   -0.0018045249624211335
-0.008313874512022796   -0.028068169011967365   -0.0018668119727741491
-0.008705392251771586   -0.03600173820853608   -0.001942101641694561
-0.004724020049250543   -0.03598079616412954   -0.0018503385501602038
-0.004278240015227096   -0.027947252289886197   -0.0018045249624211335
-0.004688421322928004   -0.036022301893114284   -0.0018264983937052721
-0.008313874512022796   -0.028068169011967365   -0.0018668119727741491
-0.004259374205766704   -0.027987387016895748   -0.0017710001666479975
-0.004688421322928004   -0.036022301893114284   -0.0018264983937052721
-0.004278240015227096   -0.027947252289886197   -0.0018045249624211335
-0.008313874512022796   -0.028068169011967365   -0.0018668119727741491
-0.004688421322928004   -0.036022301893114284   -0.0018264983937052721
-0.008668650482749975   -0.03606771044982417   -0.0019322481906043013
-0.008705392251771586   -0.03600173820853608   -0.001942101641694561
-0.008313874512022796   -0.028068169011967365   -0.0018668119727741491
-0.004688421322928004   -0.036022301893114284   -0.0018264983937052721
-0.008705392251771586   -0.03600173820853608   -0.001942101641694561
-0.004278240015227096   -0.027947252289886197   -0.0018045249624211335
-0.008313874512022796   -0.028068169011967365   -0.0018668119727741491
-0.008668650482749975   -0.03606771044982417   -0.0019322481906043013
-0.004259374205766704   -0.027987387016895748   -0.0017710001666479975
-0.008285985883491826   -0.028134406919513966   -0.0018345918980170722
-0.008668650482749975   -0.03606771044982417   -0.0019322481906043013
-0.004688421322928004   -0.036022301893114284   -0.0018264983937052721
-0.004259374205766704   -0.027987387016895748   -0.0017710001666479975
-0.004650076667585354   -0.03607135545950945   -0.0018110567518029549
-0.008285985883491826   -0.028134406919513966   -0.0018345918980170722
-0.004236777758516265   -0.028024095650066395   -0.0017455453740048948
-0.004650076667585354   -0.03607135545950945   -0.0018110567518029549
-0.004259374205766704   -0.027987387016895748   -0.0017710001666479975
-0.008285985883491826   -0.028134406919513966   -0.0018345918980170722
-0.004650076667585354   -0.03607135545950945   -0.0018110567518029549
-0.008621161380245709   -0.036144714383303744   -0.0019303622544232634
-0.008668650482749975   -0.03606771044982417   -0.0019322481906043013
-0.008285985883491826   -0.028134406919513966   -0.0018345918980170722
-0.004650076667585354   -0.03607135545950945   -0.0018110567518029549
-0.008668650482749975   -0.03606771044982417   -0.0019322481906043013
-0.004259374205766704   -0.027987387016895748   -0.0017710001666479975
-0.004293701444550002   -0.027903558663774253   -0.001845928220200851
-0.004755567408832488   -0.03594670874094038   -0.0018823110869097119
-0.0003674798799789606   -0.027888793186906086   -0.0017902641636672657
-0.004278240015227096   -0.027947252289886197   -0.0018045249624211335
-0.004755567408832488   -0.03594670874094038   -0.0018823110869097119
-0.0008944417919015949   -0.03592556292711292   -0.0018506602060480047
-0.0003674798799789606   -0.027888793186906086   -0.0017902641636672657
-0.0008571782093221393   -0.03593338190296619   -0.001805370487269798
-0.004278240015227096   -0.027947252289886197   -0.0018045249624211335
-0.00034601736557658924   -0.027903389935312776   -0.0017552888976606147
-0.0008571782093221393   -0.03593338190296619   -0.001805370487269798
-0.0003674798799789606   -0.027888793186906086   -0.0017902641636672657
-0.004278240015227096   -0.027947252289886197   -0.0018045249624211335
-0.0008571782093221393   -0.03593338190296619   -0.001805370487269798
-0.004724020049250543   -0.03598079616412954   -0.0018503385501602038
-0.004755567408832488   -0.03594670874094038   -0.0018823110869097119
-0.004278240015227096   -0.027947252289886197   -0.0018045249624211335
-0.0008571782093221393   -0.03593338190296619   -0.001805370487269798
-0.004755567408832488   -0.03594670874094038   -0.0018823110869097119
-0.0003674798799789606   -0.027888793186906086   -0.0017902641636672657
-0.004278240015227096   -0.027947252289886197   -0.0018045249624211335
-0.004724020049250543   -0.03598079616412954   -0.0018503385501602038
-0.00034601736557658924   -0.027903389935312776   -0.0017552888976606147
-0.004259374205766704   -0.027987387016895748   -0.0017710001666479975
-0.004724020049250543   -0.03598079616412954   -0.0018503385501602038
-0.0008571782093221393   -0.03593338190296619   -0.001805370487269798
-0.00034601736557658924   -0.027903389935312776   -0.0017552888976606147
-0.0008219114639110762   -0.035948044159456384   -0.0017681576482504852
-0.004259374205766704   -0.027987387016895748   -0.0017710001666479975
-0.0003273812730352975   -0.027914173559162807   -0.0017281259700508097
-0.0008219114639110762   -0.035948044159456384   -0.0017681576482504852
-0.00034601736557658924   -0.027903389935312776   -0.0017552888976606147
-0.004259374205766704   -0.027987387016895748   -0.0017710001666479975
-0.0008219114639110762   -0.035948044159456384   -0.0017681576482504852
-0.004688421322928004   -0.036022301893114284   -0.0018264983937052721
-0.004724020049250543   -0.03598079616412954   -0.0018503385501602038
-0.004259374205766704   -0.027987387016895748   -0.0017710001666479975
-0.0008219114639110762   -0.035948044159456384   -0.0017681576482504852
-0.004724020049250543   -0.03598079616412954   -0.0018503385501602038
-0.00034601736557658924   -0.027903389935312776   -0.0017552888976606147
-0.004259374205766704   -0.027987387016895748   -0.0017710001666479975
-0.004688421322928004   -0.036022301893114284   -0.0018264983937052721
-0.0003273812730352975   -0.027914173559162807   -0.0017281259700508097
-0.004236777758516265   -0.028024095650066395   -0.0017455453740048948
-0.004688421322928004   -0.036022301893114284   -0.0018264983937052721
-0.0008219114639110762   -0.035948044159456384   -0.0017681576482504852
-0.0003273812730352975   -0.027914173559162807   -0.0017281259700508097
-0.0007919217345232677   -0.0359698815697441   -0.0017393026831859317
-0.004236777758516265   -0.028024095650066395   -0.0017455453740048948
-0.0003130735041198533   -0.027921087349498497   -0.0017090590417865594
-0.0007919217345232677   -0.0359698815697441   -0.0017393026831859317
-0.0003273812730352975   -0.027914173559162807   -0.0017281259700508097
-0.004236777758516265   -0.028024095650066395   -0.0017455453740048948
-0.0007919217345232677   -0.0359698815697441   -0.0017393026831859317
-0.004650076667585354   -0.03607135545950945   -0.0018110567518029549
-0.004688421322928004   -0.036022301893114284   -0.0018264983937052721
-0.004236777758516265   -0.028024095650066395   -0.0017455453740048948
-0.0007919217345232677   -0.0359698815697441   -0.0017393026831859317
-0.004688421322928004   -0.036022301893114284   -0.0018264983937052721
-0.0003273812730352975   -0.027914173559162807   -0.0017281259700508097
-0.0003674798799789606   -0.027888793186906086   -0.0017902641636672657
-0.0008944417919015949   -0.03592556292711292   -0.0018506602060480047
0.0036784859211403025   -0.027882380674355788   -0.0017872777730246962
-0.00034601736557658924   -0.027903389935312776   -0.0017552888976606147
-0.0008944417919015949   -0.03592556292711292   -0.0018506602060480047
0.0030826805877551817   -0.03587859665026648   -0.0018666384822973805
0.0036784859211403025   -0.027882380674355788   -0.0017872777730246962
0.0031301638889362007   -0.03586005036500253   -0.001808259695343692
-0.00034601736557658924   -0.027903389935312776   -0.0017552888976606147
0.0037068276662256803   -0.027868780909392567   -0.001759050770872735
0.0031301638889362007   -0.03586005036500253   -0.001808259695343692
0.0036784859211403025   -0.027882380674355788   -0.0017872777730246962
-0.00034601736557658924   -0.027903389935312776   -0.0017552888976606147
0.0031301638889362007   -0.03586005036500253   -0.001808259695343692
-0.0008571782093221393   -0.03593338190296619   -0.001805370487269798
-0.0008944417919015949   -0.03592556292711292   -0.0018506602060480047
-0.00034601736557658924   -0.027903389935312776   -0.0017552888976606147
0.0031301638889362007   -0.03586005036500253   -0.001808259695343692
-0.0008944417919015949   -0.03592556292711292   -0.0018506602060480047
0.0036784859211403025   -0.027882380674355788   -0.0017872777730246962
-0.00034601736557658924   -0.027903389935312776   -0.0017552888976606147
-0.0008571782093221393   -0.03593338190296619   -0.001805370487269798
0.0037068276662256803   -0.027868780909392567   -0.001759050770872735
-0.0003273812730352975   -0.027914173559162807   -0.0017281259700508097
-0.0008571782093221393   -0.03593338190296619   -0.001805370487269798
0.0031301638889362007   -0.03586005036500253   -0.001808259695343692
0.0037068276662256803   -0.027868780909392567   -0.001759050770872735
0.0031740987968952214   -0.03585040007468279   -0.0017579323260198691
-0.0003273812730352975   -0.027914173559162807   -0.0017281259700508097
0.0037259738106850313   -0.02785300484258096   -0.0017384107606108615
0.0031740987968952214   -0.03585040007468279   -0.0017579323260198691
0.0037068276662256803   -0.027868780909392567   -0.001759050770872735
-0.0003273812730352975   -0.027914173559162807   -0.0017281259700508097
0.0031740987968952214   -0.03585040007468279   -0.0017579323260198691
-0.0008219114639110762   -0.035948044159456384   -0.0017681576482504852
-0.0008571782093221393   -0.03593338190296619   -0.001805370487269798
-0.0003273812730352975   -0.027914173559162807   -0.0017281259700508097
0.0031740987968952214   -0.03585040007468279   -0.0017579323260198691
-0.0008571782093221393   -0.03593338190296619   -0.001805370487269798
0.0037068276662256803   -0.027868780909392567   -0.001759050770872735
-0.0003273812730352975   -0.027914173559162807   -0.0017281259700508097
-0.0008219114639110762   -0.035948044159456384   -0.0017681576482504852
0.0037259738106850313   -0.02785300484258096   -0.0017384107606108615
-0.0003130735041198533   -0.027921087349498497   -0.0017090590417865594
-0.0008219114639110762   -0.035948044159456384   -0.0017681576482504852
0.0031740987968952214   -0.03585040007468279   -0.0017579323260198691
0.0037259738106850313   -0.02785300484258096   -0.0017384107606108615
0.00319782988494315   -0.0358450060270606   -0.0017151307130697116
-0.0003130735041198533   -0.027921087349498497   -0.0017090590417865594
0.003730244191023253   -0.027829901069723238   -0.0017252032179375955
0.00319782988494315   -0.0358450060270606   -0.0017151307130697116
0.0037259738106850313   -0.02785300484258096   -0.0017384107606108615
-0.0003130735041198533   -0.027921087349498497   -0.0017090590417865594
0.00319782988494315   -0.0358450060270606   -0.0017151307130697116
-0.0007919217345232677   -0.0359698815697441   -0.0017393026831859317
-0.0008219114639110762   -0.035948044159456384   -0.0017681576482504852
-0.0003130735041198533   -0.027921087349498497   -0.0017090590417865594
0.00319782988494315   -0.0358450060270606   -0.0017151307130697116
-0.0008219114639110762   -0.035948044159456384   -0.0017681576482504852
0.0037259738106850313   -0.02785300484258096   -0.0017384107606108615
0.0036784859211403025   -0.027882380674355788   -0.0017872777730246962
0.0030826805877551817   -0.03587859665026648   -0.0018666384822973805
0.008062737565836262   -0.027873375577928478   -0.0018317582447274607
0.0037068276662256803   -0.027868780909392567   -0.001759050770872735
0.0030826805877551817   -0.03587859665026648   -0.0018666384822973805
0.007340185363714122   -0.035799612406659034   -0.0019327903599298125
0.008062737565836262   -0.027873375577928478   -0.0018317582447274607
0.007463841089978209   -0.03575714990829441   -0.001856085765234215
0.0037068276662256803   -0.027868780909392567   -0.001759050770872735
0.008118073238651026   -0.02783747542665463   -0.001808464123162939
0.007463841089978209   -0.03575714990829441   -0.001856085765234215
0.008062737565836262   -0.027873375577928478   -0.0018317582447274607
0.0037068276662256803   -0.027868780909392567   -0.001759050770872735
0.007463841089978209   -0.03575714990829441   -0.001856085765234215
0.0031301638889362007   -0.03586005036500253   -0.001808259695343692
0.0030826805877551817   -0.03587859665026648   -0.0018666384822973805
0.0037068276662256803   -0.027868780909392567   -0.001759050770872735
0.007463841089978209   -0.03575714990829441   -0.001856085765234215
0.0030826805877551817   -0.03587859665026648   -0.0018666384822973805
0.008062737565836262   -0.027873375577928478   -0.0018317582447274607
0.0037068276662256803   -0.027868780909392567   -0.001759050770872735
0.0031301638889362007   -0.03586005036500253   -0.001808259695343692
0.008118073238651026   -0.02783747542665463   -0.001808464123162939
0.0037259738106850313   -0.02785300484258096   -0.0017384107606108615
0.0031301638889362007   -0.03586005036500253   -0.001808259695343692
0.007463841089978209   -0.03575714990829441   -0.001856085765234215
0.008118073238651026   -0.02783747542665463   -0.001808464123162939
0.00754893963450894   -0.03573655031720184   -0.0017908529242189849
0.0037259738106850313   -0.02785300484258096   -0.0017384107606108615
0.008147603014016234   -0.027809164881451357   -0.0017967029373333189
0.00754893963450894   -0.03573655031720184   -0.0017908529242189849
0.008118073238651026   -0.02783747542665463   -0.001808464123162939
0.0037259738106850313   -0.02785300484258096   -0.0017384107606108615
0.00754893963450894   -0.03573655031720184   -0.0017908529242189849
0.0031740987968952214   -0.03585040007468279   -0.0017579323260198691
0.0031301638889362007   -0.03586005036500253   -0.001808259695343692
0.0037259738106850313   -0.02785300484258096   -0.0017384107606108615
0.00754893963450894   -0.03573655031720184   -0.0017908529242189849
0.0031301638889362007   -0.03586005036500253   -0.001808259695343692
0.008118073238651026   -0.02783747542665463   -0.001808464123162939
0.0037259738106850313   -0.02785300484258096   -0.0017384107606108615
0.0031740987968952214   -0.03585040007468279   -0.0017579323260198691
0.008147603014016234   -0.027809164881451357   -0.0017967029373333189
0.003730244191023253   -0.027829901069723238   -0.0017252032179375955
0.0031740987968952214   -0.03585040007468279   -0.0017579323260198691
0.00754893963450894   -0.03573655031720184   -0.0017908529242189849
0.008147603014016234   -0.027809164881451357   -0.0017967029373333189
0.007624673525516654   -0.0357142278265697   -0.00173756941890997
0.003730244191023253   -0.027829901069723238   -0.0017252032179375955
0.008155316802010834   -0.0277638664832287   -0.0017966714233943362
0.007624673525516654   -0.0357142278265697   -0.00173756941890997
0.008147603014016234   -0.027809164881451357   -0.0017967029373333189
0.003730244191023253   -0.027829901069723238   -0.0017252032179375955
0.007624673525516654   -0.0357142278265697   -0.00173756941890997
0.00319782988494315   -0.0358450060270606   -0.0017151307130697116
0.0031740987968952214   -0.03585040007468279   -0.0017579323260198691
0.003730244191023253   -0.027829901069723238   -0.0017252032179375955
0.007624673525516654   -0.0357142278265697   -0.00173756941890997
0.0031740987968952214   -0.03585040007468279   -0.0017579323260198691
0.008147603014016234   -0.027809164881451357   -0.0017967029373333189
-0.013066633919701856   -0.035921398768207   -0.0020770564407918105
-0.012715038740745943   -0.04350743725369386   -0.001986325801855287
-0.008729048176218284   -0.035942250719582174   -0.001960058557445166
-0.013051192893650797   -0.036001007812906376   -0.002073477166487362
-0.012715038740745943   -0.04350743725369386   -0.001986325801855287
-0.008692712726635148   -0.04359478526805893   -0.00191596095942208
-0.008729048176218284   -0.035942250719582174   -0.001960058557445166
-0.008641727681344157   -0.04363915935528182   -0.0019266462382630484
-0.013051192893650797   -0.036001007812906376   -0.002073477166487362
-0.008705392251771586   -0.03600173820853608   -0.001942101641694561
-0.008641727681344157   -0.04363915935528182   -0.0019266462382630484
-0.008729048176218284   -0.035942250719582174   -0.001960058557445166
-0.013051192893650797   -0.036001007812906376   -0.002073477166487362
-0.008641727681344157   -0.04363915935528182   -0.0019266462382630484
-0.01262298229604339   -0.04356735720836407   -0.002036812395363428
-0.012715038740745943   -0.04350743725369386   -0.001986325801855287
-0.013051192893650797   -0.036001007812906376   -0.002073477166487362
-0.008641727681344157   -0.04363915935528182   -0.0019266462382630484
-0.012715038740745943   -0.04350743725369386   -0.001986325801855287
-0.008729048176218284   -0.035942250719582174   -0.001960058557445166
-0.013051192893650797   -0.036001007812906376   -0.002073477166487362
-0.01262298229604339   -0.04356735720836407   -0.002036812395363428
-0.008705392251771586   -0.03600173820853608   -0.001942101641694561
-0.013010943076313924   -0.03607838062729523   -0.002082006074258315
-0.01262298229604339   -0.04356735720836407   -0.002036812395363428
-0.008641727681344157   -0.04363915935528182   -0.0019266462382630484
-0.008705392251771586   -0.03600173820853608   -0.001942101641694561
-0.008572754194373597   -0.04370241052835523   -0.0019456287348881102
-0.013010943076313924   -0.03607838062729523   -0.002082006074258315
-0.008668650482749975   -0.03606771044982417   -0.0019322481906043013
-0.008572754194373597   -0.04370241052835523   -0.0019456287348881102
-0.008705392251771586   -0.03600173820853608   -0.001942101641694561
-0.013010943076313924   -0.03607838062729523   -0.002082006074258315
-0.008572754194373597   -0.04370241052835523   -0.0019456287348881102
-0.012518023383519422   -0.04364099333199892   -0.002100346205662199
-0.01262298229604339   -0.04356735720836407   -0.002036812395363428
-0.013010943076313924   -0.03607838062729523   -0.002082006074258315
-0.008572754194373597   -0.04370241052835523   -0.0019456287348881102
-0.01262298229604339   -0.04356735720836407   -0.002036812395363428
-0.008705392251771586   -0.03600173820853608   -0.001942101641694561
-0.013010943076313924   -0.03607838062729523   -0.002082006074258315
-0.012518023383519422   -0.04364099333199892   -0.002100346205662199
-0.008668650482749975   -0.03606771044982417   -0.0019322481906043013
-0.012945843388337942   -0.036178115986615925   -0.002103261038274418
-0.012518023383519422   -0.04364099333199892   -0.002100346205662199
-0.008572754194373597   -0.04370241052835523   -0.0019456287348881102
-0.008668650482749975   -0.03606771044982417   -0.0019322481906043013
-0.008498771313089971   -0.04378840090294179   -0.001973149275133066
-0.012945843388337942   -0.036178115986615925   -0.002103261038274418
-0.008621161380245709   -0.036144714383303744   -0.0019303622544232634
-0.008498771313089971   -0.04378840090294179   -0.001973149275133066
-0.008668650482749975   -0.03606771044982417   -0.0019322481906043013
-0.012945843388337942   -0.036178115986615925   -0.002103261038274418
-0.008498771313089971   -0.04378840090294179   -0.001973149275133066
-0.012375187411194418   -0.04375313089143586   -0.0021771739920101512
-0.012518023383519422   -0.04364099333199892   -0.002100346205662199
-0.012945843388337942   -0.036178115986615925   -0.002103261038274418
-0.008498771313089971   -0.04378840090294179   -0.001973149275133066
-0.012518023383519422   -0.04364099333199892   -0.002100346205662199
-0.008668650482749975   -0.03606771044982417   -0.0019322481906043013
-0.008729048176218284   -0.035942250719582174   -0.001960058557445166
-0.008692712726635148   -0.04359478526805893   -0.00191596095942208
-0.004755567408832488   -0.03594670874094038   -0.0018823110869097119
-0.008705392251771586   -0.03600173820853608   -0.001942101641694561
-0.008692712726635148   -0.04359478526805893   -0.00191596095942208
-0.0050864985719209724   -0.043629250242548594   -0.0018709483825904577
-0.004755567408832488   -0.03594670874094038   -0.0018823110869097119
-0.005031008451532752   -0.04365228786940931   -0.0018476634031495884
-0.008705392251771586   -0.03600173820853608   -0.001942101641694561
-0.004724020049250543   -0.03598079616412954   -0.0018503385501602038
-0.005031008451532752   -0.04365228786940931   -0.0018476634031495884
-0.004755567408832488   -0.03594670874094038   -0.0018823110869097119
-0.008705392251771586   -0.03600173820853608   -0.001942101641694561
-0.005031008451532752   -0.04365228786940931   -0.0018476634031495884
-0.008641727681344157   -0.04363915935528182   -0.0019266462382630484
-0.008692712726635148   -0.04359478526805893   -0.00191596095942208
-0.008705392251771586   -0.03600173820853608   -0.001942101641694561
-0.005031008451532752   -0.04365228786940931   -0.0018476634031495884
-0.008692712726635148   -0.04359478526805893   -0.00191596095942208
-0.004755567408832488   -0.03594670874094038   -0.0018823110869097119
-0.008705392251771586   -0.03600173820853608   -0.001942101641694561
-0.008641727681344157   -0.04363915935528182   -0.0019266462382630484
-0.004724020049250543   -0.03598079616412954   -0.0018503385501602038
-0.008668650482749975   -0.03606771044982417   -0.0019322481906043013
-0.008641727681344157   -0.04363915935528182   -0.0019266462382630484
-0.005031008451532752   -0.04365228786940931   -0.0018476634031495884
-0.004724020049250543   -0.03598079616412954   -0.0018503385501602038
-0.004971329159915859   -0.04369346936105422   -0.0018325738172680149
-0.008668650482749975   -0.03606771044982417   -0.0019322481906043013
-0.004688421322928004   -0.036022301893114284   -0.0018264983937052721
-0.004971329159915859   -0.04369346936105422   -0.0018325738172680149
-0.004724020049250543   -0.03598079616412954   -0.0018503385501602038
-0.008668650482749975   -0.03606771044982417   -0.0019322481906043013
-0.004971329159915859   -0.04369346936105422   -0.0018325738172680149
-0.008572754194373597   -0.04370241052835523   -0.0019456287348881102
-0.008641727681344157   -0.04363915935528182   -0.0019266462382630484
-0.008668650482749975   -0.03606771044982417   -0.0019322481906043013
-0.004971329159915859   -0.04369346936105422   -0.0018325738172680149
-0.008641727681344157   -0.04363915935528182   -0.0019266462382630484
-0.004724020049250543   -0.03598079616412954   -0.0018503385501602038
-0.008668650482749975   -0.03606771044982417   -0.0019322481906043013
-0.008572754194373597   -0.04370241052835523   -0.0019456287348881102
-0.004688421322928004   -0.036022301893114284   -0.0018264983937052721
-0.008621161380245709   -0.036144714383303744   -0.0019303622544232634
-0.008572754194373597   -0.04370241052835523   -0.0019456287348881102
-0.004971329159915859   -0.04369346936105422   -0.0018325738172680149
-0.004688421322928004   -0.036022301893114284   -0.0018264983937052721
-0.004909986566143224   -0.04375331238520174   -0.001826082928836378
-0.008621161380245709   -0.036144714383303744   -0.0019303622544232634
-0.004650076667585354   -0.03607135545950945   -0.0018110567518029549
-0.004909986566143224   -0.04375331238520174   -0.001826082928836378
-0.004688421322928004   -0.036022301893114284   -0.0018264983937052721
-0.008621161380245709   -0.036144714383303744   -0.0019303622544232634
-0.004909986566143224   -0.04375331238520174   -0.001826082928836378
-0.008498771313089971   -0.04378840090294179   -0.001973149275133066
-0.008572754194373597   -0.04370241052835523   -0.0019456287348881102
-0.008621161380245709   -0.036144714383303744   -0.0019303622544232634
-0.004909986566143224   -0.04375331238520174   -0.001826082928836378
-0.008572754194373597   -0.04370241052835523   -0.0019456287348881102
-0.004688421322928004   -0.036022301893114284   -0.0018264983937052721
-0.004755567408832488   -0.03594670874094038   -0.0018823110869097119
-0.0050864985719209724   -0.043629250242548594   -0.0018709483825904577
-0.0008944417919015949   -0.03592556292711292   -0.0018506602060480047
-0.004724020049250543   -0.03598079616412954   -0.0018503385501602038
-0.0050864985719209724   -0.043629250242548594   -0.0018709483825904577
-0.0015893957313718261   -0.04360259960489406   -0.0018636662761763111
-0.0008944417919015949   -0.03592556292711292   -0.0018506602060480047
-0.0015280259753532712   -0.043603048184256504   -0.0018075762424468408
-0.004724020049250543   -0.03598079616412954   -0.0018503385501602038
-0.0008571782093221393   -0.03593338190296619   -0.001805370487269798
-0.0015280259753532712   -0.043603048184256504   -0.0018075762424468408
-0.0008944417919015949   -0.03592556292711292   -0.0018506602060480047
-0.004724020049250543   -0.03598079616412954   -0.0018503385501602038
-0.0015280259753532712   -0.043603048184256504   -0.0018075762424468408
-0.005031008451532752   -0.04365228786940931   -0.0018476634031495884
-0.0050864985719209724   -0.043629250242548594   -0.0018709483825904577
-0.004724020049250543   -0.03598079616412954   -0.0018503385501602038
-0.0015280259753532712   -0.043603048184256504   -0.0018075762424468408
-0.0050864985719209724   -0.043629250242548594   -0.0018709483825904577
-0.0008944417919015949   -0.03592556292711292   -0.0018506602060480047
-0.004724020049250543   -0.03598079616412954   -0.0018503385501602038
-0.005031008451532752   -0.04365228786940931   -0.0018476634031495884
-0.0008571782093221393   -0.03593338190296619   -0.001805370487269798
-0.004688421322928004   -0.036022301893114284   -0.0018264983937052721
-0.005031008451532752   -0.04365228786940931   -0.0018476634031495884
-0.0015280259753532712   -0.043603048184256504   -0.0018075762424468408
-0.0008571782093221393   -0.03593338190296619   -0.001805370487269798
-0.0014682561651843925   -0.04362032077466665   -0.0017597035688555222
-0.004688421322928004   -0.036022301893114284   -0.0018264983937052721
-0.0008219114639110762   -0.035948044159456384   -0.0017681576482504852
-0.0014682561651843925   -0.04362032077466665   -0.0017597035688555222
-0.0008571782093221393   -0.03593338190296619   -0.001805370487269798
-0.004688421322928004   -0.036022301893114284   -0.0018264983937052721
-0.0014682561651843925   -0.04362032077466665   -0.0017597035688555222
-0.004971329159915859   -0.04369346936105422   -0.0018325738172680149
-0.005031008451532752   -0.04365228786940931   -0.0018476634031495884
-0.004688421322928004   -0.036022301893114284   -0.0018264983937052721
-0.0014682561651843925   -0.04362032077466665   -0.0017597035688555222
-0.005031008451532752   -0.04365228786940931   -0.0018476634031495884
-0.0008571782093221393   -0.03593338190296619   -0.001805370487269798
-0.004688421322928004   -0.036022301893114284   -0.0018264983937052721
-0.004971329159915859   -0.04369346936105422   -0.0018325738172680149
-0.0008219114639110762   -0.035948044159456384   -0.0017681576482504852
-0.004650076667585354   -0.03607135545950945   -0.0018110567518029549
-0.004971329159915859   -0.04369346936105422   -0.0018325738172680149
-0.0014682561651843925   -0.04362032077466665   -0.0017597035688555222
-0.0008219114639110762   -0.035948044159456384   -0.0017681576482504852
-0.0014149031282558587   -0.04365584089518011   -0.0017203331589839507
-0.004650076667585354   -0.03607135545950945   -0.0018110567518029549
-0.0007919217345232677   -0.0359698815697441   -0.0017393026831859317
-0.0014149031282558587   -0.04365584089518011   -0.0017203331589839507
-0.0008219114639110762   -0.035948044159456384   -0.0017681576482504852
-0.004650076667585354   -0.03607135545950945   -0.0018110567518029549
-0.0014149031282558587   -0.04365584089518011   -0.0017203331589839507
-0.004909986566143224   -0.04375331238520174   -0.001826082928836378
-0.004971329159915859   -0.04369346936105422   -0.0018325738172680149
-0.004650076667585354   -0.03607135545950945   -0.0018110567518029549
-0.0014149031282558587   -0.04365584089518011   -0.0017203331589839507
-0.004971329159915859   -0.04369346936105422   -0.0018325738172680149
-0.0008219114639110762   -0.035948044159456384   -0.0017681576482504852
-0.0008944417919015949   -0.03592556292711292   -0.0018506602060480047
-0.0015893957313718261   -0.04360259960489406   -0.0018636662761763111
0.0030826805877551817   -0.03587859665026648   -0.0018666384822973805
-0.0008571782093221393   -0.03593338190296619   -0.001805370487269798
-0.0015893957313718261   -0.04360259960489406   -0.0018636662761763111
0.0020278223678200304   -0.043516593614023984   -0.0018970732801237929
0.0030826805877551817   -0.03587859665026648   -0.0018666384822973805
0.0021028662297696977   -0.043492929409615945   -0.0018084787101660478
-0.0008571782093221393   -0.03593338190296619   -0.001805370487269798
0.0031301638889362007   -0.03586005036500253   -0.001808259695343692
0.0021028662297696977   -0.043492929409615945   -0.0018084787101660478
0.0030826805877551817   -0.03587859665026648   -0.0018666384822973805
-0.0008571782093221393   -0.03593338190296619   -0.001805370487269798
0.0021028662297696977   -0.043492929409615945   -0.0018084787101660478
-0.0015280259753532712   -0.043603048184256504   -0.0018075762424468408
-0.0015893957313718261   -0.04360259960489406   -0.0018636662761763111
-0.0008571782093221393   -0.03593338190296619   -0.001805370487269798
0.0021028662297696977   -0.043492929409615945   -0.0018084787101660478
-0.0015893957313718261   -0.04360259960489406   -0.0018636662761763111
0.0030826805877551817   -0.03587859665026648   -0.0018666384822973805
-0.0008571782093221393   -0.03593338190296619   -0.001805370487269798
-0.0015280259753532712   -0.043603048184256504   -0.0018075762424468408
0.0031301638889362007   -0.03586005036500253   -0.001808259695343692
-0.0008219114639110762   -0.035948044159456384   -0.0017681576482504852
-0.0015280259753532712   -0.043603048184256504   -0.0018075762424468408
0.0021028662297696977   -0.043492929409615945   -0.0018084787101660478
0.0031301638889362007   -0.03586005036500253   -0.001808259695343692
0.002179846857357213   -0.04348849016064172   -0.0017286255664194154
-0.0008219114639110762   -0.035948044159456384   -0.0017681576482504852
0.0031740987968952214   -0.03585040007468279   -0.0017579323260198691
0.002179846857357213   -0.04348849016064172   -0.0017286255664194154
0.0031301638889362007   -0.03586005036500253   -0.001808259695343692
-0.0008219114639110762   -0.035948044159456384   -0.0017681576482504852
0.002179846857357213   -0.04348849016064172   -0.0017286255664194154
-0.0014682561651843925   -0.04362032077466665   -0.0017597035688555222
-0.0015280259753532712   -0.043603048184256504   -0.0018075762424468408
-0.0008219114639110762   -0.035948044159456384   -0.0017681576482504852
0.002179846857357213   -0.04348849016064172   -0.0017286255664194154
-0.0015280259753532712   -0.043603048184256504   -0.0018075762424468408
0.0031301638889362007   -0.03586005036500253   -0.001808259695343692
-0.0008219114639110762   -0.035948044159456384   -0.0017681576482504852
-0.0014682561651843925   -0.04362032077466665   -0.0017597035688555222
0.0031740987968952214   -0.03585040007468279   -0.0017579323260198691
-0.0007919217345232677   -0.0359698815697441   -0.0017393026831859317
-0.0014682561651843925   -0.04362032077466665   -0.0017597035688555222
0.002179846857357213   -0.04348849016064172   -0.0017286255664194154
0.0031740987968952214   -0.03585040007468279   -0.0017579323260198691
0.002231097043507053   -0.043499735257181676   -0.001656360402845762
-0.0007919217345232677   -0.0359698815697441   -0.0017393026831859317
0.00319782988494315   -0.0358450060270606   -0.0017151307130697116
0.002231097043507053   -0.043499735257181676   -0.001656360402845762
0.0031740987968952214   -0.03585040007468279   -0.0017579323260198691
-0.0007919217345232677   -0.0359698815697441   -0.0017393026831859317
0.002231097043507053   -0.043499735257181676   -0.001656360402845762
-0.0014149031282558587   -0.04365584089518011   -0.0017203331589839507
-0.0014682561651843925   -0.04362032077466665   -0.0017597035688555222
-0.0007919217345232677   -0.0359698815697441   -0.0017393026831859317
0.002231097043507053   -0.043499735257181676   -0.001656360402845762
-0.0014682561651843925   -0.04362032077466665   -0.0017597035688555222
0.0031740987968952214   -0.03585040007468279   -0.0017579323260198691
0.0030826805877551817   -0.03587859665026648   -0.0018666384822973805
0.0020278223678200304   -0.043516593614023984   -0.0018970732801237929
0.007340185363714122   -0.035799612406659034   -0.0019327903599298125
0.0031301638889362007   -0.03586005036500253   -0.001808259695343692
0.0020278223678200304   -0.043516593614023984   -0.0018970732801237929
0.005874911902530877   -0.043368703807529996   -0.001983004886573293
0.007340185363714122   -0.035799612406659034   -0.0019327903599298125
0.0060746035553554244   -0.043319991358963   -0.0018540442909355536
0.0031301638889362007   -0.03586005036500253   -0.001808259695343692
0.007463841089978209   -0.03575714990829441   -0.001856085765234215
0.0060746035553554244   -0.043319991358963   -0.0018540442909355536
0.007340185363714122   -0.035799612406659034   -0.0019327903599298125
0.0031301638889362007   -0.03586005036500253   -0.001808259695343692
0.0060746035553554244   -0.043319991358963   -0.0018540442909355536
0.0021028662297696977   -0.043492929409615945   -0.0018084787101660478
0.0020278223678200304   -0.043516593614023984   -0.0018970732801237929
0.0031301638889362007   -0.03586005036500253   -0.001808259695343692
0.0060746035553554244   -0.043319991358963   -0.0018540442909355536
0.0020278223678200304   -0.043516593614023984   -0.0018970732801237929
0.007340185363714122   -0.035799612406659034   -0.0019327903599298125
0.0031301638889362007   -0.03586005036500253   -0.001808259695343692
0.0021028662297696977   -0.043492929409615945   -0.0018084787101660478
0.007463841089978209   -0.03575714990829441   -0.001856085765234215
0.0031740987968952214   -0.03585040007468279   -0.0017579323260198691
0.0021028662297696977   -0.043492929409615945   -0.0018084787101660478
0.0060746035553554244   -0.043319991358963   -0.0018540442909355536
0.007463841089978209   -0.03575714990829441   -0.001856085765234215
0.006222544494220332   -0.043306572419913356   -0.001736713399589776
0.0031740987968952214   -0.03585040007468279   -0.0017579323260198691
0.00754893963450894   -0.03573655031720184   -0.0017908529242189849
0.006222544494220332   -0.043306572419913356   -0.001736713399589776
0.007463841089978209   -0.03575714990829441   -0.001856085765234215
0.0031740987968952214   -0.03585040007468279   -0.0017579323260198691
0.006222544494220332   -0.043306572419913356   -0.001736713399589776
0.002179846857357213   -0.04348849016064172   -0.0017286255664194154
0.0021028662297696977   -0.043492929409615945   -0.0018084787101660478
0.0031740987968952214   -0.03585040007468279   -0.0017579323260198691
0.006222544494220332   -0.043306572419913356   -0.001736713399589776
0.0021028662297696977   -0.043492929409615945   -0.0018084787101660478
0.007463841089978209   -0.03575714990829441   -0.001856085765234215
0.0031740987968952214   -0.03585040007468279   -0.0017579323260198691
0.002179846857357213   -0.04348849016064172   -0.0017286255664194154
0.00754893963450894   -0.03573655031720184   -0.0017908529242189849
0.00319782988494315   -0.0358450060270606   -0.0017151307130697116
0.002179846857357213   -0.04348849016064172   -0.0017286255664194154
0.006222544494220332   -0.043306572419913356   -0.001736713399589776
0.00754893963450894   -0.03573655031720184   -0.0017908529242189849
0.006372657156956773   -0.04330647033756649   -0.001631545664911752
0.00319782988494315   -0.0358450060270606   -0.0017151307130697116
0.007624673525516654   -0.0357142278265697   -0.00173756941890997
0.006372657156956773   -0.04330647033756649   -0.001631545664911752
0.00754893963450894   -0.03573655031720184   -0.0017908529242189849
0.00319782988494315   -0.0358450060270606   -0.0017151307130697116
0.006372657156956773   -0.04330647033756649   -0.001631545664911752
0.002231097043507053   -0.043499735257181676   -0.001656360402845762
0.002179846857357213   -0.04348849016064172   -0.0017286255664194154
0.00319782988494315   -0.0358450060270606   -0.0017151307130697116
0.006372657156956773   -0.04330647033756649   -0.001631545664911752
0.002179846857357213   -0.04348849016064172   -0.0017286255664194154
0.00754893963450894   -0.03573655031720184   -0.0017908529242189849
-0.012715038740745943   -0.04350743725369386   -0.001986325801855287
-0.01160451957939455   -0.05021749360593   -0.0018526720344113783
-0.008692712726635148   -0.04359478526805893   -0.00191596095942208
-0.01262298229604339   -0.04356735720836407   -0.002036812395363428
-0.01160451957939455   -0.05021749360593   -0.0018526720344113783
-0.00821981332430694   -0.05037488256094052   -0.0018413979968009268
-0.008692712726635148   -0.04359478526805893   -0.00191596095942208
-0.00813550953135604   -0.050397634441861114   -0.0018786423261869217
-0.01262298229604339   -0.04356735720836407   -0.002036812395363428
-0.008641727681344157   -0.04363915935528182   -0.0019266462382630484
-0.00813550953135604   -0.050397634441861114   -0.0018786423261869217
-0.008692712726635148   -0.04359478526805893   -0.00191596095942208
-0.01262298229604339   -0.04356735720836407   -0.002036812395363428
-0.00813550953135604   -0.050397634441861114   -0.0018786423261869217
-0.011428785105897859   -0.05025124191047948   -0.001957004031496409
-0.01160451957939455   -0.05021749360593   -0.0018526720344113783
-0.01262298229604339   -0.04356735720836407   -0.002036812395363428
-0.00813550953135604   -0.050397634441861114   -0.0018786423261869217
-0.01160451957939455   -0.05021749360593   -0.0018526720344113783
-0.008692712726635148   -0.04359478526805893   -0.00191596095942208
-0.01262298229604339   -0.04356735720836407   -0.002036812395363428
-0.011428785105897859   -0.05025124191047948   -0.001957004031496409
-0.008641727681344157   -0.04363915935528182   -0.0019266462382630484
-0.012518023383519422   -0.04364099333199892   -0.002100346205662199
-0.011428785105897859   -0.05025124191047948   -0.001957004031496409
-0.00813550953135604   -0.050397634441861114   -0.0018786423261869217
-0.008641727681344157   -0.04363915935528182   -0.0019266462382630484
-0.008029615813218116   -0.05045220663684827   -0.0019242962895249266
-0.012518023383519422   -0.04364099333199892   -0.002100346205662199
-0.008572754194373597   -0.04370241052835523   -0.0019456287348881102
-0.008029615813218116   -0.05045220663684827   -0.0019242962895249266
-0.008641727681344157   -0.04363915935528182   -0.0019266462382630484
-0.012518023383519422   -0.04364099333199892   -0.002100346205662199
-0.008029615813218116   -0.05045220663684827   -0.0019242962895249266
-0.0112535732213896   -0.05031528899547321   -0.002075028459784873
-0.011428785105897859   -0.05025124191047948   -0.001957004031496409
-0.012518023383519422   -0.04364099333199892   -0.002100346205662199
-0.008029615813218116   -0.05045220663684827   -0.0019242962895249266
-0.011428785105897859   -0.05025124191047948   -0.001957004031496409
-0.008641727681344157   -0.04363915935528182   -0.0019266462382630484
-0.012518023383519422   -0.04364099333199892   -0.002100346205662199
-0.0112535732213896   -0.05031528899547321   -0.002075028459784873
-0.008572754194373597   -0.04370241052835523   -0.0019456287348881102
-0.012375187411194418   -0.04375313089143586   -0.0021771739920101512
-0.0112535732213896   -0.05031528899547321   -0.002075028459784873
-0.008029615813218116   -0.05045220663684827   -0.0019242962895249266
-0.008572754194373597   -0.04370241052835523   -0.0019456287348881102
-0.007925146959425672   -0.05054170008364493   -0.0019782806988922004
-0.012375187411194418   -0.04375313089143586   -0.0021771739920101512
-0.008498771313089971   -0.04378840090294179   -0.001973149275133066
-0.007925146959425672   -0.05054170008364493   -0.0019782806988922004
-0.008572754194373597   -0.04370241052835523   -0.0019456287348881102
-0.012375187411194418   -0.04375313089143586   -0.0021771739920101512
-0.007925146959425672   -0.05054170008364493   -0.0019782806988922004
-0.011029159825365755   -0.05043471845794395   -0.002206499008937534
-0.0112535732213896   -0.05031528899547321   -0.002075028459784873
-0.012375187411194418   -0.04375313089143586   -0.0021771739920101512
-0.007925146959425672   -0.05054170008364493   -0.0019782806988922004
-0.0112535732213896   -0.05031528899547321   -0.002075028459784873
-0.008572754194373597   -0.04370241052835523   -0.0019456287348881102
-0.008692712726635148   -0.04359478526805893   -0.00191596095942208
-0.00821981332430694   -0.05037488256094052   -0.0018413979968009268
-0.0050864985719209724   -0.043629250242548594   -0.0018709483825904577
-0.008641727681344157   -0.04363915935528182   -0.0019266462382630484
-0.00821981332430694   -0.05037488256094052   -0.0018413979968009268
-0.005288141833476442   -0.05044846201493497   -0.0018369686774957104
-0.0050864985719209724   -0.043629250242548594   -0.0018709483825904577
-0.00520167438194107   -0.050455900640383015   -0.0018202665875361461
-0.008641727681344157   -0.04363915935528182   -0.0019266462382630484
-0.005031008451532752   -0.04365228786940931   -0.0018476634031495884
-0.00520167438194107   -0.050455900640383015   -0.0018202665875361461
-0.0050864985719209724   -0.043629250242548594   -0.0018709483825904577
-0.008641727681344157   -0.04363915935528182   -0.0019266462382630484
-0.00520167438194107   -0.050455900640383015   -0.0018202665875361461
-0.00813550953135604   -0.050397634441861114   -0.0018786423261869217
-0.00821981332430694   -0.05037488256094052   -0.0018413979968009268
-0.008641727681344157   -0.04363915935528182   -0.0019266462382630484
-0.00520167438194107   -0.050455900640383015   -0.0018202665875361461
-0.00821981332430694   -0.05037488256094052   -0.0018413979968009268
-0.0050864985719209724   -0.043629250242548594   -0.0018709483825904577
-0.008641727681344157   -0.04363915935528182   -0.0019266462382630484
-0.00813550953135604   -0.050397634441861114   -0.0018786423261869217
-0.005031008451532752   -0.04365228786940931   -0.0018476634031495884
-0.008572754194373597   -0.04370241052835523   -0.0019456287348881102
-0.00813550953135604   -0.050397634441861114   -0.0018786423261869217
-0.00520167438194107   -0.050455900640383015   -0.0018202665875361461
-0.005031008451532752   -0.04365228786940931   -0.0018476634031495884
-0.005112418972517613   -0.050491758179346494   -0.001811724994221356
-0.008572754194373597   -0.04370241052835523   -0.0019456287348881102
-0.004971329159915859   -0.04369346936105422   -0.0018325738172680149
-0.005112418972517613   -0.050491758179346494   -0.001811724994221356
-0.005031008451532752   -0.04365228786940931   -0.0018476634031495884
-0.008572754194373597   -0.04370241052835523   -0.0019456287348881102
-0.005112418972517613   -0.050491758179346494   -0.001811724994221356
-0.008029615813218116   -0.05045220663684827   -0.0019242962895249266
-0.00813550953135604   -0.050397634441861114   -0.0018786423261869217
-0.008572754194373597   -0.04370241052835523   -0.0019456287348881102
-0.005112418972517613   -0.050491758179346494   -0.001811724994221356
-0.00813550953135604   -0.050397634441861114   -0.0018786423261869217
-0.005031008451532752   -0.04365228786940931   -0.0018476634031495884
-0.008572754194373597   -0.04370241052835523   -0.0019456287348881102
-0.008029615813218116   -0.05045220663684827   -0.0019242962895249266
-0.004971329159915859   -0.04369346936105422   -0.0018325738172680149
-0.008498771313089971   -0.04378840090294179   -0.001973149275133066
-0.008029615813218116   -0.05045220663684827   -0.0019242962895249266
-0.005112418972517613   -0.050491758179346494   -0.001811724994221356
-0.004971329159915859   -0.04369346936105422   -0.0018325738172680149
-0.00502330386176281   -0.05055769575723182   -0.0018112436371011589
-0.008498771313089971   -0.04378840090294179   -0.001973149275133066
-0.004909986566143224   -0.04375331238520174   -0.001826082928836378
-0.00502330386176281   -0.05055769575723182   -0.0018112436371011589
-0.004971329159915859   -0.04369346936105422   -0.0018325738172680149
-0.008498771313089971   -0.04378840090294179   -0.001973149275133066
-0.00502330386176281   -0.05055769575723182   -0.0018112436371011589
-0.007925146959425672   -0.05054170008364493   -0.0019782806988922004
-0.008029615813218116   -0.05045220663684827   -0.0019242962895249266
-0.008498771313089971   -0.04378840090294179   -0.001973149275133066
-0.00502330386176281   -0.05055769575723182   -0.0018112436371011589
-0.008029615813218116   -0.05045220663684827   -0.0019242962895249266
-0.004971329159915859   -0.04369346936105422   -0.0018325738172680149
-0.0050864985719209724   -0.043629250242548594   -0.0018709483825904577
-0.005288141833476442   -0.05044846201493497   -0.0018369686774957104
-0.0015893957313718261   -0.04360259960489406   -0.0018636662761763111
-0.005031008451532752   -0.04365228786940931   -0.0018476634031495884
-0.005288141833476442   -0.05044846201493497   -0.0018369686774957104
-0.00245369876447619   -0.050434818804319125   -0.0018581134084466149
-0.0015893957313718261   -0.04360259960489406   -0.0018636662761763111
-0.0023589895952444307   -0.050425048411408824   -0.001789354761295704
-0.005031008451532752   -0.04365228786940931   -0.0018476634031495884
-0.0015280259753532712   -0.043603048184256504   -0.0018075762424468408
-0.0023589895952444307   -0.050425048411408824   -0.001789354761295704
-0.0015893957313718261   -0.04360259960489406   -0.0018636662761763111
-0.005031008451532752   -0.04365228786940931   -0.0018476634031495884
-0.0023589895952444307   -0.050425048411408824   -0.001789354761295704
-0.00520167438194107   -0.050455900640383015   -0.0018202665875361461
-0.005288141833476442   -0.05044846201493497   -0.0018369686774957104
-0.005031008451532752   -0.04365228786940931   -0.0018476634031495884
-0.0023589895952444307   -0.050425048411408824   -0.001789354761295704
-0.005288141833476442   -0.05044846201493497   -0.0018369686774957104
-0.0015893957313718261   -0.04360259960489406   -0.0018636662761763111
-0.005031008451532752   -0.04365228786940931   -0.0018476634031495884
-0.00520167438194107   -0.050455900640383015   -0.0018202665875361461
-0.0015280259753532712   -0.043603048184256504   -0.0018075762424468408
-0.004971329159915859   -0.04369346936105422   -0.0018325738172680149
-0.00520167438194107   -0.050455900640383015   -0.0018202665875361461
-0.0023589895952444307   -0.050425048411408824   -0.001789354761295704
-0.0015280259753532712   -0.043603048184256504   -0.0018075762424468408
-0.0022670576877423135   -0.05044099205226473   -0.001729295442568425
-0.004971329159915859   -0.04369346936105422   -0.0018325738172680149
-0.0014682561651843925   -0.04362032077466665   -0.0017597035688555222
-0.0022670576877423135   -0.05044099205226473   -0.001729295442568425
-0.0015280259753532712   -0.043603048184256504   -0.0018075762424468408
-0.004971329159915859   -0.04369346936105422   -0.0018325738172680149
-0.0022670576877423135   -0.05044099205226473   -0.001729295442568425
-0.005112418972517613   -0.050491758179346494   -0.001811724994221356
-0.00520167438194107   -0.050455900640383015   -0.0018202665875361461
-0.004971329159915859   -0.04369346936105422   -0.0018325738172680149
-0.0022670576877423135   -0.05044099205226473   -0.001729295442568425
-0.00520167438194107   -0.050455900640383015   -0.0018202665875361461
-0.0015280259753532712   -0.043603048184256504   -0.0018075762424468408
-0.004971329159915859   -0.04369346936105422   -0.0018325738172680149
-0.005112418972517613   -0.050491758179346494   -0.001811724994221356
-0.0014682561651843925   -0.04362032077466665   -0.0017597035688555222
-0.004909986566143224   -0.04375331238520174   -0.001826082928836378
-0.005112418972517613   -0.050491758179346494   -0.001811724994221356
-0.0022670576877423135   -0.05044099205226473   -0.001729295442568425
-0.0014682561651843925   -0.04362032077466665   -0.0017597035688555222
-0.0021839861071009975   -0.050486352020250924   -0.0016771843929782955
-0.004909986566143224   -0.04375331238520174   -0.001826082928836378
-0.0014149031282558587   -0.04365584089518011   -0.0017203331589839507
-0.0021839861071009975   -0.050486352020250924   -0.0016771843929782955
-0.0014682561651843925   -0.04362032077466665   -0.0017597035688555222
-0.004909986566143224   -0.04375331238520174   -0.001826082928836378
-0.0021839861071009975   -0.050486352020250924   -0.0016771843929782955
-0.00502330386176281   -0.05055769575723182   -0.0018112436371011589
-0.005112418972517613   -0.050491758179346494   -0.001811724994221356
-0.004909986566143224   -0.04375331238520174   -0.001826082928836378
-0.0021839861071009975   -0.050486352020250924   -0.0016771843929782955
-0.005112418972517613   -0.050491758179346494   -0.001811724994221356
-0.0014682561651843925   -0.04362032077466665   -0.0017597035688555222
-0.0015893957313718261   -0.04360259960489406   -0.0018636662761763111
-0.00245369876447619   -0.050434818804319125   -0.0018581134084466149
0.0020278223678200304   -0.043516593614023984   -0.0018970732801237929
-0.0015280259753532712   -0.043603048184256504   -0.0018075762424468408
-0.00245369876447619   -0.050434818804319125   -0.0018581134084466149
0.0005128910204612263   -0.05033082693339478   -0.001909429690063891
0.0020278223678200304   -0.043516593614023984   -0.0018970732801237929
0.0006281347399323085   -0.050299221156251454   -0.0017887847392034644
-0.0015280259753532712   -0.043603048184256504   -0.0018075762424468408
0.0021028662297696977   -0.043492929409615945   -0.0018084787101660478
0.0006281347399323085   -0.050299221156251454   -0.0017887847392034644
0.0020278223678200304   -0.043516593614023984   -0.0018970732801237929
-0.0015280259753532712   -0.043603048184256504   -0.0018075762424468408
0.0006281347399323085   -0.050299221156251454   -0.0017887847392034644
-0.0023589895952444307   -0.050425048411408824   -0.001789354761295704
-0.00245369876447619   -0.050434818804319125   -0.0018581134084466149
-0.0015280259753532712   -0.043603048184256504   -0.0018075762424468408
0.0006281347399323085   -0.050299221156251454   -0.0017887847392034644
-0.00245369876447619   -0.050434818804319125   -0.0018581134084466149
0.0020278223678200304   -0.043516593614023984   -0.0018970732801237929
-0.0015280259753532712   -0.043603048184256504   -0.0018075762424468408
-0.0023589895952444307   -0.050425048411408824   -0.001789354761295704
0.0021028662297696977   -0.043492929409615945   -0.0018084787101660478
-0.0014682561651843925   -0.04362032077466665   -0.0017597035688555222
-0.0023589895952444307   -0.050425048411408824   -0.001789354761295704
0.0006281347399323085   -0.050299221156251454   -0.0017887847392034644
0.0021028662297696977   -0.043492929409615945   -0.0018084787101660478
0.0007496324319671353   -0.050296362943659696   -0.0016791632725801434
-0.0014682561651843925   -0.04362032077466665   -0.0017597035688555222
0.002179846857357213   -0.04348849016064172   -0.0017286255664194154
0.0007496324319671353   -0.050296362943659696   -0.0016791632725801434
0.0021028662297696977   -0.043492929409615945   -0.0018084787101660478
-0.0014682561651843925   -0.04362032077466665   -0.0017597035688555222
0.0007496324319671353   -0.050296362943659696   -0.0016791632725801434
-0.0022670576877423135   -0.05044099205226473   -0.001729295442568425
-0.0023589895952444307   -0.050425048411408824   -0.001789354761295704
-0.0014682561651843925   -0.04362032077466665   -0.0017597035688555222
0.0007496324319671353   -0.050296362943659696   -0.0016791632725801434
-0.0023589895952444307   -0.050425048411408824   -0.001789354761295704
0.0021028662297696977   -0.043492929409615945   -0.0018084787101660478
-0.0014682561651843925   -0.04362032077466665   -0.0017597035688555222
-0.0022670576877423135   -0.05044099205226473   -0.001729295442568425
0.002179846857357213   -0.04348849016064172   -0.0017286255664194154
-0.0014149031282558587   -0.04365584089518011   -0.0017203331589839507
-0.0022670576877423135   -0.05044099205226473   -0.001729295442568425
0.0007496324319671353   -0.050296362943659696   -0.0016791632725801434
0.002179846857357213   -0.04348849016064172   -0.0017286255664194154
0.0008384905067605615   -0.050320937133431276   -0.0015771301913634803
-0.0014149031282558587   -0.04365584089518011   -0.0017203331589839507
0.002231097043507053   -0.043499735257181676   -0.001656360402845762
0.0008384905067605615   -0.050320937133431276   -0.0015771301913634803
0.002179846857357213   -0.04348849016064172   -0.0017286255664194154
-0.0014149031282558587   -0.04365584089518011   -0.0017203331589839507
0.0008384905067605615   -0.050320937133431276   -0.0015771301913634803
-0.0021839861071009975   -0.050486352020250924   -0.0016771843929782955
-0.0022670576877423135   -0.05044099205226473   -0.001729295442568425
-0.0014149031282558587   -0.04365584089518011   -0.0017203331589839507
0.0008384905067605615   -0.050320937133431276   -0.0015771301913634803
-0.0022670576877423135   -0.05044099205226473   -0.001729295442568425
0.002179846857357213   -0.04348849016064172   -0.0017286255664194154
0.0020278223678200304   -0.043516593614023984   -0.0018970732801237929
0.0005128910204612263   -0.05033082693339478   -0.001909429690063891
0.005874911902530877   -0.043368703807529996   -0.001983004886573293
0.0021028662297696977   -0.043492929409615945   -0.0018084787101660478
0.0005128910204612263   -0.05033082693339478   -0.001909429690063891
0.003674328767504058   -0.050126646687421145   -0.002018914186970316
0.005874911902530877   -0.043368703807529996   -0.001983004886573293
0.003966593042988636   -0.050066026003563614   -0.0018342488973753686
0.0021028662297696977   -0.043492929409615945   -0.0018084787101660478
0.0060746035553554244   -0.043319991358963   -0.0018540442909355536
0.003966593042988636   -0.050066026003563614   -0.0018342488973753686
0.005874911902530877   -0.043368703807529996   -0.001983004886573293
0.0021028662297696977   -0.043492929409615945   -0.0018084787101660478
0.003966593042988636   -0.050066026003563614   -0.0018342488973753686
0.0006281347399323085   -0.050299221156251454   -0.0017887847392034644
0.0005128910204612263   -0.05033082693339478   -0.001909429690063891
0.0021028662297696977   -0.043492929409615945   -0.0018084787101660478
0.003966593042988636   -0.050066026003563614   -0.0018342488973753686
0.0005128910204612263   -0.05033082693339478   -0.001909429690063891
0.005874911902530877   -0.043368703807529996   -0.001983004886573293
0.0021028662297696977   -0.043492929409615945   -0.0018084787101660478
0.0006281347399323085   -0.050299221156251454   -0.0017887847392034644
0.0060746035553554244   -0.043319991358963   -0.0018540442909355536
0.002179846857357213   -0.04348849016064172   -0.0017286255664194154
0.0006281347399323085   -0.050299221156251454   -0.0017887847392034644
0.003966593042988636   -0.050066026003563614   -0.0018342488973753686
0.0060746035553554244   -0.043319991358963   -0.0018540442909355536
0.00419070639782835   -0.05005552767148033   -0.0016632553242844083
0.002179846857357213   -0.04348849016064172   -0.0017286255664194154
0.006222544494220332   -0.043306572419913356   -0.001736713399589776
0.00419070639782835   -0.05005552767148033   -0.0016632553242844083
0.0060746035553554244   -0.043319991358963   -0.0018540442909355536
0.002179846857357213   -0.04348849016064172   -0.0017286255664194154
0.00419070639782835   -0.05005552767148033   -0.0016632553242844083
0.0007496324319671353   -0.050296362943659696   -0.0016791632725801434
0.0006281347399323085   -0.050299221156251454   -0.0017887847392034644
0.002179846857357213   -0.04348849016064172   -0.0017286255664194154
0.00419070639782835   -0.05005552767148033   -0.0016632553242844083
0.0006281347399323085   -0.050299221156251454   -0.0017887847392034644
0.0060746035553554244   -0.043319991358963   -0.0018540442909355536
0.002179846857357213   -0.04348849016064172   -0.0017286255664194154
0.0007496324319671353   -0.050296362943659696   -0.0016791632725801434
0.006222544494220332   -0.043306572419913356   -0.001736713399589776
0.002231097043507053   -0.043499735257181676   -0.001656360402845762
0.0007496324319671353   -0.050296362943659696   -0.0016791632725801434
0.00419070639782835   -0.05005552767148033   -0.0016632553242844083
0.006222544494220332   -0.043306572419913356   -0.001736713399589776
0.004423056971367899   -0.050073565010978115   -0.0015073276564040448
0.002231097043507053   -0.043499735257181676   -0.001656360402845762
0.006372657156956773   -0.04330647033756649   -0.001631545664911752
0.004423056971367899   -0.050073565010978115   -0.0015073276564040448
0.006222544494220332   -0.043306572419913356   -0.001736713399589776
0.002231097043507053   -0.043499735257181676   -0.001656360402845762
0.004423056971367899   -0.050073565010978115   -0.0015073276564040448
0.0008384905067605615   -0.050320937133431276   -0.0015771301913634803
0.0007496324319671353   -0.050296362943659696   -0.0016791632725801434
0.002231097043507053   -0.043499735257181676   -0.001656360402845762
0.004423056971367899   -0.050073565010978115   -0.0015073276564040448
0.0007496324319671353   -0.050296362943659696   -0.0016791632725801434
0.006222544494220332   -0.043306572419913356   -0.001736713399589776
-0.01160451957939455   -0.05021749360593   -0.0018526720344113783
-0.009722452454935606   -0.05548341508664143   -0.0016811870139826503
-0.00821981332430694   -0.05037488256094052   -0.0018413979968009268
-0.011428785105897859   -0.05025124191047948   -0.001957004031496409
-0.009722452454935606   -0.05548341508664143   -0.0016811870139826503
-0.007313292216575409   -0.05571626948548014   -0.001750986619679515
-0.00821981332430694   -0.05037488256094052   -0.0018413979968009268
-0.00719207585985326   -0.05570434571253883   -0.001808293275560578
-0.011428785105897859   -0.05025124191047948   -0.001957004031496409
-0.00813550953135604   -0.050397634441861114   -0.0018786423261869217
-0.00719207585985326   -0.05570434571253883   -0.001808293275560578
-0.00821981332430694   -0.05037488256094052   -0.0018413979968009268
-0.011428785105897859   -0.05025124191047948   -0.001957004031496409
-0.00719207585985326   -0.05570434571253883   -0.001808293275560578
-0.009460835835437623   -0.05547690663328482   -0.0018356863840247623
-0.009722452454935606   -0.05548341508664143   -0.0016811870139826503
-0.011428785105897859   -0.05025124191047948   -0.001957004031496409
-0.00719207585985326   -0.05570434571253883   -0.001808293275560578
-0.009722452454935606   -0.05548341508664143   -0.0016811870139826503
-0.00821981332430694   -0.05037488256094052   -0.0018413979968009268
-0.011428785105897859   -0.05025124191047948   -0.001957004031496409
-0.009460835835437623   -0.05547690663328482   -0.0018356863840247623
-0.00813550953135604   -0.050397634441861114   -0.0018786423261869217
-0.0112535732213896   -0.05031528899547321   -0.002075028459784873
-0.009460835835437623   -0.05547690663328482   -0.0018356863840247623
-0.00719207585985326   -0.05570434571253883   -0.001808293275560578
-0.00813550953135604   -0.050397634441861114   -0.0018786423261869217
-0.007049457050598239   -0.055737984598248996   -0.0018741826448705945
-0.0112535732213896   -0.05031528899547321   -0.002075028459784873
-0.008029615813218116   -0.05045220663684827   -0.0019242962895249266
-0.007049457050598239   -0.055737984598248996   -0.0018741826448705945
-0.00813550953135604   -0.050397634441861114   -0.0018786423261869217
-0.0112535732213896   -0.05031528899547321   -0.002075028459784873
-0.007049457050598239   -0.055737984598248996   -0.0018741826448705945
-0.009219731466623344   -0.05551844918594943   -0.0020022769352587362
-0.009460835835437623   -0.05547690663328482   -0.0018356863840247623
-0.0112535732213896   -0.05031528899547321   -0.002075028459784873
-0.007049457050598239   -0.055737984598248996   -0.0018741826448705945
-0.009460835835437623   -0.05547690663328482   -0.0018356863840247623
-0.00813550953135604   -0.050397634441861114   -0.0018786423261869217
-0.0112535732213896   -0.05031528899547321   -0.002075028459784873
-0.009219731466623344   -0.05551844918594943   -0.0020022769352587362
-0.008029615813218116   -0.05045220663684827   -0.0019242962895249266
-0.011029159825365755   -0.05043471845794395   -0.002206499008937534
-0.009219731466623344   -0.05551844918594943   -0.0020022769352587362
-0.007049457050598239   -0.055737984598248996   -0.0018741826448705945
-0.008029615813218116   -0.05045220663684827   -0.0019242962895249266
-0.00692007654027442   -0.05581796007954678   -0.0019481068018116937
-0.011029159825365755   -0.05043471845794395   -0.002206499008937534
-0.007925146959425672   -0.05054170008364493   -0.0019782806988922004
-0.00692007654027442   -0.05581796007954678   -0.0019481068018116937
-0.008029615813218116   -0.05045220663684827   -0.0019242962895249266
-0.011029159825365755   -0.05043471845794395   -0.002206499008937534
-0.00692007654027442   -0.05581796007954678   -0.0019481068018116937
-0.00892563048501824   -0.055629225017775334   -0.0021802520421108527
-0.009219731466623344   -0.05551844918594943   -0.0020022769352587362
-0.011029159825365755   -0.05043471845794395   -0.002206499008937534
-0.00692007654027442   -0.05581796007954678   -0.0019481068018116937
-0.009219731466623344   -0.05551844918594943   -0.0020022769352587362
-0.008029615813218116   -0.05045220663684827   -0.0019242962895249266
-0.00821981332430694   -0.05037488256094052   -0.0018413979968009268
-0.007313292216575409   -0.05571626948548014   -0.001750986619679515
-0.005288141833476442   -0.05044846201493497   -0.0018369686774957104
-0.00813550953135604   -0.050397634441861114   -0.0018786423261869217
-0.007313292216575409   -0.05571626948548014   -0.001750986619679515
-0.005343840687253842   -0.055866872241927046   -0.001805622854810563
-0.005288141833476442   -0.05044846201493497   -0.0018369686774957104
-0.005219500876735327   -0.055847697236245206   -0.001788101267939197
-0.00813550953135604   -0.050397634441861114   -0.0018786423261869217
-0.00520167438194107   -0.050455900640383015   -0.0018202665875361461
-0.005219500876735327   -0.055847697236245206   -0.001788101267939197
-0.005288141833476442   -0.05044846201493497   -0.0018369686774957104
-0.00813550953135604   -0.050397634441861114   -0.0018786423261869217
-0.005219500876735327   -0.055847697236245206   -0.001788101267939197
-0.00719207585985326   -0.05570434571253883   -0.001808293275560578
-0.007313292216575409   -0.05571626948548014   -0.001750986619679515
-0.00813550953135604   -0.050397634441861114   -0.0018786423261869217
-0.005219500876735327   -0.055847697236245206   -0.001788101267939197
-0.007313292216575409   -0.05571626948548014   -0.001750986619679515
-0.005288141833476442   -0.05044846201493497   -0.0018369686774957104
-0.00813550953135604   -0.050397634441861114   -0.0018786423261869217
-0.00719207585985326   -0.05570434571253883   -0.001808293275560578
-0.00520167438194107   -0.050455900640383015   -0.0018202665875361461
-0.008029615813218116   -0.05045220663684827   -0.0019242962895249266
-0.00719207585985326   -0.05570434571253883   -0.001808293275560578
-0.005219500876735327   -0.055847697236245206   -0.001788101267939197
-0.00520167438194107   -0.050455900640383015   -0.0018202665875361461
-0.005096881783840007   -0.0558678661919126   -0.0017789191818306837
-0.008029615813218116   -0.05045220663684827   -0.0019242962895249266
-0.005112418972517613   -0.050491758179346494   -0.001811724994221356
-0.005096881783840007   -0.0558678661919126   -0.0017789191818306837
-0.00520167438194107   -0.050455900640383015   -0.0018202665875361461
-0.008029615813218116   -0.05045220663684827   -0.0019242962895249266
-0.005096881783840007   -0.0558678661919126   -0.0017789191818306837
-0.007049457050598239   -0.055737984598248996   -0.0018741826448705945
-0.00719207585985326   -0.05570434571253883   -0.001808293275560578
-0.008029615813218116   -0.05045220663684827   -0.0019242962895249266
-0.005096881783840007   -0.0558678661919126   -0.0017789191818306837
-0.00719207585985326   -0.05570434571253883   -0.001808293275560578
-0.00520167438194107   -0.050455900640383015   -0.0018202665875361461
-0.008029615813218116   -0.05045220663684827   -0.0019242962895249266
-0.007049457050598239   -0.055737984598248996   -0.0018741826448705945
-0.005112418972517613   -0.050491758179346494   -0.001811724994221356
-0.007925146959425672   -0.05054170008364493   -0.0019782806988922004
-0.007049457050598239   -0.055737984598248996   -0.0018741826448705945
-0.005096881783840007   -0.0558678661919126   -0.0017789191818306837
-0.005112418972517613   -0.050491758179346494   -0.001811724994221356
-0.00498402746096796   -0.055928674658614994   -0.0017798186287418627
-0.007925146959425672   -0.05054170008364493   -0.0019782806988922004
-0.00502330386176281   -0.05055769575723182   -0.0018112436371011589
-0.00498402746096796   -0.055928674658614994   -0.0017798186287418627
-0.005112418972517613   -0.050491758179346494   -0.001811724994221356
-0.007925146959425672   -0.05054170008364493   -0.0019782806988922004
-0.00498402746096796   -0.055928674658614994   -0.0017798186287418627
-0.00692007654027442   -0.05581796007954678   -0.0019481068018116937
-0.007049457050598239   -0.055737984598248996   -0.0018741826448705945
-0.007925146959425672   -0.05054170008364493   -0.0019782806988922004
-0.00498402746096796   -0.055928674658614994   -0.0017798186287418627
-0.007049457050598239   -0.055737984598248996   -0.0018741826448705945
-0.005112418972517613   -0.050491758179346494   -0.001811724994221356
-0.005288141833476442   -0.05044846201493497   -0.0018369686774957104
-0.005343840687253842   -0.055866872241927046   -0.001805622854810563
-0.00245369876447619   -0.050434818804319125   -0.0018581134084466149
-0.00520167438194107   -0.050455900640383015   -0.0018202665875361461
-0.005343840687253842   -0.055866872241927046   -0.001805622854810563
-0.003457405772062098   -0.055945495371965394   -0.0018702964834222402
-0.00245369876447619   -0.050434818804319125   -0.0018581134084466149
-0.0033172501807019724   -0.05591776369224075   -0.0017821876042746045
-0.00520167438194107   -0.050455900640383015   -0.0018202665875361461
-0.0023589895952444307   -0.050425048411408824   -0.001789354761295704
-0.0033172501807019724   -0.05591776369224075   -0.0017821876042746045
-0.00245369876447619   -0.050434818804319125   -0.0018581134084466149
-0.00520167438194107   -0.050455900640383015   -0.0018202665875361461
-0.0033172501807019724   -0.05591776369224075   -0.0017821876042746045
-0.005219500876735327   -0.055847697236245206   -0.001788101267939197
-0.005343840687253842   -0.055866872241927046   -0.001805622854810563
-0.00520167438194107   -0.050455900640383015   -0.0018202665875361461
-0.0033172501807019724   -0.05591776369224075   -0.0017821876042746045
-0.005343840687253842   -0.055866872241927046   -0.001805622854810563
-0.00245369876447619   -0.050434818804319125   -0.0018581134084466149
-0.00520167438194107   -0.050455900640383015   -0.0018202665875361461
-0.005219500876735327   -0.055847697236245206   -0.001788101267939197
-0.0023589895952444307   -0.050425048411408824   -0.001789354761295704
-0.005112418972517613   -0.050491758179346494   -0.001811724994221356
-0.005219500876735327   -0.055847697236245206   -0.001788101267939197
-0.0033172501807019724   -0.05591776369224075   -0.0017821876042746045
-0.0023589895952444307   -0.050425048411408824   -0.001789354761295704
-0.003183624315488149   -0.055924655516791946   -0.0017014619994323442
-0.005112418972517613   -0.050491758179346494   -0.001811724994221356
-0.0022670576877423135   -0.05044099205226473   -0.001729295442568425
-0.003183624315488149   -0.055924655516791946   -0.0017014619994323442
-0.0023589895952444307   -0.050425048411408824   -0.001789354761295704
-0.005112418972517613   -0.050491758179346494   -0.001811724994221356
-0.003183624315488149   -0.055924655516791946   -0.0017014619994323442
-0.005096881783840007   -0.0558678661919126   -0.0017789191818306837
-0.005219500876735327   -0.055847697236245206   -0.001788101267939197
-0.005112418972517613   -0.050491758179346494   -0.001811724994221356
-0.003183624315488149   -0.055924655516791946   -0.0017014619994323442
-0.005219500876735327   -0.055847697236245206   -0.001788101267939197
-0.0023589895952444307   -0.050425048411408824   -0.001789354761295704
-0.005112418972517613   -0.050491758179346494   -0.001811724994221356
-0.005096881783840007   -0.0558678661919126   -0.0017789191818306837
-0.0022670576877423135   -0.05044099205226473   -0.001729295442568425
-0.00502330386176281   -0.05055769575723182   -0.0018112436371011589
-0.005096881783840007   -0.0558678661919126   -0.0017789191818306837
-0.003183624315488149   -0.055924655516791946   -0.0017014619994323442
-0.0022670576877423135   -0.05044099205226473   -0.001729295442568425
-0.0030724465305463234   -0.05597286724838573   -0.0016327059913427671
-0.00502330386176281   -0.05055769575723182   -0.0018112436371011589
-0.0021839861071009975   -0.050486352020250924   -0.0016771843929782955
-0.0030724465305463234   -0.05597286724838573   -0.0016327059913427671
-0.0022670576877423135   -0.05044099205226473   -0.001729295442568425
-0.00502330386176281   -0.05055769575723182   -0.0018112436371011589
-0.0030724465305463234   -0.05597286724838573   -0.0016327059913427671
-0.00498402746096796   -0.055928674658614994   -0.0017798186287418627
-0.005096881783840007   -0.0558678661919126   -0.0017789191818306837
-0.00502330386176281   -0.05055769575723182   -0.0018112436371011589
-0.0030724465305463234   -0.05597286724838573   -0.0016327059913427671
-0.005096881783840007   -0.0558678661919126   -0.0017789191818306837
-0.0022670576877423135   -0.05044099205226473   -0.001729295442568425
-0.00245369876447619   -0.050434818804319125   -0.0018581134084466149
-0.003457405772062098   -0.055945495371965394   -0.0018702964834222402
0.0005128910204612263   -0.05033082693339478   -0.001909429690063891
-0.0023589895952444307   -0.050425048411408824   -0.001789354761295704
-0.003457405772062098   -0.055945495371965394   -0.0018702964834222402
-0.001452143252718106   -0.05592455716519657   -0.001946571507433656
0.0005128910204612263   -0.05033082693339478   -0.001909429690063891
-0.0012721933199766084   -0.05588106390947311   -0.001790906309937033
-0.0023589895952444307   -0.050425048411408824   -0.001789354761295704
0.0006281347399323085   -0.050299221156251454   -0.0017887847392034644
-0.0012721933199766084   -0.05588106390947311   -0.001790906309937033
0.0005128910204612263   -0.05033082693339478   -0.001909429690063891
-0.0023589895952444307   -0.050425048411408824   -0.001789354761295704
-0.0012721933199766084   -0.05588106390947311   -0.001790906309937033
-0.0033172501807019724   -0.05591776369224075   -0.0017821876042746045
-0.003457405772062098   -0.055945495371965394   -0.0018702964834222402
-0.0023589895952444307   -0.050425048411408824   -0.001789354761295704
-0.0012721933199766084   -0.05588106390947311   -0.001790906309937033
-0.003457405772062098   -0.055945495371965394   -0.0018702964834222402
0.0005128910204612263   -0.05033082693339478   -0.001909429690063891
-0.0023589895952444307   -0.050425048411408824   -0.001789354761295704
-0.0033172501807019724   -0.05591776369224075   -0.0017821876042746045
0.0006281347399323085   -0.050299221156251454   -0.0017887847392034644
-0.0022670576877423135   -0.05044099205226473   -0.001729295442568425
-0.0033172501807019724   -0.05591776369224075   -0.0017821876042746045
-0.0012721933199766084   -0.05588106390947311   -0.001790906309937033
0.0006281347399323085   -0.050299221156251454   -0.0017887847392034644
-0.0010881103260850578   -0.0558734525113409   -0.0016431325583436873
-0.0022670576877423135   -0.05044099205226473   -0.001729295442568425
0.0007496324319671353   -0.050296362943659696   -0.0016791632725801434
-0.0010881103260850578   -0.0558734525113409   -0.0016431325583436873
0.0006281347399323085   -0.050299221156251454   -0.0017887847392034644
-0.0022670576877423135   -0.05044099205226473   -0.001729295442568425
-0.0010881103260850578   -0.0558734525113409   -0.0016431325583436873
-0.003183624315488149   -0.055924655516791946   -0.0017014619994323442
-0.0033172501807019724   -0.05591776369224075   -0.0017821876042746045
-0.0022670576877423135   -0.05044099205226473   -0.001729295442568425
-0.0010881103260850578   -0.0558734525113409   -0.0016431325583436873
-0.0033172501807019724   -0.05591776369224075   -0.0017821876042746045
0.0006281347399323085   -0.050299221156251454   -0.0017887847392034644
-0.0022670576877423135   -0.05044099205226473   -0.001729295442568425
-0.003183624315488149   -0.055924655516791946   -0.0017014619994323442
0.0007496324319671353   -0.050296362943659696   -0.0016791632725801434
-0.0021839861071009975   -0.050486352020250924   -0.0016771843929782955
-0.003183624315488149   -0.055924655516791946   -0.0017014619994323442
-0.0010881103260850578   -0.0558734525113409   -0.0016431325583436873
0.0007496324319671353   -0.050296362943659696   -0.0016791632725801434
-0.0009518266121821138   -0.05590940954951398   -0.0015088689161058693
-0.0021839861071009975   -0.050486352020250924   -0.0016771843929782955
0.0008384905067605615   -0.050320937133431276   -0.0015771301913634803
-0.0009518266121821138   -0.05590940954951398   -0.0015088689161058693
0.0007496324319671353   -0.050296362943659696   -0.0016791632725801434
-0.0021839861071009975   -0.050486352020250924   -0.0016771843929782955
-0.0009518266121821138   -0.05590940954951398   -0.0015088689161058693
-0.0030724465305463234   -0.05597286724838573   -0.0016327059913427671
-0.003183624315488149   -0.055924655516791946   -0.0017014619994323442
-0.0021839861071009975   -0.050486352020250924   -0.0016771843929782955
-0.0009518266121821138   -0.05590940954951398   -0.0015088689161058693
-0.003183624315488149   -0.055924655516791946   -0.0017014619994323442
0.0007496324319671353   -0.050296362943659696   -0.0016791632725801434
0.0005128910204612263   -0.05033082693339478   -0.001909429690063891
-0.001452143252718106   -0.05592455716519657   -0.001946571507433656
0.003674328767504058   -0.050126646687421145   -0.002018914186970316
0.0006281347399323085   -0.050299221156251454   -0.0017887847392034644
-0.001452143252718106   -0.05592455716519657   -0.001946571507433656
0.000704616864311353   -0.05573160415957087   -0.00210255892571869
0.003674328767504058   -0.050126646687421145   -0.002018914186970316
0.0011248041202319551   -0.05563706216346237   -0.001847978329232313
0.0006281347399323085   -0.050299221156251454   -0.0017887847392034644
0.003966593042988636   -0.050066026003563614   -0.0018342488973753686
0.0011248041202319551   -0.05563706216346237   -0.001847978329232313
0.003674328767504058   -0.050126646687421145   -0.002018914186970316
0.0006281347399323085   -0.050299221156251454   -0.0017887847392034644
0.0011248041202319551   -0.05563706216346237   -0.001847978329232313
-0.0012721933199766084   -0.05588106390947311   -0.001790906309937033
-0.001452143252718106   -0.05592455716519657   -0.001946571507433656
0.0006281347399323085   -0.050299221156251454   -0.0017887847392034644
0.0011248041202319551   -0.05563706216346237   -0.001847978329232313
-0.001452143252718106   -0.05592455716519657   -0.001946571507433656
0.003674328767504058   -0.050126646687421145   -0.002018914186970316
0.0006281347399323085   -0.050299221156251454   -0.0017887847392034644
-0.0012721933199766084   -0.05588106390947311   -0.001790906309937033
0.003966593042988636   -0.050066026003563614   -0.0018342488973753686
0.0007496324319671353   -0.050296362943659696   -0.0016791632725801434
-0.0012721933199766084   -0.05588106390947311   -0.001790906309937033
0.0011248041202319551   -0.05563706216346237   -0.001847978329232313
0.003966593042988636   -0.050066026003563614   -0.0018342488973753686
0.0014549745521975647   -0.05561796616279646   -0.001608876733395249
0.0007496324319671353   -0.050296362943659696   -0.0016791632725801434
0.00419070639782835   -0.05005552767148033   -0.0016632553242844083
0.0014549745521975647   -0.05561796616279646   -0.001608876733395249
0.003966593042988636   -0.050066026003563614   -0.0018342488973753686
0.0007496324319671353   -0.050296362943659696   -0.0016791632725801434
0.0014549745521975647   -0.05561796616279646   -0.001608876733395249
-0.0010881103260850578   -0.0558734525113409   -0.0016431325583436873
-0.0012721933199766084   -0.05588106390947311   -0.001790906309937033
0.0007496324319671353   -0.050296362943659696   -0.0016791632725801434
0.0014549745521975647   -0.05561796616279646   -0.001608876733395249
-0.0012721933199766084   -0.05588106390947311   -0.001790906309937033
0.003966593042988636   -0.050066026003563614   -0.0018342488973753686
0.0007496324319671353   -0.050296362943659696   -0.0016791632725801434
-0.0010881103260850578   -0.0558734525113409   -0.0016431325583436873
0.00419070639782835   -0.05005552767148033   -0.0016632553242844083
0.0008384905067605615   -0.050320937133431276   -0.0015771301913634803
-0.0010881103260850578   -0.0558734525113409   -0.0016431325583436873
0.0014549745521975647   -0.05561796616279646   -0.001608876733395249
0.00419070639782835   -0.05005552767148033   -0.0016632553242844083
0.0017982895786263955   -0.05563427795712498   -0.0013904309311568643
0.0008384905067605615   -0.050320937133431276   -0.0015771301913634803
0.004423056971367899   -0.050073565010978115   -0.0015073276564040448
0.0017982895786263955   -0.05563427795712498   -0.0013904309311568643
0.00419070639782835   -0.05005552767148033   -0.0016632553242844083
0.0008384905067605615   -0.050320937133431276   -0.0015771301913634803
0.0017982895786263955   -0.05563427795712498   -0.0013904309311568643
-0.0009518266121821138   -0.05590940954951398   -0.0015088689161058693
-0.0010881103260850578   -0.0558734525113409   -0.0016431325583436873
0.0008384905067605615   -0.050320937133431276   -0.0015771301913634803
0.0017982895786263955   -0.05563427795712498   -0.0013904309311568643
-0.0010881103260850578   -0.0558734525113409   -0.0016431325583436873
0.00419070639782835   -0.05005552767148033   -0.0016632553242844083
-0.009722452454935606   -0.05548341508664143   -0.0016811870139826503
-0.0071370202399707395   -0.05861498943636599   -0.0014796871250250913
-0.007313292216575409   -0.05571626948548014   -0.001750986619679515
-0.009460835835437623   -0.05547690663328482   -0.0018356863840247623
-0.0071370202399707395   -0.05861498943636599   -0.0014796871250250913
-0.00601420315808191   -0.05890932143241874   -0.0016563345049867377
-0.007313292216575409   -0.05571626948548014   -0.001750986619679515
-0.005861413629253263   -0.05885132621577363   -0.0017173685837692408
-0.009460835835437623   -0.05547690663328482   -0.0018356863840247623
-0.00719207585985326   -0.05570434571253883   -0.001808293275560578
-0.005861413629253263   -0.05885132621577363   -0.0017173685837692408
-0.007313292216575409   -0.05571626948548014   -0.001750986619679515
-0.009460835835437623   -0.05547690663328482   -0.0018356863840247623
-0.005861413629253263   -0.05885132621577363   -0.0017173685837692408
-0.006811194782928872   -0.05854963016160138   -0.001665004113767573
-0.0071370202399707395   -0.05861498943636599   -0.0014796871250250913
-0.009460835835437623   -0.05547690663328482   -0.0018356863840247623
-0.005861413629253263   -0.05885132621577363   -0.0017173685837692408
-0.0071370202399707395   -0.05861498943636599   -0.0014796871250250913
-0.007313292216575409   -0.05571626948548014   -0.001750986619679515
-0.009460835835437623   -0.05547690663328482   -0.0018356863840247623
-0.006811194782928872   -0.05854963016160138   -0.001665004113767573
-0.00719207585985326   -0.05570434571253883   -0.001808293275560578
-0.009219731466623344   -0.05551844918594943   -0.0020022769352587362
-0.006811194782928872   -0.05854963016160138   -0.001665004113767573
-0.005861413629253263   -0.05885132621577363   -0.0017173685837692408
-0.00719207585985326   -0.05570434571253883   -0.001808293275560578
-0.0056921116329653005   -0.05885441041322503   -0.0017790250234277277
-0.009219731466623344   -0.05551844918594943   -0.0020022769352587362
-0.007049457050598239   -0.055737984598248996   -0.0018741826448705945
-0.0056921116329653005   -0.05885441041322503   -0.0017790250234277277
-0.00719207585985326   -0.05570434571253883   -0.001808293275560578
-0.009219731466623344   -0.05551844918594943   -0.0020022769352587362
-0.0056921116329653005   -0.05885441041322503   -0.0017790250234277277
-0.006530091859560906   -0.058555467150009255   -0.0018496266188277129
-0.006811194782928872   -0.05854963016160138   -0.001665004113767573
-0.009219731466623344   -0.05551844918594943   -0.0020022769352587362
-0.0056921116329653005   -0.05885441041322503   -0.0017790250234277277
-0.006811194782928872   -0.05854963016160138   -0.001665004113767573
-0.00719207585985326   -0.05570434571253883   -0.001808293275560578
-0.009219731466623344   -0.05551844918594943   -0.0020022769352587362
-0.006530091859560906   -0.058555467150009255   -0.0018496266188277129
-0.007049457050598239   -0.055737984598248996   -0.0018741826448705945
-0.00892563048501824   -0.055629225017775334   -0.0021802520421108527
-0.006530091859560906   -0.058555467150009255   -0.0018496266188277129
-0.0056921116329653005   -0.05885441041322503   -0.0017790250234277277
-0.007049457050598239   -0.055737984598248996   -0.0018741826448705945
-0.005534877938134044   -0.05891886789301408   -0.0018415614641561064
-0.00892563048501824   -0.055629225017775334   -0.0021802520421108527
-0.00692007654027442   -0.05581796007954678   -0.0019481068018116937
-0.005534877938134044   -0.05891886789301408   -0.0018415614641561064
-0.007049457050598239   -0.055737984598248996   -0.0018741826448705945
-0.00892563048501824   -0.055629225017775334   -0.0021802520421108527
-0.005534877938134044   -0.05891886789301408   -0.0018415614641561064
-0.006196604061058562   -0.05863661207111121   -0.0020382197144297644
-0.006530091859560906   -0.058555467150009255   -0.0018496266188277129
-0.00892563048501824   -0.055629225017775334   -0.0021802520421108527
-0.005534877938134044   -0.05891886789301408   -0.0018415614641561064
-0.006530091859560906   -0.058555467150009255   -0.0018496266188277129
-0.007049457050598239   -0.055737984598248996   -0.0018741826448705945
-0.007313292216575409   -0.05571626948548014   -0.001750986619679515
-0.00601420315808191   -0.05890932143241874   -0.0016563345049867377
-0.005343840687253842   -0.055866872241927046   -0.001805622854810563
-0.00719207585985326   -0.05570434571253883   -0.001808293275560578
-0.00601420315808191   -0.05890932143241874   -0.0016563345049867377
-0.005191043679051649   -0.05920390561059761   -0.0018123993225180395
-0.005343840687253842   -0.055866872241927046   -0.001805622854810563
-0.005029921371647397   -0.05914435746662916   -0.0017698713425329522
-0.00719207585985326   -0.05570434571253883   -0.001808293275560578
-0.005219500876735327   -0.055847697236245206   -0.001788101267939197
-0.005029921371647397   -0.05914435746662916   -0.0017698713425329522
-0.005343840687253842   -0.055866872241927046   -0.001805622854810563
-0.00719207585985326   -0.05570434571253883   -0.001808293275560578
-0.005029921371647397   -0.05914435746662916   -0.0017698713425329522
-0.005861413629253263   -0.05885132621577363   -0.0017173685837692408
-0.00601420315808191   -0.05890932143241874   -0.0016563345049867377
-0.00719207585985326   -0.05570434571253883   -0.001808293275560578
-0.005029921371647397   -0.05914435746662916   -0.0017698713425329522
-0.00601420315808191   -0.05890932143241874   -0.0016563345049867377
-0.005343840687253842   -0.055866872241927046   -0.001805622854810563
-0.00719207585985326   -0.05570434571253883   -0.001808293275560578
-0.005861413629253263   -0.05885132621577363   -0.0017173685837692408
-0.005219500876735327   -0.055847697236245206   -0.001788101267939197
-0.007049457050598239   -0.055737984598248996   -0.0018741826448705945
-0.005861413629253263   -0.05885132621577363   -0.0017173685837692408
-0.005029921371647397   -0.05914435746662916   -0.0017698713425329522
-0.005219500876735327   -0.055847697236245206   -0.001788101267939197
-0.0048741020119757806   -0.05914345208312362   -0.0017268202421419799
-0.007049457050598239   -0.055737984598248996   -0.0018741826448705945
-0.005096881783840007   -0.0558678661919126   -0.0017789191818306837
-0.0048741020119757806   -0.05914345208312362   -0.0017268202421419799
-0.005219500876735327   -0.055847697236245206   -0.001788101267939197
-0.007049457050598239   -0.055737984598248996   -0.0018741826448705945
-0.0048741020119757806   -0.05914345208312362   -0.0017268202421419799
-0.0056921116329653005   -0.05885441041322503   -0.0017790250234277277
-0.005861413629253263   -0.05885132621577363   -0.0017173685837692408
-0.007049457050598239   -0.055737984598248996   -0.0018741826448705945
-0.0048741020119757806   -0.05914345208312362   -0.0017268202421419799
-0.005861413629253263   -0.05885132621577363   -0.0017173685837692408
-0.005219500876735327   -0.055847697236245206   -0.001788101267939197
-0.007049457050598239   -0.055737984598248996   -0.0018741826448705945
-0.0056921116329653005   -0.05885441041322503   -0.0017790250234277277
-0.005096881783840007   -0.0558678661919126   -0.0017789191818306837
-0.00692007654027442   -0.05581796007954678   -0.0019481068018116937
-0.0056921116329653005   -0.05885441041322503   -0.0017790250234277277
-0.0048741020119757806   -0.05914345208312362   -0.0017268202421419799
-0.005096881783840007   -0.0558678661919126   -0.0017789191818306837
-0.00471168368999837   -0.05919997542830403   -0.0016854833931959296
-0.00692007654027442   -0.05581796007954678   -0.0019481068018116937
-0.00498402746096796   -0.055928674658614994   -0.0017798186287418627
-0.00471168368999837   -0.05919997542830403   -0.0016854833931959296
-0.005096881783840007   -0.0558678661919126   -0.0017789191818306837
-0.00692007654027442   -0.05581796007954678   -0.0019481068018116937
-0.00471168368999837   -0.05919997542830403   -0.0016854833931959296
-0.005534877938134044   -0.05891886789301408   -0.0018415614641561064
-0.0056921116329653005   -0.05885441041322503   -0.0017790250234277277
-0.00692007654027442   -0.05581796007954678   -0.0019481068018116937
-0.00471168368999837   -0.05919997542830403   -0.0016854833931959296
-0.0056921116329653005   -0.05885441041322503   -0.0017790250234277277
-0.005096881783840007   -0.0558678661919126   -0.0017789191818306837
-0.005343840687253842   -0.055866872241927046   -0.001805622854810563
-0.005191043679051649   -0.05920390561059761   -0.0018123993225180395
-0.003457405772062098   -0.055945495371965394   -0.0018702964834222402
-0.005219500876735327   -0.055847697236245206   -0.001788101267939197
-0.005191043679051649   -0.05920390561059761   -0.0018123993225180395
-0.004438992412947511   -0.05955854140721389   -0.001984378182045036
-0.003457405772062098   -0.055945495371965394   -0.0018702964834222402
-0.004241526421718222   -0.05950677387445365   -0.0018324963562159472
-0.005219500876735327   -0.055847697236245206   -0.001788101267939197
-0.0033172501807019724   -0.05591776369224075   -0.0017821876042746045
-0.004241526421718222   -0.05950677387445365   -0.0018324963562159472
-0.003457405772062098   -0.055945495371965394   -0.0018702964834222402
-0.005219500876735327   -0.055847697236245206   -0.001788101267939197
-0.004241526421718222   -0.05950677387445365   -0.0018324963562159472
-0.005029921371647397   -0.05914435746662916   -0.0017698713425329522
-0.005191043679051649   -0.05920390561059761   -0.0018123993225180395
-0.005219500876735327   -0.055847697236245206   -0.001788101267939197
-0.004241526421718222   -0.05950677387445365   -0.0018324963562159472
-0.005191043679051649   -0.05920390561059761   -0.0018123993225180395
-0.003457405772062098   -0.055945495371965394   -0.0018702964834222402
-0.005219500876735327   -0.055847697236245206   -0.001788101267939197
-0.005029921371647397   -0.05914435746662916   -0.0017698713425329522
-0.0033172501807019724   -0.05591776369224075   -0.0017821876042746045
-0.005096881783840007   -0.0558678661919126   -0.0017789191818306837
-0.005029921371647397   -0.05914435746662916   -0.0017698713425329522
-0.004241526421718222   -0.05950677387445365   -0.0018324963562159472
-0.0033172501807019724   -0.05591776369224075   -0.0017821876042746045
-0.004058498126204957   -0.059504097920592865   -0.001681092787747635
-0.005096881783840007   -0.0558678661919126   -0.0017789191818306837
-0.003183624315488149   -0.055924655516791946   -0.0017014619994323442
-0.004058498126204957   -0.059504097920592865   -0.001681092787747635
-0.0033172501807019724   -0.05591776369224075   -0.0017821876042746045
-0.005096881783840007   -0.0558678661919126   -0.0017789191818306837
-0.004058498126204957   -0.059504097920592865   -0.001681092787747635
-0.0048741020119757806   -0.05914345208312362   -0.0017268202421419799
-0.005029921371647397   -0.05914435746662916   -0.0017698713425329522
-0.005096881783840007   -0.0558678661919126   -0.0017789191818306837
-0.004058498126204957   -0.059504097920592865   -0.001681092787747635
-0.005029921371647397   -0.05914435746662916   -0.0017698713425329522
-0.0033172501807019724   -0.05591776369224075   -0.0017821876042746045
-0.005096881783840007   -0.0558678661919126   -0.0017789191818306837
-0.0048741020119757806   -0.05914345208312362   -0.0017268202421419799
-0.003183624315488149   -0.055924655516791946   -0.0017014619994323442
-0.00498402746096796   -0.055928674658614994   -0.0017798186287418627
-0.0048741020119757806   -0.05914345208312362   -0.0017268202421419799
-0.004058498126204957   -0.059504097920592865   -0.001681092787747635
-0.003183624315488149   -0.055924655516791946   -0.0017014619994323442
-0.003862072515354754   -0.0595478871259385   -0.0015294112691151183
-0.00498402746096796   -0.055928674658614994   -0.0017798186287418627
-0.0030724465305463234   -0.05597286724838573   -0.0016327059913427671
-0.003862072515354754   -0.0595478871259385   -0.0015294112691151183
-0.003183624315488149   -0.055924655516791946   -0.0017014619994323442
-0.00498402746096796   -0.055928674658614994   -0.0017798186287418627
-0.003862072515354754   -0.0595478871259385   -0.0015294112691151183
-0.00471168368999837   -0.05919997542830403   -0.0016854833931959296
-0.0048741020119757806   -0.05914345208312362   -0.0017268202421419799
-0.00498402746096796   -0.055928674658614994   -0.0017798186287418627
-0.003862072515354754   -0.0595478871259385   -0.0015294112691151183
-0.0048741020119757806   -0.05914345208312362   -0.0017268202421419799
-0.003183624315488149   -0.055924655516791946   -0.0017014619994323442
-0.003457405772062098   -0.055945495371965394   -0.0018702964834222402
-0.004438992412947511   -0.05955854140721389   -0.001984378182045036
-0.001452143252718106   -0.05592455716519657   -0.001946571507433656
-0.0033172501807019724   -0.05591776369224075   -0.0017821876042746045
-0.004438992412947511   -0.05955854140721389   -0.001984378182045036
-0.003698839823765654   -0.06   -0.0021169483152108
-0.001452143252718106   -0.05592455716519657   -0.001946571507433656
-0.003450351657888406   -0.06   -0.001885912727620261
-0.0033172501807019724   -0.05591776369224075   -0.0017821876042746045
-0.0012721933199766084   -0.05588106390947311   -0.001790906309937033
-0.003450351657888406   -0.06   -0.001885912727620261
-0.001452143252718106   -0.05592455716519657   -0.001946571507433656
-0.0033172501807019724   -0.05591776369224075   -0.0017821876042746045
-0.003450351657888406   -0.06   -0.001885912727620261
-0.004241526421718222   -0.05950677387445365   -0.0018324963562159472
-0.004438992412947511   -0.05955854140721389   -0.001984378182045036
-0.0033172501807019724   -0.05591776369224075   -0.0017821876042746045
-0.003450351657888406   -0.06   -0.001885912727620261
-0.004438992412947511   -0.05955854140721389   -0.001984378182045036
-0.001452143252718106   -0.05592455716519657   -0.001946571507433656
-0.0033172501807019724   -0.05591776369224075   -0.0017821876042746045
-0.004241526421718222   -0.05950677387445365   -0.0018324963562159472
-0.0012721933199766084   -0.05588106390947311   -0.001790906309937033
-0.003183624315488149   -0.055924655516791946   -0.0017014619994323442
-0.004241526421718222   -0.05950677387445365   -0.0018324963562159472
-0.003450351657888406   -0.06   -0.001885912727620261
-0.0012721933199766084   -0.05588106390947311   -0.001790906309937033
-0.003200579116424479   -0.06   -0.001652140757058445
-0.003183624315488149   -0.055924655516791946   -0.0017014619994323442
-0.0010881103260850578   -0.0558734525113409   -0.0016431325583436873
-0.003200579116424479   -0.06   -0.001652140757058445
-0.0012721933199766084   -0.05588106390947311   -0.001790906309937033
-0.003183624315488149   -0.055924655516791946   -0.0017014619994323442
-0.003200579116424479   -0.06   -0.001652140757058445
-0.004058498126204957   -0.059504097920592865   -0.001681092787747635
-0.004241526421718222   -0.05950677387445365   -0.0018324963562159472
-0.003183624315488149   -0.055924655516791946   -0.0017014619994323442
-0.003200579116424479   -0.06   -0.001652140757058445
-0.004241526421718222   -0.05950677387445365   -0.0018324963562159472
-0.0012721933199766084   -0.05588106390947311   -0.001790906309937033
-0.003183624315488149   -0.055924655516791946   -0.0017014619994323442
-0.004058498126204957   -0.059504097920592865   -0.001681092787747635
-0.0010881103260850578   -0.0558734525113409   -0.0016431325583436873
-0.0030724465305463234   -0.05597286724838573   -0.0016327059913427671
-0.004058498126204957   -0.059504097920592865   -0.001681092787747635
-0.003200579116424479   -0.06   -0.001652140757058445
-0.0010881103260850578   -0.0558734525113409   -0.0016431325583436873
-0.002956550088747323   -0.06   -0.0014214682340908196
-0.0030724465305463234   -0.05597286724838573   -0.0016327059913427671
-0.0009518266121821138   -0.05590940954951398   -0.0015088689161058693
-0.002956550088747323   -0.06   -0.0014214682340908196
-0.0010881103260850578   -0.0558734525113409   -0.0016431325583436873
-0.0030724465305463234   -0.05597286724838573   -0.0016327059913427671
-0.002956550088747323   -0.06   -0.0014214682340908196
-0.003862072515354754   -0.0595478871259385   -0.0015294112691151183
-0.004058498126204957   -0.059504097920592865   -0.001681092787747635
-0.0030724465305463234   -0.05597286724838573   -0.0016327059913427671
-0.002956550088747323   -0.06   -0.0014214682340908196
-0.004058498126204957   -0.059504097920592865   -0.001681092787747635
-0.0010881103260850578   -0.0558734525113409   -0.0016431325583436873
-0.001452143252718106   -0.05592455716519657   -0.001946571507433656
-0.003698839823765654   -0.06   -0.0021169483152108
0.000704616864311353   -0.05573160415957087   -0.00210255892571869
-0.0012721933199766084   -0.05588106390947311   -0.001790906309937033
-0.003698839823765654   -0.06   -0.0021169483152108
-0.003160817672399623   -0.06   -0.002277500648866233
0.000704616864311353   -0.05573160415957087   -0.00210255892571869
-0.0026404364168489346   -0.06   -0.0019430764752711716
-0.0012721933199766084   -0.05588106390947311   -0.001790906309937033
0.0011248041202319551   -0.05563706216346237   -0.001847978329232313
-0.0026404364168489346   -0.06   -0.0019430764752711716
0.000704616864311353   -0.05573160415957087   -0.00210255892571869
-0.0012721933199766084   -0.05588106390947311   -0.001790906309937033
-0.0026404364168489346   -0.06   -0.0019430764752711716
-0.003450351657888406   -0.06   -0.001885912727620261
-0.003698839823765654   -0.06   -0.0021169483152108
-0.0012721933199766084   -0.05588106390947311   -0.001790906309937033
-0.0026404364168489346   -0.06   -0.0019430764752711716
-0.003698839823765654   -0.06   -0.0021169483152108
0.000704616864311353   -0.05573160415957087   -0.00210255892571869
-0.0012721933199766084   -0.05588106390947311   -0.001790906309937033
-0.003450351657888406   -0.06   -0.001885912727620261
0.0011248041202319551   -0.05563706216346237   -0.001847978329232313
-0.0010881103260850578   -0.0558734525113409   -0.0016431325583436873
-0.003450351657888406   -0.06   -0.001885912727620261
-0.0026404364168489346   -0.06   -0.0019430764752711716
0.0011248041202319551   -0.05563706216346237   -0.001847978329232313
-0.0022254484324475176   -0.06   -0.001623168443951818
-0.0010881103260850578   -0.0558734525113409   -0.0016431325583436873
0.0014549745521975647   -0.05561796616279646   -0.001608876733395249
-0.0022254484324475176   -0.06   -0.001623168443951818
0.0011248041202319551   -0.05563706216346237   -0.001847978329232313
-0.0010881103260850578   -0.0558734525113409   -0.0016431325583436873
-0.0022254484324475176   -0.06   -0.001623168443951818
-0.003200579116424479   -0.06   -0.001652140757058445
-0.003450351657888406   -0.06   -0.001885912727620261
-0.0010881103260850578   -0.0558734525113409   -0.0016431325583436873
-0.0022254484324475176   -0.06   -0.001623168443951818
-0.003450351657888406   -0.06   -0.001885912727620261
0.0011248041202319551   -0.05563706216346237   -0.001847978329232313
-0.0010881103260850578   -0.0558734525113409   -0.0016431325583436873
-0.003200579116424479   -0.06   -0.001652140757058445
0.0014549745521975647   -0.05561796616279646   -0.001608876733395249
-0.0009518266121821138   -0.05590940954951398   -0.0015088689161058693
-0.003200579116424479   -0.06   -0.001652140757058445
-0.0022254484324475176   -0.06   -0.001623168443951818
0.0014549745521975647   -0.05561796616279646   -0.001608876733395249
-0.0017128454833749598   -0.06   -0.0012910589240956055
-0.0009518266121821138   -0.05590940954951398   -0.0015088689161058693
0.0017982895786263955   -0.05563427795712498   -0.0013904309311568643
-0.0017128454833749598   -0.06   -0.0012910589240956055
0.0014549745521975647   -0.05561796616279646   -0.001608876733395249
-0.0009518266121821138   -0.05590940954951398   -0.0015088689161058693
-0.0017128454833749598   -0.06   -0.0012910589240956055
-0.002956550088747323   -0.06   -0.0014214682340908196
-0.003200579116424479   -0.06   -0.001652140757058445
-0.0009518266121821138   -0.05590940954951398   -0.0015088689161058693
-0.0017128454833749598   -0.06   -0.0012910589240956055
-0.003200579116424479   -0.06   -0.001652140757058445
0.0014549745521975647   -0.05561796616279646   -0.001608876733395249
-0.0071370202399707395   -0.05861498943636599   -0.0014796871250250913
-0.004276698075416586   -0.05878007316786835   -0.0012666369372531748
-0.00601420315808191   -0.05890932143241874   -0.0016563345049867377
-0.006811194782928872   -0.05854963016160138   -0.001665004113767573
-0.004276698075416586   -0.05878007316786835   -0.0012666369372531748
-0.004530871507735941   -0.05900720577945314   -0.0014941069690147571
-0.00601420315808191   -0.05890932143241874   -0.0016563345049867377
-0.004415255957155695   -0.05892796965753962   -0.0015772720686331877
-0.006811194782928872   -0.05854963016160138   -0.001665004113767573
-0.005861413629253263   -0.05885132621577363   -0.0017173685837692408
-0.004415255957155695   -0.05892796965753962   -0.0015772720686331877
-0.00601420315808191   -0.05890932143241874   -0.0016563345049867377
-0.006811194782928872   -0.05854963016160138   -0.001665004113767573
-0.004415255957155695   -0.05892796965753962   -0.0015772720686331877
-0.003981266516813702   -0.058678306754304625   -0.0014613667752228804
-0.004276698075416586   -0.05878007316786835   -0.0012666369372531748
-0.006811194782928872   -0.05854963016160138   -0.001665004113767573
-0.004415255957155695   -0.05892796965753962   -0.0015772720686331877
-0.004276698075416586   -0.05878007316786835   -0.0012666369372531748
-0.00601420315808191   -0.05890932143241874   -0.0016563345049867377
-0.006811194782928872   -0.05854963016160138   -0.001665004113767573
-0.003981266516813702   -0.058678306754304625   -0.0014613667752228804
-0.005861413629253263   -0.05885132621577363   -0.0017173685837692408
-0.006530091859560906   -0.058555467150009255   -0.0018496266188277129
-0.003981266516813702   -0.058678306754304625   -0.0014613667752228804
-0.004415255957155695   -0.05892796965753962   -0.0015772720686331877
-0.005861413629253263   -0.05885132621577363   -0.0017173685837692408
-0.00427959591835432   -0.05889893929780807   -0.0016540345465538304
-0.006530091859560906   -0.058555467150009255   -0.0018496266188277129
-0.0056921116329653005   -0.05885441041322503   -0.0017790250234277277
-0.00427959591835432   -0.05889893929780807   -0.0016540345465538304
-0.005861413629253263   -0.05885132621577363   -0.0017173685837692408
-0.006530091859560906   -0.058555467150009255   -0.0018496266188277129
-0.00427959591835432   -0.05889893929780807   -0.0016540345465538304
-0.0037353668226889096   -0.0586472284151495   -0.001648153285906571
-0.003981266516813702   -0.058678306754304625   -0.0014613667752228804
-0.006530091859560906   -0.058555467150009255   -0.0018496266188277129
-0.00427959591835432   -0.05889893929780807   -0.0016540345465538304
-0.003981266516813702   -0.058678306754304625   -0.0014613667752228804
-0.005861413629253263   -0.05885132621577363   -0.0017173685837692408
-0.006530091859560906   -0.058555467150009255   -0.0018496266188277129
-0.0037353668226889096   -0.0586472284151495   -0.001648153285906571
-0.0056921116329653005   -0.05885441041322503   -0.0017790250234277277
-0.006196604061058562   -0.05863661207111121   -0.0020382197144297644
-0.0037353668226889096   -0.0586472284151495   -0.001648153285906571
-0.00427959591835432   -0.05889893929780807   -0.0016540345465538304
-0.0056921116329653005   -0.05885441041322503   -0.0017790250234277277
-0.004163413598740551   -0.05892054430802379   -0.0017239964774615772
-0.006196604061058562   -0.05863661207111121   -0.0020382197144297644
-0.005534877938134044   -0.05891886789301408   -0.0018415614641561064
-0.004163413598740551   -0.05892054430802379   -0.0017239964774615772
-0.0056921116329653005   -0.05885441041322503   -0.0017790250234277277
-0.006196604061058562   -0.05863661207111121   -0.0020382197144297644
-0.004163413598740551   -0.05892054430802379   -0.0017239964774615772
-0.0034570410286126584   -0.05867417123609952   -0.0018261738623720223
-0.0037353668226889096   -0.0586472284151495   -0.001648153285906571
-0.006196604061058562   -0.05863661207111121   -0.0020382197144297644
-0.004163413598740551   -0.05892054430802379   -0.0017239964774615772
-0.0037353668226889096   -0.0586472284151495   -0.001648153285906571
-0.0056921116329653005   -0.05885441041322503   -0.0017790250234277277
-0.00601420315808191   -0.05890932143241874   -0.0016563345049867377
-0.004530871507735941   -0.05900720577945314   -0.0014941069690147571
-0.005191043679051649   -0.05920390561059761   -0.0018123993225180395
-0.005861413629253263   -0.05885132621577363   -0.0017173685837692408
-0.004530871507735941   -0.05900720577945314   -0.0014941069690147571
-0.004877073590227175   -0.0591472722059501   -0.001675927223092203
-0.005191043679051649   -0.05920390561059761   -0.0018123993225180395
-0.004774780964342613   -0.059076503601320725   -0.0016780548307703518
-0.005861413629253263   -0.05885132621577363   -0.0017173685837692408
-0.005029921371647397   -0.05914435746662916   -0.0017698713425329522
-0.004774780964342613   -0.059076503601320725   -0.0016780548307703518
-0.005191043679051649   -0.05920390561059761   -0.0018123993225180395
-0.005861413629253263   -0.05885132621577363   -0.0017173685837692408
-0.004774780964342613   -0.059076503601320725   -0.0016780548307703518
-0.004415255957155695   -0.05892796965753962   -0.0015772720686331877
-0.004530871507735941   -0.05900720577945314   -0.0014941069690147571
-0.005861413629253263   -0.05885132621577363   -0.0017173685837692408
-0.004774780964342613   -0.059076503601320725   -0.0016780548307703518
-0.004530871507735941   -0.05900720577945314   -0.0014941069690147571
-0.005191043679051649   -0.05920390561059761   -0.0018123993225180395
-0.005861413629253263   -0.05885132621577363   -0.0017173685837692408
-0.004415255957155695   -0.05892796965753962   -0.0015772720686331877
-0.005029921371647397   -0.05914435746662916   -0.0017698713425329522
-0.0056921116329653005   -0.05885441041322503   -0.0017790250234277277
-0.004415255957155695   -0.05892796965753962   -0.0015772720686331877
-0.004774780964342613   -0.059076503601320725   -0.0016780548307703518
-0.005029921371647397   -0.05914435746662916   -0.0017698713425329522
-0.004660935666911006   -0.05905120449041518   -0.0016718820556786249
-0.0056921116329653005   -0.05885441041322503   -0.0017790250234277277
-0.0048741020119757806   -0.05914345208312362   -0.0017268202421419799
-0.004660935666911006   -0.05905120449041518   -0.0016718820556786249
-0.005029921371647397   -0.05914435746662916   -0.0017698713425329522
-0.0056921116329653005   -0.05885441041322503   -0.0017790250234277277
-0.004660935666911006   -0.05905120449041518   -0.0016718820556786249
-0.00427959591835432   -0.05889893929780807   -0.0016540345465538304
-0.004415255957155695   -0.05892796965753962   -0.0015772720686331877
-0.0056921116329653005   -0.05885441041322503   -0.0017790250234277277
-0.004660935666911006   -0.05905120449041518   -0.0016718820556786249
-0.004415255957155695   -0.05892796965753962   -0.0015772720686331877
-0.005029921371647397   -0.05914435746662916   -0.0017698713425329522
-0.0056921116329653005   -0.05885441041322503   -0.0017790250234277277
-0.00427959591835432   -0.05889893929780807   -0.0016540345465538304
-0.0048741020119757806   -0.05914345208312362   -0.0017268202421419799
-0.005534877938134044   -0.05891886789301408   -0.0018415614641561064
-0.00427959591835432   -0.05889893929780807   -0.0016540345465538304
-0.004660935666911006   -0.05905120449041518   -0.0016718820556786249
-0.0048741020119757806   -0.05914345208312362   -0.0017268202421419799
-0.004545200391541241   -0.059069315642482564   -0.0016591952451071484
-0.005534877938134044   -0.05891886789301408   -0.0018415614641561064
-0.00471168368999837   -0.05919997542830403   -0.0016854833931959296
-0.004545200391541241   -0.059069315642482564   -0.0016591952451071484
-0.0048741020119757806   -0.05914345208312362   -0.0017268202421419799
-0.005534877938134044   -0.05891886789301408   -0.0018415614641561064
-0.004545200391541241   -0.059069315642482564   -0.0016591952451071484
-0.004163413598740551   -0.05892054430802379   -0.0017239964774615772
-0.00427959591835432   -0.05889893929780807   -0.0016540345465538304
-0.005534877938134044   -0.05891886789301408   -0.0018415614641561064
-0.004545200391541241   -0.059069315642482564   -0.0016591952451071484
-0.00427959591835432   -0.05889893929780807   -0.0016540345465538304
-0.0048741020119757806   -0.05914345208312362   -0.0017268202421419799
-0.005191043679051649   -0.05920390561059761   -0.0018123993225180395
-0.004877073590227175   -0.0591472722059501   -0.001675927223092203
-0.004438992412947511   -0.05955854140721389   -0.001984378182045036
-0.005029921371647397   -0.05914435746662916   -0.0017698713425329522
-0.004877073590227175   -0.0591472722059501   -0.001675927223092203
-0.005248483940241672   -0.059205591858229524   -0.001854937524377171
-0.004438992412947511   -0.05955854140721389   -0.001984378182045036
-0.005142517874126972   -0.05913806758942017   -0.0017791375794582011
-0.005029921371647397   -0.05914435746662916   -0.0017698713425329522
-0.004241526421718222   -0.05950677387445365   -0.0018324963562159472
-0.005142517874126972   -0.05913806758942017   -0.0017791375794582011
-0.004438992412947511   -0.05955854140721389   -0.001984378182045036
-0.005029921371647397   -0.05914435746662916   -0.0017698713425329522
-0.005142517874126972   -0.05913806758942017   -0.0017791375794582011
-0.004774780964342613   -0.059076503601320725   -0.0016780548307703518
-0.004877073590227175   -0.0591472722059501   -0.001675927223092203
-0.005029921371647397   -0.05914435746662916   -0.0017698713425329522
-0.005142517874126972   -0.05913806758942017   -0.0017791375794582011
-0.004877073590227175   -0.0591472722059501   -0.001675927223092203
-0.004438992412947511   -0.05955854140721389   -0.001984378182045036
-0.005029921371647397   -0.05914435746662916   -0.0017698713425329522
-0.004774780964342613   -0.059076503601320725   -0.0016780548307703518
-0.004241526421718222   -0.05950677387445365   -0.0018324963562159472
-0.0048741020119757806   -0.05914345208312362   -0.0017268202421419799
-0.004774780964342613   -0.059076503601320725   -0.0016780548307703518
-0.005142517874126972   -0.05913806758942017   -0.0017791375794582011
-0.004241526421718222   -0.05950677387445365   -0.0018324963562159472
-0.005015451541300601   -0.059116751359677394   -0.0016932273159774866
-0.0048741020119757806   -0.05914345208312362   -0.0017268202421419799
-0.004058498126204957   -0.059504097920592865   -0.001681092787747635
-0.005015451541300601   -0.059116751359677394   -0.0016932273159774866
-0.004241526421718222   -0.05950677387445365   -0.0018324963562159472
-0.0048741020119757806   -0.05914345208312362   -0.0017268202421419799
-0.005015451541300601   -0.059116751359677394   -0.0016932273159774866
-0.004660935666911006   -0.05905120449041518   -0.0016718820556786249
-0.004774780964342613   -0.059076503601320725   -0.0016780548307703518
-0.0048741020119757806   -0.05914345208312362   -0.0017268202421419799
-0.005015451541300601   -0.059116751359677394   -0.0016932273159774866
-0.004774780964342613   -0.059076503601320725   -0.0016780548307703518
-0.004241526421718222   -0.05950677387445365   -0.0018324963562159472
-0.0048741020119757806   -0.05914345208312362   -0.0017268202421419799
-0.004660935666911006   -0.05905120449041518   -0.0016718820556786249
-0.004058498126204957   -0.059504097920592865   -0.001681092787747635
-0.00471168368999837   -0.05919997542830403   -0.0016854833931959296
-0.004660935666911006   -0.05905120449041518   -0.0016718820556786249
-0.005015451541300601   -0.059116751359677394   -0.0016932273159774866
-0.004058498126204957   -0.059504097920592865   -0.001681092787747635
-0.004884801492472068   -0.05913442732002658   -0.001601744596747253
-0.00471168368999837   -0.05919997542830403   -0.0016854833931959296
-0.003862072515354754   -0.0595478871259385   -0.0015294112691151183
-0.004884801492472068   -0.05913442732002658   -0.001601744596747253
-0.004058498126204957   -0.059504097920592865   -0.001681092787747635
-0.00471168368999837   -0.05919997542830403   -0.0016854833931959296
-0.004884801492472068   -0.05913442732002658   -0.001601744596747253
-0.004545200391541241   -0.059069315642482564   -0.0016591952451071484
-0.004660935666911006   -0.05905120449041518   -0.0016718820556786249
-0.00471168368999837   -0.05919997542830403   -0.0016854833931959296
-0.004884801492472068   -0.05913442732002658   -0.001601744596747253
-0.004660935666911006   -0.05905120449041518   -0.0016718820556786249
-0.004058498126204957   -0.059504097920592865   -0.001681092787747635
-0.004438992412947511   -0.05955854140721389   -0.001984378182045036
-0.005248483940241672   -0.059205591858229524   -0.001854937524377171
-0.003698839823765654   -0.06   -0.0021169483152108
-0.004241526421718222   -0.05950677387445365   -0.0018324963562159472
-0.005248483940241672   -0.059205591858229524   -0.001854937524377171
-0.005786567958716856   -0.05914122315820688   -0.00202516371226133
-0.003698839823765654   -0.06   -0.0021169483152108
-0.00564817069583025   -0.05907739182908469   -0.0018751360886945646
-0.004241526421718222   -0.05950677387445365   -0.0018324963562159472
-0.003450351657888406   -0.06   -0.001885912727620261
-0.00564817069583025   -0.05907739182908469   -0.0018751360886945646
-0.003698839823765654   -0.06   -0.0021169483152108
-0.004241526421718222   -0.05950677387445365   -0.0018324963562159472
-0.00564817069583025   -0.05907739182908469   -0.0018751360886945646
-0.005142517874126972   -0.05913806758942017   -0.0017791375794582011
-0.005248483940241672   -0.059205591858229524   -0.001854937524377171
-0.004241526421718222   -0.05950677387445365   -0.0018324963562159472
-0.00564817069583025   -0.05907739182908469   -0.0018751360886945646
-0.005248483940241672   -0.059205591858229524   -0.001854937524377171
-0.003698839823765654   -0.06   -0.0021169483152108
-0.004241526421718222   -0.05950677387445365   -0.0018324963562159472
-0.005142517874126972   -0.05913806758942017   -0.0017791375794582011
-0.003450351657888406   -0.06   -0.001885912727620261
-0.004058498126204957   -0.059504097920592865   -0.001681092787747635
-0.005142517874126972   -0.05913806758942017   -0.0017791375794582011
-0.00564817069583025   -0.05907739182908469   -0.0018751360886945646
-0.003450351657888406   -0.06   -0.001885912727620261
-0.005465472538084592   -0.05906298718858439   -0.001713836523293335
-0.004058498126204957   -0.059504097920592865   -0.001681092787747635
-0.003200579116424479   -0.06   -0.001652140757058445
-0.005465472538084592   -0.05906298718858439   -0.001713836523293335
-0.003450351657888406   -0.06   -0.001885912727620261
-0.004058498126204957   -0.059504097920592865   -0.001681092787747635
-0.005465472538084592   -0.05906298718858439   -0.001713836523293335
-0.005015451541300601   -0.059116751359677394   -0.0016932273159774866
-0.005142517874126972   -0.05913806758942017   -0.0017791375794582011
-0.004058498126204957   -0.059504097920592865   -0.001681092787747635
-0.005465472538084592   -0.05906298718858439   -0.001713836523293335
-0.005142517874126972   -0.05913806758942017   -0.0017791375794582011
-0.003450351657888406   -0.06   -0.001885912727620261
-0.004058498126204957   -0.059504097920592865   -0.001681092787747635
-0.005015451541300601   -0.059116751359677394   -0.0016932273159774866
-0.003200579116424479   -0.06   -0.001652140757058445
-0.003862072515354754   -0.0595478871259385   -0.0015294112691151183
-0.005015451541300601   -0.059116751359677394   -0.0016932273159774866
-0.005465472538084592   -0.05906298718858439   -0.001713836523293335
-0.003200579116424479   -0.06   -0.001652140757058445
-0.005293744555157081   -0.05908850213346027   -0.0015463388839352915
-0.003862072515354754   -0.0595478871259385   -0.0015294112691151183
-0.002956550088747323   -0.06   -0.0014214682340908196
-0.005293744555157081   -0.05908850213346027   -0.0015463388839352915
-0.003200579116424479   -0.06   -0.001652140757058445
-0.003862072515354754   -0.0595478871259385   -0.0015294112691151183
-0.005293744555157081   -0.05908850213346027   -0.0015463388839352915
-0.004884801492472068   -0.05913442732002658   -0.001601744596747253
-0.005015451541300601   -0.059116751359677394   -0.0016932273159774866
-0.003862072515354754   -0.0595478871259385   -0.0015294112691151183
-0.005293744555157081   -0.05908850213346027   -0.0015463388839352915
-0.005015451541300601   -0.059116751359677394   -0.0016932273159774866
-0.003200579116424479   -0.06   -0.001652140757058445
-0.003698839823765654   -0.06   -0.0021169483152108
-0.005786567958716856   -0.05914122315820688   -0.00202516371226133
-0.003160817672399623   -0.06   -0.002277500648866233
-0.003450351657888406   -0.06   -0.001885912727620261
-0.005786567958716856   -0.05914122315820688   -0.00202516371226133
-0.006834533522471938   -0.05885198178080333   -0.002205945522062534
-0.003160817672399623   -0.06   -0.002277500648866233
-0.006465721342830041   -0.05879804171797888   -0.0019598239843484967
-0.003450351657888406   -0.06   -0.001885912727620261
-0.0026404364168489346   -0.06   -0.0019430764752711716
-0.006465721342830041   -0.05879804171797888   -0.0019598239843484967
-0.003160817672399623   -0.06   -0.002277500648866233
-0.003450351657888406   -0.06   -0.001885912727620261
-0.006465721342830041   -0.05879804171797888   -0.0019598239843484967
-0.00564817069583025   -0.05907739182908469   -0.0018751360886945646
-0.005786567958716856   -0.05914122315820688   -0.00202516371226133
-0.003450351657888406   -0.06   -0.001885912727620261
-0.006465721342830041   -0.05879804171797888   -0.0019598239843484967
-0.005786567958716856   -0.05914122315820688   -0.00202516371226133
-0.003160817672399623   -0.06   -0.002277500648866233
-0.003450351657888406   -0.06   -0.001885912727620261
-0.00564817069583025   -0.05907739182908469   -0.0018751360886945646
-0.0026404364168489346   -0.06   -0.0019430764752711716
-0.003200579116424479   -0.06   -0.001652140757058445
-0.00564817069583025   -0.05907739182908469   -0.0018751360886945646
-0.006465721342830041   -0.05879804171797888   -0.0019598239843484967
-0.0026404364168489346   -0.06   -0.0019430764752711716
-0.006127036703987125   -0.05879073195108377   -0.001697199885837135
-0.003200579116424479   -0.06   -0.001652140757058445
-0.0022254484324475176   -0.06   -0.001623168443951818
-0.006127036703987125   -0.05879073195108377   -0.001697199885837135
-0.0026404364168489346   -0.06   -0.0019430764752711716
-0.003200579116424479   -0.06   -0.001652140757058445
-0.006127036703987125   -0.05879073195108377   -0.001697199885837135
-0.005465472538084592   -0.05906298718858439   -0.001713836523293335
-0.00564817069583025   -0.05907739182908469   -0.0018751360886945646
-0.003200579116424479   -0.06   -0.001652140757058445
-0.006127036703987125   -0.05879073195108377   -0.001697199885837135
-0.00564817069583025   -0.05907739182908469   -0.0018751360886945646
-0.0026404364168489346   -0.06   -0.0019430764752711716
-0.003200579116424479   -0.06   -0.001652140757058445
-0.005465472538084592   -0.05906298718858439   -0.001713836523293335
-0.0022254484324475176   -0.06   -0.001623168443951818
-0.002956550088747323   -0.06   -0.0014214682340908196
-0.005465472538084592   -0.05906298718858439   -0.001713836523293335
-0.006127036703987125   -0.05879073195108377   -0.001697199885837135
-0.0022254484324475176   -0.06   -0.001623168443951818
-0.0056992809105097155   -0.058861484667905764   -0.0014226061277817078
-0.002956550088747323   -0.06   -0.0014214682340908196
-0.0017128454833749598   -0.06   -0.0012910589240956055
-0.0056992809105097155   -0.058861484667905764   -0.0014226061277817078
-0.0022254484324475176   -0.06   -0.001623168443951818
-0.002956550088747323   -0.06   -0.0014214682340908196
-0.0056992809105097155   -0.058861484667905764   -0.0014226061277817078
-0.005293744555157081   -0.05908850213346027   -0.0015463388839352915
-0.005465472538084592   -0.05906298718858439   -0.001713836523293335
-0.002956550088747323   -0.06   -0.0014214682340908196
-0.0056992809105097155   -0.058861484667905764   -0.0014226061277817078
-0.005465472538084592   -0.05906298718858439   -0.001713836523293335
-0.0022254484324475176   -0.06   -0.001623168443951818
-0.004276698075416586   -0.05878007316786835   -0.0012666369372531748
-0.0017585200043273145   -0.056570731573628324   -0.0010940646748447615
-0.004530871507735941   -0.05900720577945314   -0.0014941069690147571
-0.003981266516813702   -0.058678306754304625   -0.0014613667752228804
-0.0017585200043273145   -0.056570731573628324   -0.0010940646748447615
-0.0032577751014729248   -0.05674230368748166   -0.0013357383050085667
-0.004530871507735941   -0.05900720577945314   -0.0014941069690147571
-0.003175617898958359   -0.05664640937857054   -0.0014099417150327171
-0.003981266516813702   -0.058678306754304625   -0.0014613667752228804
-0.004415255957155695   -0.05892796965753962   -0.0015772720686331877
-0.003175617898958359   -0.05664640937857054   -0.0014099417150327171
-0.004530871507735941   -0.05900720577945314   -0.0014941069690147571
-0.003981266516813702   -0.058678306754304625   -0.0014613667752228804
-0.003175617898958359   -0.05664640937857054   -0.0014099417150327171
-0.0015227630617506546   -0.056452023980918045   -0.0012625136581361615
-0.0017585200043273145   -0.056570731573628324   -0.0010940646748447615
-0.003981266516813702   -0.058678306754304625   -0.0014613667752228804
-0.003175617898958359   -0.05664640937857054   -0.0014099417150327171
-0.0017585200043273145   -0.056570731573628324   -0.0010940646748447615
-0.004530871507735941   -0.05900720577945314   -0.0014941069690147571
-0.003981266516813702   -0.058678306754304625   -0.0014613667752228804
-0.0015227630617506546   -0.056452023980918045   -0.0012625136581361615
-0.004415255957155695   -0.05892796965753962   -0.0015772720686331877
-0.0037353668226889096   -0.0586472284151495   -0.001648153285906571
-0.0015227630617506546   -0.056452023980918045   -0.0012625136581361615
-0.003175617898958359   -0.05664640937857054   -0.0014099417150327171
-0.004415255957155695   -0.05892796965753962   -0.0015772720686331877
-0.0030830682697007257   -0.05659349223216422   -0.0014774858022441554
-0.0037353668226889096   -0.0586472284151495   -0.001648153285906571
-0.00427959591835432   -0.05889893929780807   -0.0016540345465538304
-0.0030830682697007257   -0.05659349223216422   -0.0014774858022441554
-0.004415255957155695   -0.05892796965753962   -0.0015772720686331877
-0.0037353668226889096   -0.0586472284151495   -0.001648153285906571
-0.0030830682697007257   -0.05659349223216422   -0.0014774858022441554
-0.001337244632921962   -0.056395732955041265   -0.0014210935833248984
-0.0015227630617506546   -0.056452023980918045   -0.0012625136581361615
-0.0037353668226889096   -0.0586472284151495   -0.001648153285906571
-0.0030830682697007257   -0.05659349223216422   -0.0014774858022441554
-0.0015227630617506546   -0.056452023980918045   -0.0012625136581361615
-0.004415255957155695   -0.05892796965753962   -0.0015772720686331877
-0.0037353668226889096   -0.0586472284151495   -0.001648153285906571
-0.001337244632921962   -0.056395732955041265   -0.0014210935833248984
-0.00427959591835432   -0.05889893929780807   -0.0016540345465538304
-0.0034570410286126584   -0.05867417123609952   -0.0018261738623720223
-0.001337244632921962   -0.056395732955041265   -0.0014210935833248984
-0.0030830682697007257   -0.05659349223216422   -0.0014774858022441554
-0.00427959591835432   -0.05889893929780807   -0.0016540345465538304
-0.0030121269096875214   -0.05658207122483839   -0.0015385852225487876
-0.0034570410286126584   -0.05867417123609952   -0.0018261738623720223
-0.004163413598740551   -0.05892054430802379   -0.0017239964774615772
-0.0030121269096875214   -0.05658207122483839   -0.0015385852225487876
-0.00427959591835432   -0.05889893929780807   -0.0016540345465538304
-0.0034570410286126584   -0.05867417123609952   -0.0018261738623720223
-0.0030121269096875214   -0.05658207122483839   -0.0015385852225487876
-0.0011345119779123001   -0.056385638754550806   -0.0015693896771200963
-0.001337244632921962   -0.056395732955041265   -0.0014210935833248984
-0.0034570410286126584   -0.05867417123609952   -0.0018261738623720223
-0.0030121269096875214   -0.05658207122483839   -0.0015385852225487876
-0.001337244632921962   -0.056395732955041265   -0.0014210935833248984
-0.00427959591835432   -0.05889893929780807   -0.0016540345465538304
-0.004530871507735941   -0.05900720577945314   -0.0014941069690147571
-0.0032577751014729248   -0.05674230368748166   -0.0013357383050085667
-0.004877073590227175   -0.0591472722059501   -0.001675927223092203
-0.004415255957155695   -0.05892796965753962   -0.0015772720686331877
-0.0032577751014729248   -0.05674230368748166   -0.0013357383050085667
-0.004738694304176541   -0.05680274806721914   -0.0015327707252185702
-0.004877073590227175   -0.0591472722059501   -0.001675927223092203
-0.004669652774179667   -0.056719096076007995   -0.0015368059943413925
-0.004415255957155695   -0.05892796965753962   -0.0015772720686331877
-0.004774780964342613   -0.059076503601320725   -0.0016780548307703518
-0.004669652774179667   -0.056719096076007995   -0.0015368059943413925
-0.004877073590227175   -0.0591472722059501   -0.001675927223092203
-0.004415255957155695   -0.05892796965753962   -0.0015772720686331877
-0.004669652774179667   -0.056719096076007995   -0.0015368059943413925
-0.003175617898958359   -0.05664640937857054   -0.0014099417150327171
-0.0032577751014729248   -0.05674230368748166   -0.0013357383050085667
-0.004415255957155695   -0.05892796965753962   -0.0015772720686331877
-0.004669652774179667   -0.056719096076007995   -0.0015368059943413925
-0.0032577751014729248   -0.05674230368748166   -0.0013357383050085667
-0.004877073590227175   -0.0591472722059501   -0.001675927223092203
-0.004415255957155695   -0.05892796965753962   -0.0015772720686331877
-0.003175617898958359   -0.05664640937857054   -0.0014099417150327171
-0.004774780964342613   -0.059076503601320725   -0.0016780548307703518
-0.00427959591835432   -0.05889893929780807   -0.0016540345465538304
-0.003175617898958359   -0.05664640937857054   -0.0014099417150327171
-0.004669652774179667   -0.056719096076007995   -0.0015368059943413925
-0.004774780964342613   -0.059076503601320725   -0.0016780548307703518
-0.004598238417519302   -0.05667418337796994   -0.0015346731331775396
-0.00427959591835432   -0.05889893929780807   -0.0016540345465538304
-0.004660935666911006   -0.05905120449041518   -0.0016718820556786249
-0.004598238417519302   -0.05667418337796994   -0.0015346731331775396
-0.004774780964342613   -0.059076503601320725   -0.0016780548307703518
-0.00427959591835432   -0.05889893929780807   -0.0016540345465538304
-0.004598238417519302   -0.05667418337796994   -0.0015346731331775396
-0.0030830682697007257   -0.05659349223216422   -0.0014774858022441554
-0.003175617898958359   -0.05664640937857054   -0.0014099417150327171
-0.00427959591835432   -0.05889893929780807   -0.0016540345465538304
-0.004598238417519302   -0.05667418337796994   -0.0015346731331775396
-0.003175617898958359   -0.05664640937857054   -0.0014099417150327171
-0.004774780964342613   -0.059076503601320725   -0.0016780548307703518
-0.00427959591835432   -0.05889893929780807   -0.0016540345465538304
-0.0030830682697007257   -0.05659349223216422   -0.0014774858022441554
-0.004660935666911006   -0.05905120449041518   -0.0016718820556786249
-0.004163413598740551   -0.05892054430802379   -0.0017239964774615772
-0.0030830682697007257   -0.05659349223216422   -0.0014774858022441554
-0.004598238417519302   -0.05667418337796994   -0.0015346731331775396
-0.004660935666911006   -0.05905120449041518   -0.0016718820556786249
-0.004529374327675437   -0.05666615756563921   -0.0015263180732805741
-0.004163413598740551   -0.05892054430802379   -0.0017239964774615772
-0.004545200391541241   -0.059069315642482564   -0.0016591952451071484
-0.004529374327675437   -0.05666615756563921   -0.0015263180732805741
-0.004660935666911006   -0.05905120449041518   -0.0016718820556786249
-0.004163413598740551   -0.05892054430802379   -0.0017239964774615772
-0.004529374327675437   -0.05666615756563921   -0.0015263180732805741
-0.0030121269096875214   -0.05658207122483839   -0.0015385852225487876
-0.0030830682697007257   -0.05659349223216422   -0.0014774858022441554
-0.004163413598740551   -0.05892054430802379   -0.0017239964774615772
-0.004529374327675437   -0.05666615756563921   -0.0015263180732805741
-0.0030830682697007257   -0.05659349223216422   -0.0014774858022441554
-0.004660935666911006   -0.05905120449041518   -0.0016718820556786249
-0.004877073590227175   -0.0591472722059501   -0.001675927223092203
-0.004738694304176541   -0.05680274806721914   -0.0015327707252185702
-0.005248483940241672   -0.059205591858229524   -0.001854937524377171
-0.004774780964342613   -0.059076503601320725   -0.0016780548307703518
-0.004738694304176541   -0.05680274806721914   -0.0015327707252185702
-0.006209513025246387   -0.05674882407283036   -0.0017171965708912382
-0.005248483940241672   -0.059205591858229524   -0.001854937524377171
-0.006141017304219586   -0.05667451021296763   -0.0016539419548910561
-0.004774780964342613   -0.059076503601320725   -0.0016780548307703518
-0.005142517874126972   -0.05913806758942017   -0.0017791375794582011
-0.006141017304219586   -0.05667451021296763   -0.0016539419548910561
-0.005248483940241672   -0.059205591858229524   -0.001854937524377171
-0.004774780964342613   -0.059076503601320725   -0.0016780548307703518
-0.006141017304219586   -0.05667451021296763   -0.0016539419548910561
-0.004669652774179667   -0.056719096076007995   -0.0015368059943413925
-0.004738694304176541   -0.05680274806721914   -0.0015327707252185702
-0.004774780964342613   -0.059076503601320725   -0.0016780548307703518
-0.006141017304219586   -0.05667451021296763   -0.0016539419548910561
-0.004738694304176541   -0.05680274806721914   -0.0015327707252185702
-0.005248483940241672   -0.059205591858229524   -0.001854937524377171
-0.004774780964342613   -0.059076503601320725   -0.0016780548307703518
-0.004669652774179667   -0.056719096076007995   -0.0015368059943413925
-0.005142517874126972   -0.05913806758942017   -0.0017791375794582011
-0.004660935666911006   -0.05905120449041518   -0.0016718820556786249
-0.004669652774179667   -0.056719096076007995   -0.0015368059943413925
-0.006141017304219586   -0.05667451021296763   -0.0016539419548910561
-0.005142517874126972   -0.05913806758942017   -0.0017791375794582011
-0.0060641508926463856   -0.05663828998612277   -0.0015846122496794301
-0.004660935666911006   -0.05905120449041518   -0.0016718820556786249
-0.005015451541300601   -0.059116751359677394   -0.0016932273159774866
-0.0060641508926463856   -0.05663828998612277   -0.0015846122496794301
-0.005142517874126972   -0.05913806758942017   -0.0017791375794582011
-0.004660935666911006   -0.05905120449041518   -0.0016718820556786249
-0.0060641508926463856   -0.05663828998612277   -0.0015846122496794301
-0.004598238417519302   -0.05667418337796994   -0.0015346731331775396
-0.004669652774179667   -0.056719096076007995   -0.0015368059943413925
-0.004660935666911006   -0.05905120449041518   -0.0016718820556786249
-0.0060641508926463856   -0.05663828998612277   -0.0015846122496794301
-0.004669652774179667   -0.056719096076007995   -0.0015368059943413925
-0.005142517874126972   -0.05913806758942017   -0.0017791375794582011
-0.004660935666911006   -0.05905120449041518   -0.0016718820556786249
-0.004598238417519302   -0.05667418337796994   -0.0015346731331775396
-0.005015451541300601   -0.059116751359677394   -0.0016932273159774866
-0.004545200391541241   -0.059069315642482564   -0.0016591952451071484
-0.004598238417519302   -0.05667418337796994   -0.0015346731331775396
-0.0060641508926463856   -0.05663828998612277   -0.0015846122496794301
-0.005015451541300601   -0.059116751359677394   -0.0016932273159774866
-0.00598698435811715   -0.05663651737710917   -0.0015084676018404075
-0.004545200391541241   -0.059069315642482564   -0.0016591952451071484
-0.004884801492472068   -0.05913442732002658   -0.001601744596747253
-0.00598698435811715   -0.05663651737710917   -0.0015084676018404075
-0.005015451541300601   -0.059116751359677394   -0.0016932273159774866
-0.004545200391541241   -0.059069315642482564   -0.0016591952451071484
-0.00598698435811715   -0.05663651737710917   -0.0015084676018404075
-0.004529374327675437   -0.05666615756563921   -0.0015263180732805741
-0.004598238417519302   -0.05667418337796994   -0.0015346731331775396
-0.004545200391541241   -0.059069315642482564   -0.0016591952451071484
-0.00598698435811715   -0.05663651737710917   -0.0015084676018404075
-0.004598238417519302   -0.05667418337796994   -0.0015346731331775396
-0.005015451541300601   -0.059116751359677394   -0.0016932273159774866
-0.005248483940241672   -0.059205591858229524   -0.001854937524377171
-0.006209513025246387   -0.05674882407283036   -0.0017171965708912382
-0.005786567958716856   -0.05914122315820688   -0.00202516371226133
-0.005142517874126972   -0.05913806758942017   -0.0017791375794582011
-0.006209513025246387   -0.05674882407283036   -0.0017171965708912382
-0.007825057539895378   -0.05657342398141504   -0.0018866692454154066
-0.005786567958716856   -0.05914122315820688   -0.00202516371226133
-0.0077411589695752   -0.05650845398124122   -0.0017576041840774118
-0.005142517874126972   -0.05913806758942017   -0.0017791375794582011
-0.00564817069583025   -0.05907739182908469   -0.0018751360886945646
-0.0077411589695752   -0.05650845398124122   -0.0017576041840774118
-0.005786567958716856   -0.05914122315820688   -0.00202516371226133
-0.005142517874126972   -0.05913806758942017   -0.0017791375794582011
-0.0077411589695752   -0.05650845398124122   -0.0017576041840774118
-0.006141017304219586   -0.05667451021296763   -0.0016539419548910561
-0.006209513025246387   -0.05674882407283036   -0.0017171965708912382
-0.005142517874126972   -0.05913806758942017   -0.0017791375794582011
-0.0077411589695752   -0.05650845398124122   -0.0017576041840774118
-0.006209513025246387   -0.05674882407283036   -0.0017171965708912382
-0.005786567958716856   -0.05914122315820688   -0.00202516371226133
-0.005142517874126972   -0.05913806758942017   -0.0017791375794582011
-0.006141017304219586   -0.05667451021296763   -0.0016539419548910561
-0.00564817069583025   -0.05907739182908469   -0.0018751360886945646
-0.005015451541300601   -0.059116751359677394   -0.0016932273159774866
-0.006141017304219586   -0.05667451021296763   -0.0016539419548910561
-0.0077411589695752   -0.05650845398124122   -0.0017576041840774118
-0.00564817069583025   -0.05907739182908469   -0.0018751360886945646
-0.007625274736978304   -0.056480891714006054   -0.0016229150305671293
-0.005015451541300601   -0.059116751359677394   -0.0016932273159774866
-0.005465472538084592   -0.05906298718858439   -0.001713836523293335
-0.007625274736978304   -0.056480891714006054   -0.0016229150305671293
-0.00564817069583025   -0.05907739182908469   -0.0018751360886945646
-0.005015451541300601   -0.059116751359677394   -0.0016932273159774866
-0.007625274736978304   -0.056480891714006054   -0.0016229150305671293
-0.0060641508926463856   -0.05663828998612277   -0.0015846122496794301
-0.006141017304219586   -0.05667451021296763   -0.0016539419548910561
-0.005015451541300601   -0.059116751359677394   -0.0016932273159774866
-0.007625274736978304   -0.056480891714006054   -0.0016229150305671293
-0.006141017304219586   -0.05667451021296763   -0.0016539419548910561
-0.00564817069583025   -0.05907739182908469   -0.0018751360886945646
-0.005015451541300601   -0.059116751359677394   -0.0016932273159774866
-0.0060641508926463856   -0.05663828998612277   -0.0015846122496794301
-0.005465472538084592   -0.05906298718858439   -0.001713836523293335
-0.004884801492472068   -0.05913442732002658   -0.001601744596747253
-0.0060641508926463856   -0.05663828998612277   -0.0015846122496794301
-0.007625274736978304   -0.056480891714006054   -0.0016229150305671293
-0.005465472538084592   -0.05906298718858439   -0.001713836523293335
-0.007524212765737341   -0.05649077667500344   -0.0014788623491476549
-0.004884801492472068   -0.05913442732002658   -0.001601744596747253
-0.005293744555157081   -0.05908850213346027   -0.0015463388839352915
-0.007524212765737341   -0.05649077667500344   -0.0014788623491476549
-0.005465472538084592   -0.05906298718858439   -0.001713836523293335
-0.004884801492472068   -0.05913442732002658   -0.001601744596747253
-0.007524212765737341   -0.05649077667500344   -0.0014788623491476549
-0.00598698435811715   -0.05663651737710917   -0.0015084676018404075
-0.0060641508926463856   -0.05663828998612277   -0.0015846122496794301
-0.004884801492472068   -0.05913442732002658   -0.001601744596747253
-0.007524212765737341   -0.05649077667500344   -0.0014788623491476549
-0.0060641508926463856   -0.05663828998612277   -0.0015846122496794301
-0.005465472538084592   -0.05906298718858439   -0.001713836523293335
-0.005786567958716856   -0.05914122315820688   -0.00202516371226133
-0.007825057539895378   -0.05657342398141504   -0.0018866692454154066
-0.006834533522471938   -0.05885198178080333   -0.002205945522062534
-0.00564817069583025   -0.05907739182908469   -0.0018751360886945646
-0.007825057539895378   -0.05657342398141504   -0.0018866692454154066
-0.009905412609063122   -0.05628816580995718   -0.0020495376220651105
-0.006834533522471938   -0.05885198178080333   -0.002205945522062534
-0.009634474514967696   -0.05621764126322737   -0.0018457438924274513
-0.00564817069583025   -0.05907739182908469   -0.0018751360886945646
-0.006465721342830041   -0.05879804171797888   -0.0019598239843484967
-0.009634474514967696   -0.05621764126322737   -0.0018457438924274513
-0.006834533522471938   -0.05885198178080333   -0.002205945522062534
-0.00564817069583025   -0.05907739182908469   -0.0018751360886945646
-0.009634474514967696   -0.05621764126322737   -0.0018457438924274513
-0.0077411589695752   -0.05650845398124122   -0.0017576041840774118
-0.007825057539895378   -0.05657342398141504   -0.0018866692454154066
-0.00564817069583025   -0.05907739182908469   -0.0018751360886945646
-0.009634474514967696   -0.05621764126322737   -0.0018457438924274513
-0.007825057539895378   -0.05657342398141504   -0.0018866692454154066
-0.006834533522471938   -0.05885198178080333   -0.002205945522062534
-0.00564817069583025   -0.05907739182908469   -0.0018751360886945646
-0.0077411589695752   -0.05650845398124122   -0.0017576041840774118
-0.006465721342830041   -0.05879804171797888   -0.0019598239843484967
-0.005465472538084592   -0.05906298718858439   -0.001713836523293335
-0.0077411589695752   -0.05650845398124122   -0.0017576041840774118
-0.009634474514967696   -0.05621764126322737   -0.0018457438924274513
-0.006465721342830041   -0.05879804171797888   -0.0019598239843484967
-0.009391767069921309   -0.056192147052845566   -0.0016301447667353478
-0.005465472538084592   -0.05906298718858439   -0.001713836523293335
-0.006127036703987125   -0.05879073195108377   -0.001697199885837135
-0.009391767069921309   -0.056192147052845566   -0.0016301447667353478
-0.006465721342830041   -0.05879804171797888   -0.0019598239843484967
-0.005465472538084592   -0.05906298718858439   -0.001713836523293335
-0.009391767069921309   -0.056192147052845566   -0.0016301447667353478
-0.007625274736978304   -0.056480891714006054   -0.0016229150305671293
-0.0077411589695752   -0.05650845398124122   -0.0017576041840774118
-0.005465472538084592   -0.05906298718858439   -0.001713836523293335
-0.009391767069921309   -0.056192147052845566   -0.0016301447667353478
-0.0077411589695752   -0.05650845398124122   -0.0017576041840774118
-0.006465721342830041   -0.05879804171797888   -0.0019598239843484967
-0.005465472538084592   -0.05906298718858439   -0.001713836523293335
-0.007625274736978304   -0.056480891714006054   -0.0016229150305671293
-0.006127036703987125   -0.05879073195108377   -0.001697199885837135
-0.005293744555157081   -0.05908850213346027   -0.0015463388839352915
-0.007625274736978304   -0.056480891714006054   -0.0016229150305671293
-0.009391767069921309   -0.056192147052845566   -0.0016301447667353478
-0.006127036703987125   -0.05879073195108377   -0.001697199885837135
-0.009077225326383092   -0.056224885235226216   -0.0014047829932669676
-0.005293744555157081   -0.05908850213346027   -0.0015463388839352915
-0.0056992809105097155   -0.058861484667905764   -0.0014226061277817078
-0.009077225326383092   -0.056224885235226216   -0.0014047829932669676
-0.006127036703987125   -0.05879073195108377   -0.001697199885837135
-0.005293744555157081   -0.05908850213346027   -0.0015463388839352915
-0.009077225326383092   -0.056224885235226216   -0.0014047829932669676
-0.007524212765737341   -0.05649077667500344   -0.0014788623491476549
-0.007625274736978304   -0.056480891714006054   -0.0016229150305671293
-0.005293744555157081   -0.05908850213346027   -0.0015463388839352915
-0.009077225326383092   -0.056224885235226216   -0.0014047829932669676
-0.007625274736978304   -0.056480891714006054   -0.0016229150305671293
-0.006127036703987125   -0.05879073195108377   -0.001697199885837135
-0.0017585200043273145   -0.056570731573628324   -0.0010940646748447615
0.0002863822662242982   -0.05249615312106393   -0.0009046800491751518
-0.0032577751014729248   -0.05674230368748166   -0.0013357383050085667
-0.0015227630617506546   -0.056452023980918045   -0.0012625136581361615
0.0002863822662242982   -0.05249615312106393   -0.0009046800491751518
-0.002245758494470089   -0.05262215179850114   -0.0011419990256476375
-0.0032577751014729248   -0.05674230368748166   -0.0013357383050085667
-0.002202149998212513   -0.05252164218983246   -0.001200931980872207
-0.0015227630617506546   -0.056452023980918045   -0.0012625136581361615
-0.003175617898958359   -0.05664640937857054   -0.0014099417150327171
-0.002202149998212513   -0.05252164218983246   -0.001200931980872207
-0.0032577751014729248   -0.05674230368748166   -0.0013357383050085667
-0.0015227630617506546   -0.056452023980918045   -0.0012625136581361615
-0.002202149998212513   -0.05252164218983246   -0.001200931980872207
0.0004512629211670826   -0.052375512589174986   -0.0010389734874588297
0.0002863822662242982   -0.05249615312106393   -0.0009046800491751518
-0.0015227630617506546   -0.056452023980918045   -0.0012625136581361615
-0.002202149998212513   -0.05252164218983246   -0.001200931980872207
0.0002863822662242982   -0.05249615312106393   -0.0009046800491751518
-0.0032577751014729248   -0.05674230368748166   -0.0013357383050085667
-0.0015227630617506546   -0.056452023980918045   -0.0012625136581361615
0.0004512629211670826   -0.052375512589174986   -0.0010389734874588297
-0.003175617898958359   -0.05664640937857054   -0.0014099417150327171
-0.001337244632921962   -0.056395732955041265   -0.0014210935833248984
0.0004512629211670826   -0.052375512589174986   -0.0010389734874588297
-0.002202149998212513   -0.05252164218983246   -0.001200931980872207
-0.003175617898958359   -0.05664640937857054   -0.0014099417150327171
-0.0021524467922532293   -0.05245621871381575   -0.0012530321751622008
-0.001337244632921962   -0.056395732955041265   -0.0014210935833248984
-0.0030830682697007257   -0.05659349223216422   -0.0014774858022441554
-0.0021524467922532293   -0.05245621871381575   -0.0012530321751622008
-0.003175617898958359   -0.05664640937857054   -0.0014099417150327171
-0.001337244632921962   -0.056395732955041265   -0.0014210935833248984
-0.0021524467922532293   -0.05245621871381575   -0.0012530321751622008
0.0005725767305902049   -0.05230605630708532   -0.0011637030751475046
0.0004512629211670826   -0.052375512589174986   -0.0010389734874588297
-0.001337244632921962   -0.056395732955041265   -0.0014210935833248984
-0.0021524467922532293   -0.05245621871381575   -0.0012530321751622008
0.0004512629211670826   -0.052375512589174986   -0.0010389734874588297
-0.003175617898958359   -0.05664640937857054   -0.0014099417150327171
-0.001337244632921962   -0.056395732955041265   -0.0014210935833248984
0.0005725767305902049   -0.05230605630708532   -0.0011637030751475046
-0.0030830682697007257   -0.05659349223216422   -0.0014774858022441554
-0.0011345119779123001   -0.056385638754550806   -0.0015693896771200963
0.0005725767305902049   -0.05230605630708532   -0.0011637030751475046
-0.0021524467922532293   -0.05245621871381575   -0.0012530321751622008
-0.0030830682697007257   -0.05659349223216422   -0.0014774858022441554
-0.002122725823591211   -0.05242393768770061   -0.0012989745384727892
-0.0011345119779123001   -0.056385638754550806   -0.0015693896771200963
-0.0030121269096875214   -0.05658207122483839   -0.0015385852225487876
-0.002122725823591211   -0.05242393768770061   -0.0012989745384727892
-0.0030830682697007257   -0.05659349223216422   -0.0014774858022441554
-0.0011345119779123001   -0.056385638754550806   -0.0015693896771200963
-0.002122725823591211   -0.05242393768770061   -0.0012989745384727892
0.0007025697722255766   -0.05227220329047996   -0.001278824068895905
0.0005725767305902049   -0.05230605630708532   -0.0011637030751475046
-0.0011345119779123001   -0.056385638754550806   -0.0015693896771200963
-0.002122725823591211   -0.05242393768770061   -0.0012989745384727892
0.0005725767305902049   -0.05230605630708532   -0.0011637030751475046
-0.0030830682697007257   -0.05659349223216422   -0.0014774858022441554
-0.0032577751014729248   -0.05674230368748166   -0.0013357383050085667
-0.002245758494470089   -0.05262215179850114   -0.0011419990256476375
-0.004738694304176541   -0.05680274806721914   -0.0015327707252185702
-0.003175617898958359   -0.05664640937857054   -0.0014099417150327171
-0.002245758494470089   -0.05262215179850114   -0.0011419990256476375
-0.004696216891464837   -0.052646274385379346   -0.0013374122162548325
-0.004738694304176541   -0.05680274806721914   -0.0015327707252185702
-0.0046641931009746085   -0.052560024792857665   -0.001338890855743099
-0.003175617898958359   -0.05664640937857054   -0.0014099417150327171
-0.004669652774179667   -0.056719096076007995   -0.0015368059943413925
-0.0046641931009746085   -0.052560024792857665   -0.001338890855743099
-0.004738694304176541   -0.05680274806721914   -0.0015327707252185702
-0.003175617898958359   -0.05664640937857054   -0.0014099417150327171
-0.0046641931009746085   -0.052560024792857665   -0.001338890855743099
-0.002202149998212513   -0.05252164218983246   -0.001200931980872207
-0.002245758494470089   -0.05262215179850114   -0.0011419990256476375
-0.003175617898958359   -0.05664640937857054   -0.0014099417150327171
-0.0046641931009746085   -0.052560024792857665   -0.001338890855743099
-0.002245758494470089   -0.05262215179850114   -0.0011419990256476375
-0.004738694304176541   -0.05680274806721914   -0.0015327707252185702
-0.003175617898958359   -0.05664640937857054   -0.0014099417150327171
-0.002202149998212513   -0.05252164218983246   -0.001200931980872207
-0.004669652774179667   -0.056719096076007995   -0.0015368059943413925
-0.0030830682697007257   -0.05659349223216422   -0.0014774858022441554
-0.002202149998212513   -0.05252164218983246   -0.001200931980872207
-0.0046641931009746085   -0.052560024792857665   -0.001338890855743099
-0.004669652774179667   -0.056719096076007995   -0.0015368059943413925
-0.00463125722581637   -0.052505175856176   -0.0013338213496599108
-0.0030830682697007257   -0.05659349223216422   -0.0014774858022441554
-0.004598238417519302   -0.05667418337796994   -0.0015346731331775396
-0.00463125722581637   -0.052505175856176   -0.0013338213496599108
-0.004669652774179667   -0.056719096076007995   -0.0015368059943413925
-0.0030830682697007257   -0.05659349223216422   -0.0014774858022441554
-0.00463125722581637   -0.052505175856176   -0.0013338213496599108
-0.0021524467922532293   -0.05245621871381575   -0.0012530321751622008
-0.002202149998212513   -0.05252164218983246   -0.001200931980872207
-0.0030830682697007257   -0.05659349223216422   -0.0014774858022441554
-0.00463125722581637   -0.052505175856176   -0.0013338213496599108
-0.002202149998212513   -0.05252164218983246   -0.001200931980872207
-0.004669652774179667   -0.056719096076007995   -0.0015368059943413925
-0.0030830682697007257   -0.05659349223216422   -0.0014774858022441554
-0.0021524467922532293   -0.05245621871381575   -0.0012530321751622008
-0.004598238417519302   -0.05667418337796994   -0.0015346731331775396
-0.0030121269096875214   -0.05658207122483839   -0.0015385852225487876
-0.0021524467922532293   -0.05245621871381575   -0.0012530321751622008
-0.00463125722581637   -0.052505175856176   -0.0013338213496599108
-0.004598238417519302   -0.05667418337796994   -0.0015346731331775396
-0.004602452270889335   -0.052481214347212944   -0.0013226423347805554
-0.0030121269096875214   -0.05658207122483839   -0.0015385852225487876
-0.004529374327675437   -0.05666615756563921   -0.0015263180732805741
-0.004602452270889335   -0.052481214347212944   -0.0013226423347805554
-0.004598238417519302   -0.05667418337796994   -0.0015346731331775396
-0.0030121269096875214   -0.05658207122483839   -0.0015385852225487876
-0.004602452270889335   -0.052481214347212944   -0.0013226423347805554
-0.002122725823591211   -0.05242393768770061   -0.0012989745384727892
-0.0021524467922532293   -0.05245621871381575   -0.0012530321751622008
-0.0030121269096875214   -0.05658207122483839   -0.0015385852225487876
-0.004602452270889335   -0.052481214347212944   -0.0013226423347805554
-0.0021524467922532293   -0.05245621871381575   -0.0012530321751622008
-0.004598238417519302   -0.05667418337796994   -0.0015346731331775396
-0.004738694304176541   -0.05680274806721914   -0.0015327707252185702
-0.004696216891464837   -0.052646274385379346   -0.0013374122162548325
-0.006209513025246387   -0.05674882407283036   -0.0017171965708912382
-0.004669652774179667   -0.056719096076007995   -0.0015368059943413925
-0.004696216891464837   -0.052646274385379346   -0.0013374122162548325
-0.007108340313166848   -0.05256815153545985   -0.0015137924509959425
-0.006209513025246387   -0.05674882407283036   -0.0017171965708912382
-0.007078529500363724   -0.052493746685477155   -0.0014592000140515966
-0.004669652774179667   -0.056719096076007995   -0.0015368059943413925
-0.006141017304219586   -0.05667451021296763   -0.0016539419548910561
-0.007078529500363724   -0.052493746685477155   -0.0014592000140515966
-0.006209513025246387   -0.05674882407283036   -0.0017171965708912382
-0.004669652774179667   -0.056719096076007995   -0.0015368059943413925
-0.007078529500363724   -0.052493746685477155   -0.0014592000140515966
-0.0046641931009746085   -0.052560024792857665   -0.001338890855743099
-0.004696216891464837   -0.052646274385379346   -0.0013374122162548325
-0.004669652774179667   -0.056719096076007995   -0.0015368059943413925
-0.007078529500363724   -0.052493746685477155   -0.0014592000140515966
-0.004696216891464837   -0.052646274385379346   -0.0013374122162548325
-0.006209513025246387   -0.05674882407283036   -0.0017171965708912382
-0.004669652774179667   -0.056719096076007995   -0.0015368059943413925
-0.0046641931009746085   -0.052560024792857665   -0.001338890855743099
-0.006141017304219586   -0.05667451021296763   -0.0016539419548910561
-0.004598238417519302   -0.05667418337796994   -0.0015346731331775396
-0.0046641931009746085   -0.052560024792857665   -0.001338890855743099
-0.007078529500363724   -0.052493746685477155   -0.0014592000140515966
-0.006141017304219586   -0.05667451021296763   -0.0016539419548910561
-0.007042503829536745   -0.052450398017391466   -0.0013982029689103542
-0.004598238417519302   -0.05667418337796994   -0.0015346731331775396
-0.0060641508926463856   -0.05663828998612277   -0.0015846122496794301
-0.007042503829536745   -0.052450398017391466   -0.0013982029689103542
-0.006141017304219586   -0.05667451021296763   -0.0016539419548910561
-0.004598238417519302   -0.05667418337796994   -0.0015346731331775396
-0.007042503829536745   -0.052450398017391466   -0.0013982029689103542
-0.00463125722581637   -0.052505175856176   -0.0013338213496599108
-0.0046641931009746085   -0.052560024792857665   -0.001338890855743099
-0.004598238417519302   -0.05667418337796994   -0.0015346731331775396
-0.007042503829536745   -0.052450398017391466   -0.0013982029689103542
-0.0046641931009746085   -0.052560024792857665   -0.001338890855743099
-0.006141017304219586   -0.05667451021296763   -0.0016539419548910561
-0.004598238417519302   -0.05667418337796994   -0.0015346731331775396
-0.00463125722581637   -0.052505175856176   -0.0013338213496599108
-0.0060641508926463856   -0.05663828998612277   -0.0015846122496794301
-0.004529374327675437   -0.05666615756563921   -0.0015263180732805741
-0.00463125722581637   -0.052505175856176   -0.0013338213496599108
-0.007042503829536745   -0.052450398017391466   -0.0013982029689103542
-0.0060641508926463856   -0.05663828998612277   -0.0015846122496794301
-0.007007476081477778   -0.05243667177742144   -0.0013309981871229032
-0.004529374327675437   -0.05666615756563921   -0.0015263180732805741
-0.00598698435811715   -0.05663651737710917   -0.0015084676018404075
-0.007007476081477778   -0.05243667177742144   -0.0013309981871229032
-0.0060641508926463856   -0.05663828998612277   -0.0015846122496794301
-0.004529374327675437   -0.05666615756563921   -0.0015263180732805741
-0.007007476081477778   -0.05243667177742144   -0.0013309981871229032
-0.004602452270889335   -0.052481214347212944   -0.0013226423347805554
-0.00463125722581637   -0.052505175856176   -0.0013338213496599108
-0.004529374327675437   -0.05666615756563921   -0.0015263180732805741
-0.007007476081477778   -0.05243667177742144   -0.0013309981871229032
-0.00463125722581637   -0.052505175856176   -0.0013338213496599108
-0.0060641508926463856   -0.05663828998612277   -0.0015846122496794301
-0.006209513025246387   -0.05674882407283036   -0.0017171965708912382
-0.007108340313166848   -0.05256815153545985   -0.0015137924509959425
-0.007825057539895378   -0.05657342398141504   -0.0018866692454154066
-0.006141017304219586   -0.05667451021296763   -0.0016539419548910561
-0.007108340313166848   -0.05256815153545985   -0.0015137924509959425
-0.009635906019068712   -0.05239052633934   -0.0016704955932759773
-0.007825057539895378   -0.05657342398141504   -0.0018866692454154066
-0.009596913374638517   -0.05232741347106447   -0.0015597532475651347
-0.006141017304219586   -0.05667451021296763   -0.0016539419548910561
-0.0077411589695752   -0.05650845398124122   -0.0017576041840774118
-0.009596913374638517   -0.05232741347106447   -0.0015597532475651347
-0.007825057539895378   -0.05657342398141504   -0.0018866692454154066
-0.006141017304219586   -0.05667451021296763   -0.0016539419548910561
-0.009596913374638517   -0.05232741347106447   -0.0015597532475651347
-0.007078529500363724   -0.052493746685477155   -0.0014592000140515966
-0.007108340313166848   -0.05256815153545985   -0.0015137924509959425
-0.006141017304219586   -0.05667451021296763   -0.0016539419548910561
-0.009596913374638517   -0.05232741347106447   -0.0015597532475651347
-0.007108340313166848   -0.05256815153545985   -0.0015137924509959425
-0.007825057539895378   -0.05657342398141504   -0.0018866692454154066
-0.006141017304219586   -0.05667451021296763   -0.0016539419548910561
-0.007078529500363724   -0.052493746685477155   -0.0014592000140515966
-0.0077411589695752   -0.05650845398124122   -0.0017576041840774118
-0.0060641508926463856   -0.05663828998612277   -0.0015846122496794301
-0.007078529500363724   -0.052493746685477155   -0.0014592000140515966
-0.009596913374638517   -0.05232741347106447   -0.0015597532475651347
-0.0077411589695752   -0.05650845398124122   -0.0017576041840774118
-0.009530781454176634   -0.05229449095582598   -0.0014435928546616438
-0.0060641508926463856   -0.05663828998612277   -0.0015846122496794301
-0.007625274736978304   -0.056480891714006054   -0.0016229150305671293
-0.009530781454176634   -0.05229449095582598   -0.0014435928546616438
-0.0077411589695752   -0.05650845398124122   -0.0017576041840774118
-0.0060641508926463856   -0.05663828998612277   -0.0015846122496794301
-0.009530781454176634   -0.05229449095582598   -0.0014435928546616438
-0.007042503829536745   -0.052450398017391466   -0.0013982029689103542
-0.007078529500363724   -0.052493746685477155   -0.0014592000140515966
-0.0060641508926463856   -0.05663828998612277   -0.0015846122496794301
-0.009530781454176634   -0.05229449095582598   -0.0014435928546616438
-0.007078529500363724   -0.052493746685477155   -0.0014592000140515966
-0.0077411589695752   -0.05650845398124122   -0.0017576041840774118
-0.0060641508926463856   -0.05663828998612277   -0.0015846122496794301
-0.007042503829536745   -0.052450398017391466   -0.0013982029689103542
-0.007625274736978304   -0.056480891714006054   -0.0016229150305671293
-0.00598698435811715   -0.05663651737710917   -0.0015084676018404075
-0.007042503829536745   -0.052450398017391466   -0.0013982029689103542
-0.009530781454176634   -0.05229449095582598   -0.0014435928546616438
-0.007625274736978304   -0.056480891714006054   -0.0016229150305671293
-0.0094771250601138   -0.0522935121872261   -0.0013203200355742465
-0.00598698435811715   -0.05663651737710917   -0.0015084676018404075
-0.007524212765737341   -0.05649077667500344   -0.0014788623491476549
-0.0094771250601138   -0.0522935121872261   -0.0013203200355742465
-0.007625274736978304   -0.056480891714006054   -0.0016229150305671293
-0.00598698435811715   -0.05663651737710917   -0.0015084676018404075
-0.0094771250601138   -0.0522935121872261   -0.0013203200355742465
-0.007007476081477778   -0.05243667177742144   -0.0013309981871229032
-0.007042503829536745   -0.052450398017391466   -0.0013982029689103542
-0.00598698435811715   -0.05663651737710917   -0.0015084676018404075
-0.0094771250601138   -0.0522935121872261   -0.0013203200355742465
-0.007042503829536745   -0.052450398017391466   -0.0013982029689103542
-0.007625274736978304   -0.056480891714006054   -0.0016229150305671293
-0.007825057539895378   -0.05657342398141504   -0.0018866692454154066
-0.009635906019068712   -0.05239052633934   -0.0016704955932759773
-0.009905412609063122   -0.05628816580995718   -0.0020495376220651105
-0.0077411589695752   -0.05650845398124122   -0.0017576041840774118
-0.009635906019068712   -0.05239052633934   -0.0016704955932759773
-0.012583506219021011   -0.05213460645461912   -0.001816743584410514
-0.009905412609063122   -0.05628816580995718   -0.0020495376220651105
-0.012383292328424887   -0.05206872085312447   -0.0016433710935989576
-0.0077411589695752   -0.05650845398124122   -0.0017576041840774118
-0.009634474514967696   -0.05621764126322737   -0.0018457438924274513
-0.012383292328424887   -0.05206872085312447   -0.0016433710935989576
-0.009905412609063122   -0.05628816580995718   -0.0020495376220651105
-0.0077411589695752   -0.05650845398124122   -0.0017576041840774118
-0.012383292328424887   -0.05206872085312447   -0.0016433710935989576
-0.009596913374638517   -0.05232741347106447   -0.0015597532475651347
-0.009635906019068712   -0.05239052633934   -0.0016704955932759773
-0.0077411589695752   -0.05650845398124122   -0.0017576041840774118
-0.012383292328424887   -0.05206872085312447   -0.0016433710935989576
-0.009635906019068712   -0.05239052633934   -0.0016704955932759773
-0.009905412609063122   -0.05628816580995718   -0.0020495376220651105
-0.0077411589695752   -0.05650845398124122   -0.0017576041840774118
-0.009596913374638517   -0.05232741347106447   -0.0015597532475651347
-0.009634474514967696   -0.05621764126322737   -0.0018457438924274513
-0.007625274736978304   -0.056480891714006054   -0.0016229150305671293
-0.009596913374638517   -0.05232741347106447   -0.0015597532475651347
-0.012383292328424887   -0.05206872085312447   -0.0016433710935989576
-0.009634474514967696   -0.05621764126322737   -0.0018457438924274513
-0.012209617148911374   -0.05203862922019034   -0.0014610583752152446
-0.007625274736978304   -0.056480891714006054   -0.0016229150305671293
-0.009391767069921309   -0.056192147052845566   -0.0016301447667353478
-0.012209617148911374   -0.05203862922019034   -0.0014610583752152446
-0.009634474514967696   -0.05621764126322737   -0.0018457438924274513
-0.007625274736978304   -0.056480891714006054   -0.0016229150305671293
-0.012209617148911374   -0.05203862922019034   -0.0014610583752152446
-0.009530781454176634   -0.05229449095582598   -0.0014435928546616438
-0.009596913374638517   -0.05232741347106447   -0.0015597532475651347
-0.007625274736978304   -0.056480891714006054   -0.0016229150305671293
-0.012209617148911374   -0.05203862922019034   -0.0014610583752152446
-0.009596913374638517   -0.05232741347106447   -0.0015597532475651347
-0.009634474514967696   -0.05621764126322737   -0.0018457438924274513
-0.007625274736978304   -0.056480891714006054   -0.0016229150305671293
-0.009530781454176634   -0.05229449095582598   -0.0014435928546616438
-0.009391767069921309   -0.056192147052845566   -0.0016301447667353478
-0.007524212765737341   -0.05649077667500344   -0.0014788623491476549
-0.009530781454176634   -0.05229449095582598   -0.0014435928546616438
-0.012209617148911374   -0.05203862922019034   -0.0014610583752152446
-0.009391767069921309   -0.056192147052845566   -0.0016301447667353478
-0.011975670333493305   -0.052057337906196176   -0.0012709658503323594
-0.007524212765737341   -0.05649077667500344   -0.0014788623491476549
-0.009077225326383092   -0.056224885235226216   -0.0014047829932669676
-0.011975670333493305   -0.052057337906196176   -0.0012709658503323594
-0.009391767069921309   -0.056192147052845566   -0.0016301447667353478
-0.007524212765737341   -0.05649077667500344   -0.0014788623491476549
-0.011975670333493305   -0.052057337906196176   -0.0012709658503323594
-0.0094771250601138   -0.0522935121872261   -0.0013203200355742465
-0.009530781454176634   -0.05229449095582598   -0.0014435928546616438
-0.007524212765737341   -0.05649077667500344   -0.0014788623491476549
-0.011975670333493305   -0.052057337906196176   -0.0012709658503323594
-0.009530781454176634   -0.05229449095582598   -0.0014435928546616438
-0.009391767069921309   -0.056192147052845566   -0.0016301447667353478
0.0002863822662242982   -0.05249615312106393   -0.0009046800491751518
0.0018411327660402663   -0.04695852283176228   -0.0006892889441972689
-0.002245758494470089   -0.05262215179850114   -0.0011419990256476375
0.0004512629211670826   -0.052375512589174986   -0.0010389734874588297
0.0018411327660402663   -0.04695852283176228   -0.0006892889441972689
-0.0015140324595253989   -0.047041968186546455   -0.0009158352748513413
-0.002245758494470089   -0.05262215179850114   -0.0011419990256476375
-0.00150487299616914   -0.04694199418230098   -0.000956763062678698
0.0004512629211670826   -0.052375512589174986   -0.0010389734874588297
-0.002202149998212513   -0.05252164218983246   -0.001200931980872207
-0.00150487299616914   -0.04694199418230098   -0.000956763062678698
-0.002245758494470089   -0.05262215179850114   -0.0011419990256476375
0.0004512629211670826   -0.052375512589174986   -0.0010389734874588297
-0.00150487299616914   -0.04694199418230098   -0.000956763062678698
0.001939345786064368   -0.04684077752152432   -0.0007887745815125084
0.0018411327660402663   -0.04695852283176228   -0.0006892889441972689
0.0004512629211670826   -0.052375512589174986   -0.0010389734874588297
-0.00150487299616914   -0.04694199418230098   -0.000956763062678698
0.0018411327660402663   -0.04695852283176228   -0.0006892889441972689
-0.002245758494470089   -0.05262215179850114   -0.0011419990256476375
0.0004512629211670826   -0.052375512589174986   -0.0010389734874588297
0.001939345786064368   -0.04684077752152432   -0.0007887745815125084
-0.002202149998212513   -0.05252164218983246   -0.001200931980872207
0.0005725767305902049   -0.05230605630708532   -0.0011637030751475046
0.001939345786064368   -0.04684077752152432   -0.0007887745815125084
-0.00150487299616914   -0.04694199418230098   -0.000956763062678698
-0.002202149998212513   -0.05252164218983246   -0.001200931980872207
-0.0014932082302366173   -0.046869733199123055   -0.0009914390073285473
0.0005725767305902049   -0.05230605630708532   -0.0011637030751475046
-0.0021524467922532293   -0.05245621871381575   -0.0012530321751622008
-0.0014932082302366173   -0.046869733199123055   -0.0009914390073285473
-0.002202149998212513   -0.05252164218983246   -0.001200931980872207
0.0005725767305902049   -0.05230605630708532   -0.0011637030751475046
-0.0014932082302366173   -0.046869733199123055   -0.0009914390073285473
0.0020022132872321036   -0.046763778356382485   -0.0008794236264151745
0.001939345786064368   -0.04684077752152432   -0.0007887745815125084
0.0005725767305902049   -0.05230605630708532   -0.0011637030751475046
-0.0014932082302366173   -0.046869733199123055   -0.0009914390073285473
0.001939345786064368   -0.04684077752152432   -0.0007887745815125084
-0.002202149998212513   -0.05252164218983246   -0.001200931980872207
0.0005725767305902049   -0.05230605630708532   -0.0011637030751475046
0.0020022132872321036   -0.046763778356382485   -0.0008794236264151745
-0.0021524467922532293   -0.05245621871381575   -0.0012530321751622008
0.0007025697722255766   -0.05227220329047996   -0.001278824068895905
0.0020022132872321036   -0.046763778356382485   -0.0008794236264151745
-0.0014932082302366173   -0.046869733199123055   -0.0009914390073285473
-0.0021524467922532293   -0.05245621871381575   -0.0012530321751622008
-0.0014986191586437796   -0.04682286089805488   -0.0010203188448700633
0.0007025697722255766   -0.05227220329047996   -0.001278824068895905
-0.002122725823591211   -0.05242393768770061   -0.0012989745384727892
-0.0014986191586437796   -0.04682286089805488   -0.0010203188448700633
-0.0021524467922532293   -0.05245621871381575   -0.0012530321751622008
0.0007025697722255766   -0.05227220329047996   -0.001278824068895905
-0.0014986191586437796   -0.04682286089805488   -0.0010203188448700633
0.002066876529805108   -0.04671252157707809   -0.0009614230024134415
0.0020022132872321036   -0.046763778356382485   -0.0008794236264151745
0.0007025697722255766   -0.05227220329047996   -0.001278824068895905
-0.0014986191586437796   -0.04682286089805488   -0.0010203188448700633
0.0020022132872321036   -0.046763778356382485   -0.0008794236264151745
-0.0021524467922532293   -0.05245621871381575   -0.0012530321751622008
-0.002245758494470089   -0.05262215179850114   -0.0011419990256476375
-0.0015140324595253989   -0.047041968186546455   -0.0009158352748513413
-0.004696216891464837   -0.052646274385379346   -0.0013374122162548325
-0.002202149998212513   -0.05252164218983246   -0.001200931980872207
-0.0015140324595253989   -0.047041968186546455   -0.0009158352748513413
-0.004743378639887114   -0.04704248788833842   -0.0011025135703163615
-0.004696216891464837   -0.052646274385379346   -0.0013374122162548325
-0.004743750186967052   -0.04695795544546031   -0.001098646005065289
-0.002202149998212513   -0.05252164218983246   -0.001200931980872207
-0.0046641931009746085   -0.052560024792857665   -0.001338890855743099
-0.004743750186967052   -0.04695795544546031   -0.001098646005065289
-0.004696216891464837   -0.052646274385379346   -0.0013374122162548325
-0.002202149998212513   -0.05252164218983246   -0.001200931980872207
-0.004743750186967052   -0.04695795544546031   -0.001098646005065289
-0.00150487299616914   -0.04694199418230098   -0.000956763062678698
-0.0015140324595253989   -0.047041968186546455   -0.0009158352748513413
-0.002202149998212513   -0.05252164218983246   -0.001200931980872207
-0.004743750186967052   -0.04695795544546031   -0.001098646005065289
-0.0015140324595253989   -0.047041968186546455   -0.0009158352748513413
-0.004696216891464837   -0.052646274385379346   -0.0013374122162548325
-0.002202149998212513   -0.05252164218983246   -0.001200931980872207
-0.00150487299616914   -0.04694199418230098   -0.000956763062678698
-0.0046641931009746085   -0.052560024792857665   -0.001338890855743099
-0.0021524467922532293   -0.05245621871381575   -0.0012530321751622008
-0.00150487299616914   -0.04694199418230098   -0.000956763062678698
-0.004743750186967052   -0.04695795544546031   -0.001098646005065289
-0.0046641931009746085   -0.052560024792857665   -0.001338890855743099
-0.00474390234646599   -0.04689785091399548   -0.0010885491058478156
-0.0021524467922532293   -0.05245621871381575   -0.0012530321751622008
-0.00463125722581637   -0.052505175856176   -0.0013338213496599108
-0.00474390234646599   -0.04689785091399548   -0.0010885491058478156
-0.0046641931009746085   -0.052560024792857665   -0.001338890855743099
-0.0021524467922532293   -0.05245621871381575   -0.0012530321751622008
-0.00474390234646599   -0.04689785091399548   -0.0010885491058478156
-0.0014932082302366173   -0.046869733199123055   -0.0009914390073285473
-0.00150487299616914   -0.04694199418230098   -0.000956763062678698
-0.0021524467922532293   -0.05245621871381575   -0.0012530321751622008
-0.00474390234646599   -0.04689785091399548   -0.0010885491058478156
-0.00150487299616914   -0.04694199418230098   -0.000956763062678698
-0.0046641931009746085   -0.052560024792857665   -0.001338890855743099
-0.0021524467922532293   -0.05245621871381575   -0.0012530321751622008
-0.0014932082302366173   -0.046869733199123055   -0.0009914390073285473
-0.00463125722581637   -0.052505175856176   -0.0013338213496599108
-0.002122725823591211   -0.05242393768770061   -0.0012989745384727892
-0.0014932082302366173   -0.046869733199123055   -0.0009914390073285473
-0.00474390234646599   -0.04689785091399548   -0.0010885491058478156
-0.00463125722581637   -0.052505175856176   -0.0013338213496599108
-0.00474836704591395   -0.046862218238367594   -0.0010725484244490475
-0.002122725823591211   -0.05242393768770061   -0.0012989745384727892
-0.004602452270889335   -0.052481214347212944   -0.0013226423347805554
-0.00474836704591395   -0.046862218238367594   -0.0010725484244490475
-0.00463125722581637   -0.052505175856176   -0.0013338213496599108
-0.002122725823591211   -0.05242393768770061   -0.0012989745384727892
-0.00474836704591395   -0.046862218238367594   -0.0010725484244490475
-0.0014986191586437796   -0.04682286089805488   -0.0010203188448700633
-0.0014932082302366173   -0.046869733199123055   -0.0009914390073285473
-0.002122725823591211   -0.05242393768770061   -0.0012989745384727892
-0.00474836704591395   -0.046862218238367594   -0.0010725484244490475
-0.0014932082302366173   -0.046869733199123055   -0.0009914390073285473
-0.00463125722581637   -0.052505175856176   -0.0013338213496599108
-0.004696216891464837   -0.052646274385379346   -0.0013374122162548325
-0.004743378639887114   -0.04704248788833842   -0.0011025135703163615
-0.007108340313166848   -0.05256815153545985   -0.0015137924509959425
-0.0046641931009746085   -0.052560024792857665   -0.001338890855743099
-0.004743378639887114   -0.04704248788833842   -0.0011025135703163615
-0.007918045065646364   -0.04696204165818464   -0.001265987905226027
-0.007108340313166848   -0.05256815153545985   -0.0015137924509959425
-0.007920812536340633   -0.04689106031761221   -0.0012178676118735844
-0.0046641931009746085   -0.052560024792857665   -0.001338890855743099
-0.007078529500363724   -0.052493746685477155   -0.0014592000140515966
-0.007920812536340633   -0.04689106031761221   -0.0012178676118735844
-0.007108340313166848   -0.05256815153545985   -0.0015137924509959425
-0.0046641931009746085   -0.052560024792857665   -0.001338890855743099
-0.007920812536340633   -0.04689106031761221   -0.0012178676118735844
-0.004743750186967052   -0.04695795544546031   -0.001098646005065289
-0.004743378639887114   -0.04704248788833842   -0.0011025135703163615
-0.0046641931009746085   -0.052560024792857665   -0.001338890855743099
-0.007920812536340633   -0.04689106031761221   -0.0012178676118735844
-0.004743378639887114   -0.04704248788833842   -0.0011025135703163615
-0.007108340313166848   -0.05256815153545985   -0.0015137924509959425
-0.0046641931009746085   -0.052560024792857665   -0.001338890855743099
-0.004743750186967052   -0.04695795544546031   -0.001098646005065289
-0.007078529500363724   -0.052493746685477155   -0.0014592000140515966
-0.00463125722581637   -0.052505175856176   -0.0013338213496599108
-0.004743750186967052   -0.04695795544546031   -0.001098646005065289
-0.007920812536340633   -0.04689106031761221   -0.0012178676118735844
-0.007078529500363724   -0.052493746685477155   -0.0014592000140515966
-0.007918174038385354   -0.04684429101559533   -0.0011636401484057426
-0.00463125722581637   -0.052505175856176   -0.0013338213496599108
-0.007042503829536745   -0.052450398017391466   -0.0013982029689103542
-0.007918174038385354   -0.04684429101559533   -0.0011636401484057426
-0.007078529500363724   -0.052493746685477155   -0.0014592000140515966
-0.00463125722581637   -0.052505175856176   -0.0013338213496599108
-0.007918174038385354   -0.04684429101559533   -0.0011636401484057426
-0.00474390234646599   -0.04689785091399548   -0.0010885491058478156
-0.004743750186967052   -0.04695795544546031   -0.001098646005065289
-0.00463125722581637   -0.052505175856176   -0.0013338213496599108
-0.007918174038385354   -0.04684429101559533   -0.0011636401484057426
-0.004743750186967052   -0.04695795544546031   -0.001098646005065289
-0.007078529500363724   -0.052493746685477155   -0.0014592000140515966
-0.00463125722581637   -0.052505175856176   -0.0013338213496599108
-0.00474390234646599   -0.04689785091399548   -0.0010885491058478156
-0.007042503829536745   -0.052450398017391466   -0.0013982029689103542
-0.004602452270889335   -0.052481214347212944   -0.0013226423347805554
-0.00474390234646599   -0.04689785091399548   -0.0010885491058478156
-0.007918174038385354   -0.04684429101559533   -0.0011636401484057426
-0.007042503829536745   -0.052450398017391466   -0.0013982029689103542
-0.00791651592201174   -0.04682131103592158   -0.001103482979525315
-0.004602452270889335   -0.052481214347212944   -0.0013226423347805554
-0.007007476081477778   -0.05243667177742144   -0.0013309981871229032
-0.00791651592201174   -0.04682131103592158   -0.001103482979525315
-0.007042503829536745   -0.052450398017391466   -0.0013982029689103542
-0.004602452270889335   -0.052481214347212944   -0.0013226423347805554
-0.00791651592201174   -0.04682131103592158   -0.001103482979525315
-0.00474836704591395   -0.046862218238367594   -0.0010725484244490475
-0.00474390234646599   -0.04689785091399548   -0.0010885491058478156
-0.004602452270889335   -0.052481214347212944   -0.0013226423347805554
-0.00791651592201174   -0.04682131103592158   -0.001103482979525315
-0.00474390234646599   -0.04689785091399548   -0.0010885491058478156
-0.007042503829536745   -0.052450398017391466   -0.0013982029689103542
-0.007108340313166848   -0.05256815153545985   -0.0015137924509959425
-0.007918045065646364   -0.04696204165818464   -0.001265987905226027
-0.009635906019068712   -0.05239052633934   -0.0016704955932759773
-0.007078529500363724   -0.052493746685477155   -0.0014592000140515966
-0.007918045065646364   -0.04696204165818464   -0.001265987905226027
-0.011191553114792061   -0.046803655067741166   -0.0014065892511318555
-0.009635906019068712   -0.05239052633934   -0.0016704955932759773
-0.011187622611251814   -0.04674563692779115   -0.0013136886338509183
-0.007078529500363724   -0.052493746685477155   -0.0014592000140515966
-0.009596913374638517   -0.05232741347106447   -0.0015597532475651347
-0.011187622611251814   -0.04674563692779115   -0.0013136886338509183
-0.009635906019068712   -0.05239052633934   -0.0016704955932759773
-0.007078529500363724   -0.052493746685477155   -0.0014592000140515966
-0.011187622611251814   -0.04674563692779115   -0.0013136886338509183
-0.007920812536340633   -0.04689106031761221   -0.0012178676118735844
-0.007918045065646364   -0.04696204165818464   -0.001265987905226027
-0.007078529500363724   -0.052493746685477155   -0.0014592000140515966
-0.011187622611251814   -0.04674563692779115   -0.0013136886338509183
-0.007918045065646364   -0.04696204165818464   -0.001265987905226027
-0.009635906019068712   -0.05239052633934   -0.0016704955932759773
-0.007078529500363724   -0.052493746685477155   -0.0014592000140515966
-0.007920812536340633   -0.04689106031761221   -0.0012178676118735844
-0.009596913374638517   -0.05232741347106447   -0.0015597532475651347
-0.007042503829536745   -0.052450398017391466   -0.0013982029689103542
-0.007920812536340633   -0.04689106031761221   -0.0012178676118735844
-0.011187622611251814   -0.04674563692779115   -0.0013136886338509183
-0.009596913374638517   -0.05232741347106447   -0.0015597532475651347
-0.011160077275358287   -0.04671095971204501   -0.0012156022828483813
-0.007042503829536745   -0.052450398017391466   -0.0013982029689103542
-0.009530781454176634   -0.05229449095582598   -0.0014435928546616438
-0.011160077275358287   -0.04671095971204501   -0.0012156022828483813
-0.009596913374638517   -0.05232741347106447   -0.0015597532475651347
-0.007042503829536745   -0.052450398017391466   -0.0013982029689103542
-0.011160077275358287   -0.04671095971204501   -0.0012156022828483813
-0.007918174038385354   -0.04684429101559533   -0.0011636401484057426
-0.007920812536340633   -0.04689106031761221   -0.0012178676118735844
-0.007042503829536745   -0.052450398017391466   -0.0013982029689103542
-0.011160077275358287   -0.04671095971204501   -0.0012156022828483813
-0.007920812536340633   -0.04689106031761221   -0.0012178676118735844
-0.009596913374638517   -0.05232741347106447   -0.0015597532475651347
-0.007042503829536745   -0.052450398017391466   -0.0013982029689103542
-0.007918174038385354   -0.04684429101559533   -0.0011636401484057426
-0.009530781454176634   -0.05229449095582598   -0.0014435928546616438
-0.007007476081477778   -0.05243667177742144   -0.0013309981871229032
-0.007918174038385354   -0.04684429101559533   -0.0011636401484057426
-0.011160077275358287   -0.04671095971204501   -0.0012156022828483813
-0.009530781454176634   -0.05229449095582598   -0.0014435928546616438
-0.011141689283055783   -0.04670207355087531   -0.001111108396984502
-0.007007476081477778   -0.05243667177742144   -0.0013309981871229032
-0.0094771250601138   -0.0522935121872261   -0.0013203200355742465
-0.011141689283055783   -0.04670207355087531   -0.001111108396984502
-0.009530781454176634   -0.05229449095582598   -0.0014435928546616438
-0.007007476081477778   -0.05243667177742144   -0.0013309981871229032
-0.011141689283055783   -0.04670207355087531   -0.001111108396984502
-0.00791651592201174   -0.04682131103592158   -0.001103482979525315
-0.007918174038385354   -0.04684429101559533   -0.0011636401484057426
-0.007007476081477778   -0.05243667177742144   -0.0013309981871229032
-0.011141689283055783   -0.04670207355087531   -0.001111108396984502
-0.007918174038385354   -0.04684429101559533   -0.0011636401484057426
-0.009530781454176634   -0.05229449095582598   -0.0014435928546616438
-0.009635906019068712   -0.05239052633934   -0.0016704955932759773
-0.011191553114792061   -0.046803655067741166   -0.0014065892511318555
-0.012583506219021011   -0.05213460645461912   -0.001816743584410514
-0.009596913374638517   -0.05232741347106447   -0.0015597532475651347
-0.011191553114792061   -0.046803655067741166   -0.0014065892511318555
-0.014848053202899452   -0.04658519614711914   -0.0015334506079937628
-0.012583506219021011   -0.05213460645461912   -0.001816743584410514
-0.014710879053428359   -0.04652821861801212   -0.0013912860392368066
-0.009596913374638517   -0.05232741347106447   -0.0015597532475651347
-0.012383292328424887   -0.05206872085312447   -0.0016433710935989576
-0.014710879053428359   -0.04652821861801212   -0.0013912860392368066
-0.012583506219021011   -0.05213460645461912   -0.001816743584410514
-0.009596913374638517   -0.05232741347106447   -0.0015597532475651347
-0.014710879053428359   -0.04652821861801212   -0.0013912860392368066
-0.011187622611251814   -0.04674563692779115   -0.0013136886338509183
-0.011191553114792061   -0.046803655067741166   -0.0014065892511318555
-0.009596913374638517   -0.05232741347106447   -0.0015597532475651347
-0.014710879053428359   -0.04652821861801212   -0.0013912860392368066
-0.011191553114792061   -0.046803655067741166   -0.0014065892511318555
-0.012583506219021011   -0.05213460645461912   -0.001816743584410514
-0.009596913374638517   -0.05232741347106447   -0.0015597532475651347
-0.011187622611251814   -0.04674563692779115   -0.0013136886338509183
-0.012383292328424887   -0.05206872085312447   -0.0016433710935989576
-0.009530781454176634   -0.05229449095582598   -0.0014435928546616438
-0.011187622611251814   -0.04674563692779115   -0.0013136886338509183
-0.014710879053428359   -0.04652821861801212   -0.0013912860392368066
-0.012383292328424887   -0.05206872085312447   -0.0016433710935989576
-0.01459362186544946   -0.04649795478089088   -0.0012403999100940276
-0.009530781454176634   -0.05229449095582598   -0.0014435928546616438
-0.012209617148911374   -0.05203862922019034   -0.0014610583752152446
-0.01459362186544946   -0.04649795478089088   -0.0012403999100940276
-0.012383292328424887   -0.05206872085312447   -0.0016433710935989576
-0.009530781454176634   -0.05229449095582598   -0.0014435928546616438
-0.01459362186544946   -0.04649795478089088   -0.0012403999100940276
-0.011160077275358287   -0.04671095971204501   -0.0012156022828483813
-0.011187622611251814   -0.04674563692779115   -0.0013136886338509183
-0.009530781454176634   -0.05229449095582598   -0.0014435928546616438
-0.01459362186544946   -0.04649795478089088   -0.0012403999100940276
-0.011187622611251814   -0.04674563692779115   -0.0013136886338509183
-0.012383292328424887   -0.05206872085312447   -0.0016433710935989576
-0.009530781454176634   -0.05229449095582598   -0.0014435928546616438
-0.011160077275358287   -0.04671095971204501   -0.0012156022828483813
-0.012209617148911374   -0.05203862922019034   -0.0014610583752152446
-0.0094771250601138   -0.0522935121872261   -0.0013203200355742465
-0.011160077275358287   -0.04671095971204501   -0.0012156022828483813
-0.01459362186544946   -0.04649795478089088   -0.0012403999100940276
-0.012209617148911374   -0.05203862922019034   -0.0014610583752152446
-0.014424478397061968   -0.04650857812496459   -0.0010819902258164759
-0.0094771250601138   -0.0522935121872261   -0.0013203200355742465
-0.011975670333493305   -0.052057337906196176   -0.0012709658503323594
-0.014424478397061968   -0.04650857812496459   -0.0010819902258164759
-0.012209617148911374   -0.05203862922019034   -0.0014610583752152446
-0.0094771250601138   -0.0522935121872261   -0.0013203200355742465
-0.014424478397061968   -0.04650857812496459   -0.0010819902258164759
-0.011141689283055783   -0.04670207355087531   -0.001111108396984502
-0.011160077275358287   -0.04671095971204501   -0.0012156022828483813
-0.0094771250601138   -0.0522935121872261   -0.0013203200355742465
-0.014424478397061968   -0.04650857812496459   -0.0010819902258164759
-0.011160077275358287   -0.04671095971204501   -0.0012156022828483813
-0.012209617148911374   -0.05203862922019034   -0.0014610583752152446
0.0018411327660402663   -0.04695852283176228   -0.0006892889441972689
0.0029145531378252875   -0.04029259195451692   -0.00045926444850137826
-0.0015140324595253989   -0.047041968186546455   -0.0009158352748513413
0.001939345786064368   -0.04684077752152432   -0.0007887745815125084
0.0029145531378252875   -0.04029259195451692   -0.00045926444850137826
-0.0010684877021243495   -0.04033380410616616   -0.0006723900364943838
-0.0015140324595253989   -0.047041968186546455   -0.0009158352748513413
-0.0010870631348923303   -0.04023627748777962   -0.0006945300418986531
0.001939345786064368   -0.04684077752152432   -0.0007887745815125084
-0.00150487299616914   -0.04694199418230098   -0.000956763062678698
-0.0010870631348923303   -0.04023627748777962   -0.0006945300418986531
-0.0015140324595253989   -0.047041968186546455   -0.0009158352748513413
0.001939345786064368   -0.04684077752152432   -0.0007887745815125084
-0.0010870631348923303   -0.04023627748777962   -0.0006945300418986531
0.0029536935549820597   -0.040179149527211036   -0.0005246005274039952
0.0029145531378252875   -0.04029259195451692   -0.00045926444850137826
0.001939345786064368   -0.04684077752152432   -0.0007887745815125084
-0.0010870631348923303   -0.04023627748777962   -0.0006945300418986531
0.0029145531378252875   -0.04029259195451692   -0.00045926444850137826
-0.0015140324595253989   -0.047041968186546455   -0.0009158352748513413
0.001939345786064368   -0.04684077752152432   -0.0007887745815125084
0.0029536935549820597   -0.040179149527211036   -0.0005246005274039952
-0.00150487299616914   -0.04694199418230098   -0.000956763062678698
0.0020022132872321036   -0.046763778356382485   -0.0008794236264151745
0.0029536935549820597   -0.040179149527211036   -0.0005246005274039952
-0.0010870631348923303   -0.04023627748777962   -0.0006945300418986531
-0.00150487299616914   -0.04694199418230098   -0.000956763062678698
-0.001106565768580949   -0.040159319140323856   -0.000711081110397977
0.0020022132872321036   -0.046763778356382485   -0.0008794236264151745
-0.0014932082302366173   -0.046869733199123055   -0.0009914390073285473
-0.001106565768580949   -0.040159319140323856   -0.000711081110397977
-0.00150487299616914   -0.04694199418230098   -0.000956763062678698
0.0020022132872321036   -0.046763778356382485   -0.0008794236264151745
-0.001106565768580949   -0.040159319140323856   -0.000711081110397977
0.0029658337586644184   -0.04009672262216144   -0.0005816893261310026
0.0029536935549820597   -0.040179149527211036   -0.0005246005274039952
0.0020022132872321036   -0.046763778356382485   -0.0008794236264151745
-0.001106565768580949   -0.040159319140323856   -0.000711081110397977
0.0029536935549820597   -0.040179149527211036   -0.0005246005274039952
-0.00150487299616914   -0.04694199418230098   -0.000956763062678698
0.0020022132872321036   -0.046763778356382485   -0.0008794236264151745
0.0029658337586644184   -0.04009672262216144   -0.0005816893261310026
-0.0014932082302366173   -0.046869733199123055   -0.0009914390073285473
0.002066876529805108   -0.04671252157707809   -0.0009614230024134415
0.0029658337586644184   -0.04009672262216144   -0.0005816893261310026
-0.001106565768580949   -0.040159319140323856   -0.000711081110397977
-0.0014932082302366173   -0.046869733199123055   -0.0009914390073285473
-0.0011399222633150284   -0.04010049785472171   -0.000722231784013261
0.002066876529805108   -0.04671252157707809   -0.0009614230024134415
-0.0014986191586437796   -0.04682286089805488   -0.0010203188448700633
-0.0011399222633150284   -0.04010049785472171   -0.000722231784013261
-0.0014932082302366173   -0.046869733199123055   -0.0009914390073285473
0.002066876529805108   -0.04671252157707809   -0.0009614230024134415
-0.0011399222633150284   -0.04010049785472171   -0.000722231784013261
0.0029729317781637655   -0.04003070589239091   -0.0006309221203172145
0.0029658337586644184   -0.04009672262216144   -0.0005816893261310026
0.002066876529805108   -0.04671252157707809   -0.0009614230024134415
-0.0011399222633150284   -0.04010049785472171   -0.000722231784013261
0.0029658337586644184   -0.04009672262216144   -0.0005816893261310026
-0.0014932082302366173   -0.046869733199123055   -0.0009914390073285473
-0.0015140324595253989   -0.047041968186546455   -0.0009158352748513413
-0.0010684877021243495   -0.04033380410616616   -0.0006723900364943838
-0.004743378639887114   -0.04704248788833842   -0.0011025135703163615
-0.00150487299616914   -0.04694199418230098   -0.000956763062678698
-0.0010684877021243495   -0.04033380410616616   -0.0006723900364943838
-0.004886866393176503   -0.04031285422238872   -0.0008477006665998236
-0.004743378639887114   -0.04704248788833842   -0.0011025135703163615
-0.004912729900448708   -0.04023142164849584   -0.0008374123288406778
-0.00150487299616914   -0.04694199418230098   -0.000956763062678698
-0.004743750186967052   -0.04695795544546031   -0.001098646005065289
-0.004912729900448708   -0.04023142164849584   -0.0008374123288406778
-0.004743378639887114   -0.04704248788833842   -0.0011025135703163615
-0.00150487299616914   -0.04694199418230098   -0.000956763062678698
-0.004912729900448708   -0.04023142164849584   -0.0008374123288406778
-0.0010870631348923303   -0.04023627748777962   -0.0006945300418986531
-0.0010684877021243495   -0.04033380410616616   -0.0006723900364943838
-0.00150487299616914   -0.04694199418230098   -0.000956763062678698
-0.004912729900448708   -0.04023142164849584   -0.0008374123288406778
-0.0010684877021243495   -0.04033380410616616   -0.0006723900364943838
-0.004743378639887114   -0.04704248788833842   -0.0011025135703163615
-0.00150487299616914   -0.04694199418230098   -0.000956763062678698
-0.0010870631348923303   -0.04023627748777962   -0.0006945300418986531
-0.004743750186967052   -0.04695795544546031   -0.001098646005065289
-0.0014932082302366173   -0.046869733199123055   -0.0009914390073285473
-0.0010870631348923303   -0.04023627748777962   -0.0006945300418986531
-0.004912729900448708   -0.04023142164849584   -0.0008374123288406778
-0.004743750186967052   -0.04695795544546031   -0.001098646005065289
-0.004938949536574622   -0.04016761843646023   -0.0008213685643440057
-0.0014932082302366173   -0.046869733199123055   -0.0009914390073285473
-0.00474390234646599   -0.04689785091399548   -0.0010885491058478156
-0.004938949536574622   -0.04016761843646023   -0.0008213685643440057
-0.004743750186967052   -0.04695795544546031   -0.001098646005065289
-0.0014932082302366173   -0.046869733199123055   -0.0009914390073285473
-0.004938949536574622   -0.04016761843646023   -0.0008213685643440057
-0.001106565768580949   -0.040159319140323856   -0.000711081110397977
-0.0010870631348923303   -0.04023627748777962   -0.0006945300418986531
-0.0014932082302366173   -0.046869733199123055   -0.0009914390073285473
-0.004938949536574622   -0.04016761843646023   -0.0008213685643440057
-0.0010870631348923303   -0.04023627748777962   -0.0006945300418986531
-0.004743750186967052   -0.04695795544546031   -0.001098646005065289
-0.0014932082302366173   -0.046869733199123055   -0.0009914390073285473
-0.001106565768580949   -0.040159319140323856   -0.000711081110397977
-0.00474390234646599   -0.04689785091399548   -0.0010885491058478156
-0.0014986191586437796   -0.04682286089805488   -0.0010203188448700633
-0.001106565768580949   -0.040159319140323856   -0.000711081110397977
-0.004938949536574622   -0.04016761843646023   -0.0008213685643440057
-0.00474390234646599   -0.04689785091399548   -0.0010885491058478156
-0.004969265593512914   -0.04012174305651564   -0.0007998490626930895
-0.0014986191586437796   -0.04682286089805488   -0.0010203188448700633
-0.00474836704591395   -0.046862218238367594   -0.0010725484244490475
-0.004969265593512914   -0.04012174305651564   -0.0007998490626930895
-0.00474390234646599   -0.04689785091399548   -0.0010885491058478156
-0.0014986191586437796   -0.04682286089805488   -0.0010203188448700633
-0.004969265593512914   -0.04012174305651564   -0.0007998490626930895
-0.0011399222633150284   -0.04010049785472171   -0.000722231784013261
-0.001106565768580949   -0.040159319140323856   -0.000711081110397977
-0.0014986191586437796   -0.04682286089805488   -0.0010203188448700633
-0.004969265593512914   -0.04012174305651564   -0.0007998490626930895
-0.001106565768580949   -0.040159319140323856   -0.000711081110397977
-0.00474390234646599   -0.04689785091399548   -0.0010885491058478156
-0.004743378639887114   -0.04704248788833842   -0.0011025135703163615
-0.004886866393176503   -0.04031285422238872   -0.0008477006665998236
-0.007918045065646364   -0.04696204165818464   -0.001265987905226027
-0.004743750186967052   -0.04695795544546031   -0.001098646005065289
-0.004886866393176503   -0.04031285422238872   -0.0008477006665998236
-0.008640802742755275   -0.04023364016506562   -0.0009976172437075861
-0.007918045065646364   -0.04696204165818464   -0.001265987905226027
-0.008668728375395634   -0.04016681647924461   -0.0009550618007956276
-0.004743750186967052   -0.04695795544546031   -0.001098646005065289
-0.007920812536340633   -0.04689106031761221   -0.0012178676118735844
-0.008668728375395634   -0.04016681647924461   -0.0009550618007956276
-0.007918045065646364   -0.04696204165818464   -0.001265987905226027
-0.004743750186967052   -0.04695795544546031   -0.001098646005065289
-0.008668728375395634   -0.04016681647924461   -0.0009550618007956276
-0.004912729900448708   -0.04023142164849584   -0.0008374123288406778
-0.004886866393176503   -0.04031285422238872   -0.0008477006665998236
-0.004743750186967052   -0.04695795544546031   -0.001098646005065289
-0.008668728375395634   -0.04016681647924461   -0.0009550618007956276
-0.004886866393176503   -0.04031285422238872   -0.0008477006665998236
-0.007918045065646364   -0.04696204165818464   -0.001265987905226027
-0.004743750186967052   -0.04695795544546031   -0.001098646005065289
-0.004912729900448708   -0.04023142164849584   -0.0008374123288406778
-0.007920812536340633   -0.04689106031761221   -0.0012178676118735844
-0.00474390234646599   -0.04689785091399548   -0.0010885491058478156
-0.004912729900448708   -0.04023142164849584   -0.0008374123288406778
-0.008668728375395634   -0.04016681647924461   -0.0009550618007956276
-0.007920812536340633   -0.04689106031761221   -0.0012178676118735844
-0.008691849840214127   -0.04011745408122494   -0.0009068537697807365
-0.00474390234646599   -0.04689785091399548   -0.0010885491058478156
-0.007918174038385354   -0.04684429101559533   -0.0011636401484057426
-0.008691849840214127   -0.04011745408122494   -0.0009068537697807365
-0.007920812536340633   -0.04689106031761221   -0.0012178676118735844
-0.00474390234646599   -0.04689785091399548   -0.0010885491058478156
-0.008691849840214127   -0.04011745408122494   -0.0009068537697807365
-0.004938949536574622   -0.04016761843646023   -0.0008213685643440057
-0.004912729900448708   -0.04023142164849584   -0.0008374123288406778
-0.00474390234646599   -0.04689785091399548   -0.0010885491058478156
-0.008691849840214127   -0.04011745408122494   -0.0009068537697807365
-0.004912729900448708   -0.04023142164849584   -0.0008374123288406778
-0.007920812536340633   -0.04689106031761221   -0.0012178676118735844
-0.00474390234646599   -0.04689785091399548   -0.0010885491058478156
-0.004938949536574622   -0.04016761843646023   -0.0008213685643440057
-0.007918174038385354   -0.04684429101559533   -0.0011636401484057426
-0.00474836704591395   -0.046862218238367594   -0.0010725484244490475
-0.004938949536574622   -0.04016761843646023   -0.0008213685643440057
-0.008691849840214127   -0.04011745408122494   -0.0009068537697807365
-0.007918174038385354   -0.04684429101559533   -0.0011636401484057426
-0.008715648538265428   -0.040085479073623254   -0.0008531588735603838
-0.00474836704591395   -0.046862218238367594   -0.0010725484244490475
-0.00791651592201174   -0.04682131103592158   -0.001103482979525315
-0.008715648538265428   -0.040085479073623254   -0.0008531588735603838
-0.007918174038385354   -0.04684429101559533   -0.0011636401484057426
-0.00474836704591395   -0.046862218238367594   -0.0010725484244490475
-0.008715648538265428   -0.040085479073623254   -0.0008531588735603838
-0.004969265593512914   -0.04012174305651564   -0.0007998490626930895
-0.004938949536574622   -0.04016761843646023   -0.0008213685643440057
-0.00474836704591395   -0.046862218238367594   -0.0010725484244490475
-0.008715648538265428   -0.040085479073623254   -0.0008531588735603838
-0.004938949536574622   -0.04016761843646023   -0.0008213685643440057
-0.007918174038385354   -0.04684429101559533   -0.0011636401484057426
-0.007918045065646364   -0.04696204165818464   -0.001265987905226027
-0.008640802742755275   -0.04023364016506562   -0.0009976172437075861
-0.011191553114792061   -0.046803655067741166   -0.0014065892511318555
-0.007920812536340633   -0.04689106031761221   -0.0012178676118735844
-0.008640802742755275   -0.04023364016506562   -0.0009976172437075861
-0.012484014564974267   -0.04009773256886635   -0.0011227295820641604
-0.011191553114792061   -0.046803655067741166   -0.0014065892511318555
-0.012507080236344356   -0.040045169503650155   -0.0010474656591072042
-0.007920812536340633   -0.04689106031761221   -0.0012178676118735844
-0.011187622611251814   -0.04674563692779115   -0.0013136886338509183
-0.012507080236344356   -0.040045169503650155   -0.0010474656591072042
-0.011191553114792061   -0.046803655067741166   -0.0014065892511318555
-0.007920812536340633   -0.04689106031761221   -0.0012178676118735844
-0.012507080236344356   -0.040045169503650155   -0.0010474656591072042
-0.008668728375395634   -0.04016681647924461   -0.0009550618007956276
-0.008640802742755275   -0.04023364016506562   -0.0009976172437075861
-0.007920812536340633   -0.04689106031761221   -0.0012178676118735844
-0.012507080236344356   -0.040045169503650155   -0.0010474656591072042
-0.008640802742755275   -0.04023364016506562   -0.0009976172437075861
-0.011191553114792061   -0.046803655067741166   -0.0014065892511318555
-0.007920812536340633   -0.04689106031761221   -0.0012178676118735844
-0.008668728375395634   -0.04016681647924461   -0.0009550618007956276
-0.011187622611251814   -0.04674563692779115   -0.0013136886338509183
-0.007918174038385354   -0.04684429101559533   -0.0011636401484057426
-0.008668728375395634   -0.04016681647924461   -0.0009550618007956276
-0.012507080236344356   -0.040045169503650155   -0.0010474656591072042
-0.011187622611251814   -0.04674563692779115   -0.0013136886338509183
-0.012509908400835015   -0.0400090136051415   -0.0009673309678337068
-0.007918174038385354   -0.04684429101559533   -0.0011636401484057426
-0.011160077275358287   -0.04671095971204501   -0.0012156022828483813
-0.012509908400835015   -0.0400090136051415   -0.0009673309678337068
-0.011187622611251814   -0.04674563692779115   -0.0013136886338509183
-0.007918174038385354   -0.04684429101559533   -0.0011636401484057426
-0.012509908400835015   -0.0400090136051415   -0.0009673309678337068
-0.008691849840214127   -0.04011745408122494   -0.0009068537697807365
-0.008668728375395634   -0.04016681647924461   -0.0009550618007956276
-0.007918174038385354   -0.04684429101559533   -0.0011636401484057426
-0.012509908400835015   -0.0400090136051415   -0.0009673309678337068
-0.008668728375395634   -0.04016681647924461   -0.0009550618007956276
-0.011187622611251814   -0.04674563692779115   -0.0013136886338509183
-0.007918174038385354   -0.04684429101559533   -0.0011636401484057426
-0.008691849840214127   -0.04011745408122494   -0.0009068537697807365
-0.011160077275358287   -0.04671095971204501   -0.0012156022828483813
-0.00791651592201174   -0.04682131103592158   -0.001103482979525315
-0.008691849840214127   -0.04011745408122494   -0.0009068537697807365
-0.012509908400835015   -0.0400090136051415   -0.0009673309678337068
-0.011160077275358287   -0.04671095971204501   -0.0012156022828483813
-0.012518511266678491   -0.03999181278761032   -0.000881292823026549
-0.00791651592201174   -0.04682131103592158   -0.001103482979525315
-0.011141689283055783   -0.04670207355087531   -0.001111108396984502
-0.012518511266678491   -0.03999181278761032   -0.000881292823026549
-0.011160077275358287   -0.04671095971204501   -0.0012156022828483813
-0.00791651592201174   -0.04682131103592158   -0.001103482979525315
-0.012518511266678491   -0.03999181278761032   -0.000881292823026549
-0.008715648538265428   -0.040085479073623254   -0.0008531588735603838
-0.008691849840214127   -0.04011745408122494   -0.0009068537697807365
-0.00791651592201174   -0.04682131103592158   -0.001103482979525315
-0.012518511266678491   -0.03999181278761032   -0.000881292823026549
-0.008691849840214127   -0.04011745408122494   -0.0009068537697807365
-0.011160077275358287   -0.04671095971204501   -0.0012156022828483813
-0.011191553114792061   -0.046803655067741166   -0.0014065892511318555
-0.012484014564974267   -0.04009773256886635   -0.0011227295820641604
-0.014848053202899452   -0.04658519614711914   -0.0015334506079937628
-0.011187622611251814   -0.04674563692779115   -0.0013136886338509183
-0.012484014564974267   -0.04009773256886635   -0.0011227295820641604
-0.016675187348293898   -0.03991930014917427   -0.0012296141664980696
-0.014848053202899452   -0.04658519614711914   -0.0015334506079937628
-0.016594493558019365   -0.03987128398310118   -0.001119715451693862
-0.011187622611251814   -0.04674563692779115   -0.0013136886338509183
-0.014710879053428359   -0.04652821861801212   -0.0013912860392368066
-0.016594493558019365   -0.03987128398310118   -0.001119715451693862
-0.014848053202899452   -0.04658519614711914   -0.0015334506079937628
-0.011187622611251814   -0.04674563692779115   -0.0013136886338509183
-0.016594493558019365   -0.03987128398310118   -0.001119715451693862
-0.012507080236344356   -0.040045169503650155   -0.0010474656591072042
-0.012484014564974267   -0.04009773256886635   -0.0011227295820641604
-0.011187622611251814   -0.04674563692779115   -0.0013136886338509183
-0.016594493558019365   -0.03987128398310118   -0.001119715451693862
-0.012484014564974267   -0.04009773256886635   -0.0011227295820641604
-0.014848053202899452   -0.04658519614711914   -0.0015334506079937628
-0.011187622611251814   -0.04674563692779115   -0.0013136886338509183
-0.012507080236344356   -0.040045169503650155   -0.0010474656591072042
-0.014710879053428359   -0.04652821861801212   -0.0013912860392368066
-0.011160077275358287   -0.04671095971204501   -0.0012156022828483813
-0.012507080236344356   -0.040045169503650155   -0.0010474656591072042
-0.016594493558019365   -0.03987128398310118   -0.001119715451693862
-0.014710879053428359   -0.04652821861801212   -0.0013912860392368066
-0.016526491147689896   -0.039840729231049594   -0.0010013094852791326
-0.011160077275358287   -0.04671095971204501   -0.0012156022828483813
-0.01459362186544946   -0.04649795478089088   -0.0012403999100940276
-0.016526491147689896   -0.039840729231049594   -0.0010013094852791326
-0.014710879053428359   -0.04652821861801212   -0.0013912860392368066
-0.011160077275358287   -0.04671095971204501   -0.0012156022828483813
-0.016526491147689896   -0.039840729231049594   -0.0010013094852791326
-0.012509908400835015   -0.0400090136051415   -0.0009673309678337068
-0.012507080236344356   -0.040045169503650155   -0.0010474656591072042
-0.011160077275358287   -0.04671095971204501   -0.0012156022828483813
-0.016526491147689896   -0.039840729231049594   -0.0010013094852791326
-0.012507080236344356   -0.040045169503650155   -0.0010474656591072042
-0.014710879053428359   -0.04652821861801212   -0.0013912860392368066
-0.011160077275358287   -0.04671095971204501   -0.0012156022828483813
-0.012509908400835015   -0.0400090136051415   -0.0009673309678337068
-0.01459362186544946   -0.04649795478089088   -0.0012403999100940276
-0.011141689283055783   -0.04670207355087531   -0.001111108396984502
-0.012509908400835015   -0.0400090136051415   -0.0009673309678337068
-0.016526491147689896   -0.039840729231049594   -0.0010013094852791326
-0.01459362186544946   -0.04649795478089088   -0.0012403999100940276
-0.016414462756587925   -0.0398423582711725   -0.0008754577497649867
-0.011141689283055783   -0.04670207355087531   -0.001111108396984502
-0.014424478397061968   -0.04650857812496459   -0.0010819902258164759
-0.016414462756587925   -0.0398423582711725   -0.0008754577497649867
-0.01459362186544946   -0.04649795478089088   -0.0012403999100940276
-0.011141689283055783   -0.04670207355087531   -0.001111108396984502
-0.016414462756587925   -0.0398423582711725   -0.0008754577497649867
-0.012518511266678491   -0.03999181278761032   -0.000881292823026549
-0.012509908400835015   -0.0400090136051415   -0.0009673309678337068
-0.011141689283055783   -0.04670207355087531   -0.001111108396984502
-0.016414462756587925   -0.0398423582711725   -0.0008754577497649867
-0.012509908400835015   -0.0400090136051415   -0.0009673309678337068
-0.01459362186544946   -0.04649795478089088   -0.0012403999100940276
0.0029145531378252875   -0.04029259195451692   -0.00045926444850137826
0.003512993836731721   -0.032807838243514374   -0.00023421988104948882
-0.0010684877021243495   -0.04033380410616616   -0.0006723900364943838
0.0029536935549820597   -0.040179149527211036   -0.0005246005274039952
0.003512993836731721   -0.032807838243514374   -0.00023421988104948882
-0.0009111053734122527   -0.032807191542608215   -0.00043178976691607575
-0.0010684877021243495   -0.04033380410616616   -0.0006723900364943838
-0.0009504630736135544   -0.03271288539144684   -0.00043487461573162825
0.0029536935549820597   -0.040179149527211036   -0.0005246005274039952
-0.0010870631348923303   -0.04023627748777962   -0.0006945300418986531
-0.0009504630736135544   -0.03271288539144684   -0.00043487461573162825
-0.0010684877021243495   -0.04033380410616616   -0.0006723900364943838
0.0029536935549820597   -0.040179149527211036   -0.0005246005274039952
-0.0009504630736135544   -0.03271288539144684   -0.00043487461573162825
0.0035007380220690343   -0.032699256974821136   -0.0002657383224444666
0.003512993836731721   -0.032807838243514374   -0.00023421988104948882
0.0029536935549820597   -0.040179149527211036   -0.0005246005274039952
-0.0009504630736135544   -0.03271288539144684   -0.00043487461573162825
0.003512993836731721   -0.032807838243514374   -0.00023421988104948882
-0.0010684877021243495   -0.04033380410616616   -0.0006723900364943838
0.0029536935549820597   -0.040179149527211036   -0.0005246005274039952
0.0035007380220690343   -0.032699256974821136   -0.0002657383224444666
-0.0010870631348923303   -0.04023627748777962   -0.0006945300418986531
0.0029658337586644184   -0.04009672262216144   -0.0005816893261310026
0.0035007380220690343   -0.032699256974821136   -0.0002657383224444666
-0.0009504630736135544   -0.03271288539144684   -0.00043487461573162825
-0.0010870631348923303   -0.04023627748777962   -0.0006945300418986531
-0.0009942005373281219   -0.03263186900159202   -0.0004329959960472936
0.0029658337586644184   -0.04009672262216144   -0.0005816893261310026
-0.001106565768580949   -0.040159319140323856   -0.000711081110397977
-0.0009942005373281219   -0.03263186900159202   -0.0004329959960472936
-0.0010870631348923303   -0.04023627748777962   -0.0006945300418986531
0.0029658337586644184   -0.04009672262216144   -0.0005816893261310026
-0.0009942005373281219   -0.03263186900159202   -0.0004329959960472936
0.00346934467797058   -0.032612100323254824   -0.0002893011459217954
0.0035007380220690343   -0.032699256974821136   -0.0002657383224444666
0.0029658337586644184   -0.04009672262216144   -0.0005816893261310026
-0.0009942005373281219   -0.03263186900159202   -0.0004329959960472936
0.0035007380220690343   -0.032699256974821136   -0.0002657383224444666
-0.0010870631348923303   -0.04023627748777962   -0.0006945300418986531
0.0029658337586644184   -0.04009672262216144   -0.0005816893261310026
0.00346934467797058   -0.032612100323254824   -0.0002893011459217954
-0.001106565768580949   -0.040159319140323856   -0.000711081110397977
0.0029729317781637655   -0.04003070589239091   -0.0006309221203172145
0.00346934467797058   -0.032612100323254824   -0.0002893011459217954
-0.0009942005373281219   -0.03263186900159202   -0.0004329959960472936
-0.001106565768580949   -0.040159319140323856   -0.000711081110397977
-0.001048562129750037   -0.032562031168925684   -0.00042595823073569573
0.0029729317781637655   -0.04003070589239091   -0.0006309221203172145
-0.0011399222633150284   -0.04010049785472171   -0.000722231784013261
-0.001048562129750037   -0.032562031168925684   -0.00042595823073569573
-0.001106565768580949   -0.040159319140323856   -0.000711081110397977
0.0029729317781637655   -0.04003070589239091   -0.0006309221203172145
-0.001048562129750037   -0.032562031168925684   -0.00042595823073569573
0.003425440651173688   -0.032532062142129135   -0.0003054640120586595
0.00346934467797058   -0.032612100323254824   -0.0002893011459217954
0.0029729317781637655   -0.04003070589239091   -0.0006309221203172145
-0.001048562129750037   -0.032562031168925684   -0.00042595823073569573
0.00346934467797058   -0.032612100323254824   -0.0002893011459217954
-0.001106565768580949   -0.040159319140323856   -0.000711081110397977
-0.0010684877021243495   -0.04033380410616616   -0.0006723900364943838
-0.0009111053734122527   -0.032807191542608215   -0.00043178976691607575
-0.004886866393176503   -0.04031285422238872   -0.0008477006665998236
-0.0010870631348923303   -0.04023627748777962   -0.0006945300418986531
-0.0009111053734122527   -0.032807191542608215   -0.00043178976691607575
-0.005131155908823069   -0.032767258089157335   -0.0005946302639378465
-0.004886866393176503   -0.04031285422238872   -0.0008477006665998236
-0.00517528407045704   -0.03268906347929879   -0.0005773745572698297
-0.0010870631348923303   -0.04023627748777962   -0.0006945300418986531
-0.004912729900448708   -0.04023142164849584   -0.0008374123288406778
-0.00517528407045704   -0.03268906347929879   -0.0005773745572698297
-0.004886866393176503   -0.04031285422238872   -0.0008477006665998236
-0.0010870631348923303   -0.04023627748777962   -0.0006945300418986531
-0.00517528407045704   -0.03268906347929879   -0.0005773745572698297
-0.0009504630736135544   -0.03271288539144684   -0.00043487461573162825
-0.0009111053734122527   -0.032807191542608215   -0.00043178976691607575
-0.0010870631348923303   -0.04023627748777962   -0.0006945300418986531
-0.00517528407045704   -0.03268906347929879   -0.0005773745572698297
-0.0009111053734122527   -0.032807191542608215   -0.00043178976691607575
-0.004886866393176503   -0.04031285422238872   -0.0008477006665998236
-0.0010870631348923303   -0.04023627748777962   -0.0006945300418986531
-0.0009504630736135544   -0.03271288539144684   -0.00043487461573162825
-0.004912729900448708   -0.04023142164849584   -0.0008374123288406778
-0.001106565768580949   -0.040159319140323856   -0.000711081110397977
-0.0009504630736135544   -0.03271288539144684   -0.00043487461573162825
-0.00517528407045704   -0.03268906347929879   -0.0005773745572698297
-0.004912729900448708   -0.04023142164849584   -0.0008374123288406778
-0.005220305042684729   -0.032621687125537965   -0.0005549467588418914
-0.001106565768580949   -0.040159319140323856   -0.000711081110397977
-0.004938949536574622   -0.04016761843646023   -0.0008213685643440057
-0.005220305042684729   -0.032621687125537965   -0.0005549467588418914
-0.004912729900448708   -0.04023142164849584   -0.0008374123288406778
-0.001106565768580949   -0.040159319140323856   -0.000711081110397977
-0.005220305042684729   -0.032621687125537965   -0.0005549467588418914
-0.0009942005373281219   -0.03263186900159202   -0.0004329959960472936
-0.0009504630736135544   -0.03271288539144684   -0.00043487461573162825
-0.001106565768580949   -0.040159319140323856   -0.000711081110397977
-0.005220305042684729   -0.032621687125537965   -0.0005549467588418914
-0.0009504630736135544   -0.03271288539144684   -0.00043487461573162825
-0.004912729900448708   -0.04023142164849584   -0.0008374123288406778
-0.001106565768580949   -0.040159319140323856   -0.000711081110397977
-0.0009942005373281219   -0.03263186900159202   -0.0004329959960472936
-0.004938949536574622   -0.04016761843646023   -0.0008213685643440057
-0.0011399222633150284   -0.04010049785472171   -0.000722231784013261
-0.0009942005373281219   -0.03263186900159202   -0.0004329959960472936
-0.005220305042684729   -0.032621687125537965   -0.0005549467588418914
-0.004938949536574622   -0.04016761843646023   -0.0008213685643440057
-0.005269145740431912   -0.032565770646964164   -0.0005275915115319921
-0.0011399222633150284   -0.04010049785472171   -0.000722231784013261
-0.004969265593512914   -0.04012174305651564   -0.0007998490626930895
-0.005269145740431912   -0.032565770646964164   -0.0005275915115319921
-0.004938949536574622   -0.04016761843646023   -0.0008213685643440057
-0.0011399222633150284   -0.04010049785472171   -0.000722231784013261
-0.005269145740431912   -0.032565770646964164   -0.0005275915115319921
-0.001048562129750037   -0.032562031168925684   -0.00042595823073569573
-0.0009942005373281219   -0.03263186900159202   -0.0004329959960472936
-0.0011399222633150284   -0.04010049785472171   -0.000722231784013261
-0.005269145740431912   -0.032565770646964164   -0.0005275915115319921
-0.0009942005373281219   -0.03263186900159202   -0.0004329959960472936
-0.004938949536574622   -0.04016761843646023   -0.0008213685643440057
-0.004886866393176503   -0.04031285422238872   -0.0008477006665998236
-0.005131155908823069   -0.032767258089157335   -0.0005946302639378465
-0.008640802742755275   -0.04023364016506562   -0.0009976172437075861
-0.004912729900448708   -0.04023142164849584   -0.0008374123288406778
-0.005131155908823069   -0.032767258089157335   -0.0005946302639378465
-0.009279863841181756   -0.032692539139005335   -0.0007318882329869918
-0.008640802742755275   -0.04023364016506562   -0.0009976172437075861
-0.009325321246656495   -0.03262918346395476   -0.0006943350645547867
-0.004912729900448708   -0.04023142164849584   -0.0008374123288406778
-0.008668728375395634   -0.04016681647924461   -0.0009550618007956276
-0.009325321246656495   -0.03262918346395476   -0.0006943350645547867
-0.008640802742755275   -0.04023364016506562   -0.0009976172437075861
-0.004912729900448708   -0.04023142164849584   -0.0008374123288406778
-0.009325321246656495   -0.03262918346395476   -0.0006943350645547867
-0.00517528407045704   -0.03268906347929879   -0.0005773745572698297
-0.005131155908823069   -0.032767258089157335   -0.0005946302639378465
-0.004912729900448708   -0.04023142164849584   -0.0008374123288406778
-0.009325321246656495   -0.03262918346395476   -0.0006943350645547867
-0.005131155908823069   -0.032767258089157335   -0.0005946302639378465
-0.008640802742755275   -0.04023364016506562   -0.0009976172437075861
-0.004912729900448708   -0.04023142164849584   -0.0008374123288406778
-0.00517528407045704   -0.03268906347929879   -0.0005773745572698297
-0.008668728375395634   -0.04016681647924461   -0.0009550618007956276
-0.004938949536574622   -0.04016761843646023   -0.0008213685643440057
-0.00517528407045704   -0.03268906347929879   -0.0005773745572698297
-0.009325321246656495   -0.03262918346395476   -0.0006943350645547867
-0.008668728375395634   -0.04016681647924461   -0.0009550618007956276
-0.009366546592129914   -0.032576569629817545   -0.0006517310255394863
-0.004938949536574622   -0.04016761843646023   -0.0008213685643440057
-0.008691849840214127   -0.04011745408122494   -0.0009068537697807365
-0.009366546592129914   -0.032576569629817545   -0.0006517310255394863
-0.008668728375395634   -0.04016681647924461   -0.0009550618007956276
-0.004938949536574622   -0.04016761843646023   -0.0008213685643440057
-0.009366546592129914   -0.032576569629817545   -0.0006517310255394863
-0.005220305042684729   -0.032621687125537965   -0.0005549467588418914
-0.00517528407045704   -0.03268906347929879   -0.0005773745572698297
-0.004938949536574622   -0.04016761843646023   -0.0008213685643440057
-0.009366546592129914   -0.032576569629817545   -0.0006517310255394863
-0.00517528407045704   -0.03268906347929879   -0.0005773745572698297
-0.008668728375395634   -0.04016681647924461   -0.0009550618007956276
-0.004938949536574622   -0.04016761843646023   -0.0008213685643440057
-0.005220305042684729   -0.032621687125537965   -0.0005549467588418914
-0.008691849840214127   -0.04011745408122494   -0.0009068537697807365
-0.004969265593512914   -0.04012174305651564   -0.0007998490626930895
-0.005220305042684729   -0.032621687125537965   -0.0005549467588418914
-0.009366546592129914   -0.032576569629817545   -0.0006517310255394863
-0.008691849840214127   -0.04011745408122494   -0.0009068537697807365
-0.009408164572057426   -0.03253478486950236   -0.0006042678963194982
-0.004969265593512914   -0.04012174305651564   -0.0007998490626930895
-0.008715648538265428   -0.040085479073623254   -0.0008531588735603838
-0.009408164572057426   -0.03253478486950236   -0.0006042678963194982
-0.008691849840214127   -0.04011745408122494   -0.0009068537697807365
-0.004969265593512914   -0.04012174305651564   -0.0007998490626930895
-0.009408164572057426   -0.03253478486950236   -0.0006042678963194982
-0.005269145740431912   -0.032565770646964164   -0.0005275915115319921
-0.005220305042684729   -0.032621687125537965   -0.0005549467588418914
-0.004969265593512914   -0.04012174305651564   -0.0007998490626930895
-0.009408164572057426   -0.03253478486950236   -0.0006042678963194982
-0.005220305042684729   -0.032621687125537965   -0.0005549467588418914
-0.008691849840214127   -0.04011745408122494   -0.0009068537697807365
-0.008640802742755275   -0.04023364016506562   -0.0009976172437075861
-0.009279863841181756   -0.032692539139005335   -0.0007318882329869918
-0.012484014564974267   -0.04009773256886635   -0.0011227295820641604
-0.008668728375395634   -0.04016681647924461   -0.0009550618007956276
-0.009279863841181756   -0.032692539139005335   -0.0007318882329869918
-0.013510796436868727   -0.032581449459622505   -0.0008438860267142347
-0.012484014564974267   -0.04009773256886635   -0.0011227295820641604
-0.013552978967042271   -0.03253305208238732   -0.0007858790633044633
-0.008668728375395634   -0.04016681647924461   -0.0009550618007956276
-0.012507080236344356   -0.040045169503650155   -0.0010474656591072042
-0.013552978967042271   -0.03253305208238732   -0.0007858790633044633
-0.012484014564974267   -0.04009773256886635   -0.0011227295820641604
-0.008668728375395634   -0.04016681647924461   -0.0009550618007956276
-0.013552978967042271   -0.03253305208238732   -0.0007858790633044633
-0.009325321246656495   -0.03262918346395476   -0.0006943350645547867
-0.009279863841181756   -0.032692539139005335   -0.0007318882329869918
-0.008668728375395634   -0.04016681647924461   -0.0009550618007956276
-0.013552978967042271   -0.03253305208238732   -0.0007858790633044633
-0.009279863841181756   -0.032692539139005335   -0.0007318882329869918
-0.012484014564974267   -0.04009773256886635   -0.0011227295820641604
-0.008668728375395634   -0.04016681647924461   -0.0009550618007956276
-0.009325321246656495   -0.03262918346395476   -0.0006943350645547867
-0.012507080236344356   -0.040045169503650155   -0.0010474656591072042
-0.008691849840214127   -0.04011745408122494   -0.0009068537697807365
-0.009325321246656495   -0.03262918346395476   -0.0006943350645547867
-0.013552978967042271   -0.03253305208238732   -0.0007858790633044633
-0.012507080236344356   -0.040045169503650155   -0.0010474656591072042
-0.01357843782003978   -0.032494046748238595   -0.00072350098284975
-0.008691849840214127   -0.04011745408122494   -0.0009068537697807365
-0.012509908400835015   -0.0400090136051415   -0.0009673309678337068
-0.01357843782003978   -0.032494046748238595   -0.00072350098284975
-0.012507080236344356   -0.040045169503650155   -0.0010474656591072042
-0.008691849840214127   -0.04011745408122494   -0.0009068537697807365
-0.01357843782003978   -0.032494046748238595   -0.00072350098284975
-0.009366546592129914   -0.032576569629817545   -0.0006517310255394863
-0.009325321246656495   -0.03262918346395476   -0.0006943350645547867
-0.008691849840214127   -0.04011745408122494   -0.0009068537697807365
-0.01357843782003978   -0.032494046748238595   -0.00072350098284975
-0.009325321246656495   -0.03262918346395476   -0.0006943350645547867
-0.012507080236344356   -0.040045169503650155   -0.0010474656591072042
-0.008691849840214127   -0.04011745408122494   -0.0009068537697807365
-0.009366546592129914   -0.032576569629817545   -0.0006517310255394863
-0.012509908400835015   -0.0400090136051415   -0.0009673309678337068
-0.008715648538265428   -0.040085479073623254   -0.0008531588735603838
-0.009366546592129914   -0.032576569629817545   -0.0006517310255394863
-0.01357843782003978   -0.032494046748238595   -0.00072350098284975
-0.012509908400835015   -0.0400090136051415   -0.0009673309678337068
-0.013606449194554901   -0.03246681427210154   -0.0006558488690332126
-0.008715648538265428   -0.040085479073623254   -0.0008531588735603838
-0.012518511266678491   -0.03999181278761032   -0.000881292823026549
-0.013606449194554901   -0.03246681427210154   -0.0006558488690332126
-0.012509908400835015   -0.0400090136051415   -0.0009673309678337068
-0.008715648538265428   -0.040085479073623254   -0.0008531588735603838
-0.013606449194554901   -0.03246681427210154   -0.0006558488690332126
-0.009408164572057426   -0.03253478486950236   -0.0006042678963194982
-0.009366546592129914   -0.032576569629817545   -0.0006517310255394863
-0.008715648538265428   -0.040085479073623254   -0.0008531588735603838
-0.013606449194554901   -0.03246681427210154   -0.0006558488690332126
-0.009366546592129914   -0.032576569629817545   -0.0006517310255394863
-0.012509908400835015   -0.0400090136051415   -0.0009673309678337068
-0.012484014564974267   -0.04009773256886635   -0.0011227295820641604
-0.013510796436868727   -0.032581449459622505   -0.0008438860267142347
-0.016675187348293898   -0.03991930014917427   -0.0012296141664980696
-0.012507080236344356   -0.040045169503650155   -0.0010474656591072042
-0.013510796436868727   -0.032581449459622505   -0.0008438860267142347
-0.018052105562890188   -0.03244462942975301   -0.0009328473391693883
-0.016675187348293898   -0.03991930014917427   -0.0012296141664980696
-0.018020439867887327   -0.03240388559734469   -0.0008554740934585383
-0.012507080236344356   -0.040045169503650155   -0.0010474656591072042
-0.016594493558019365   -0.03987128398310118   -0.001119715451693862
-0.018020439867887327   -0.03240388559734469   -0.0008554740934585383
-0.016675187348293898   -0.03991930014917427   -0.0012296141664980696
-0.012507080236344356   -0.040045169503650155   -0.0010474656591072042
-0.018020439867887327   -0.03240388559734469   -0.0008554740934585383
-0.013552978967042271   -0.03253305208238732   -0.0007858790633044633
-0.013510796436868727   -0.032581449459622505   -0.0008438860267142347
-0.012507080236344356   -0.040045169503650155   -0.0010474656591072042
-0.018020439867887327   -0.03240388559734469   -0.0008554740934585383
-0.013510796436868727   -0.032581449459622505   -0.0008438860267142347
-0.016675187348293898   -0.03991930014917427   -0.0012296141664980696
-0.012507080236344356   -0.040045169503650155   -0.0010474656591072042
-0.013552978967042271   -0.03253305208238732   -0.0007858790633044633
-0.016594493558019365   -0.03987128398310118   -0.001119715451693862
-0.012509908400835015   -0.0400090136051415   -0.0009673309678337068
-0.013552978967042271   -0.03253305208238732   -0.0007858790633044633
-0.018020439867887327   -0.03240388559734469   -0.0008554740934585383
-0.016594493558019365   -0.03987128398310118   -0.001119715451693862
-0.01799462886247371   -0.032371292919884706   -0.000770079775604031
-0.012509908400835015   -0.0400090136051415   -0.0009673309678337068
-0.016526491147689896   -0.039840729231049594   -0.0010013094852791326
-0.01799462886247371   -0.032371292919884706   -0.000770079775604031
-0.016594493558019365   -0.03987128398310118   -0.001119715451693862
-0.012509908400835015   -0.0400090136051415   -0.0009673309678337068
-0.01799462886247371   -0.032371292919884706   -0.000770079775604031
-0.01357843782003978   -0.032494046748238595   -0.00072350098284975
-0.013552978967042271   -0.03253305208238732   -0.0007858790633044633
-0.012509908400835015   -0.0400090136051415   -0.0009673309678337068
-0.01799462886247371   -0.032371292919884706   -0.000770079775604031
-0.013552978967042271   -0.03253305208238732   -0.0007858790633044633
-0.016594493558019365   -0.03987128398310118   -0.001119715451693862
-0.012509908400835015   -0.0400090136051415   -0.0009673309678337068
-0.01357843782003978   -0.032494046748238595   -0.00072350098284975
-0.016526491147689896   -0.039840729231049594   -0.0010013094852791326
-0.012518511266678491   -0.03999181278761032   -0.000881292823026549
-0.01357843782003978   -0.032494046748238595   -0.00072350098284975
-0.01799462886247371   -0.032371292919884706   -0.000770079775604031
-0.016526491147689896   -0.039840729231049594   -0.0010013094852791326
-0.01793307340013222   -0.03236153143820735   -0.0006775786973486535
-0.012518511266678491   -0.03999181278761032   -0.000881292823026549
-0.016414462756587925   -0.0398423582711725   -0.0008754577497649867
-0.01793307340013222   -0.03236153143820735   -0.0006775786973486535
-0.016526491147689896   -0.039840729231049594   -0.0010013094852791326
-0.012518511266678491   -0.03999181278761032   -0.000881292823026549
-0.01793307340013222   -0.03236153143820735   -0.0006775786973486535
-0.013606449194554901   -0.03246681427210154   -0.0006558488690332126
-0.01357843782003978   -0.032494046748238595   -0.00072350098284975
-0.012518511266678491   -0.03999181278761032   -0.000881292823026549
-0.01793307340013222   -0.03236153143820735   -0.0006775786973486535
-0.01357843782003978   -0.032494046748238595   -0.00072350098284975
-0.016526491147689896   -0.039840729231049594   -0.0010013094852791326
0.003512993836731721   -0.032807838243514374   -0.00023421988104948882
0.0036359778957711533   -0.024801632363990033   -3.718573023438985e-05
-0.0009111053734122527   -0.032807191542608215   -0.00043178976691607575
0.0035007380220690343   -0.032699256974821136   -0.0002657383224444666
0.0036359778957711533   -0.024801632363990033   -3.718573023438985e-05
-0.0010414203116088819   -0.024760751346714443   -0.00021468286414166377
-0.0009111053734122527   -0.032807191542608215   -0.00043178976691607575
-0.0010955433382608308   -0.02467054086742728   -0.00019868770157690867
0.0035007380220690343   -0.032699256974821136   -0.0002657383224444666
-0.0009504630736135544   -0.03271288539144684   -0.00043487461573162825
-0.0010955433382608308   -0.02467054086742728   -0.00019868770157690867
-0.0009111053734122527   -0.032807191542608215   -0.00043178976691607575
0.0035007380220690343   -0.032699256974821136   -0.0002657383224444666
-0.0010955433382608308   -0.02467054086742728   -0.00019868770157690867
0.003578823681737523   -0.024698103097719738   -3.425388076275865e-05
0.0036359778957711533   -0.024801632363990033   -3.718573023438985e-05
0.0035007380220690343   -0.032699256974821136   -0.0002657383224444666
-0.0010955433382608308   -0.02467054086742728   -0.00019868770157690867
0.0036359778957711533   -0.024801632363990033   -3.718573023438985e-05
-0.0009111053734122527   -0.032807191542608215   -0.00043178976691607575
0.0035007380220690343   -0.032699256974821136   -0.0002657383224444666
0.003578823681737523   -0.024698103097719738   -3.425388076275865e-05
-0.0009504630736135544   -0.03271288539144684   -0.00043487461573162825
0.00346934467797058   -0.032612100323254824   -0.0002893011459217954
0.003578823681737523   -0.024698103097719738   -3.425388076275865e-05
-0.0010955433382608308   -0.02467054086742728   -0.00019868770157690867
-0.0009504630736135544   -0.03271288539144684   -0.00043487461573162825
-0.0011575285312431529   -0.024585508331978704   -0.00017818530230094087
0.00346934467797058   -0.032612100323254824   -0.0002893011459217954
-0.0009942005373281219   -0.03263186900159202   -0.0004329959960472936
-0.0011575285312431529   -0.024585508331978704   -0.00017818530230094087
-0.0009504630736135544   -0.03271288539144684   -0.00043487461573162825
0.00346934467797058   -0.032612100323254824   -0.0002893011459217954
-0.0011575285312431529   -0.024585508331978704   -0.00017818530230094087
0.003508449521894783   -0.024605759559501235   -2.2116957820307483e-05
0.003578823681737523   -0.024698103097719738   -3.425388076275865e-05
0.00346934467797058   -0.032612100323254824   -0.0002893011459217954
-0.0011575285312431529   -0.024585508331978704   -0.00017818530230094087
0.003578823681737523   -0.024698103097719738   -3.425388076275865e-05
-0.0009504630736135544   -0.03271288539144684   -0.00043487461573162825
0.00346934467797058   -0.032612100323254824   -0.0002893011459217954
0.003508449521894783   -0.024605759559501235   -2.2116957820307483e-05
-0.0009942005373281219   -0.03263186900159202   -0.0004329959960472936
0.003425440651173688   -0.032532062142129135   -0.0003054640120586595
0.003508449521894783   -0.024605759559501235   -2.2116957820307483e-05
-0.0011575285312431529   -0.024585508331978704   -0.00017818530230094087
-0.0009942005373281219   -0.03263186900159202   -0.0004329959960472936
-0.0012271540965950196   -0.024504484341733492   -0.00015204668687660675
0.003425440651173688   -0.032532062142129135   -0.0003054640120586595
-0.001048562129750037   -0.032562031168925684   -0.00042595823073569573
-0.0012271540965950196   -0.024504484341733492   -0.00015204668687660675
-0.0009942005373281219   -0.03263186900159202   -0.0004329959960472936
0.003425440651173688   -0.032532062142129135   -0.0003054640120586595
-0.0012271540965950196   -0.024504484341733492   -0.00015204668687660675
0.003415625362186426   -0.024509249088292842   -1.1901219424642092e-06
0.003508449521894783   -0.024605759559501235   -2.2116957820307483e-05
0.003425440651173688   -0.032532062142129135   -0.0003054640120586595
-0.0012271540965950196   -0.024504484341733492   -0.00015204668687660675
0.003508449521894783   -0.024605759559501235   -2.2116957820307483e-05
-0.0009942005373281219   -0.03263186900159202   -0.0004329959960472936
-0.0009111053734122527   -0.032807191542608215   -0.00043178976691607575
-0.0010414203116088819   -0.024760751346714443   -0.00021468286414166377
-0.005131155908823069   -0.032767258089157335   -0.0005946302639378465
-0.0009504630736135544   -0.03271288539144684   -0.00043487461573162825
-0.0010414203116088819   -0.024760751346714443   -0.00021468286414166377
-0.005473417705071922   -0.024712840649914723   -0.00036466929986414206
-0.005131155908823069   -0.032767258089157335   -0.0005946302639378465
-0.005528697626104801   -0.024637492778029207   -0.00033999068628417893
-0.0009504630736135544   -0.03271288539144684   -0.00043487461573162825
-0.00517528407045704   -0.03268906347929879   -0.0005773745572698297
-0.005528697626104801   -0.024637492778029207   -0.00033999068628417893
-0.005131155908823069   -0.032767258089157335   -0.0005946302639378465
-0.0009504630736135544   -0.03271288539144684   -0.00043487461573162825
-0.005528697626104801   -0.024637492778029207   -0.00033999068628417893
-0.0010955433382608308   -0.02467054086742728   -0.00019868770157690867
-0.0010414203116088819   -0.024760751346714443   -0.00021468286414166377
-0.0009504630736135544   -0.03271288539144684   -0.00043487461573162825
-0.005528697626104801   -0.024637492778029207   -0.00033999068628417893
-0.0010414203116088819   -0.024760751346714443   -0.00021468286414166377
-0.005131155908823069   -0.032767258089157335   -0.0005946302639378465
-0.0009504630736135544   -0.03271288539144684   -0.00043487461573162825
-0.0010955433382608308   -0.02467054086742728   -0.00019868770157690867
-0.00517528407045704   -0.03268906347929879   -0.0005773745572698297
-0.0009942005373281219   -0.03263186900159202   -0.0004329959960472936
-0.0010955433382608308   -0.02467054086742728   -0.00019868770157690867
-0.005528697626104801   -0.024637492778029207   -0.00033999068628417893
-0.00517528407045704   -0.03268906347929879   -0.0005773745572698297
-0.005585223360792211   -0.024566161661766884   -0.0003110133790034419
-0.0009942005373281219   -0.03263186900159202   -0.0004329959960472936
-0.005220305042684729   -0.032621687125537965   -0.0005549467588418914
-0.005585223360792211   -0.024566161661766884   -0.0003110133790034419
-0.00517528407045704   -0.03268906347929879   -0.0005773745572698297
-0.0009942005373281219   -0.03263186900159202   -0.0004329959960472936
-0.005585223360792211   -0.024566161661766884   -0.0003110133790034419
-0.0011575285312431529   -0.024585508331978704   -0.00017818530230094087
-0.0010955433382608308   -0.02467054086742728   -0.00019868770157690867
-0.0009942005373281219   -0.03263186900159202   -0.0004329959960472936
-0.005585223360792211   -0.024566161661766884   -0.0003110133790034419
-0.0010955433382608308   -0.02467054086742728   -0.00019868770157690867
-0.00517528407045704   -0.03268906347929879   -0.0005773745572698297
-0.0009942005373281219   -0.03263186900159202   -0.0004329959960472936
-0.0011575285312431529   -0.024585508331978704   -0.00017818530230094087
-0.005220305042684729   -0.032621687125537965   -0.0005549467588418914
-0.001048562129750037   -0.032562031168925684   -0.00042595823073569573
-0.0011575285312431529   -0.024585508331978704   -0.00017818530230094087
-0.005585223360792211   -0.024566161661766884   -0.0003110133790034419
-0.005220305042684729   -0.032621687125537965   -0.0005549467588418914
-0.0056453558088967295   -0.02449996228496775   -0.00027769354764434255
-0.001048562129750037   -0.032562031168925684   -0.00042595823073569573
-0.005269145740431912   -0.032565770646964164   -0.0005275915115319921
-0.0056453558088967295   -0.02449996228496775   -0.00027769354764434255
-0.005220305042684729   -0.032621687125537965   -0.0005549467588418914
-0.001048562129750037   -0.032562031168925684   -0.00042595823073569573
-0.0056453558088967295   -0.02449996228496775   -0.00027769354764434255
-0.0012271540965950196   -0.024504484341733492   -0.00015204668687660675
-0.0011575285312431529   -0.024585508331978704   -0.00017818530230094087
-0.001048562129750037   -0.032562031168925684   -0.00042595823073569573
-0.0056453558088967295   -0.02449996228496775   -0.00027769354764434255
-0.0011575285312431529   -0.024585508331978704   -0.00017818530230094087
-0.005220305042684729   -0.032621687125537965   -0.0005549467588418914
-0.005131155908823069   -0.032767258089157335   -0.0005946302639378465
-0.005473417705071922   -0.024712840649914723   -0.00036466929986414206
-0.009279863841181756   -0.032692539139005335   -0.0007318882329869918
-0.00517528407045704   -0.03268906347929879   -0.0005773745572698297
-0.005473417705071922   -0.024712840649914723   -0.00036466929986414206
-0.009833177191776205   -0.024655266275747715   -0.0004919088342563753
-0.009279863841181756   -0.032692539139005335   -0.0007318882329869918
-0.009888083685972673   -0.024593677162512144   -0.00045856334680219595
-0.00517528407045704   -0.03268906347929879   -0.0005773745572698297
-0.009325321246656495   -0.03262918346395476   -0.0006943350645547867
-0.009888083685972673   -0.024593677162512144   -0.00045856334680219595
-0.009279863841181756   -0.032692539139005335   -0.0007318882329869918
-0.00517528407045704   -0.03268906347929879   -0.0005773745572698297
-0.009888083685972673   -0.024593677162512144   -0.00045856334680219595
-0.005528697626104801   -0.024637492778029207   -0.00033999068628417893
-0.005473417705071922   -0.024712840649914723   -0.00036466929986414206
-0.00517528407045704   -0.03268906347929879   -0.0005773745572698297
-0.009888083685972673   -0.024593677162512144   -0.00045856334680219595
-0.005473417705071922   -0.024712840649914723   -0.00036466929986414206
-0.009279863841181756   -0.032692539139005335   -0.0007318882329869918
-0.00517528407045704   -0.03268906347929879   -0.0005773745572698297
-0.005528697626104801   -0.024637492778029207   -0.00033999068628417893
-0.009325321246656495   -0.03262918346395476   -0.0006943350645547867
-0.005220305042684729   -0.032621687125537965   -0.0005549467588418914
-0.005528697626104801   -0.024637492778029207   -0.00033999068628417893
-0.009888083685972673   -0.024593677162512144   -0.00045856334680219595
-0.009325321246656495   -0.03262918346395476   -0.0006943350645547867
-0.009939430163481608   -0.024536328224942856   -0.0004210659834565369
-0.005220305042684729   -0.032621687125537965   -0.0005549467588418914
-0.009366546592129914   -0.032576569629817545   -0.0006517310255394863
-0.009939430163481608   -0.024536328224942856   -0.0004210659834565369
-0.009325321246656495   -0.03262918346395476   -0.0006943350645547867
-0.005220305042684729   -0.032621687125537965   -0.0005549467588418914
-0.009939430163481608   -0.024536328224942856   -0.0004210659834565369
-0.005585223360792211   -0.024566161661766884   -0.0003110133790034419
-0.005528697626104801   -0.024637492778029207   -0.00033999068628417893
-0.005220305042684729   -0.032621687125537965   -0.0005549467588418914
-0.009939430163481608   -0.024536328224942856   -0.0004210659834565369
-0.005528697626104801   -0.024637492778029207   -0.00033999068628417893
-0.009325321246656495   -0.03262918346395476   -0.0006943350645547867
-0.005220305042684729   -0.032621687125537965   -0.0005549467588418914
-0.005585223360792211   -0.024566161661766884   -0.0003110133790034419
-0.009366546592129914   -0.032576569629817545   -0.0006517310255394863
-0.005269145740431912   -0.032565770646964164   -0.0005275915115319921
-0.005585223360792211   -0.024566161661766884   -0.0003110133790034419
-0.009939430163481608   -0.024536328224942856   -0.0004210659834565369
-0.009366546592129914   -0.032576569629817545   -0.0006517310255394863
-0.009990960555382945   -0.024483376772849556   -0.00037962160942574296
-0.005269145740431912   -0.032565770646964164   -0.0005275915115319921
-0.009408164572057426   -0.03253478486950236   -0.0006042678963194982
-0.009990960555382945   -0.024483376772849556   -0.00037962160942574296
-0.009366546592129914   -0.032576569629817545   -0.0006517310255394863
-0.005269145740431912   -0.032565770646964164   -0.0005275915115319921
-0.009990960555382945   -0.024483376772849556   -0.00037962160942574296
-0.0056453558088967295   -0.02449996228496775   -0.00027769354764434255
-0.005585223360792211   -0.024566161661766884   -0.0003110133790034419
-0.005269145740431912   -0.032565770646964164   -0.0005275915115319921
-0.009990960555382945   -0.024483376772849556   -0.00037962160942574296
-0.005585223360792211   -0.024566161661766884   -0.0003110133790034419
-0.009366546592129914   -0.032576569629817545   -0.0006517310255394863
-0.009279863841181756   -0.032692539139005335   -0.0007318882329869918
-0.009833177191776205   -0.024655266275747715   -0.0004919088342563753
-0.013510796436868727   -0.032581449459622505   -0.0008438860267142347
-0.009325321246656495   -0.03262918346395476   -0.0006943350645547867
-0.009833177191776205   -0.024655266275747715   -0.0004919088342563753
-0.014271766788812633   -0.02457735352165944   -0.0005953119815846352
-0.013510796436868727   -0.032581449459622505   -0.0008438860267142347
-0.014324335465292602   -0.024530238032963846   -0.0005534032329977673
-0.009325321246656495   -0.03262918346395476   -0.0006943350645547867
-0.013552978967042271   -0.03253305208238732   -0.0007858790633044633
-0.014324335465292602   -0.024530238032963846   -0.0005534032329977673
-0.013510796436868727   -0.032581449459622505   -0.0008438860267142347
-0.009325321246656495   -0.03262918346395476   -0.0006943350645547867
-0.014324335465292602   -0.024530238032963846   -0.0005534032329977673
-0.009888083685972673   -0.024593677162512144   -0.00045856334680219595
-0.009833177191776205   -0.024655266275747715   -0.0004919088342563753
-0.009325321246656495   -0.03262918346395476   -0.0006943350645547867
-0.014324335465292602   -0.024530238032963846   -0.0005534032329977673
-0.009833177191776205   -0.024655266275747715   -0.0004919088342563753
-0.013510796436868727   -0.032581449459622505   -0.0008438860267142347
-0.009325321246656495   -0.03262918346395476   -0.0006943350645547867
-0.009888083685972673   -0.024593677162512144   -0.00045856334680219595
-0.013552978967042271   -0.03253305208238732   -0.0007858790633044633
-0.009366546592129914   -0.032576569629817545   -0.0006517310255394863
-0.009888083685972673   -0.024593677162512144   -0.00045856334680219595
-0.014324335465292602   -0.024530238032963846   -0.0005534032329977673
-0.013552978967042271   -0.03253305208238732   -0.0007858790633044633
-0.014364124931813722   -0.024485772218477933   -0.0005080241195510441
-0.009366546592129914   -0.032576569629817545   -0.0006517310255394863
-0.01357843782003978   -0.032494046748238595   -0.00072350098284975
-0.014364124931813722   -0.024485772218477933   -0.0005080241195510441
-0.013552978967042271   -0.03253305208238732   -0.0007858790633044633
-0.009366546592129914   -0.032576569629817545   -0.0006517310255394863
-0.014364124931813722   -0.024485772218477933   -0.0005080241195510441
-0.009939430163481608   -0.024536328224942856   -0.0004210659834565369
-0.009888083685972673   -0.024593677162512144   -0.00045856334680219595
-0.009366546592129914   -0.032576569629817545   -0.0006517310255394863
-0.014364124931813722   -0.024485772218477933   -0.0005080241195510441
-0.009888083685972673   -0.024593677162512144   -0.00045856334680219595
-0.013552978967042271   -0.03253305208238732   -0.0007858790633044633
-0.009366546592129914   -0.032576569629817545   -0.0006517310255394863
-0.009939430163481608   -0.024536328224942856   -0.0004210659834565369
-0.01357843782003978   -0.032494046748238595   -0.00072350098284975
-0.009408164572057426   -0.03253478486950236   -0.0006042678963194982
-0.009939430163481608   -0.024536328224942856   -0.0004210659834565369
-0.014364124931813722   -0.024485772218477933   -0.0005080241195510441
-0.01357843782003978   -0.032494046748238595   -0.00072350098284975
-0.014403619511085331   -0.024445952236957457   -0.00045827245172299697
-0.009408164572057426   -0.03253478486950236   -0.0006042678963194982
-0.013606449194554901   -0.03246681427210154   -0.0006558488690332126
-0.014403619511085331   -0.024445952236957457   -0.00045827245172299697
-0.01357843782003978   -0.032494046748238595   -0.00072350098284975
-0.009408164572057426   -0.03253478486950236   -0.0006042678963194982
-0.014403619511085331   -0.024445952236957457   -0.00045827245172299697
-0.009990960555382945   -0.024483376772849556   -0.00037962160942574296
-0.009939430163481608   -0.024536328224942856   -0.0004210659834565369
-0.009408164572057426   -0.03253478486950236   -0.0006042678963194982
-0.014403619511085331   -0.024445952236957457   -0.00045827245172299697
-0.009939430163481608   -0.024536328224942856   -0.0004210659834565369
-0.01357843782003978   -0.032494046748238595   -0.00072350098284975
-0.013510796436868727   -0.032581449459622505   -0.0008438860267142347
-0.014271766788812633   -0.02457735352165944   -0.0005953119815846352
-0.018052105562890188   -0.03244462942975301   -0.0009328473391693883
-0.013552978967042271   -0.03253305208238732   -0.0007858790633044633
-0.014271766788812633   -0.02457735352165944   -0.0005953119815846352
-0.018976673638258973   -0.024485166866955278   -0.0006718417516277353
-0.018052105562890188   -0.03244462942975301   -0.0009328473391693883
-0.01898434470977542   -0.024447680506243026   -0.0006254259254069805
-0.013552978967042271   -0.03253305208238732   -0.0007858790633044633
-0.018020439867887327   -0.03240388559734469   -0.0008554740934585383
-0.01898434470977542   -0.024447680506243026   -0.0006254259254069805
-0.018052105562890188   -0.03244462942975301   -0.0009328473391693883
-0.013552978967042271   -0.03253305208238732   -0.0007858790633044633
-0.01898434470977542   -0.024447680506243026   -0.0006254259254069805
-0.014324335465292602   -0.024530238032963846   -0.0005534032329977673
-0.014271766788812633   -0.02457735352165944   -0.0005953119815846352
-0.013552978967042271   -0.03253305208238732   -0.0007858790633044633
-0.01898434470977542   -0.024447680506243026   -0.0006254259254069805
-0.014271766788812633   -0.02457735352165944   -0.0005953119815846352
-0.018052105562890188   -0.03244462942975301   -0.0009328473391693883
-0.013552978967042271   -0.03253305208238732   -0.0007858790633044633
-0.014324335465292602   -0.024530238032963846   -0.0005534032329977673
-0.018020439867887327   -0.03240388559734469   -0.0008554740934585383
-0.01357843782003978   -0.032494046748238595   -0.00072350098284975
-0.014324335465292602   -0.024530238032963846   -0.0005534032329977673
-0.01898434470977542   -0.024447680506243026   -0.0006254259254069805
-0.018020439867887327   -0.03240388559734469   -0.0008554740934585383
-0.01899228896738156   -0.02440983334303009   -0.0005720268618086222
-0.01357843782003978   -0.032494046748238595   -0.00072350098284975
-0.01799462886247371   -0.032371292919884706   -0.000770079775604031
-0.01899228896738156   -0.02440983334303009   -0.0005720268618086222
-0.018020439867887327   -0.03240388559734469   -0.0008554740934585383
-0.01357843782003978   -0.032494046748238595   -0.00072350098284975
-0.01899228896738156   -0.02440983334303009   -0.0005720268618086222
-0.014364124931813722   -0.024485772218477933   -0.0005080241195510441
-0.014324335465292602   -0.024530238032963846   -0.0005534032329977673
-0.01357843782003978   -0.032494046748238595   -0.00072350098284975
-0.01899228896738156   -0.02440983334303009   -0.0005720268618086222
-0.014324335465292602   -0.024530238032963846   -0.0005534032329977673
-0.018020439867887327   -0.03240388559734469   -0.0008554740934585383
-0.01357843782003978   -0.032494046748238595   -0.00072350098284975
-0.014364124931813722   -0.024485772218477933   -0.0005080241195510441
-0.01799462886247371   -0.032371292919884706   -0.000770079775604031
-0.013606449194554901   -0.03246681427210154   -0.0006558488690332126
-0.014364124931813722   -0.024485772218477933   -0.0005080241195510441
-0.01899228896738156   -0.02440983334303009   -0.0005720268618086222
-0.01799462886247371   -0.032371292919884706   -0.000770079775604031
-0.018973677661458348   -0.02438523947543812   -0.0005124706890629021
-0.013606449194554901   -0.03246681427210154   -0.0006558488690332126
-0.01793307340013222   -0.03236153143820735   -0.0006775786973486535
-0.018973677661458348   -0.02438523947543812   -0.0005124706890629021
-0.01799462886247371   -0.032371292919884706   -0.000770079775604031
-0.013606449194554901   -0.03246681427210154   -0.0006558488690332126
-0.018973677661458348   -0.02438523947543812   -0.0005124706890629021
-0.014403619511085331   -0.024445952236957457   -0.00045827245172299697
-0.014364124931813722   -0.024485772218477933   -0.0005080241195510441
-0.013606449194554901   -0.03246681427210154   -0.0006558488690332126
-0.018973677661458348   -0.02438523947543812   -0.0005124706890629021
-0.014364124931813722   -0.024485772218477933   -0.0005080241195510441
-0.01799462886247371   -0.032371292919884706   -0.000770079775604031
0.0036359778957711533   -0.024801632363990033   -3.718573023438985e-05
0.0032623455904976623   -0.016553530225396556   9.885067941187868e-05
-0.0010414203116088819   -0.024760751346714443   -0.00021468286414166377
0.003578823681737523   -0.024698103097719738   -3.425388076275865e-05
0.0032623455904976623   -0.016553530225396556   9.885067941187868e-05
-0.0014521445196408842   -0.01647608309807042   -4.190544016610174e-05
-0.0010414203116088819   -0.024760751346714443   -0.00021468286414166377
-0.0015169374271637426   -0.016394492025508866   -8.314682009749643e-06
0.003578823681737523   -0.024698103097719738   -3.425388076275865e-05
-0.0010955433382608308   -0.02467054086742728   -0.00019868770157690867
-0.0015169374271637426   -0.016394492025508866   -8.314682009749643e-06
-0.0010414203116088819   -0.024760751346714443   -0.00021468286414166377
0.003578823681737523   -0.024698103097719738   -3.425388076275865e-05
-0.0015169374271637426   -0.016394492025508866   -8.314682009749643e-06
0.003160498283526589   -0.016454952682788265   0.00014048422720711862
0.0032623455904976623   -0.016553530225396556   9.885067941187868e-05
0.003578823681737523   -0.024698103097719738   -3.425388076275865e-05
-0.0015169374271637426   -0.016394492025508866   -8.314682009749643e-06
0.0032623455904976623   -0.016553530225396556   9.885067941187868e-05
-0.0010414203116088819   -0.024760751346714443   -0.00021468286414166377
0.003578823681737523   -0.024698103097719738   -3.425388076275865e-05
0.003160498283526589   -0.016454952682788265   0.00014048422720711862
-0.0010955433382608308   -0.02467054086742728   -0.00019868770157690867
0.003508449521894783   -0.024605759559501235   -2.2116957820307483e-05
0.003160498283526589   -0.016454952682788265   0.00014048422720711862
-0.0015169374271637426   -0.016394492025508866   -8.314682009749643e-06
-0.0010955433382608308   -0.02467054086742728   -0.00019868770157690867
-0.0015927669614852573   -0.016308423796245385   3.127866822154972e-05
0.003508449521894783   -0.024605759559501235   -2.2116957820307483e-05
-0.0011575285312431529   -0.024585508331978704   -0.00017818530230094087
-0.0015927669614852573   -0.016308423796245385   3.127866822154972e-05
-0.0010955433382608308   -0.02467054086742728   -0.00019868770157690867
0.003508449521894783   -0.024605759559501235   -2.2116957820307483e-05
-0.0015927669614852573   -0.016308423796245385   3.127866822154972e-05
0.0030466312818640995   -0.016357160045284674   0.00020044237682125633
0.003160498283526589   -0.016454952682788265   0.00014048422720711862
0.003508449521894783   -0.024605759559501235   -2.2116957820307483e-05
-0.0015927669614852573   -0.016308423796245385   3.127866822154972e-05
0.003160498283526589   -0.016454952682788265   0.00014048422720711862
-0.0010955433382608308   -0.02467054086742728   -0.00019868770157690867
0.003508449521894783   -0.024605759559501235   -2.2116957820307483e-05
0.0030466312818640995   -0.016357160045284674   0.00020044237682125633
-0.0011575285312431529   -0.024585508331978704   -0.00017818530230094087
0.003415625362186426   -0.024509249088292842   -1.1901219424642092e-06
0.0030466312818640995   -0.016357160045284674   0.00020044237682125633
-0.0015927669614852573   -0.016308423796245385   3.127866822154972e-05
-0.0011575285312431529   -0.024585508331978704   -0.00017818530230094087
-0.0016712427139956936   -0.01621707750695151   7.679978328363504e-05
0.003415625362186426   -0.024509249088292842   -1.1901219424642092e-06
-0.0012271540965950196   -0.024504484341733492   -0.00015204668687660675
-0.0016712427139956936   -0.01621707750695151   7.679978328363504e-05
-0.0011575285312431529   -0.024585508331978704   -0.00017818530230094087
0.003415625362186426   -0.024509249088292842   -1.1901219424642092e-06
-0.0016712427139956936   -0.01621707750695151   7.679978328363504e-05
0.0029074836208411664   -0.016236986629436432   0.000266445943323811
0.0030466312818640995   -0.016357160045284674   0.00020044237682125633
0.003415625362186426   -0.024509249088292842   -1.1901219424642092e-06
-0.0016712427139956936   -0.01621707750695151   7.679978328363504e-05
0.0030466312818640995   -0.016357160045284674   0.00020044237682125633
-0.0011575285312431529   -0.024585508331978704   -0.00017818530230094087
-0.0010414203116088819   -0.024760751346714443   -0.00021468286414166377
-0.0014521445196408842   -0.01647608309807042   -4.190544016610174e-05
-0.005473417705071922   -0.024712840649914723   -0.00036466929986414206
-0.0010955433382608308   -0.02467054086742728   -0.00019868770157690867
-0.0014521445196408842   -0.01647608309807042   -4.190544016610174e-05
-0.005891042452563453   -0.016456024868271576   -0.00017744519611119692
-0.005473417705071922   -0.024712840649914723   -0.00036466929986414206
-0.005949677986649104   -0.016384914200586416   -0.00014610651221423168
-0.0010955433382608308   -0.02467054086742728   -0.00019868770157690867
-0.005528697626104801   -0.024637492778029207   -0.00033999068628417893
-0.005949677986649104   -0.016384914200586416   -0.00014610651221423168
-0.005473417705071922   -0.024712840649914723   -0.00036466929986414206
-0.0010955433382608308   -0.02467054086742728   -0.00019868770157690867
-0.005949677986649104   -0.016384914200586416   -0.00014610651221423168
-0.0015169374271637426   -0.016394492025508866   -8.314682009749643e-06
-0.0014521445196408842   -0.01647608309807042   -4.190544016610174e-05
-0.0010955433382608308   -0.02467054086742728   -0.00019868770157690867
-0.005949677986649104   -0.016384914200586416   -0.00014610651221423168
-0.0014521445196408842   -0.01647608309807042   -4.190544016610174e-05
-0.005473417705071922   -0.024712840649914723   -0.00036466929986414206
-0.0010955433382608308   -0.02467054086742728   -0.00019868770157690867
-0.0015169374271637426   -0.016394492025508866   -8.314682009749643e-06
-0.005528697626104801   -0.024637492778029207   -0.00033999068628417893
-0.0011575285312431529   -0.024585508331978704   -0.00017818530230094087
-0.0015169374271637426   -0.016394492025508866   -8.314682009749643e-06
-0.005949677986649104   -0.016384914200586416   -0.00014610651221423168
-0.005528697626104801   -0.024637492778029207   -0.00033999068628417893
-0.006010350280798105   -0.01631096285533771   -0.00011164257870955203
-0.0011575285312431529   -0.024585508331978704   -0.00017818530230094087
-0.005585223360792211   -0.024566161661766884   -0.0003110133790034419
-0.006010350280798105   -0.01631096285533771   -0.00011164257870955203
-0.005528697626104801   -0.024637492778029207   -0.00033999068628417893
-0.0011575285312431529   -0.024585508331978704   -0.00017818530230094087
-0.006010350280798105   -0.01631096285533771   -0.00011164257870955203
-0.0015927669614852573   -0.016308423796245385   3.127866822154972e-05
-0.0015169374271637426   -0.016394492025508866   -8.314682009749643e-06
-0.0011575285312431529   -0.024585508331978704   -0.00017818530230094087
-0.006010350280798105   -0.01631096285533771   -0.00011164257870955203
-0.0015169374271637426   -0.016394492025508866   -8.314682009749643e-06
-0.005528697626104801   -0.024637492778029207   -0.00033999068628417893
-0.0011575285312431529   -0.024585508331978704   -0.00017818530230094087
-0.0015927669614852573   -0.016308423796245385   3.127866822154972e-05
-0.005585223360792211   -0.024566161661766884   -0.0003110133790034419
-0.0012271540965950196   -0.024504484341733492   -0.00015204668687660675
-0.0015927669614852573   -0.016308423796245385   3.127866822154972e-05
-0.006010350280798105   -0.01631096285533771   -0.00011164257870955203
-0.005585223360792211   -0.024566161661766884   -0.0003110133790034419
-0.006073531808865836   -0.016235517086354363   -7.343249643123142e-05
-0.0012271540965950196   -0.024504484341733492   -0.00015204668687660675
-0.0056453558088967295   -0.02449996228496775   -0.00027769354764434255
-0.006073531808865836   -0.016235517086354363   -7.343249643123142e-05
-0.005585223360792211   -0.024566161661766884   -0.0003110133790034419
-0.0012271540965950196   -0.024504484341733492   -0.00015204668687660675
-0.006073531808865836   -0.016235517086354363   -7.343249643123142e-05
-0.0016712427139956936   -0.01621707750695151   7.679978328363504e-05
-0.0015927669614852573   -0.016308423796245385   3.127866822154972e-05
-0.0012271540965950196   -0.024504484341733492   -0.00015204668687660675
-0.006073531808865836   -0.016235517086354363   -7.343249643123142e-05
-0.0015927669614852573   -0.016308423796245385   3.127866822154972e-05
-0.005585223360792211   -0.024566161661766884   -0.0003110133790034419
-0.005473417705071922   -0.024712840649914723   -0.00036466929986414206
-0.005891042452563453   -0.016456024868271576   -0.00017744519611119692
-0.009833177191776205   -0.024655266275747715   -0.0004919088342563753
-0.005528697626104801   -0.024637492778029207   -0.00033999068628417893
-0.005891042452563453   -0.016456024868271576   -0.00017744519611119692
-0.01028397280943792   -0.016450427345341103   -0.0002998760555687927
-0.009833177191776205   -0.024655266275747715   -0.0004919088342563753
-0.010340061446202435   -0.016388147315098203   -0.000269906899085142
-0.005528697626104801   -0.024637492778029207   -0.00033999068628417893
-0.009888083685972673   -0.024593677162512144   -0.00045856334680219595
-0.010340061446202435   -0.016388147315098203   -0.000269906899085142
-0.009833177191776205   -0.024655266275747715   -0.0004919088342563753
-0.005528697626104801   -0.024637492778029207   -0.00033999068628417893
-0.010340061446202435   -0.016388147315098203   -0.000269906899085142
-0.005949677986649104   -0.016384914200586416   -0.00014610651221423168
-0.005891042452563453   -0.016456024868271576   -0.00017744519611119692
-0.005528697626104801   -0.024637492778029207   -0.00033999068628417893
-0.010340061446202435   -0.016388147315098203   -0.000269906899085142
-0.005891042452563453   -0.016456024868271576   -0.00017744519611119692
-0.009833177191776205   -0.024655266275747715   -0.0004919088342563753
-0.005528697626104801   -0.024637492778029207   -0.00033999068628417893
-0.005949677986649104   -0.016384914200586416   -0.00014610651221423168
-0.009888083685972673   -0.024593677162512144   -0.00045856334680219595
-0.005585223360792211   -0.024566161661766884   -0.0003110133790034419
-0.005949677986649104   -0.016384914200586416   -0.00014610651221423168
-0.010340061446202435   -0.016388147315098203   -0.000269906899085142
-0.009888083685972673   -0.024593677162512144   -0.00045856334680219595
-0.010393493770506097   -0.0163247687041978   -0.0002372022533542374
-0.005585223360792211   -0.024566161661766884   -0.0003110133790034419
-0.009939430163481608   -0.024536328224942856   -0.0004210659834565369
-0.010393493770506097   -0.0163247687041978   -0.0002372022533542374
-0.009888083685972673   -0.024593677162512144   -0.00045856334680219595
-0.005585223360792211   -0.024566161661766884   -0.0003110133790034419
-0.010393493770506097   -0.0163247687041978   -0.0002372022533542374
-0.006010350280798105   -0.01631096285533771   -0.00011164257870955203
-0.005949677986649104   -0.016384914200586416   -0.00014610651221423168
-0.005585223360792211   -0.024566161661766884   -0.0003110133790034419
-0.010393493770506097   -0.0163247687041978   -0.0002372022533542374
-0.005949677986649104   -0.016384914200586416   -0.00014610651221423168
-0.009888083685972673   -0.024593677162512144   -0.00045856334680219595
-0.005585223360792211   -0.024566161661766884   -0.0003110133790034419
-0.006010350280798105   -0.01631096285533771   -0.00011164257870955203
-0.009939430163481608   -0.024536328224942856   -0.0004210659834565369
-0.0056453558088967295   -0.02449996228496775   -0.00027769354764434255
-0.006010350280798105   -0.01631096285533771   -0.00011164257870955203
-0.010393493770506097   -0.0163247687041978   -0.0002372022533542374
-0.009939430163481608   -0.024536328224942856   -0.0004210659834565369
-0.01044639040218218   -0.016259925662714225   -0.00020191468055359843
-0.0056453558088967295   -0.02449996228496775   -0.00027769354764434255
-0.009990960555382945   -0.024483376772849556   -0.00037962160942574296
-0.01044639040218218   -0.016259925662714225   -0.00020191468055359843
-0.009939430163481608   -0.024536328224942856   -0.0004210659834565369
-0.0056453558088967295   -0.02449996228496775   -0.00027769354764434255
-0.01044639040218218   -0.016259925662714225   -0.00020191468055359843
-0.006073531808865836   -0.016235517086354363   -7.343249643123142e-05
-0.006010350280798105   -0.01631096285533771   -0.00011164257870955203
-0.0056453558088967295   -0.02449996228496775   -0.00027769354764434255
-0.01044639040218218   -0.016259925662714225   -0.00020191468055359843
-0.006010350280798105   -0.01631096285533771   -0.00011164257870955203
-0.009939430163481608   -0.024536328224942856   -0.0004210659834565369
-0.009833177191776205   -0.024655266275747715   -0.0004919088342563753
-0.01028397280943792   -0.016450427345341103   -0.0002998760555687927
-0.014271766788812633   -0.02457735352165944   -0.0005953119815846352
-0.009888083685972673   -0.024593677162512144   -0.00045856334680219595
-0.01028397280943792   -0.016450427345341103   -0.0002998760555687927
-0.01477002964689788   -0.01642480432626996   -0.0004025488971951123
-0.014271766788812633   -0.02457735352165944   -0.0005953119815846352
-0.014823498973583545   -0.01637416602971985   -0.0003741097136238962
-0.009888083685972673   -0.024593677162512144   -0.00045856334680219595
-0.014324335465292602   -0.024530238032963846   -0.0005534032329977673
-0.014823498973583545   -0.01637416602971985   -0.0003741097136238962
-0.014271766788812633   -0.02457735352165944   -0.0005953119815846352
-0.009888083685972673   -0.024593677162512144   -0.00045856334680219595
-0.014823498973583545   -0.01637416602971985   -0.0003741097136238962
-0.010340061446202435   -0.016388147315098203   -0.000269906899085142
-0.01028397280943792   -0.016450427345341103   -0.0002998760555687927
-0.009888083685972673   -0.024593677162512144   -0.00045856334680219595
-0.014823498973583545   -0.01637416602971985   -0.0003741097136238962
-0.01028397280943792   -0.016450427345341103   -0.0002998760555687927
-0.014271766788812633   -0.02457735352165944   -0.0005953119815846352
-0.009888083685972673   -0.024593677162512144   -0.00045856334680219595
-0.010340061446202435   -0.016388147315098203   -0.000269906899085142
-0.014324335465292602   -0.024530238032963846   -0.0005534032329977673
-0.009939430163481608   -0.024536328224942856   -0.0004210659834565369
-0.010340061446202435   -0.016388147315098203   -0.000269906899085142
-0.014823498973583545   -0.01637416602971985   -0.0003741097136238962
-0.014324335465292602   -0.024530238032963846   -0.0005534032329977673
-0.014868767869002845   -0.016320760123257227   -0.0003437202037185889
-0.009939430163481608   -0.024536328224942856   -0.0004210659834565369
-0.014364124931813722   -0.024485772218477933   -0.0005080241195510441
-0.014868767869002845   -0.016320760123257227   -0.0003437202037185889
-0.014324335465292602   -0.024530238032963846   -0.0005534032329977673
-0.009939430163481608   -0.024536328224942856   -0.0004210659834565369
-0.014868767869002845   -0.016320760123257227   -0.0003437202037185889
-0.010393493770506097   -0.0163247687041978   -0.0002372022533542374
-0.010340061446202435   -0.016388147315098203   -0.000269906899085142
-0.009939430163481608   -0.024536328224942856   -0.0004210659834565369
-0.014868767869002845   -0.016320760123257227   -0.0003437202037185889
-0.010340061446202435   -0.016388147315098203   -0.000269906899085142
-0.014324335465292602   -0.024530238032963846   -0.0005534032329977673
-0.009939430163481608   -0.024536328224942856   -0.0004210659834565369
-0.010393493770506097   -0.0163247687041978   -0.0002372022533542374
-0.014364124931813722   -0.024485772218477933   -0.0005080241195510441
-0.009990960555382945   -0.024483376772849556   -0.00037962160942574296
-0.010393493770506097   -0.0163247687041978   -0.0002372022533542374
-0.014868767869002845   -0.016320760123257227   -0.0003437202037185889
-0.014364124931813722   -0.024485772218477933   -0.0005080241195510441
-0.014911551578469098   -0.016265972899836594   -0.000310538319444796
-0.009990960555382945   -0.024483376772849556   -0.00037962160942574296
-0.014403619511085331   -0.024445952236957457   -0.00045827245172299697
-0.014911551578469098   -0.016265972899836594   -0.000310538319444796
-0.014364124931813722   -0.024485772218477933   -0.0005080241195510441
-0.009990960555382945   -0.024483376772849556   -0.00037962160942574296
-0.014911551578469098   -0.016265972899836594   -0.000310538319444796
-0.01044639040218218   -0.016259925662714225   -0.00020191468055359843
-0.010393493770506097   -0.0163247687041978   -0.0002372022533542374
-0.009990960555382945   -0.024483376772849556   -0.00037962160942574296
-0.014911551578469098   -0.016265972899836594   -0.000310538319444796
-0.010393493770506097   -0.0163247687041978   -0.0002372022533542374
-0.014364124931813722   -0.024485772218477933   -0.0005080241195510441
-0.014271766788812633   -0.02457735352165944   -0.0005953119815846352
-0.01477002964689788   -0.01642480432626996   -0.0004025488971951123
-0.018976673638258973   -0.024485166866955278   -0.0006718417516277353
-0.014324335465292602   -0.024530238032963846   -0.0005534032329977673
-0.01477002964689788   -0.01642480432626996   -0.0004025488971951123
-0.019469944862409695   -0.016382488818423534   -0.00047824282093070897
-0.018976673638258973   -0.024485166866955278   -0.0006718417516277353
-0.01950298679236628   -0.01634010000829335   -0.0004567976947694511
-0.014324335465292602   -0.024530238032963846   -0.0005534032329977673
-0.01898434470977542   -0.024447680506243026   -0.0006254259254069805
-0.01950298679236628   -0.01634010000829335   -0.0004567976947694511
-0.018976673638258973   -0.024485166866955278   -0.0006718417516277353
-0.014324335465292602   -0.024530238032963846   -0.0005534032329977673
-0.01950298679236628   -0.01634010000829335   -0.0004567976947694511
-0.014823498973583545   -0.01637416602971985   -0.0003741097136238962
-0.01477002964689788   -0.01642480432626996   -0.0004025488971951123
-0.014324335465292602   -0.024530238032963846   -0.0005534032329977673
-0.01950298679236628   -0.01634010000829335   -0.0004567976947694511
-0.01477002964689788   -0.01642480432626996   -0.0004025488971951123
-0.018976673638258973   -0.024485166866955278   -0.0006718417516277353
-0.014324335465292602   -0.024530238032963846   -0.0005534032329977673
-0.014823498973583545   -0.01637416602971985   -0.0003741097136238962
-0.01898434470977542   -0.024447680506243026   -0.0006254259254069805
-0.014364124931813722   -0.024485772218477933   -0.0005080241195510441
-0.014823498973583545   -0.01637416602971985   -0.0003741097136238962
-0.01950298679236628   -0.01634010000829335   -0.0004567976947694511
-0.01898434470977542   -0.024447680506243026   -0.0006254259254069805
-0.019533199957294856   -0.016292085561184912   -0.0004305839463493979
-0.014364124931813722   -0.024485772218477933   -0.0005080241195510441
-0.01899228896738156   -0.02440983334303009   -0.0005720268618086222
-0.019533199957294856   -0.016292085561184912   -0.0004305839463493979
-0.01898434470977542   -0.024447680506243026   -0.0006254259254069805
-0.014364124931813722   -0.024485772218477933   -0.0005080241195510441
-0.019533199957294856   -0.016292085561184912   -0.0004305839463493979
-0.014868767869002845   -0.016320760123257227   -0.0003437202037185889
-0.014823498973583545   -0.01637416602971985   -0.0003741097136238962
-0.014364124931813722   -0.024485772218477933   -0.0005080241195510441
-0.019533199957294856   -0.016292085561184912   -0.0004305839463493979
-0.014823498973583545   -0.01637416602971985   -0.0003741097136238962
-0.01898434470977542   -0.024447680506243026   -0.0006254259254069805
-0.014364124931813722   -0.024485772218477933   -0.0005080241195510441
-0.014868767869002845   -0.016320760123257227   -0.0003437202037185889
-0.01899228896738156   -0.02440983334303009   -0.0005720268618086222
-0.014403619511085331   -0.024445952236957457   -0.00045827245172299697
-0.014868767869002845   -0.016320760123257227   -0.0003437202037185889
-0.019533199957294856   -0.016292085561184912   -0.0004305839463493979
-0.01899228896738156   -0.02440983334303009   -0.0005720268618086222
-0.01954762984931243   -0.01624817316047341   -0.0004007848132075402
-0.014403619511085331   -0.024445952236957457   -0.00045827245172299697
-0.018973677661458348   -0.02438523947543812   -0.0005124706890629021
-0.01954762984931243   -0.01624817316047341   -0.0004007848132075402
-0.01899228896738156   -0.02440983334303009   -0.0005720268618086222
-0.014403619511085331   -0.024445952236957457   -0.00045827245172299697
-0.01954762984931243   -0.01624817316047341   -0.0004007848132075402
-0.014911551578469098   -0.016265972899836594   -0.000310538319444796
-0.014868767869002845   -0.016320760123257227   -0.0003437202037185889
-0.014403619511085331   -0.024445952236957457   -0.00045827245172299697
-0.01954762984931243   -0.01624817316047341   -0.0004007848132075402
-0.014868767869002845   -0.016320760123257227   -0.0003437202037185889
-0.01899228896738156   -0.02440983334303009   -0.0005720268618086222
0.0032623455904976623   -0.016553530225396556   9.885067941187868e-05
0.002287739298676204   -0.00831684019267753   0.00010644233229055481
-0.0014521445196408842   -0.01647608309807042   -4.190544016610174e-05
0.003160498283526589   -0.016454952682788265   0.00014048422720711862
0.002287739298676204   -0.00831684019267753   0.00010644233229055481
-0.002110984301754209   -0.008209664300382054   5.522331481827455e-05
-0.0014521445196408842   -0.01647608309807042   -4.190544016610174e-05
-0.0021755214481738215   -0.008168802680383067   0.00010202527832517772
0.003160498283526589   -0.016454952682788265   0.00014048422720711862
-0.0015169374271637426   -0.016394492025508866   -8.314682009749643e-06
-0.0021755214481738215   -0.008168802680383067   0.00010202527832517772
-0.0014521445196408842   -0.01647608309807042   -4.190544016610174e-05
0.003160498283526589   -0.016454952682788265   0.00014048422720711862
-0.0021755214481738215   -0.008168802680383067   0.00010202527832517772
0.0020864886747129466   -0.008211973905438116   0.0002221714871918228
0.002287739298676204   -0.00831684019267753   0.00010644233229055481
0.003160498283526589   -0.016454952682788265   0.00014048422720711862
-0.0021755214481738215   -0.008168802680383067   0.00010202527832517772
0.002287739298676204   -0.00831684019267753   0.00010644233229055481
-0.0014521445196408842   -0.01647608309807042   -4.190544016610174e-05
0.003160498283526589   -0.016454952682788265   0.00014048422720711862
0.0020864886747129466   -0.008211973905438116   0.0002221714871918228
-0.0015169374271637426   -0.016394492025508866   -8.314682009749643e-06
0.0030466312818640995   -0.016357160045284674   0.00020044237682125633
0.0020864886747129466   -0.008211973905438116   0.0002221714871918228
-0.0021755214481738215   -0.008168802680383067   0.00010202527832517772
-0.0015169374271637426   -0.016394492025508866   -8.314682009749643e-06
-0.0022604850020456354   -0.008095538866227131   0.00015889811511907308
0.0030466312818640995   -0.016357160045284674   0.00020044237682125633
-0.0015927669614852573   -0.016308423796245385   3.127866822154972e-05
-0.0022604850020456354   -0.008095538866227131   0.00015889811511907308
-0.0015169374271637426   -0.016394492025508866   -8.314682009749643e-06
0.0030466312818640995   -0.016357160045284674   0.00020044237682125633
-0.0022604850020456354   -0.008095538866227131   0.00015889811511907308
0.001968705643441603   -0.008126430172182827   0.0003084549729080405
0.0020864886747129466   -0.008211973905438116   0.0002221714871918228
0.0030466312818640995   -0.016357160045284674   0.00020044237682125633
-0.0022604850020456354   -0.008095538866227131   0.00015889811511907308
0.0020864886747129466   -0.008211973905438116   0.0002221714871918228
-0.0015169374271637426   -0.016394492025508866   -8.314682009749643e-06
0.0030466312818640995   -0.016357160045284674   0.00020044237682125633
0.001968705643441603   -0.008126430172182827   0.0003084549729080405
-0.0015927669614852573   -0.016308423796245385   3.127866822154972e-05
0.0029074836208411664   -0.016236986629436432   0.000266445943323811
0.001968705643441603   -0.008126430172182827   0.0003084549729080405
-0.0022604850020456354   -0.008095538866227131   0.00015889811511907308
-0.0015927669614852573   -0.016308423796245385   3.127866822154972e-05
-0.0023319808885378275   -0.00801685242356178   0.00020895382228184012
0.0029074836208411664   -0.016236986629436432   0.000266445943323811
-0.0016712427139956936   -0.01621707750695151   7.679978328363504e-05
-0.0023319808885378275   -0.00801685242356178   0.00020895382228184012
-0.0015927669614852573   -0.016308423796245385   3.127866822154972e-05
0.0029074836208411664   -0.016236986629436432   0.000266445943323811
-0.0023319808885378275   -0.00801685242356178   0.00020895382228184012
0.0018176572199099504   -0.007995470147843357   0.0004072909137268967
0.001968705643441603   -0.008126430172182827   0.0003084549729080405
0.0029074836208411664   -0.016236986629436432   0.000266445943323811
-0.0023319808885378275   -0.00801685242356178   0.00020895382228184012
0.001968705643441603   -0.008126430172182827   0.0003084549729080405
-0.0015927669614852573   -0.016308423796245385   3.127866822154972e-05
-0.0014521445196408842   -0.01647608309807042   -4.190544016610174e-05
-0.002110984301754209   -0.008209664300382054   5.522331481827455e-05
-0.005891042452563453   -0.016456024868271576   -0.00017744519611119692
-0.0015169374271637426   -0.016394492025508866   -8.314682009749643e-06
-0.002110984301754209   -0.008209664300382054   5.522331481827455e-05
-0.006295717480385907   -0.008331481735338214   -5.2281410608196996e-05
-0.005891042452563453   -0.016456024868271576   -0.00017744519611119692
-0.006355271173321113   -0.008268649331299215   -1.9076974604224146e-05
-0.0015169374271637426   -0.016394492025508866   -8.314682009749643e-06
-0.005949677986649104   -0.016384914200586416   -0.00014610651221423168
-0.006355271173321113   -0.008268649331299215   -1.9076974604224146e-05
-0.005891042452563453   -0.016456024868271576   -0.00017744519611119692
-0.0015169374271637426   -0.016394492025508866   -8.314682009749643e-06
-0.006355271173321113   -0.008268649331299215   -1.9076974604224146e-05
-0.0021755214481738215   -0.008168802680383067   0.00010202527832517772
-0.002110984301754209   -0.008209664300382054   5.522331481827455e-05
-0.0015169374271637426   -0.016394492025508866   -8.314682009749643e-06
-0.006355271173321113   -0.008268649331299215   -1.9076974604224146e-05
-0.002110984301754209   -0.008209664300382054   5.522331481827455e-05
-0.005891042452563453   -0.016456024868271576   -0.00017744519611119692
-0.0015169374271637426   -0.016394492025508866   -8.314682009749643e-06
-0.0021755214481738215   -0.008168802680383067   0.00010202527832517772
-0.005949677986649104   -0.016384914200586416   -0.00014610651221423168
-0.0015927669614852573   -0.016308423796245385   3.127866822154972e-05
-0.0021755214481738215   -0.008168802680383067   0.00010202527832517772
-0.006355271173321113   -0.008268649331299215   -1.9076974604224146e-05
-0.005949677986649104   -0.016384914200586416   -0.00014610651221423168
-0.00641767752469053   -0.008197616437053416   1.6098952348319716e-05
-0.0015927669614852573   -0.016308423796245385   3.127866822154972e-05
-0.006010350280798105   -0.01631096285533771   -0.00011164257870955203
-0.00641767752469053   -0.008197616437053416   1.6098952348319716e-05
-0.005949677986649104   -0.016384914200586416   -0.00014610651221423168
-0.0015927669614852573   -0.016308423796245385   3.127866822154972e-05
-0.00641767752469053   -0.008197616437053416   1.6098952348319716e-05
-0.0022604850020456354   -0.008095538866227131   0.00015889811511907308
-0.0021755214481738215   -0.008168802680383067   0.00010202527832517772
-0.0015927669614852573   -0.016308423796245385   3.127866822154972e-05
-0.00641767752469053   -0.008197616437053416   1.6098952348319716e-05
-0.0021755214481738215   -0.008168802680383067   0.00010202527832517772
-0.005949677986649104   -0.016384914200586416   -0.00014610651221423168
-0.0015927669614852573   -0.016308423796245385   3.127866822154972e-05
-0.0022604850020456354   -0.008095538866227131   0.00015889811511907308
-0.006010350280798105   -0.01631096285533771   -0.00011164257870955203
-0.0016712427139956936   -0.01621707750695151   7.679978328363504e-05
-0.0022604850020456354   -0.008095538866227131   0.00015889811511907308
-0.00641767752469053   -0.008197616437053416   1.6098952348319716e-05
-0.006010350280798105   -0.01631096285533771   -0.00011164257870955203
-0.006477052072305202   -0.00811976336812747   5.491341092401087e-05
-0.0016712427139956936   -0.01621707750695151   7.679978328363504e-05
-0.006073531808865836   -0.016235517086354363   -7.343249643123142e-05
-0.006477052072305202   -0.00811976336812747   5.491341092401087e-05
-0.006010350280798105   -0.01631096285533771   -0.00011164257870955203
-0.0016712427139956936   -0.01621707750695151   7.679978328363504e-05
-0.006477052072305202   -0.00811976336812747   5.491341092401087e-05
-0.0023319808885378275   -0.00801685242356178   0.00020895382228184012
-0.0022604850020456354   -0.008095538866227131   0.00015889811511907308
-0.0016712427139956936   -0.01621707750695151   7.679978328363504e-05
-0.006477052072305202   -0.00811976336812747   5.491341092401087e-05
-0.0022604850020456354   -0.008095538866227131   0.00015889811511907308
-0.006010350280798105   -0.01631096285533771   -0.00011164257870955203
-0.005891042452563453   -0.016456024868271576   -0.00017744519611119692
-0.006295717480385907   -0.008331481735338214   -5.2281410608196996e-05
-0.01028397280943792   -0.016450427345341103   -0.0002998760555687927
-0.005949677986649104   -0.016384914200586416   -0.00014610651221423168
-0.006295717480385907   -0.008331481735338214   -5.2281410608196996e-05
-0.010582290329440741   -0.008426655876090483   -0.00017165505194484312
-0.01028397280943792   -0.016450427345341103   -0.0002998760555687927
-0.010635834643228552   -0.008362121906897259   -0.00014588272096851867
-0.005949677986649104   -0.016384914200586416   -0.00014610651221423168
-0.010340061446202435   -0.016388147315098203   -0.000269906899085142
-0.010635834643228552   -0.008362121906897259   -0.00014588272096851867
-0.01028397280943792   -0.016450427345341103   -0.0002998760555687927
-0.005949677986649104   -0.016384914200586416   -0.00014610651221423168
-0.010635834643228552   -0.008362121906897259   -0.00014588272096851867
-0.006355271173321113   -0.008268649331299215   -1.9076974604224146e-05
-0.006295717480385907   -0.008331481735338214   -5.2281410608196996e-05
-0.005949677986649104   -0.016384914200586416   -0.00014610651221423168
-0.010635834643228552   -0.008362121906897259   -0.00014588272096851867
-0.006295717480385907   -0.008331481735338214   -5.2281410608196996e-05
-0.01028397280943792   -0.016450427345341103   -0.0002998760555687927
-0.005949677986649104   -0.016384914200586416   -0.00014610651221423168
-0.006355271173321113   -0.008268649331299215   -1.9076974604224146e-05
-0.010340061446202435   -0.016388147315098203   -0.000269906899085142
-0.006010350280798105   -0.01631096285533771   -0.00011164257870955203
-0.006355271173321113   -0.008268649331299215   -1.9076974604224146e-05
-0.010635834643228552   -0.008362121906897259   -0.00014588272096851867
-0.010340061446202435   -0.016388147315098203   -0.000269906899085142
-0.010687125303899252   -0.008293923790604424   -0.0001201694239146453
-0.006010350280798105   -0.01631096285533771   -0.00011164257870955203
-0.010393493770506097   -0.0163247687041978   -0.0002372022533542374
-0.010687125303899252   -0.008293923790604424   -0.0001201694239146453
-0.010340061446202435   -0.016388147315098203   -0.000269906899085142
-0.006010350280798105   -0.01631096285533771   -0.00011164257870955203
-0.010687125303899252   -0.008293923790604424   -0.0001201694239146453
-0.00641767752469053   -0.008197616437053416   1.6098952348319716e-05
-0.006355271173321113   -0.008268649331299215   -1.9076974604224146e-05
-0.006010350280798105   -0.01631096285533771   -0.00011164257870955203
-0.010687125303899252   -0.008293923790604424   -0.0001201694239146453
-0.006355271173321113   -0.008268649331299215   -1.9076974604224146e-05
-0.010340061446202435   -0.016388147315098203   -0.000269906899085142
-0.006010350280798105   -0.01631096285533771   -0.00011164257870955203
-0.00641767752469053   -0.008197616437053416   1.6098952348319716e-05
-0.010393493770506097   -0.0163247687041978   -0.0002372022533542374
-0.006073531808865836   -0.016235517086354363   -7.343249643123142e-05
-0.00641767752469053   -0.008197616437053416   1.6098952348319716e-05
-0.010687125303899252   -0.008293923790604424   -0.0001201694239146453
-0.010393493770506097   -0.0163247687041978   -0.0002372022533542374
-0.010734434515354515   -0.008220054979290289   -9.214918171201965e-05
-0.006073531808865836   -0.016235517086354363   -7.343249643123142e-05
-0.01044639040218218   -0.016259925662714225   -0.00020191468055359843
-0.010734434515354515   -0.008220054979290289   -9.214918171201965e-05
-0.010393493770506097   -0.0163247687041978   -0.0002372022533542374
-0.006073531808865836   -0.016235517086354363   -7.343249643123142e-05
-0.010734434515354515   -0.008220054979290289   -9.214918171201965e-05
-0.006477052072305202   -0.00811976336812747   5.491341092401087e-05
-0.00641767752469053   -0.008197616437053416   1.6098952348319716e-05
-0.006073531808865836   -0.016235517086354363   -7.343249643123142e-05
-0.010734434515354515   -0.008220054979290289   -9.214918171201965e-05
-0.00641767752469053   -0.008197616437053416   1.6098952348319716e-05
-0.010393493770506097   -0.0163247687041978   -0.0002372022533542374
-0.01028397280943792   -0.016450427345341103   -0.0002998760555687927
-0.010582290329440741   -0.008426655876090483   -0.00017165505194484312
-0.01477002964689788   -0.01642480432626996   -0.0004025488971951123
-0.010340061446202435   -0.016388147315098203   -0.000269906899085142
-0.010582290329440741   -0.008426655876090483   -0.00017165505194484312
-0.015019455856845552   -0.008465745371903418   -0.00028180692940169135
-0.01477002964689788   -0.01642480432626996   -0.0004025488971951123
-0.015067707163757903   -0.008407845884501428   -0.0002629858420205448
-0.010340061446202435   -0.016388147315098203   -0.000269906899085142
-0.014823498973583545   -0.01637416602971985   -0.0003741097136238962
-0.015067707163757903   -0.008407845884501428   -0.0002629858420205448
-0.01477002964689788   -0.01642480432626996   -0.0004025488971951123
-0.010340061446202435   -0.016388147315098203   -0.000269906899085142
-0.015067707163757903   -0.008407845884501428   -0.0002629858420205448
-0.010635834643228552   -0.008362121906897259   -0.00014588272096851867
-0.010582290329440741   -0.008426655876090483   -0.00017165505194484312
-0.010340061446202435   -0.016388147315098203   -0.000269906899085142
-0.015067707163757903   -0.008407845884501428   -0.0002629858420205448
-0.010582290329440741   -0.008426655876090483   -0.00017165505194484312
-0.01477002964689788   -0.01642480432626996   -0.0004025488971951123
-0.010340061446202435   -0.016388147315098203   -0.000269906899085142
-0.010635834643228552   -0.008362121906897259   -0.00014588272096851867
-0.014823498973583545   -0.01637416602971985   -0.0003741097136238962
-0.010393493770506097   -0.0163247687041978   -0.0002372022533542374
-0.010635834643228552   -0.008362121906897259   -0.00014588272096851867
-0.015067707163757903   -0.008407845884501428   -0.0002629858420205448
-0.014823498973583545   -0.01637416602971985   -0.0003741097136238962
-0.015110706754349989   -0.008344731952304838   -0.00024467892487619453
-0.010393493770506097   -0.0163247687041978   -0.0002372022533542374
-0.014868767869002845   -0.016320760123257227   -0.0003437202037185889
-0.015110706754349989   -0.008344731952304838   -0.00024467892487619453
-0.014823498973583545   -0.01637416602971985   -0.0003741097136238962
-0.010393493770506097   -0.0163247687041978   -0.0002372022533542374
-0.015110706754349989   -0.008344731952304838   -0.00024467892487619453
-0.010687125303899252   -0.008293923790604424   -0.0001201694239146453
-0.010635834643228552   -0.008362121906897259   -0.00014588272096851867
-0.010393493770506097   -0.0163247687041978   -0.0002372022533542374
-0.015110706754349989   -0.008344731952304838   -0.00024467892487619453
-0.010635834643228552   -0.008362121906897259   -0.00014588272096851867
-0.014823498973583545   -0.01637416602971985   -0.0003741097136238962
-0.010393493770506097   -0.0163247687041978   -0.0002372022533542374
-0.010687125303899252   -0.008293923790604424   -0.0001201694239146453
-0.014868767869002845   -0.016320760123257227   -0.0003437202037185889
-0.01044639040218218   -0.016259925662714225   -0.00020191468055359843
-0.010687125303899252   -0.008293923790604424   -0.0001201694239146453
-0.015110706754349989   -0.008344731952304838   -0.00024467892487619453
-0.014868767869002845   -0.016320760123257227   -0.0003437202037185889
-0.015149653503311504   -0.008277522588816791   -0.00022580226528223532
-0.01044639040218218   -0.016259925662714225   -0.00020191468055359843
-0.014911551578469098   -0.016265972899836594   -0.000310538319444796
-0.015149653503311504   -0.008277522588816791   -0.00022580226528223532
-0.014868767869002845   -0.016320760123257227   -0.0003437202037185889
-0.01044639040218218   -0.016259925662714225   -0.00020191468055359843
-0.015149653503311504   -0.008277522588816791   -0.00022580226528223532
-0.010734434515354515   -0.008220054979290289   -9.214918171201965e-05
-0.010687125303899252   -0.008293923790604424   -0.0001201694239146453
-0.01044639040218218   -0.016259925662714225   -0.00020191468055359843
-0.015149653503311504   -0.008277522588816791   -0.00022580226528223532
-0.010687125303899252   -0.008293923790604424   -0.0001201694239146453
-0.014868767869002845   -0.016320760123257227   -0.0003437202037185889
-0.01477002964689788   -0.01642480432626996   -0.0004025488971951123
-0.015019455856845552   -0.008465745371903418   -0.00028180692940169135
-0.019469944862409695   -0.016382488818423534   -0.00047824282093070897
-0.014823498973583545   -0.01637416602971985   -0.0003741097136238962
-0.015019455856845552   -0.008465745371903418   -0.00028180692940169135
-0.019615289385001743   -0.008470061378212648   -0.00037308155116425973
-0.019469944862409695   -0.016382488818423534   -0.00047824282093070897
-0.019656696201341476   -0.008413887826705966   -0.0003649369558389634
-0.014823498973583545   -0.01637416602971985   -0.0003741097136238962
-0.01950298679236628   -0.01634010000829335   -0.0004567976947694511
-0.019656696201341476   -0.008413887826705966   -0.0003649369558389634
-0.019469944862409695   -0.016382488818423534   -0.00047824282093070897
-0.014823498973583545   -0.01637416602971985   -0.0003741097136238962
-0.019656696201341476   -0.008413887826705966   -0.0003649369558389634
-0.015067707163757903   -0.008407845884501428   -0.0002629858420205448
-0.015019455856845552   -0.008465745371903418   -0.00028180692940169135
-0.014823498973583545   -0.01637416602971985   -0.0003741097136238962
-0.019656696201341476   -0.008413887826705966   -0.0003649369558389634
-0.015019455856845552   -0.008465745371903418   -0.00028180692940169135
-0.019469944862409695   -0.016382488818423534   -0.00047824282093070897
-0.014823498973583545   -0.01637416602971985   -0.0003741097136238962
-0.015067707163757903   -0.008407845884501428   -0.0002629858420205448
-0.01950298679236628   -0.01634010000829335   -0.0004567976947694511
-0.014868767869002845   -0.016320760123257227   -0.0003437202037185889
-0.015067707163757903   -0.008407845884501428   -0.0002629858420205448
-0.019656696201341476   -0.008413887826705966   -0.0003649369558389634
-0.01950298679236628   -0.01634010000829335   -0.0004567976947694511
-0.019693793146026792   -0.008353102266933197   -0.0003553994894605437
-0.014868767869002845   -0.016320760123257227   -0.0003437202037185889
-0.019533199957294856   -0.016292085561184912   -0.0004305839463493979
-0.019693793146026792   -0.008353102266933197   -0.0003553994894605437
-0.01950298679236628   -0.01634010000829335   -0.0004567976947694511
-0.014868767869002845   -0.016320760123257227   -0.0003437202037185889
-0.019693793146026792   -0.008353102266933197   -0.0003553994894605437
-0.015110706754349989   -0.008344731952304838   -0.00024467892487619453
-0.015067707163757903   -0.008407845884501428   -0.0002629858420205448
-0.014868767869002845   -0.016320760123257227   -0.0003437202037185889
-0.019693793146026792   -0.008353102266933197   -0.0003553994894605437
-0.015067707163757903   -0.008407845884501428   -0.0002629858420205448
-0.01950298679236628   -0.01634010000829335   -0.0004567976947694511
-0.014868767869002845   -0.016320760123257227   -0.0003437202037185889
-0.015110706754349989   -0.008344731952304838   -0.00024467892487619453
-0.019533199957294856   -0.016292085561184912   -0.0004305839463493979
-0.014911551578469098   -0.016265972899836594   -0.000310538319444796
-0.015110706754349989   -0.008344731952304838   -0.00024467892487619453
-0.019693793146026792   -0.008353102266933197   -0.0003553994894605437
-0.019533199957294856   -0.016292085561184912   -0.0004305839463493979
-0.019724923413422708   -0.008288745803794483   -0.00034648832049241255
-0.014911551578469098   -0.016265972899836594   -0.000310538319444796
-0.01954762984931243   -0.01624817316047341   -0.0004007848132075402
-0.019724923413422708   -0.008288745803794483   -0.00034648832049241255
-0.019533199957294856   -0.016292085561184912   -0.0004305839463493979
-0.014911551578469098   -0.016265972899836594   -0.000310538319444796
-0.019724923413422708   -0.008288745803794483   -0.00034648832049241255
-0.015149653503311504   -0.008277522588816791   -0.00022580226528223532
-0.015110706754349989   -0.008344731952304838   -0.00024467892487619453
-0.014911551578469098   -0.016265972899836594   -0.000310538319444796
-0.019724923413422708   -0.008288745803794483   -0.00034648832049241255
-0.015110706754349989   -0.008344731952304838   -0.00024467892487619453
-0.019533199957294856   -0.016292085561184912   -0.0004305839463493979
0.002287739298676204   -0.00831684019267753   0.00010644233229055481
0.0   0.0   0.0
-0.002110984301754209   -0.008209664300382054   5.522331481827455e-05
0.0020864886747129466   -0.008211973905438116   0.0002221714871918228
0.0   0.0   0.0
-0.0026481997589598433   -0.0006746238844860866   -2.156037896431353e-05
-0.002110984301754209   -0.008209664300382054   5.522331481827455e-05
-0.0028064909125779715   -0.0005249366089721504   6.998609818237348e-05
0.0020864886747129466   -0.008211973905438116   0.0002221714871918228
-0.0021755214481738215   -0.008168802680383067   0.00010202527832517772
-0.0028064909125779715   -0.0005249366089721504   6.998609818237348e-05
-0.002110984301754209   -0.008209664300382054   5.522331481827455e-05
0.0020864886747129466   -0.008211973905438116   0.0002221714871918228
-0.0028064909125779715   -0.0005249366089721504   6.998609818237348e-05
0.0   0.0   0.0
0.0   0.0   0.0
0.0020864886747129466   -0.008211973905438116   0.0002221714871918228
-0.0028064909125779715   -0.0005249366089721504   6.998609818237348e-05
0.0   0.0   0.0
-0.002110984301754209   -0.008209664300382054   5.522331481827455e-05
0.0020864886747129466   -0.008211973905438116   0.0002221714871918228
0.0   0.0   0.0
-0.0021755214481738215   -0.008168802680383067   0.00010202527832517772
0.001968705643441603   -0.008126430172182827   0.0003084549729080405
0.0   0.0   0.0
-0.0028064909125779715   -0.0005249366089721504   6.998609818237348e-05
-0.0021755214481738215   -0.008168802680383067   0.00010202527832517772
-0.002905929718065506   -0.0004528871207574277   0.00012293859549836536
0.001968705643441603   -0.008126430172182827   0.0003084549729080405
-0.0022604850020456354   -0.008095538866227131   0.00015889811511907308
-0.002905929718065506   -0.0004528871207574277   0.00012293859549836536
-0.0021755214481738215   -0.008168802680383067   0.00010202527832517772
0.001968705643441603   -0.008126430172182827   0.0003084549729080405
-0.002905929718065506   -0.0004528871207574277   0.00012293859549836536
0.0   0.0   0.0
0.0   0.0   0.0
0.001968705643441603   -0.008126430172182827   0.0003084549729080405
-0.002905929718065506   -0.0004528871207574277   0.00012293859549836536
0.0   0.0   0.0
-0.0021755214481738215   -0.008168802680383067   0.00010202527832517772
0.001968705643441603   -0.008126430172182827   0.0003084549729080405
0.0   0.0   0.0
-0.0022604850020456354   -0.008095538866227131   0.00015889811511907308
0.0018176572199099504   -0.007995470147843357   0.0004072909137268967
0.0   0.0   0.0
-0.002905929718065506   -0.0004528871207574277   0.00012293859549836536
-0.0022604850020456354   -0.008095538866227131   0.00015889811511907308
-0.003039417785822555   -0.0003571557725329921   0.0001837397371793176
0.0018176572199099504   -0.007995470147843357   0.0004072909137268967
-0.0023319808885378275   -0.00801685242356178   0.00020895382228184012
-0.003039417785822555   -0.0003571557725329921   0.0001837397371793176
-0.0022604850020456354   -0.008095538866227131   0.00015889811511907308
0.0018176572199099504   -0.007995470147843357   0.0004072909137268967
-0.003039417785822555   -0.0003571557725329921   0.0001837397371793176
0.0   0.0   0.0
0.0   0.0   0.0
0.0018176572199099504   -0.007995470147843357   0.0004072909137268967
-0.003039417785822555   -0.0003571557725329921   0.0001837397371793176
0.0   0.0   0.0
-0.0022604850020456354   -0.008095538866227131   0.00015889811511907308
-0.002110984301754209   -0.008209664300382054   5.522331481827455e-05
-0.0026481997589598433   -0.0006746238844860866   -2.156037896431353e-05
-0.006295717480385907   -0.008331481735338214   -5.2281410608196996e-05
-0.0021755214481738215   -0.008168802680383067   0.00010202527832517772
-0.0026481997589598433   -0.0006746238844860866   -2.156037896431353e-05
-0.006482674067447187   -0.0008848270906868261   -1.925562897023843e-05
-0.006295717480385907   -0.008331481735338214   -5.2281410608196996e-05
-0.006564365259810158   -0.0008031822968756453   4.346219535966184e-06
-0.0021755214481738215   -0.008168802680383067   0.00010202527832517772
-0.006355271173321113   -0.008268649331299215   -1.9076974604224146e-05
-0.006564365259810158   -0.0008031822968756453   4.346219535966184e-06
-0.006295717480385907   -0.008331481735338214   -5.2281410608196996e-05
-0.0021755214481738215   -0.008168802680383067   0.00010202527832517772
-0.006564365259810158   -0.0008031822968756453   4.346219535966184e-06
-0.0028064909125779715   -0.0005249366089721504   6.998609818237348e-05
-0.0026481997589598433   -0.0006746238844860866   -2.156037896431353e-05
-0.0021755214481738215   -0.008168802680383067   0.00010202527832517772
-0.006564365259810158   -0.0008031822968756453   4.346219535966184e-06
-0.0026481997589598433   -0.0006746238844860866   -2.156037896431353e-05
-0.006295717480385907   -0.008331481735338214   -5.2281410608196996e-05
-0.0021755214481738215   -0.008168802680383067   0.00010202527832517772
-0.0028064909125779715   -0.0005249366089721504   6.998609818237348e-05
-0.006355271173321113   -0.008268649331299215   -1.9076974604224146e-05
-0.0022604850020456354   -0.008095538866227131   0.00015889811511907308
-0.0028064909125779715   -0.0005249366089721504   6.998609818237348e-05
-0.006564365259810158   -0.0008031822968756453   4.346219535966184e-06
-0.006355271173321113   -0.008268649331299215   -1.9076974604224146e-05
-0.006645756702893194   -0.0007076111387935747   4.652127322664392e-05
-0.0022604850020456354   -0.008095538866227131   0.00015889811511907308
-0.00641767752469053   -0.008197616437053416   1.6098952348319716e-05
-0.006645756702893194   -0.0007076111387935747   4.652127322664392e-05
-0.006355271173321113   -0.008268649331299215   -1.9076974604224146e-05
-0.0022604850020456354   -0.008095538866227131   0.00015889811511907308
-0.006645756702893194   -0.0007076111387935747   4.652127322664392e-05
-0.002905929718065506   -0.0004528871207574277   0.00012293859549836536
-0.0028064909125779715   -0.0005249366089721504   6.998609818237348e-05
-0.0022604850020456354   -0.008095538866227131   0.00015889811511907308
-0.006645756702893194   -0.0007076111387935747   4.652127322664392e-05
-0.0028064909125779715   -0.0005249366089721504   6.998609818237348e-05
-0.006355271173321113   -0.008268649331299215   -1.9076974604224146e-05
-0.0022604850020456354   -0.008095538866227131   0.00015889811511907308
-0.002905929718065506   -0.0004528871207574277   0.00012293859549836536
-0.00641767752469053   -0.008197616437053416   1.6098952348319716e-05
-0.0023319808885378275   -0.00801685242356178   0.00020895382228184012
-0.002905929718065506   -0.0004528871207574277   0.00012293859549836536
-0.006645756702893194   -0.0007076111387935747   4.652127322664392e-05
-0.00641767752469053   -0.008197616437053416   1.6098952348319716e-05
-0.006736054634819021   -0.0005970175668513251   8.696740655468717e-05
-0.0023319808885378275   -0.00801685242356178   0.00020895382228184012
-0.006477052072305202   -0.00811976336812747   5.491341092401087e-05
-0.006736054634819021   -0.0005970175668513251   8.696740655468717e-05
-0.00641767752469053   -0.008197616437053416   1.6098952348319716e-05
-0.0023319808885378275   -0.00801685242356178   0.00020895382228184012
-0.006736054634819021   -0.0005970175668513251   8.696740655468717e-05
-0.003039417785822555   -0.0003571557725329921   0.0001837397371793176
-0.002905929718065506   -0.0004528871207574277   0.00012293859549836536
-0.0023319808885378275   -0.00801685242356178   0.00020895382228184012
-0.006736054634819021   -0.0005970175668513251   8.696740655468717e-05
-0.002905929718065506   -0.0004528871207574277   0.00012293859549836536
-0.00641767752469053   -0.008197616437053416   1.6098952348319716e-05
-0.006295717480385907   -0.008331481735338214   -5.2281410608196996e-05
-0.006482674067447187   -0.0008848270906868261   -1.925562897023843e-05
-0.010582290329440741   -0.008426655876090483   -0.00017165505194484312
-0.006355271173321113   -0.008268649331299215   -1.9076974604224146e-05
-0.006482674067447187   -0.0008848270906868261   -1.925562897023843e-05
-0.01068670807878615   -0.000944159790051293   -9.443378487364571e-05
-0.010582290329440741   -0.008426655876090483   -0.00017165505194484312
-0.010736329352310076   -0.0008806474214212063   -8.785703118685987e-05
-0.006355271173321113   -0.008268649331299215   -1.9076974604224146e-05
-0.010635834643228552   -0.008362121906897259   -0.00014588272096851867
-0.010736329352310076   -0.0008806474214212063   -8.785703118685987e-05
-0.010582290329440741   -0.008426655876090483   -0.00017165505194484312
-0.006355271173321113   -0.008268649331299215   -1.9076974604224146e-05
-0.010736329352310076   -0.0008806474214212063   -8.785703118685987e-05
-0.006564365259810158   -0.0008031822968756453   4.346219535966184e-06
-0.006482674067447187   -0.0008848270906868261   -1.925562897023843e-05
-0.006355271173321113   -0.008268649331299215   -1.9076974604224146e-05
-0.010736329352310076   -0.0008806474214212063   -8.785703118685987e-05
-0.006482674067447187   -0.0008848270906868261   -1.925562897023843e-05
-0.010582290329440741   -0.008426655876090483   -0.00017165505194484312
-0.006355271173321113   -0.008268649331299215   -1.9076974604224146e-05
-0.006564365259810158   -0.0008031822968756453   4.346219535966184e-06
-0.010635834643228552   -0.008362121906897259   -0.00014588272096851867
-0.00641767752469053   -0.008197616437053416   1.6098952348319716e-05
-0.006564365259810158   -0.0008031822968756453   4.346219535966184e-06
-0.010736329352310076   -0.0008806474214212063   -8.785703118685987e-05
-0.010635834643228552   -0.008362121906897259   -0.00014588272096851867
-0.010787936009296993   -0.000806855584980223   -7.633749256413523e-05
-0.00641767752469053   -0.008197616437053416   1.6098952348319716e-05
-0.010687125303899252   -0.008293923790604424   -0.0001201694239146453
-0.010787936009296993   -0.000806855584980223   -7.633749256413523e-05
-0.010635834643228552   -0.008362121906897259   -0.00014588272096851867
-0.00641767752469053   -0.008197616437053416   1.6098952348319716e-05
-0.010787936009296993   -0.000806855584980223   -7.633749256413523e-05
-0.006645756702893194   -0.0007076111387935747   4.652127322664392e-05
-0.006564365259810158   -0.0008031822968756453   4.346219535966184e-06
-0.00641767752469053   -0.008197616437053416   1.6098952348319716e-05
-0.010787936009296993   -0.000806855584980223   -7.633749256413523e-05
-0.006564365259810158   -0.0008031822968756453   4.346219535966184e-06
-0.010635834643228552   -0.008362121906897259   -0.00014588272096851867
-0.00641767752469053   -0.008197616437053416   1.6098952348319716e-05
-0.006645756702893194   -0.0007076111387935747   4.652127322664392e-05
-0.010687125303899252   -0.008293923790604424   -0.0001201694239146453
-0.006477052072305202   -0.00811976336812747   5.491341092401087e-05
-0.006645756702893194   -0.0007076111387935747   4.652127322664392e-05
-0.010787936009296993   -0.000806855584980223   -7.633749256413523e-05
-0.010687125303899252   -0.008293923790604424   -0.0001201694239146453
-0.010837042466602123   -0.0007169471413377904   -6.109532976645933e-05
-0.006477052072305202   -0.00811976336812747   5.491341092401087e-05
-0.010734434515354515   -0.008220054979290289   -9.214918171201965e-05
-0.010837042466602123   -0.0007169471413377904   -6.109532976645933e-05
-0.010687125303899252   -0.008293923790604424   -0.0001201694239146453
-0.006477052072305202   -0.00811976336812747   5.491341092401087e-05
-0.010837042466602123   -0.0007169471413377904   -6.109532976645933e-05
-0.006736054634819021   -0.0005970175668513251   8.696740655468717e-05
-0.006645756702893194   -0.0007076111387935747   4.652127322664392e-05
-0.006477052072305202   -0.00811976336812747   5.491341092401087e-05
-0.010837042466602123   -0.0007169471413377904   -6.109532976645933e-05
-0.006645756702893194   -0.0007076111387935747   4.652127322664392e-05
-0.010687125303899252   -0.008293923790604424   -0.0001201694239146453
-0.010582290329440741   -0.008426655876090483   -0.00017165505194484312
-0.01068670807878615   -0.000944159790051293   -9.443378487364571e-05
-0.015019455856845552   -0.008465745371903418   -0.00028180692940169135
-0.010635834643228552   -0.008362121906897259   -0.00014588272096851867
-0.01068670807878615   -0.000944159790051293   -9.443378487364571e-05
-0.015097271902444658   -0.0009346417808183101   -0.00020295510764844896
-0.015019455856845552   -0.008465745371903418   -0.00028180692940169135
-0.015130801465076752   -0.000877683355201897   -0.00020013347076455097
-0.010635834643228552   -0.008362121906897259   -0.00014588272096851867
-0.015067707163757903   -0.008407845884501428   -0.0002629858420205448
-0.015130801465076752   -0.000877683355201897   -0.00020013347076455097
-0.015019455856845552   -0.008465745371903418   -0.00028180692940169135
-0.010635834643228552   -0.008362121906897259   -0.00014588272096851867
-0.015130801465076752   -0.000877683355201897   -0.00020013347076455097
-0.010736329352310076   -0.0008806474214212063   -8.785703118685987e-05
-0.01068670807878615   -0.000944159790051293   -9.443378487364571e-05
-0.010635834643228552   -0.008362121906897259   -0.00014588272096851867
-0.015130801465076752   -0.000877683355201897   -0.00020013347076455097
-0.01068670807878615   -0.000944159790051293   -9.443378487364571e-05
-0.015019455856845552   -0.008465745371903418   -0.00028180692940169135
-0.010635834643228552   -0.008362121906897259   -0.00014588272096851867
-0.010736329352310076   -0.0008806474214212063   -8.785703118685987e-05
-0.015067707163757903   -0.008407845884501428   -0.0002629858420205448
-0.010687125303899252   -0.008293923790604424   -0.0001201694239146453
-0.010736329352310076   -0.0008806474214212063   -8.785703118685987e-05
-0.015130801465076752   -0.000877683355201897   -0.00020013347076455097
-0.015067707163757903   -0.008407845884501428   -0.0002629858420205448
-0.015165779174673065   -0.0008142121579095211   -0.00019813764771039493
-0.010687125303899252   -0.008293923790604424   -0.0001201694239146453
-0.015110706754349989   -0.008344731952304838   -0.00024467892487619453
-0.015165779174673065   -0.0008142121579095211   -0.00019813764771039493
-0.015067707163757903   -0.008407845884501428   -0.0002629858420205448
-0.010687125303899252   -0.008293923790604424   -0.0001201694239146453
-0.015165779174673065   -0.0008142121579095211   -0.00019813764771039493
-0.010787936009296993   -0.000806855584980223   -7.633749256413523e-05
-0.010736329352310076   -0.0008806474214212063   -8.785703118685987e-05
-0.010687125303899252   -0.008293923790604424   -0.0001201694239146453
-0.015165779174673065   -0.0008142121579095211   -0.00019813764771039493
-0.010736329352310076   -0.0008806474214212063   -8.785703118685987e-05
-0.015067707163757903   -0.008407845884501428   -0.0002629858420205448
-0.010687125303899252   -0.008293923790604424   -0.0001201694239146453
-0.010787936009296993   -0.000806855584980223   -7.633749256413523e-05
-0.015110706754349989   -0.008344731952304838   -0.00024467892487619453
-0.010734434515354515   -0.008220054979290289   -9.214918171201965e-05
-0.010787936009296993   -0.000806855584980223   -7.633749256413523e-05
-0.015165779174673065   -0.0008142121579095211   -0.00019813764771039493
-0.015110706754349989   -0.008344731952304838   -0.00024467892487619453
-0.015192429442137287   -0.0007454145492751429   -0.0001971134037798936
-0.010734434515354515   -0.008220054979290289   -9.214918171201965e-05
-0.015149653503311504   -0.008277522588816791   -0.00022580226528223532
-0.015192429442137287   -0.0007454145492751429   -0.0001971134037798936
-0.015110706754349989   -0.008344731952304838   -0.00024467892487619453
-0.010734434515354515   -0.008220054979290289   -9.214918171201965e-05
-0.015192429442137287   -0.0007454145492751429   -0.0001971134037798936
-0.010837042466602123   -0.0007169471413377904   -6.109532976645933e-05
-0.010787936009296993   -0.000806855584980223   -7.633749256413523e-05
-0.010734434515354515   -0.008220054979290289   -9.214918171201965e-05
-0.015192429442137287   -0.0007454145492751429   -0.0001971134037798936
-0.010787936009296993   -0.000806855584980223   -7.633749256413523e-05
-0.015110706754349989   -0.008344731952304838   -0.00024467892487619453
-0.015019455856845552   -0.008465745371903418   -0.00028180692940169135
-0.015097271902444658   -0.0009346417808183101   -0.00020295510764844896
-0.019615289385001743   -0.008470061378212648   -0.00037308155116425973
-0.015067707163757903   -0.008407845884501428   -0.0002629858420205448
-0.015097271902444658   -0.0009346417808183101   -0.00020295510764844896
-0.019630055239923207   -0.0009280266677440736   -0.00030982587963315376
-0.019615289385001743   -0.008470061378212648   -0.00037308155116425973
-0.01965701638660585   -0.0008662667515630966   -0.00030975130089132865
-0.015067707163757903   -0.008407845884501428   -0.0002629858420205448
-0.019656696201341476   -0.008413887826705966   -0.0003649369558389634
-0.01965701638660585   -0.0008662667515630966   -0.00030975130089132865
-0.019615289385001743   -0.008470061378212648   -0.00037308155116425973
-0.015067707163757903   -0.008407845884501428   -0.0002629858420205448
-0.01965701638660585   -0.0008662667515630966   -0.00030975130089132865
-0.015130801465076752   -0.000877683355201897   -0.00020013347076455097
-0.015097271902444658   -0.0009346417808183101   -0.00020295510764844896
-0.015067707163757903   -0.008407845884501428   -0.0002629858420205448
-0.01965701638660585   -0.0008662667515630966   -0.00030975130089132865
-0.015097271902444658   -0.0009346417808183101   -0.00020295510764844896
-0.019615289385001743   -0.008470061378212648   -0.00037308155116425973
-0.015067707163757903   -0.008407845884501428   -0.0002629858420205448
-0.015130801465076752   -0.000877683355201897   -0.00020013347076455097
-0.019656696201341476   -0.008413887826705966   -0.0003649369558389634
-0.015110706754349989   -0.008344731952304838   -0.00024467892487619453
-0.015130801465076752   -0.000877683355201897   -0.00020013347076455097
-0.01965701638660585   -0.0008662667515630966   -0.00030975130089132865
-0.019656696201341476   -0.008413887826705966   -0.0003649369558389634
-0.019686605546437818   -0.0008045178951388795   -0.00031449844991149605
-0.015110706754349989   -0.008344731952304838   -0.00024467892487619453
-0.019693793146026792   -0.008353102266933197   -0.0003553994894605437
-0.019686605546437818   -0.0008045178951388795   -0.00031449844991149605
-0.019656696201341476   -0.008413887826705966   -0.0003649369558389634
-0.015110706754349989   -0.008344731952304838   -0.00024467892487619453
-0.019686605546437818   -0.0008045178951388795   -0.00031449844991149605
-0.015165779174673065   -0.0008142121579095211   -0.00019813764771039493
-0.015130801465076752   -0.000877683355201897   -0.00020013347076455097
-0.015110706754349989   -0.008344731952304838   -0.00024467892487619453
-0.019686605546437818   -0.0008045178951388795   -0.00031449844991149605
-0.015130801465076752   -0.000877683355201897   -0.00020013347076455097
-0.019656696201341476   -0.008413887826705966   -0.0003649369558389634
-0.015110706754349989   -0.008344731952304838   -0.00024467892487619453
-0.015165779174673065   -0.0008142121579095211   -0.00019813764771039493
-0.019693793146026792   -0.008353102266933197   -0.0003553994894605437
-0.015149653503311504   -0.008277522588816791   -0.00022580226528223532
-0.015165779174673065   -0.0008142121579095211   -0.00019813764771039493
-0.019686605546437818   -0.0008045178951388795   -0.00031449844991149605
-0.019693793146026792   -0.008353102266933197   -0.0003553994894605437
-0.01970843231860096   -0.0007372559201413842   -0.000319534068225476
-0.015149653503311504   -0.008277522588816791   -0.00022580226528223532
-0.019724923413422708   -0.008288745803794483   -0.00034648832049241255
-0.01970843231860096   -0.0007372559201413842   -0.000319534068225476
-0.019693793146026792   -0.008353102266933197   -0.0003553994894605437
-0.015149653503311504   -0.008277522588816791   -0.00022580226528223532
-0.01970843231860096   -0.0007372559201413842   -0.000319534068225476
-0.015192429442137287   -0.0007454145492751429   -0.0001971134037798936
-0.015165779174673065   -0.0008142121579095211   -0.00019813764771039493
-0.015149653503311504   -0.008277522588816791   -0.00022580226528223532
-0.01970843231860096   -0.0007372559201413842   -0.000319534068225476
-0.015165779174673065   -0.0008142121579095211   -0.00019813764771039493
-0.019693793146026792   -0.008353102266933197   -0.0003553994894605437
              </DataArray>   
          </PointData>  
       </Piece>  
   </UnstructuredGrid> 
</VTKFile> 
