<?xml version="1.0"?> 
<VTKFile type="UnstructuredGrid"> 
   <UnstructuredGrid> 
      <Piece NumberOfPoints="6000"  NumberOfCells="1500">  
          <Points>  
             <DataArray type="Float64" NumberOfComponents="3" format="ascii">   
-500.0   0.0   0.0
-450.0   0.0   0.0
-500.0   30.0   0.0
-500.0   0.0   16.666666666666668
-450.0   0.0   0.0
-450.0   30.0   0.0
-500.0   30.0   0.0
-450.0   30.0   16.666666666666668
-500.0   0.0   16.666666666666668
-500.0   30.0   16.666666666666668
-450.0   30.0   16.666666666666668
-500.0   30.0   0.0
-500.0   0.0   16.666666666666668
-450.0   30.0   16.666666666666668
-450.0   0.0   16.666666666666668
-450.0   0.0   0.0
-500.0   0.0   16.666666666666668
-450.0   30.0   16.666666666666668
-450.0   0.0   0.0
-500.0   30.0   0.0
-500.0   0.0   16.666666666666668
-450.0   0.0   16.666666666666668
-500.0   30.0   16.666666666666668
-500.0   0.0   33.333333333333336
-450.0   0.0   16.666666666666668
-450.0   30.0   16.666666666666668
-500.0   30.0   16.666666666666668
-450.0   30.0   33.333333333333336
-500.0   0.0   33.333333333333336
-500.0   30.0   33.333333333333336
-450.0   30.0   33.333333333333336
-500.0   30.0   16.666666666666668
-500.0   0.0   33.333333333333336
-450.0   30.0   33.333333333333336
-450.0   0.0   33.333333333333336
-450.0   0.0   16.666666666666668
-500.0   0.0   33.333333333333336
-450.0   30.0   33.333333333333336
-450.0   0.0   16.666666666666668
-500.0   30.0   16.666666666666668
-500.0   0.0   33.333333333333336
-450.0   0.0   33.333333333333336
-500.0   30.0   33.333333333333336
-500.0   0.0   50.0
-450.0   0.0   33.333333333333336
-450.0   30.0   33.333333333333336
-500.0   30.0   33.333333333333336
-450.0   30.0   50.0
-500.0   0.0   50.0
-500.0   30.0   50.0
-450.0   30.0   50.0
-500.0   30.0   33.333333333333336
-500.0   0.0   50.0
-450.0   30.0   50.0
-450.0   0.0   50.0
-450.0   0.0   33.333333333333336
-500.0   0.0   50.0
-450.0   30.0   50.0
-450.0   0.0   33.333333333333336
-500.0   30.0   33.333333333333336
-500.0   30.0   0.0
-450.0   30.0   0.0
-500.0   60.0   0.0
-500.0   30.0   16.666666666666668
-450.0   30.0   0.0
-450.0   60.0   0.0
-500.0   60.0   0.0
-450.0   60.0   16.666666666666668
-500.0   30.0   16.666666666666668
-500.0   60.0   16.666666666666668
-450.0   60.0   16.666666666666668
-500.0   60.0   0.0
-500.0   30.0   16.666666666666668
-450.0   60.0   16.666666666666668
-450.0   30.0   16.666666666666668
-450.0   30.0   0.0
-500.0   30.0   16.666666666666668
-450.0   60.0   16.666666666666668
-450.0   30.0   0.0
-500.0   60.0   0.0
-500.0   30.0   16.666666666666668
-450.0   30.0   16.666666666666668
-500.0   60.0   16.666666666666668
-500.0   30.0   33.333333333333336
-450.0   30.0   16.666666666666668
-450.0   60.0   16.666666666666668
-500.0   60.0   16.666666666666668
-450.0   60.0   33.333333333333336
-500.0   30.0   33.333333333333336
-500.0   60.0   33.333333333333336
-450.0   60.0   33.333333333333336
-500.0   60.0   16.666666666666668
-500.0   30.0   33.333333333333336
-450.0   60.0   33.333333333333336
-450.0   30.0   33.333333333333336
-450.0   30.0   16.666666666666668
-500.0   30.0   33.333333333333336
-450.0   60.0   33.333333333333336
-450.0   30.0   16.666666666666668
-500.0   60.0   16.666666666666668
-500.0   30.0   33.333333333333336
-450.0   30.0   33.333333333333336
-500.0   60.0   33.333333333333336
-500.0   30.0   50.0
-450.0   30.0   33.333333333333336
-450.0   60.0   33.333333333333336
-500.0   60.0   33.333333333333336
-450.0   60.0   50.0
-500.0   30.0   50.0
-500.0   60.0   50.0
-450.0   60.0   50.0
-500.0   60.0   33.333333333333336
-500.0   30.0   50.0
-450.0   60.0   50.0
-450.0   30.0   50.0
-450.0   30.0   33.333333333333336
-500.0   30.0   50.0
-450.0   60.0   50.0
-450.0   30.0   33.333333333333336
-500.0   60.0   33.333333333333336
-500.0   60.0   0.0
-450.0   60.0   0.0
-500.0   90.0   0.0
-500.0   60.0   16.666666666666668
-450.0   60.0   0.0
-450.0   90.0   0.0
-500.0   90.0   0.0
-450.0   90.0   16.666666666666668
-500.0   60.0   16.666666666666668
-500.0   90.0   16.666666666666668
-450.0   90.0   16.666666666666668
-500.0   90.0   0.0
-500.0   60.0   16.666666666666668
-450.0   90.0   16.666666666666668
-450.0   60.0   16.666666666666668
-450.0   60.0   0.0
-500.0   60.0   16.666666666666668
-450.0   90.0   16.666666666666668
-450.0   60.0   0.0
-500.0   90.0   0.0
-500.0   60.0   16.666666666666668
-450.0   60.0   16.666666666666668
-500.0   90.0   16.666666666666668
-500.0   60.0   33.333333333333336
-450.0   60.0   16.666666666666668
-450.0   90.0   16.666666666666668
-500.0   90.0   16.666666666666668
-450.0   90.0   33.333333333333336
-500.0   60.0   33.333333333333336
-500.0   90.0   33.333333333333336
-450.0   90.0   33.333333333333336
-500.0   90.0   16.666666666666668
-500.0   60.0   33.333333333333336
-450.0   90.0   33.333333333333336
-450.0   60.0   33.333333333333336
-450.0   60.0   16.666666666666668
-500.0   60.0   33.333333333333336
-450.0   90.0   33.333333333333336
-450.0   60.0   16.666666666666668
-500.0   90.0   16.666666666666668
-500.0   60.0   33.333333333333336
-450.0   60.0   33.333333333333336
-500.0   90.0   33.333333333333336
-500.0   60.0   50.0
-450.0   60.0   33.333333333333336
-450.0   90.0   33.333333333333336
-500.0   90.0   33.333333333333336
-450.0   90.0   50.0
-500.0   60.0   50.0
-500.0   90.0   50.0
-450.0   90.0   50.0
-500.0   90.0   33.333333333333336
-500.0   60.0   50.0
-450.0   90.0   50.0
-450.0   60.0   50.0
-450.0   60.0   33.333333333333336
-500.0   60.0   50.0
-450.0   90.0   50.0
-450.0   60.0   33.333333333333336
-500.0   90.0   33.333333333333336
-500.0   90.0   0.0
-450.0   90.0   0.0
-500.0   120.0   0.0
-500.0   90.0   16.666666666666668
-450.0   90.0   0.0
-450.0   120.0   0.0
-500.0   120.0   0.0
-450.0   120.0   16.666666666666668
-500.0   90.0   16.666666666666668
-500.0   120.0   16.666666666666668
-450.0   120.0   16.666666666666668
-500.0   120.0   0.0
-500.0   90.0   16.666666666666668
-450.0   120.0   16.666666666666668
-450.0   90.0   16.666666666666668
-450.0   90.0   0.0
-500.0   90.0   16.666666666666668
-450.0   120.0   16.666666666666668
-450.0   90.0   0.0
-500.0   120.0   0.0
-500.0   90.0   16.666666666666668
-450.0   90.0   16.666666666666668
-500.0   120.0   16.666666666666668
-500.0   90.0   33.333333333333336
-450.0   90.0   16.666666666666668
-450.0   120.0   16.666666666666668
-500.0   120.0   16.666666666666668
-450.0   120.0   33.333333333333336
-500.0   90.0   33.333333333333336
-500.0   120.0   33.333333333333336
-450.0   120.0   33.333333333333336
-500.0   120.0   16.666666666666668
-500.0   90.0   33.333333333333336
-450.0   120.0   33.333333333333336
-450.0   90.0   33.333333333333336
-450.0   90.0   16.666666666666668
-500.0   90.0   33.333333333333336
-450.0   120.0   33.333333333333336
-450.0   90.0   16.666666666666668
-500.0   120.0   16.666666666666668
-500.0   90.0   33.333333333333336
-450.0   90.0   33.333333333333336
-500.0   120.0   33.333333333333336
-500.0   90.0   50.0
-450.0   90.0   33.333333333333336
-450.0   120.0   33.333333333333336
-500.0   120.0   33.333333333333336
-450.0   120.0   50.0
-500.0   90.0   50.0
-500.0   120.0   50.0
-450.0   120.0   50.0
-500.0   120.0   33.333333333333336
-500.0   90.0   50.0
-450.0   120.0   50.0
-450.0   90.0   50.0
-450.0   90.0   33.333333333333336
-500.0   90.0   50.0
-450.0   120.0   50.0
-450.0   90.0   33.333333333333336
-500.0   120.0   33.333333333333336
-500.0   120.0   0.0
-450.0   120.0   0.0
-500.0   150.0   0.0
-500.0   120.0   16.666666666666668
-450.0   120.0   0.0
-450.0   150.0   0.0
-500.0   150.0   0.0
-450.0   150.0   16.666666666666668
-500.0   120.0   16.666666666666668
-500.0   150.0   16.666666666666668
-450.0   150.0   16.666666666666668
-500.0   150.0   0.0
-500.0   120.0   16.666666666666668
-450.0   150.0   16.666666666666668
-450.0   120.0   16.666666666666668
-450.0   120.0   0.0
-500.0   120.0   16.666666666666668
-450.0   150.0   16.666666666666668
-450.0   120.0   0.0
-500.0   150.0   0.0
-500.0   120.0   16.666666666666668
-450.0   120.0   16.666666666666668
-500.0   150.0   16.666666666666668
-500.0   120.0   33.333333333333336
-450.0   120.0   16.666666666666668
-450.0   150.0   16.666666666666668
-500.0   150.0   16.666666666666668
-450.0   150.0   33.333333333333336
-500.0   120.0   33.333333333333336
-500.0   150.0   33.333333333333336
-450.0   150.0   33.333333333333336
-500.0   150.0   16.666666666666668
-500.0   120.0   33.333333333333336
-450.0   150.0   33.333333333333336
-450.0   120.0   33.333333333333336
-450.0   120.0   16.666666666666668
-500.0   120.0   33.333333333333336
-450.0   150.0   33.333333333333336
-450.0   120.0   16.666666666666668
-500.0   150.0   16.666666666666668
-500.0   120.0   33.333333333333336
-450.0   120.0   33.333333333333336
-500.0   150.0   33.333333333333336
-500.0   120.0   50.0
-450.0   120.0   33.333333333333336
-450.0   150.0   33.333333333333336
-500.0   150.0   33.333333333333336
-450.0   150.0   50.0
-500.0   120.0   50.0
-500.0   150.0   50.0
-450.0   150.0   50.0
-500.0   150.0   33.333333333333336
-500.0   120.0   50.0
-450.0   150.0   50.0
-450.0   120.0   50.0
-450.0   120.0   33.333333333333336
-500.0   120.0   50.0
-450.0   150.0   50.0
-450.0   120.0   33.333333333333336
-500.0   150.0   33.333333333333336
-450.0   0.0   0.0
-400.0   0.0   0.0
-450.0   30.0   0.0
-450.0   0.0   16.666666666666668
-400.0   0.0   0.0
-400.0   30.0   0.0
-450.0   30.0   0.0
-400.0   30.0   16.666666666666668
-450.0   0.0   16.666666666666668
-450.0   30.0   16.666666666666668
-400.0   30.0   16.666666666666668
-450.0   30.0   0.0
-450.0   0.0   16.666666666666668
-400.0   30.0   16.666666666666668
-400.0   0.0   16.666666666666668
-400.0   0.0   0.0
-450.0   0.0   16.666666666666668
-400.0   30.0   16.666666666666668
-400.0   0.0   0.0
-450.0   30.0   0.0
-450.0   0.0   16.666666666666668
-400.0   0.0   16.666666666666668
-450.0   30.0   16.666666666666668
-450.0   0.0   33.333333333333336
-400.0   0.0   16.666666666666668
-400.0   30.0   16.666666666666668
-450.0   30.0   16.666666666666668
-400.0   30.0   33.333333333333336
-450.0   0.0   33.333333333333336
-450.0   30.0   33.333333333333336
-400.0   30.0   33.333333333333336
-450.0   30.0   16.666666666666668
-450.0   0.0   33.333333333333336
-400.0   30.0   33.333333333333336
-400.0   0.0   33.333333333333336
-400.0   0.0   16.666666666666668
-450.0   0.0   33.333333333333336
-400.0   30.0   33.333333333333336
-400.0   0.0   16.666666666666668
-450.0   30.0   16.666666666666668
-450.0   0.0   33.333333333333336
-400.0   0.0   33.333333333333336
-450.0   30.0   33.333333333333336
-450.0   0.0   50.0
-400.0   0.0   33.333333333333336
-400.0   30.0   33.333333333333336
-450.0   30.0   33.333333333333336
-400.0   30.0   50.0
-450.0   0.0   50.0
-450.0   30.0   50.0
-400.0   30.0   50.0
-450.0   30.0   33.333333333333336
-450.0   0.0   50.0
-400.0   30.0   50.0
-400.0   0.0   50.0
-400.0   0.0   33.333333333333336
-450.0   0.0   50.0
-400.0   30.0   50.0
-400.0   0.0   33.333333333333336
-450.0   30.0   33.333333333333336
-450.0   30.0   0.0
-400.0   30.0   0.0
-450.0   60.0   0.0
-450.0   30.0   16.666666666666668
-400.0   30.0   0.0
-400.0   60.0   0.0
-450.0   60.0   0.0
-400.0   60.0   16.666666666666668
-450.0   30.0   16.666666666666668
-450.0   60.0   16.666666666666668
-400.0   60.0   16.666666666666668
-450.0   60.0   0.0
-450.0   30.0   16.666666666666668
-400.0   60.0   16.666666666666668
-400.0   30.0   16.666666666666668
-400.0   30.0   0.0
-450.0   30.0   16.666666666666668
-400.0   60.0   16.666666666666668
-400.0   30.0   0.0
-450.0   60.0   0.0
-450.0   30.0   16.666666666666668
-400.0   30.0   16.666666666666668
-450.0   60.0   16.666666666666668
-450.0   30.0   33.333333333333336
-400.0   30.0   16.666666666666668
-400.0   60.0   16.666666666666668
-450.0   60.0   16.666666666666668
-400.0   60.0   33.333333333333336
-450.0   30.0   33.333333333333336
-450.0   60.0   33.333333333333336
-400.0   60.0   33.333333333333336
-450.0   60.0   16.666666666666668
-450.0   30.0   33.333333333333336
-400.0   60.0   33.333333333333336
-400.0   30.0   33.333333333333336
-400.0   30.0   16.666666666666668
-450.0   30.0   33.333333333333336
-400.0   60.0   33.333333333333336
-400.0   30.0   16.666666666666668
-450.0   60.0   16.666666666666668
-450.0   30.0   33.333333333333336
-400.0   30.0   33.333333333333336
-450.0   60.0   33.333333333333336
-450.0   30.0   50.0
-400.0   30.0   33.333333333333336
-400.0   60.0   33.333333333333336
-450.0   60.0   33.333333333333336
-400.0   60.0   50.0
-450.0   30.0   50.0
-450.0   60.0   50.0
-400.0   60.0   50.0
-450.0   60.0   33.333333333333336
-450.0   30.0   50.0
-400.0   60.0   50.0
-400.0   30.0   50.0
-400.0   30.0   33.333333333333336
-450.0   30.0   50.0
-400.0   60.0   50.0
-400.0   30.0   33.333333333333336
-450.0   60.0   33.333333333333336
-450.0   60.0   0.0
-400.0   60.0   0.0
-450.0   90.0   0.0
-450.0   60.0   16.666666666666668
-400.0   60.0   0.0
-400.0   90.0   0.0
-450.0   90.0   0.0
-400.0   90.0   16.666666666666668
-450.0   60.0   16.666666666666668
-450.0   90.0   16.666666666666668
-400.0   90.0   16.666666666666668
-450.0   90.0   0.0
-450.0   60.0   16.666666666666668
-400.0   90.0   16.666666666666668
-400.0   60.0   16.666666666666668
-400.0   60.0   0.0
-450.0   60.0   16.666666666666668
-400.0   90.0   16.666666666666668
-400.0   60.0   0.0
-450.0   90.0   0.0
-450.0   60.0   16.666666666666668
-400.0   60.0   16.666666666666668
-450.0   90.0   16.666666666666668
-450.0   60.0   33.333333333333336
-400.0   60.0   16.666666666666668
-400.0   90.0   16.666666666666668
-450.0   90.0   16.666666666666668
-400.0   90.0   33.333333333333336
-450.0   60.0   33.333333333333336
-450.0   90.0   33.333333333333336
-400.0   90.0   33.333333333333336
-450.0   90.0   16.666666666666668
-450.0   60.0   33.333333333333336
-400.0   90.0   33.333333333333336
-400.0   60.0   33.333333333333336
-400.0   60.0   16.666666666666668
-450.0   60.0   33.333333333333336
-400.0   90.0   33.333333333333336
-400.0   60.0   16.666666666666668
-450.0   90.0   16.666666666666668
-450.0   60.0   33.333333333333336
-400.0   60.0   33.333333333333336
-450.0   90.0   33.333333333333336
-450.0   60.0   50.0
-400.0   60.0   33.333333333333336
-400.0   90.0   33.333333333333336
-450.0   90.0   33.333333333333336
-400.0   90.0   50.0
-450.0   60.0   50.0
-450.0   90.0   50.0
-400.0   90.0   50.0
-450.0   90.0   33.333333333333336
-450.0   60.0   50.0
-400.0   90.0   50.0
-400.0   60.0   50.0
-400.0   60.0   33.333333333333336
-450.0   60.0   50.0
-400.0   90.0   50.0
-400.0   60.0   33.333333333333336
-450.0   90.0   33.333333333333336
-450.0   90.0   0.0
-400.0   90.0   0.0
-450.0   120.0   0.0
-450.0   90.0   16.666666666666668
-400.0   90.0   0.0
-400.0   120.0   0.0
-450.0   120.0   0.0
-400.0   120.0   16.666666666666668
-450.0   90.0   16.666666666666668
-450.0   120.0   16.666666666666668
-400.0   120.0   16.666666666666668
-450.0   120.0   0.0
-450.0   90.0   16.666666666666668
-400.0   120.0   16.666666666666668
-400.0   90.0   16.666666666666668
-400.0   90.0   0.0
-450.0   90.0   16.666666666666668
-400.0   120.0   16.666666666666668
-400.0   90.0   0.0
-450.0   120.0   0.0
-450.0   90.0   16.666666666666668
-400.0   90.0   16.666666666666668
-450.0   120.0   16.666666666666668
-450.0   90.0   33.333333333333336
-400.0   90.0   16.666666666666668
-400.0   120.0   16.666666666666668
-450.0   120.0   16.666666666666668
-400.0   120.0   33.333333333333336
-450.0   90.0   33.333333333333336
-450.0   120.0   33.333333333333336
-400.0   120.0   33.333333333333336
-450.0   120.0   16.666666666666668
-450.0   90.0   33.333333333333336
-400.0   120.0   33.333333333333336
-400.0   90.0   33.333333333333336
-400.0   90.0   16.666666666666668
-450.0   90.0   33.333333333333336
-400.0   120.0   33.333333333333336
-400.0   90.0   16.666666666666668
-450.0   120.0   16.666666666666668
-450.0   90.0   33.333333333333336
-400.0   90.0   33.333333333333336
-450.0   120.0   33.333333333333336
-450.0   90.0   50.0
-400.0   90.0   33.333333333333336
-400.0   120.0   33.333333333333336
-450.0   120.0   33.333333333333336
-400.0   120.0   50.0
-450.0   90.0   50.0
-450.0   120.0   50.0
-400.0   120.0   50.0
-450.0   120.0   33.333333333333336
-450.0   90.0   50.0
-400.0   120.0   50.0
-400.0   90.0   50.0
-400.0   90.0   33.333333333333336
-450.0   90.0   50.0
-400.0   120.0   50.0
-400.0   90.0   33.333333333333336
-450.0   120.0   33.333333333333336
-450.0   120.0   0.0
-400.0   120.0   0.0
-450.0   150.0   0.0
-450.0   120.0   16.666666666666668
-400.0   120.0   0.0
-400.0   150.0   0.0
-450.0   150.0   0.0
-400.0   150.0   16.666666666666668
-450.0   120.0   16.666666666666668
-450.0   150.0   16.666666666666668
-400.0   150.0   16.666666666666668
-450.0   150.0   0.0
-450.0   120.0   16.666666666666668
-400.0   150.0   16.666666666666668
-400.0   120.0   16.666666666666668
-400.0   120.0   0.0
-450.0   120.0   16.666666666666668
-400.0   150.0   16.666666666666668
-400.0   120.0   0.0
-450.0   150.0   0.0
-450.0   120.0   16.666666666666668
-400.0   120.0   16.666666666666668
-450.0   150.0   16.666666666666668
-450.0   120.0   33.333333333333336
-400.0   120.0   16.666666666666668
-400.0   150.0   16.666666666666668
-450.0   150.0   16.666666666666668
-400.0   150.0   33.333333333333336
-450.0   120.0   33.333333333333336
-450.0   150.0   33.333333333333336
-400.0   150.0   33.333333333333336
-450.0   150.0   16.666666666666668
-450.0   120.0   33.333333333333336
-400.0   150.0   33.333333333333336
-400.0   120.0   33.333333333333336
-400.0   120.0   16.666666666666668
-450.0   120.0   33.333333333333336
-400.0   150.0   33.333333333333336
-400.0   120.0   16.666666666666668
-450.0   150.0   16.666666666666668
-450.0   120.0   33.333333333333336
-400.0   120.0   33.333333333333336
-450.0   150.0   33.333333333333336
-450.0   120.0   50.0
-400.0   120.0   33.333333333333336
-400.0   150.0   33.333333333333336
-450.0   150.0   33.333333333333336
-400.0   150.0   50.0
-450.0   120.0   50.0
-450.0   150.0   50.0
-400.0   150.0   50.0
-450.0   150.0   33.333333333333336
-450.0   120.0   50.0
-400.0   150.0   50.0
-400.0   120.0   50.0
-400.0   120.0   33.333333333333336
-450.0   120.0   50.0
-400.0   150.0   50.0
-400.0   120.0   33.333333333333336
-450.0   150.0   33.333333333333336
-400.0   0.0   0.0
-350.0   0.0   0.0
-400.0   30.0   0.0
-400.0   0.0   16.666666666666668
-350.0   0.0   0.0
-350.0   30.0   0.0
-400.0   30.0   0.0
-350.0   30.0   16.666666666666668
-400.0   0.0   16.666666666666668
-400.0   30.0   16.666666666666668
-350.0   30.0   16.666666666666668
-400.0   30.0   0.0
-400.0   0.0   16.666666666666668
-350.0   30.0   16.666666666666668
-350.0   0.0   16.666666666666668
-350.0   0.0   0.0
-400.0   0.0   16.666666666666668
-350.0   30.0   16.666666666666668
-350.0   0.0   0.0
-400.0   30.0   0.0
-400.0   0.0   16.666666666666668
-350.0   0.0   16.666666666666668
-400.0   30.0   16.666666666666668
-400.0   0.0   33.333333333333336
-350.0   0.0   16.666666666666668
-350.0   30.0   16.666666666666668
-400.0   30.0   16.666666666666668
-350.0   30.0   33.333333333333336
-400.0   0.0   33.333333333333336
-400.0   30.0   33.333333333333336
-350.0   30.0   33.333333333333336
-400.0   30.0   16.666666666666668
-400.0   0.0   33.333333333333336
-350.0   30.0   33.333333333333336
-350.0   0.0   33.333333333333336
-350.0   0.0   16.666666666666668
-400.0   0.0   33.333333333333336
-350.0   30.0   33.333333333333336
-350.0   0.0   16.666666666666668
-400.0   30.0   16.666666666666668
-400.0   0.0   33.333333333333336
-350.0   0.0   33.333333333333336
-400.0   30.0   33.333333333333336
-400.0   0.0   50.0
-350.0   0.0   33.333333333333336
-350.0   30.0   33.333333333333336
-400.0   30.0   33.333333333333336
-350.0   30.0   50.0
-400.0   0.0   50.0
-400.0   30.0   50.0
-350.0   30.0   50.0
-400.0   30.0   33.333333333333336
-400.0   0.0   50.0
-350.0   30.0   50.0
-350.0   0.0   50.0
-350.0   0.0   33.333333333333336
-400.0   0.0   50.0
-350.0   30.0   50.0
-350.0   0.0   33.333333333333336
-400.0   30.0   33.333333333333336
-400.0   30.0   0.0
-350.0   30.0   0.0
-400.0   60.0   0.0
-400.0   30.0   16.666666666666668
-350.0   30.0   0.0
-350.0   60.0   0.0
-400.0   60.0   0.0
-350.0   60.0   16.666666666666668
-400.0   30.0   16.666666666666668
-400.0   60.0   16.666666666666668
-350.0   60.0   16.666666666666668
-400.0   60.0   0.0
-400.0   30.0   16.666666666666668
-350.0   60.0   16.666666666666668
-350.0   30.0   16.666666666666668
-350.0   30.0   0.0
-400.0   30.0   16.666666666666668
-350.0   60.0   16.666666666666668
-350.0   30.0   0.0
-400.0   60.0   0.0
-400.0   30.0   16.666666666666668
-350.0   30.0   16.666666666666668
-400.0   60.0   16.666666666666668
-400.0   30.0   33.333333333333336
-350.0   30.0   16.666666666666668
-350.0   60.0   16.666666666666668
-400.0   60.0   16.666666666666668
-350.0   60.0   33.333333333333336
-400.0   30.0   33.333333333333336
-400.0   60.0   33.333333333333336
-350.0   60.0   33.333333333333336
-400.0   60.0   16.666666666666668
-400.0   30.0   33.333333333333336
-350.0   60.0   33.333333333333336
-350.0   30.0   33.333333333333336
-350.0   30.0   16.666666666666668
-400.0   30.0   33.333333333333336
-350.0   60.0   33.333333333333336
-350.0   30.0   16.666666666666668
-400.0   60.0   16.666666666666668
-400.0   30.0   33.333333333333336
-350.0   30.0   33.333333333333336
-400.0   60.0   33.333333333333336
-400.0   30.0   50.0
-350.0   30.0   33.333333333333336
-350.0   60.0   33.333333333333336
-400.0   60.0   33.333333333333336
-350.0   60.0   50.0
-400.0   30.0   50.0
-400.0   60.0   50.0
-350.0   60.0   50.0
-400.0   60.0   33.333333333333336
-400.0   30.0   50.0
-350.0   60.0   50.0
-350.0   30.0   50.0
-350.0   30.0   33.333333333333336
-400.0   30.0   50.0
-350.0   60.0   50.0
-350.0   30.0   33.333333333333336
-400.0   60.0   33.333333333333336
-400.0   60.0   0.0
-350.0   60.0   0.0
-400.0   90.0   0.0
-400.0   60.0   16.666666666666668
-350.0   60.0   0.0
-350.0   90.0   0.0
-400.0   90.0   0.0
-350.0   90.0   16.666666666666668
-400.0   60.0   16.666666666666668
-400.0   90.0   16.666666666666668
-350.0   90.0   16.666666666666668
-400.0   90.0   0.0
-400.0   60.0   16.666666666666668
-350.0   90.0   16.666666666666668
-350.0   60.0   16.666666666666668
-350.0   60.0   0.0
-400.0   60.0   16.666666666666668
-350.0   90.0   16.666666666666668
-350.0   60.0   0.0
-400.0   90.0   0.0
-400.0   60.0   16.666666666666668
-350.0   60.0   16.666666666666668
-400.0   90.0   16.666666666666668
-400.0   60.0   33.333333333333336
-350.0   60.0   16.666666666666668
-350.0   90.0   16.666666666666668
-400.0   90.0   16.666666666666668
-350.0   90.0   33.333333333333336
-400.0   60.0   33.333333333333336
-400.0   90.0   33.333333333333336
-350.0   90.0   33.333333333333336
-400.0   90.0   16.666666666666668
-400.0   60.0   33.333333333333336
-350.0   90.0   33.333333333333336
-350.0   60.0   33.333333333333336
-350.0   60.0   16.666666666666668
-400.0   60.0   33.333333333333336
-350.0   90.0   33.333333333333336
-350.0   60.0   16.666666666666668
-400.0   90.0   16.666666666666668
-400.0   60.0   33.333333333333336
-350.0   60.0   33.333333333333336
-400.0   90.0   33.333333333333336
-400.0   60.0   50.0
-350.0   60.0   33.333333333333336
-350.0   90.0   33.333333333333336
-400.0   90.0   33.333333333333336
-350.0   90.0   50.0
-400.0   60.0   50.0
-400.0   90.0   50.0
-350.0   90.0   50.0
-400.0   90.0   33.333333333333336
-400.0   60.0   50.0
-350.0   90.0   50.0
-350.0   60.0   50.0
-350.0   60.0   33.333333333333336
-400.0   60.0   50.0
-350.0   90.0   50.0
-350.0   60.0   33.333333333333336
-400.0   90.0   33.333333333333336
-400.0   90.0   0.0
-350.0   90.0   0.0
-400.0   120.0   0.0
-400.0   90.0   16.666666666666668
-350.0   90.0   0.0
-350.0   120.0   0.0
-400.0   120.0   0.0
-350.0   120.0   16.666666666666668
-400.0   90.0   16.666666666666668
-400.0   120.0   16.666666666666668
-350.0   120.0   16.666666666666668
-400.0   120.0   0.0
-400.0   90.0   16.666666666666668
-350.0   120.0   16.666666666666668
-350.0   90.0   16.666666666666668
-350.0   90.0   0.0
-400.0   90.0   16.666666666666668
-350.0   120.0   16.666666666666668
-350.0   90.0   0.0
-400.0   120.0   0.0
-400.0   90.0   16.666666666666668
-350.0   90.0   16.666666666666668
-400.0   120.0   16.666666666666668
-400.0   90.0   33.333333333333336
-350.0   90.0   16.666666666666668
-350.0   120.0   16.666666666666668
-400.0   120.0   16.666666666666668
-350.0   120.0   33.333333333333336
-400.0   90.0   33.333333333333336
-400.0   120.0   33.333333333333336
-350.0   120.0   33.333333333333336
-400.0   120.0   16.666666666666668
-400.0   90.0   33.333333333333336
-350.0   120.0   33.333333333333336
-350.0   90.0   33.333333333333336
-350.0   90.0   16.666666666666668
-400.0   90.0   33.333333333333336
-350.0   120.0   33.333333333333336
-350.0   90.0   16.666666666666668
-400.0   120.0   16.666666666666668
-400.0   90.0   33.333333333333336
-350.0   90.0   33.333333333333336
-400.0   120.0   33.333333333333336
-400.0   90.0   50.0
-350.0   90.0   33.333333333333336
-350.0   120.0   33.333333333333336
-400.0   120.0   33.333333333333336
-350.0   120.0   50.0
-400.0   90.0   50.0
-400.0   120.0   50.0
-350.0   120.0   50.0
-400.0   120.0   33.333333333333336
-400.0   90.0   50.0
-350.0   120.0   50.0
-350.0   90.0   50.0
-350.0   90.0   33.333333333333336
-400.0   90.0   50.0
-350.0   120.0   50.0
-350.0   90.0   33.333333333333336
-400.0   120.0   33.333333333333336
-400.0   120.0   0.0
-350.0   120.0   0.0
-400.0   150.0   0.0
-400.0   120.0   16.666666666666668
-350.0   120.0   0.0
-350.0   150.0   0.0
-400.0   150.0   0.0
-350.0   150.0   16.666666666666668
-400.0   120.0   16.666666666666668
-400.0   150.0   16.666666666666668
-350.0   150.0   16.666666666666668
-400.0   150.0   0.0
-400.0   120.0   16.666666666666668
-350.0   150.0   16.666666666666668
-350.0   120.0   16.666666666666668
-350.0   120.0   0.0
-400.0   120.0   16.666666666666668
-350.0   150.0   16.666666666666668
-350.0   120.0   0.0
-400.0   150.0   0.0
-400.0   120.0   16.666666666666668
-350.0   120.0   16.666666666666668
-400.0   150.0   16.666666666666668
-400.0   120.0   33.333333333333336
-350.0   120.0   16.666666666666668
-350.0   150.0   16.666666666666668
-400.0   150.0   16.666666666666668
-350.0   150.0   33.333333333333336
-400.0   120.0   33.333333333333336
-400.0   150.0   33.333333333333336
-350.0   150.0   33.333333333333336
-400.0   150.0   16.666666666666668
-400.0   120.0   33.333333333333336
-350.0   150.0   33.333333333333336
-350.0   120.0   33.333333333333336
-350.0   120.0   16.666666666666668
-400.0   120.0   33.333333333333336
-350.0   150.0   33.333333333333336
-350.0   120.0   16.666666666666668
-400.0   150.0   16.666666666666668
-400.0   120.0   33.333333333333336
-350.0   120.0   33.333333333333336
-400.0   150.0   33.333333333333336
-400.0   120.0   50.0
-350.0   120.0   33.333333333333336
-350.0   150.0   33.333333333333336
-400.0   150.0   33.333333333333336
-350.0   150.0   50.0
-400.0   120.0   50.0
-400.0   150.0   50.0
-350.0   150.0   50.0
-400.0   150.0   33.333333333333336
-400.0   120.0   50.0
-350.0   150.0   50.0
-350.0   120.0   50.0
-350.0   120.0   33.333333333333336
-400.0   120.0   50.0
-350.0   150.0   50.0
-350.0   120.0   33.333333333333336
-400.0   150.0   33.333333333333336
-350.0   0.0   0.0
-300.0   0.0   0.0
-350.0   30.0   0.0
-350.0   0.0   16.666666666666668
-300.0   0.0   0.0
-300.0   30.0   0.0
-350.0   30.0   0.0
-300.0   30.0   16.666666666666668
-350.0   0.0   16.666666666666668
-350.0   30.0   16.666666666666668
-300.0   30.0   16.666666666666668
-350.0   30.0   0.0
-350.0   0.0   16.666666666666668
-300.0   30.0   16.666666666666668
-300.0   0.0   16.666666666666668
-300.0   0.0   0.0
-350.0   0.0   16.666666666666668
-300.0   30.0   16.666666666666668
-300.0   0.0   0.0
-350.0   30.0   0.0
-350.0   0.0   16.666666666666668
-300.0   0.0   16.666666666666668
-350.0   30.0   16.666666666666668
-350.0   0.0   33.333333333333336
-300.0   0.0   16.666666666666668
-300.0   30.0   16.666666666666668
-350.0   30.0   16.666666666666668
-300.0   30.0   33.333333333333336
-350.0   0.0   33.333333333333336
-350.0   30.0   33.333333333333336
-300.0   30.0   33.333333333333336
-350.0   30.0   16.666666666666668
-350.0   0.0   33.333333333333336
-300.0   30.0   33.333333333333336
-300.0   0.0   33.333333333333336
-300.0   0.0   16.666666666666668
-350.0   0.0   33.333333333333336
-300.0   30.0   33.333333333333336
-300.0   0.0   16.666666666666668
-350.0   30.0   16.666666666666668
-350.0   0.0   33.333333333333336
-300.0   0.0   33.333333333333336
-350.0   30.0   33.333333333333336
-350.0   0.0   50.0
-300.0   0.0   33.333333333333336
-300.0   30.0   33.333333333333336
-350.0   30.0   33.333333333333336
-300.0   30.0   50.0
-350.0   0.0   50.0
-350.0   30.0   50.0
-300.0   30.0   50.0
-350.0   30.0   33.333333333333336
-350.0   0.0   50.0
-300.0   30.0   50.0
-300.0   0.0   50.0
-300.0   0.0   33.333333333333336
-350.0   0.0   50.0
-300.0   30.0   50.0
-300.0   0.0   33.333333333333336
-350.0   30.0   33.333333333333336
-350.0   30.0   0.0
-300.0   30.0   0.0
-350.0   60.0   0.0
-350.0   30.0   16.666666666666668
-300.0   30.0   0.0
-300.0   60.0   0.0
-350.0   60.0   0.0
-300.0   60.0   16.666666666666668
-350.0   30.0   16.666666666666668
-350.0   60.0   16.666666666666668
-300.0   60.0   16.666666666666668
-350.0   60.0   0.0
-350.0   30.0   16.666666666666668
-300.0   60.0   16.666666666666668
-300.0   30.0   16.666666666666668
-300.0   30.0   0.0
-350.0   30.0   16.666666666666668
-300.0   60.0   16.666666666666668
-300.0   30.0   0.0
-350.0   60.0   0.0
-350.0   30.0   16.666666666666668
-300.0   30.0   16.666666666666668
-350.0   60.0   16.666666666666668
-350.0   30.0   33.333333333333336
-300.0   30.0   16.666666666666668
-300.0   60.0   16.666666666666668
-350.0   60.0   16.666666666666668
-300.0   60.0   33.333333333333336
-350.0   30.0   33.333333333333336
-350.0   60.0   33.333333333333336
-300.0   60.0   33.333333333333336
-350.0   60.0   16.666666666666668
-350.0   30.0   33.333333333333336
-300.0   60.0   33.333333333333336
-300.0   30.0   33.333333333333336
-300.0   30.0   16.666666666666668
-350.0   30.0   33.333333333333336
-300.0   60.0   33.333333333333336
-300.0   30.0   16.666666666666668
-350.0   60.0   16.666666666666668
-350.0   30.0   33.333333333333336
-300.0   30.0   33.333333333333336
-350.0   60.0   33.333333333333336
-350.0   30.0   50.0
-300.0   30.0   33.333333333333336
-300.0   60.0   33.333333333333336
-350.0   60.0   33.333333333333336
-300.0   60.0   50.0
-350.0   30.0   50.0
-350.0   60.0   50.0
-300.0   60.0   50.0
-350.0   60.0   33.333333333333336
-350.0   30.0   50.0
-300.0   60.0   50.0
-300.0   30.0   50.0
-300.0   30.0   33.333333333333336
-350.0   30.0   50.0
-300.0   60.0   50.0
-300.0   30.0   33.333333333333336
-350.0   60.0   33.333333333333336
-350.0   60.0   0.0
-300.0   60.0   0.0
-350.0   90.0   0.0
-350.0   60.0   16.666666666666668
-300.0   60.0   0.0
-300.0   90.0   0.0
-350.0   90.0   0.0
-300.0   90.0   16.666666666666668
-350.0   60.0   16.666666666666668
-350.0   90.0   16.666666666666668
-300.0   90.0   16.666666666666668
-350.0   90.0   0.0
-350.0   60.0   16.666666666666668
-300.0   90.0   16.666666666666668
-300.0   60.0   16.666666666666668
-300.0   60.0   0.0
-350.0   60.0   16.666666666666668
-300.0   90.0   16.666666666666668
-300.0   60.0   0.0
-350.0   90.0   0.0
-350.0   60.0   16.666666666666668
-300.0   60.0   16.666666666666668
-350.0   90.0   16.666666666666668
-350.0   60.0   33.333333333333336
-300.0   60.0   16.666666666666668
-300.0   90.0   16.666666666666668
-350.0   90.0   16.666666666666668
-300.0   90.0   33.333333333333336
-350.0   60.0   33.333333333333336
-350.0   90.0   33.333333333333336
-300.0   90.0   33.333333333333336
-350.0   90.0   16.666666666666668
-350.0   60.0   33.333333333333336
-300.0   90.0   33.333333333333336
-300.0   60.0   33.333333333333336
-300.0   60.0   16.666666666666668
-350.0   60.0   33.333333333333336
-300.0   90.0   33.333333333333336
-300.0   60.0   16.666666666666668
-350.0   90.0   16.666666666666668
-350.0   60.0   33.333333333333336
-300.0   60.0   33.333333333333336
-350.0   90.0   33.333333333333336
-350.0   60.0   50.0
-300.0   60.0   33.333333333333336
-300.0   90.0   33.333333333333336
-350.0   90.0   33.333333333333336
-300.0   90.0   50.0
-350.0   60.0   50.0
-350.0   90.0   50.0
-300.0   90.0   50.0
-350.0   90.0   33.333333333333336
-350.0   60.0   50.0
-300.0   90.0   50.0
-300.0   60.0   50.0
-300.0   60.0   33.333333333333336
-350.0   60.0   50.0
-300.0   90.0   50.0
-300.0   60.0   33.333333333333336
-350.0   90.0   33.333333333333336
-350.0   90.0   0.0
-300.0   90.0   0.0
-350.0   120.0   0.0
-350.0   90.0   16.666666666666668
-300.0   90.0   0.0
-300.0   120.0   0.0
-350.0   120.0   0.0
-300.0   120.0   16.666666666666668
-350.0   90.0   16.666666666666668
-350.0   120.0   16.666666666666668
-300.0   120.0   16.666666666666668
-350.0   120.0   0.0
-350.0   90.0   16.666666666666668
-300.0   120.0   16.666666666666668
-300.0   90.0   16.666666666666668
-300.0   90.0   0.0
-350.0   90.0   16.666666666666668
-300.0   120.0   16.666666666666668
-300.0   90.0   0.0
-350.0   120.0   0.0
-350.0   90.0   16.666666666666668
-300.0   90.0   16.666666666666668
-350.0   120.0   16.666666666666668
-350.0   90.0   33.333333333333336
-300.0   90.0   16.666666666666668
-300.0   120.0   16.666666666666668
-350.0   120.0   16.666666666666668
-300.0   120.0   33.333333333333336
-350.0   90.0   33.333333333333336
-350.0   120.0   33.333333333333336
-300.0   120.0   33.333333333333336
-350.0   120.0   16.666666666666668
-350.0   90.0   33.333333333333336
-300.0   120.0   33.333333333333336
-300.0   90.0   33.333333333333336
-300.0   90.0   16.666666666666668
-350.0   90.0   33.333333333333336
-300.0   120.0   33.333333333333336
-300.0   90.0   16.666666666666668
-350.0   120.0   16.666666666666668
-350.0   90.0   33.333333333333336
-300.0   90.0   33.333333333333336
-350.0   120.0   33.333333333333336
-350.0   90.0   50.0
-300.0   90.0   33.333333333333336
-300.0   120.0   33.333333333333336
-350.0   120.0   33.333333333333336
-300.0   120.0   50.0
-350.0   90.0   50.0
-350.0   120.0   50.0
-300.0   120.0   50.0
-350.0   120.0   33.333333333333336
-350.0   90.0   50.0
-300.0   120.0   50.0
-300.0   90.0   50.0
-300.0   90.0   33.333333333333336
-350.0   90.0   50.0
-300.0   120.0   50.0
-300.0   90.0   33.333333333333336
-350.0   120.0   33.333333333333336
-350.0   120.0   0.0
-300.0   120.0   0.0
-350.0   150.0   0.0
-350.0   120.0   16.666666666666668
-300.0   120.0   0.0
-300.0   150.0   0.0
-350.0   150.0   0.0
-300.0   150.0   16.666666666666668
-350.0   120.0   16.666666666666668
-350.0   150.0   16.666666666666668
-300.0   150.0   16.666666666666668
-350.0   150.0   0.0
-350.0   120.0   16.666666666666668
-300.0   150.0   16.666666666666668
-300.0   120.0   16.666666666666668
-300.0   120.0   0.0
-350.0   120.0   16.666666666666668
-300.0   150.0   16.666666666666668
-300.0   120.0   0.0
-350.0   150.0   0.0
-350.0   120.0   16.666666666666668
-300.0   120.0   16.666666666666668
-350.0   150.0   16.666666666666668
-350.0   120.0   33.333333333333336
-300.0   120.0   16.666666666666668
-300.0   150.0   16.666666666666668
-350.0   150.0   16.666666666666668
-300.0   150.0   33.333333333333336
-350.0   120.0   33.333333333333336
-350.0   150.0   33.333333333333336
-300.0   150.0   33.333333333333336
-350.0   150.0   16.666666666666668
-350.0   120.0   33.333333333333336
-300.0   150.0   33.333333333333336
-300.0   120.0   33.333333333333336
-300.0   120.0   16.666666666666668
-350.0   120.0   33.333333333333336
-300.0   150.0   33.333333333333336
-300.0   120.0   16.666666666666668
-350.0   150.0   16.666666666666668
-350.0   120.0   33.333333333333336
-300.0   120.0   33.333333333333336
-350.0   150.0   33.333333333333336
-350.0   120.0   50.0
-300.0   120.0   33.333333333333336
-300.0   150.0   33.333333333333336
-350.0   150.0   33.333333333333336
-300.0   150.0   50.0
-350.0   120.0   50.0
-350.0   150.0   50.0
-300.0   150.0   50.0
-350.0   150.0   33.333333333333336
-350.0   120.0   50.0
-300.0   150.0   50.0
-300.0   120.0   50.0
-300.0   120.0   33.333333333333336
-350.0   120.0   50.0
-300.0   150.0   50.0
-300.0   120.0   33.333333333333336
-350.0   150.0   33.333333333333336
-300.0   0.0   0.0
-250.0   0.0   0.0
-300.0   30.0   0.0
-300.0   0.0   16.666666666666668
-250.0   0.0   0.0
-250.0   30.0   0.0
-300.0   30.0   0.0
-250.0   30.0   16.666666666666668
-300.0   0.0   16.666666666666668
-300.0   30.0   16.666666666666668
-250.0   30.0   16.666666666666668
-300.0   30.0   0.0
-300.0   0.0   16.666666666666668
-250.0   30.0   16.666666666666668
-250.0   0.0   16.666666666666668
-250.0   0.0   0.0
-300.0   0.0   16.666666666666668
-250.0   30.0   16.666666666666668
-250.0   0.0   0.0
-300.0   30.0   0.0
-300.0   0.0   16.666666666666668
-250.0   0.0   16.666666666666668
-300.0   30.0   16.666666666666668
-300.0   0.0   33.333333333333336
-250.0   0.0   16.666666666666668
-250.0   30.0   16.666666666666668
-300.0   30.0   16.666666666666668
-250.0   30.0   33.333333333333336
-300.0   0.0   33.333333333333336
-300.0   30.0   33.333333333333336
-250.0   30.0   33.333333333333336
-300.0   30.0   16.666666666666668
-300.0   0.0   33.333333333333336
-250.0   30.0   33.333333333333336
-250.0   0.0   33.333333333333336
-250.0   0.0   16.666666666666668
-300.0   0.0   33.333333333333336
-250.0   30.0   33.333333333333336
-250.0   0.0   16.666666666666668
-300.0   30.0   16.666666666666668
-300.0   0.0   33.333333333333336
-250.0   0.0   33.333333333333336
-300.0   30.0   33.333333333333336
-300.0   0.0   50.0
-250.0   0.0   33.333333333333336
-250.0   30.0   33.333333333333336
-300.0   30.0   33.333333333333336
-250.0   30.0   50.0
-300.0   0.0   50.0
-300.0   30.0   50.0
-250.0   30.0   50.0
-300.0   30.0   33.333333333333336
-300.0   0.0   50.0
-250.0   30.0   50.0
-250.0   0.0   50.0
-250.0   0.0   33.333333333333336
-300.0   0.0   50.0
-250.0   30.0   50.0
-250.0   0.0   33.333333333333336
-300.0   30.0   33.333333333333336
-300.0   30.0   0.0
-250.0   30.0   0.0
-300.0   60.0   0.0
-300.0   30.0   16.666666666666668
-250.0   30.0   0.0
-250.0   60.0   0.0
-300.0   60.0   0.0
-250.0   60.0   16.666666666666668
-300.0   30.0   16.666666666666668
-300.0   60.0   16.666666666666668
-250.0   60.0   16.666666666666668
-300.0   60.0   0.0
-300.0   30.0   16.666666666666668
-250.0   60.0   16.666666666666668
-250.0   30.0   16.666666666666668
-250.0   30.0   0.0
-300.0   30.0   16.666666666666668
-250.0   60.0   16.666666666666668
-250.0   30.0   0.0
-300.0   60.0   0.0
-300.0   30.0   16.666666666666668
-250.0   30.0   16.666666666666668
-300.0   60.0   16.666666666666668
-300.0   30.0   33.333333333333336
-250.0   30.0   16.666666666666668
-250.0   60.0   16.666666666666668
-300.0   60.0   16.666666666666668
-250.0   60.0   33.333333333333336
-300.0   30.0   33.333333333333336
-300.0   60.0   33.333333333333336
-250.0   60.0   33.333333333333336
-300.0   60.0   16.666666666666668
-300.0   30.0   33.333333333333336
-250.0   60.0   33.333333333333336
-250.0   30.0   33.333333333333336
-250.0   30.0   16.666666666666668
-300.0   30.0   33.333333333333336
-250.0   60.0   33.333333333333336
-250.0   30.0   16.666666666666668
-300.0   60.0   16.666666666666668
-300.0   30.0   33.333333333333336
-250.0   30.0   33.333333333333336
-300.0   60.0   33.333333333333336
-300.0   30.0   50.0
-250.0   30.0   33.333333333333336
-250.0   60.0   33.333333333333336
-300.0   60.0   33.333333333333336
-250.0   60.0   50.0
-300.0   30.0   50.0
-300.0   60.0   50.0
-250.0   60.0   50.0
-300.0   60.0   33.333333333333336
-300.0   30.0   50.0
-250.0   60.0   50.0
-250.0   30.0   50.0
-250.0   30.0   33.333333333333336
-300.0   30.0   50.0
-250.0   60.0   50.0
-250.0   30.0   33.333333333333336
-300.0   60.0   33.333333333333336
-300.0   60.0   0.0
-250.0   60.0   0.0
-300.0   90.0   0.0
-300.0   60.0   16.666666666666668
-250.0   60.0   0.0
-250.0   90.0   0.0
-300.0   90.0   0.0
-250.0   90.0   16.666666666666668
-300.0   60.0   16.666666666666668
-300.0   90.0   16.666666666666668
-250.0   90.0   16.666666666666668
-300.0   90.0   0.0
-300.0   60.0   16.666666666666668
-250.0   90.0   16.666666666666668
-250.0   60.0   16.666666666666668
-250.0   60.0   0.0
-300.0   60.0   16.666666666666668
-250.0   90.0   16.666666666666668
-250.0   60.0   0.0
-300.0   90.0   0.0
-300.0   60.0   16.666666666666668
-250.0   60.0   16.666666666666668
-300.0   90.0   16.666666666666668
-300.0   60.0   33.333333333333336
-250.0   60.0   16.666666666666668
-250.0   90.0   16.666666666666668
-300.0   90.0   16.666666666666668
-250.0   90.0   33.333333333333336
-300.0   60.0   33.333333333333336
-300.0   90.0   33.333333333333336
-250.0   90.0   33.333333333333336
-300.0   90.0   16.666666666666668
-300.0   60.0   33.333333333333336
-250.0   90.0   33.333333333333336
-250.0   60.0   33.333333333333336
-250.0   60.0   16.666666666666668
-300.0   60.0   33.333333333333336
-250.0   90.0   33.333333333333336
-250.0   60.0   16.666666666666668
-300.0   90.0   16.666666666666668
-300.0   60.0   33.333333333333336
-250.0   60.0   33.333333333333336
-300.0   90.0   33.333333333333336
-300.0   60.0   50.0
-250.0   60.0   33.333333333333336
-250.0   90.0   33.333333333333336
-300.0   90.0   33.333333333333336
-250.0   90.0   50.0
-300.0   60.0   50.0
-300.0   90.0   50.0
-250.0   90.0   50.0
-300.0   90.0   33.333333333333336
-300.0   60.0   50.0
-250.0   90.0   50.0
-250.0   60.0   50.0
-250.0   60.0   33.333333333333336
-300.0   60.0   50.0
-250.0   90.0   50.0
-250.0   60.0   33.333333333333336
-300.0   90.0   33.333333333333336
-300.0   90.0   0.0
-250.0   90.0   0.0
-300.0   120.0   0.0
-300.0   90.0   16.666666666666668
-250.0   90.0   0.0
-250.0   120.0   0.0
-300.0   120.0   0.0
-250.0   120.0   16.666666666666668
-300.0   90.0   16.666666666666668
-300.0   120.0   16.666666666666668
-250.0   120.0   16.666666666666668
-300.0   120.0   0.0
-300.0   90.0   16.666666666666668
-250.0   120.0   16.666666666666668
-250.0   90.0   16.666666666666668
-250.0   90.0   0.0
-300.0   90.0   16.666666666666668
-250.0   120.0   16.666666666666668
-250.0   90.0   0.0
-300.0   120.0   0.0
-300.0   90.0   16.666666666666668
-250.0   90.0   16.666666666666668
-300.0   120.0   16.666666666666668
-300.0   90.0   33.333333333333336
-250.0   90.0   16.666666666666668
-250.0   120.0   16.666666666666668
-300.0   120.0   16.666666666666668
-250.0   120.0   33.333333333333336
-300.0   90.0   33.333333333333336
-300.0   120.0   33.333333333333336
-250.0   120.0   33.333333333333336
-300.0   120.0   16.666666666666668
-300.0   90.0   33.333333333333336
-250.0   120.0   33.333333333333336
-250.0   90.0   33.333333333333336
-250.0   90.0   16.666666666666668
-300.0   90.0   33.333333333333336
-250.0   120.0   33.333333333333336
-250.0   90.0   16.666666666666668
-300.0   120.0   16.666666666666668
-300.0   90.0   33.333333333333336
-250.0   90.0   33.333333333333336
-300.0   120.0   33.333333333333336
-300.0   90.0   50.0
-250.0   90.0   33.333333333333336
-250.0   120.0   33.333333333333336
-300.0   120.0   33.333333333333336
-250.0   120.0   50.0
-300.0   90.0   50.0
-300.0   120.0   50.0
-250.0   120.0   50.0
-300.0   120.0   33.333333333333336
-300.0   90.0   50.0
-250.0   120.0   50.0
-250.0   90.0   50.0
-250.0   90.0   33.333333333333336
-300.0   90.0   50.0
-250.0   120.0   50.0
-250.0   90.0   33.333333333333336
-300.0   120.0   33.333333333333336
-300.0   120.0   0.0
-250.0   120.0   0.0
-300.0   150.0   0.0
-300.0   120.0   16.666666666666668
-250.0   120.0   0.0
-250.0   150.0   0.0
-300.0   150.0   0.0
-250.0   150.0   16.666666666666668
-300.0   120.0   16.666666666666668
-300.0   150.0   16.666666666666668
-250.0   150.0   16.666666666666668
-300.0   150.0   0.0
-300.0   120.0   16.666666666666668
-250.0   150.0   16.666666666666668
-250.0   120.0   16.666666666666668
-250.0   120.0   0.0
-300.0   120.0   16.666666666666668
-250.0   150.0   16.666666666666668
-250.0   120.0   0.0
-300.0   150.0   0.0
-300.0   120.0   16.666666666666668
-250.0   120.0   16.666666666666668
-300.0   150.0   16.666666666666668
-300.0   120.0   33.333333333333336
-250.0   120.0   16.666666666666668
-250.0   150.0   16.666666666666668
-300.0   150.0   16.666666666666668
-250.0   150.0   33.333333333333336
-300.0   120.0   33.333333333333336
-300.0   150.0   33.333333333333336
-250.0   150.0   33.333333333333336
-300.0   150.0   16.666666666666668
-300.0   120.0   33.333333333333336
-250.0   150.0   33.333333333333336
-250.0   120.0   33.333333333333336
-250.0   120.0   16.666666666666668
-300.0   120.0   33.333333333333336
-250.0   150.0   33.333333333333336
-250.0   120.0   16.666666666666668
-300.0   150.0   16.666666666666668
-300.0   120.0   33.333333333333336
-250.0   120.0   33.333333333333336
-300.0   150.0   33.333333333333336
-300.0   120.0   50.0
-250.0   120.0   33.333333333333336
-250.0   150.0   33.333333333333336
-300.0   150.0   33.333333333333336
-250.0   150.0   50.0
-300.0   120.0   50.0
-300.0   150.0   50.0
-250.0   150.0   50.0
-300.0   150.0   33.333333333333336
-300.0   120.0   50.0
-250.0   150.0   50.0
-250.0   120.0   50.0
-250.0   120.0   33.333333333333336
-300.0   120.0   50.0
-250.0   150.0   50.0
-250.0   120.0   33.333333333333336
-300.0   150.0   33.333333333333336
-250.0   0.0   0.0
-200.0   0.0   0.0
-250.0   30.0   0.0
-250.0   0.0   16.666666666666668
-200.0   0.0   0.0
-200.0   30.0   0.0
-250.0   30.0   0.0
-200.0   30.0   16.666666666666668
-250.0   0.0   16.666666666666668
-250.0   30.0   16.666666666666668
-200.0   30.0   16.666666666666668
-250.0   30.0   0.0
-250.0   0.0   16.666666666666668
-200.0   30.0   16.666666666666668
-200.0   0.0   16.666666666666668
-200.0   0.0   0.0
-250.0   0.0   16.666666666666668
-200.0   30.0   16.666666666666668
-200.0   0.0   0.0
-250.0   30.0   0.0
-250.0   0.0   16.666666666666668
-200.0   0.0   16.666666666666668
-250.0   30.0   16.666666666666668
-250.0   0.0   33.333333333333336
-200.0   0.0   16.666666666666668
-200.0   30.0   16.666666666666668
-250.0   30.0   16.666666666666668
-200.0   30.0   33.333333333333336
-250.0   0.0   33.333333333333336
-250.0   30.0   33.333333333333336
-200.0   30.0   33.333333333333336
-250.0   30.0   16.666666666666668
-250.0   0.0   33.333333333333336
-200.0   30.0   33.333333333333336
-200.0   0.0   33.333333333333336
-200.0   0.0   16.666666666666668
-250.0   0.0   33.333333333333336
-200.0   30.0   33.333333333333336
-200.0   0.0   16.666666666666668
-250.0   30.0   16.666666666666668
-250.0   0.0   33.333333333333336
-200.0   0.0   33.333333333333336
-250.0   30.0   33.333333333333336
-250.0   0.0   50.0
-200.0   0.0   33.333333333333336
-200.0   30.0   33.333333333333336
-250.0   30.0   33.333333333333336
-200.0   30.0   50.0
-250.0   0.0   50.0
-250.0   30.0   50.0
-200.0   30.0   50.0
-250.0   30.0   33.333333333333336
-250.0   0.0   50.0
-200.0   30.0   50.0
-200.0   0.0   50.0
-200.0   0.0   33.333333333333336
-250.0   0.0   50.0
-200.0   30.0   50.0
-200.0   0.0   33.333333333333336
-250.0   30.0   33.333333333333336
-250.0   30.0   0.0
-200.0   30.0   0.0
-250.0   60.0   0.0
-250.0   30.0   16.666666666666668
-200.0   30.0   0.0
-200.0   60.0   0.0
-250.0   60.0   0.0
-200.0   60.0   16.666666666666668
-250.0   30.0   16.666666666666668
-250.0   60.0   16.666666666666668
-200.0   60.0   16.666666666666668
-250.0   60.0   0.0
-250.0   30.0   16.666666666666668
-200.0   60.0   16.666666666666668
-200.0   30.0   16.666666666666668
-200.0   30.0   0.0
-250.0   30.0   16.666666666666668
-200.0   60.0   16.666666666666668
-200.0   30.0   0.0
-250.0   60.0   0.0
-250.0   30.0   16.666666666666668
-200.0   30.0   16.666666666666668
-250.0   60.0   16.666666666666668
-250.0   30.0   33.333333333333336
-200.0   30.0   16.666666666666668
-200.0   60.0   16.666666666666668
-250.0   60.0   16.666666666666668
-200.0   60.0   33.333333333333336
-250.0   30.0   33.333333333333336
-250.0   60.0   33.333333333333336
-200.0   60.0   33.333333333333336
-250.0   60.0   16.666666666666668
-250.0   30.0   33.333333333333336
-200.0   60.0   33.333333333333336
-200.0   30.0   33.333333333333336
-200.0   30.0   16.666666666666668
-250.0   30.0   33.333333333333336
-200.0   60.0   33.333333333333336
-200.0   30.0   16.666666666666668
-250.0   60.0   16.666666666666668
-250.0   30.0   33.333333333333336
-200.0   30.0   33.333333333333336
-250.0   60.0   33.333333333333336
-250.0   30.0   50.0
-200.0   30.0   33.333333333333336
-200.0   60.0   33.333333333333336
-250.0   60.0   33.333333333333336
-200.0   60.0   50.0
-250.0   30.0   50.0
-250.0   60.0   50.0
-200.0   60.0   50.0
-250.0   60.0   33.333333333333336
-250.0   30.0   50.0
-200.0   60.0   50.0
-200.0   30.0   50.0
-200.0   30.0   33.333333333333336
-250.0   30.0   50.0
-200.0   60.0   50.0
-200.0   30.0   33.333333333333336
-250.0   60.0   33.333333333333336
-250.0   60.0   0.0
-200.0   60.0   0.0
-250.0   90.0   0.0
-250.0   60.0   16.666666666666668
-200.0   60.0   0.0
-200.0   90.0   0.0
-250.0   90.0   0.0
-200.0   90.0   16.666666666666668
-250.0   60.0   16.666666666666668
-250.0   90.0   16.666666666666668
-200.0   90.0   16.666666666666668
-250.0   90.0   0.0
-250.0   60.0   16.666666666666668
-200.0   90.0   16.666666666666668
-200.0   60.0   16.666666666666668
-200.0   60.0   0.0
-250.0   60.0   16.666666666666668
-200.0   90.0   16.666666666666668
-200.0   60.0   0.0
-250.0   90.0   0.0
-250.0   60.0   16.666666666666668
-200.0   60.0   16.666666666666668
-250.0   90.0   16.666666666666668
-250.0   60.0   33.333333333333336
-200.0   60.0   16.666666666666668
-200.0   90.0   16.666666666666668
-250.0   90.0   16.666666666666668
-200.0   90.0   33.333333333333336
-250.0   60.0   33.333333333333336
-250.0   90.0   33.333333333333336
-200.0   90.0   33.333333333333336
-250.0   90.0   16.666666666666668
-250.0   60.0   33.333333333333336
-200.0   90.0   33.333333333333336
-200.0   60.0   33.333333333333336
-200.0   60.0   16.666666666666668
-250.0   60.0   33.333333333333336
-200.0   90.0   33.333333333333336
-200.0   60.0   16.666666666666668
-250.0   90.0   16.666666666666668
-250.0   60.0   33.333333333333336
-200.0   60.0   33.333333333333336
-250.0   90.0   33.333333333333336
-250.0   60.0   50.0
-200.0   60.0   33.333333333333336
-200.0   90.0   33.333333333333336
-250.0   90.0   33.333333333333336
-200.0   90.0   50.0
-250.0   60.0   50.0
-250.0   90.0   50.0
-200.0   90.0   50.0
-250.0   90.0   33.333333333333336
-250.0   60.0   50.0
-200.0   90.0   50.0
-200.0   60.0   50.0
-200.0   60.0   33.333333333333336
-250.0   60.0   50.0
-200.0   90.0   50.0
-200.0   60.0   33.333333333333336
-250.0   90.0   33.333333333333336
-250.0   90.0   0.0
-200.0   90.0   0.0
-250.0   120.0   0.0
-250.0   90.0   16.666666666666668
-200.0   90.0   0.0
-200.0   120.0   0.0
-250.0   120.0   0.0
-200.0   120.0   16.666666666666668
-250.0   90.0   16.666666666666668
-250.0   120.0   16.666666666666668
-200.0   120.0   16.666666666666668
-250.0   120.0   0.0
-250.0   90.0   16.666666666666668
-200.0   120.0   16.666666666666668
-200.0   90.0   16.666666666666668
-200.0   90.0   0.0
-250.0   90.0   16.666666666666668
-200.0   120.0   16.666666666666668
-200.0   90.0   0.0
-250.0   120.0   0.0
-250.0   90.0   16.666666666666668
-200.0   90.0   16.666666666666668
-250.0   120.0   16.666666666666668
-250.0   90.0   33.333333333333336
-200.0   90.0   16.666666666666668
-200.0   120.0   16.666666666666668
-250.0   120.0   16.666666666666668
-200.0   120.0   33.333333333333336
-250.0   90.0   33.333333333333336
-250.0   120.0   33.333333333333336
-200.0   120.0   33.333333333333336
-250.0   120.0   16.666666666666668
-250.0   90.0   33.333333333333336
-200.0   120.0   33.333333333333336
-200.0   90.0   33.333333333333336
-200.0   90.0   16.666666666666668
-250.0   90.0   33.333333333333336
-200.0   120.0   33.333333333333336
-200.0   90.0   16.666666666666668
-250.0   120.0   16.666666666666668
-250.0   90.0   33.333333333333336
-200.0   90.0   33.333333333333336
-250.0   120.0   33.333333333333336
-250.0   90.0   50.0
-200.0   90.0   33.333333333333336
-200.0   120.0   33.333333333333336
-250.0   120.0   33.333333333333336
-200.0   120.0   50.0
-250.0   90.0   50.0
-250.0   120.0   50.0
-200.0   120.0   50.0
-250.0   120.0   33.333333333333336
-250.0   90.0   50.0
-200.0   120.0   50.0
-200.0   90.0   50.0
-200.0   90.0   33.333333333333336
-250.0   90.0   50.0
-200.0   120.0   50.0
-200.0   90.0   33.333333333333336
-250.0   120.0   33.333333333333336
-250.0   120.0   0.0
-200.0   120.0   0.0
-250.0   150.0   0.0
-250.0   120.0   16.666666666666668
-200.0   120.0   0.0
-200.0   150.0   0.0
-250.0   150.0   0.0
-200.0   150.0   16.666666666666668
-250.0   120.0   16.666666666666668
-250.0   150.0   16.666666666666668
-200.0   150.0   16.666666666666668
-250.0   150.0   0.0
-250.0   120.0   16.666666666666668
-200.0   150.0   16.666666666666668
-200.0   120.0   16.666666666666668
-200.0   120.0   0.0
-250.0   120.0   16.666666666666668
-200.0   150.0   16.666666666666668
-200.0   120.0   0.0
-250.0   150.0   0.0
-250.0   120.0   16.666666666666668
-200.0   120.0   16.666666666666668
-250.0   150.0   16.666666666666668
-250.0   120.0   33.333333333333336
-200.0   120.0   16.666666666666668
-200.0   150.0   16.666666666666668
-250.0   150.0   16.666666666666668
-200.0   150.0   33.333333333333336
-250.0   120.0   33.333333333333336
-250.0   150.0   33.333333333333336
-200.0   150.0   33.333333333333336
-250.0   150.0   16.666666666666668
-250.0   120.0   33.333333333333336
-200.0   150.0   33.333333333333336
-200.0   120.0   33.333333333333336
-200.0   120.0   16.666666666666668
-250.0   120.0   33.333333333333336
-200.0   150.0   33.333333333333336
-200.0   120.0   16.666666666666668
-250.0   150.0   16.666666666666668
-250.0   120.0   33.333333333333336
-200.0   120.0   33.333333333333336
-250.0   150.0   33.333333333333336
-250.0   120.0   50.0
-200.0   120.0   33.333333333333336
-200.0   150.0   33.333333333333336
-250.0   150.0   33.333333333333336
-200.0   150.0   50.0
-250.0   120.0   50.0
-250.0   150.0   50.0
-200.0   150.0   50.0
-250.0   150.0   33.333333333333336
-250.0   120.0   50.0
-200.0   150.0   50.0
-200.0   120.0   50.0
-200.0   120.0   33.333333333333336
-250.0   120.0   50.0
-200.0   150.0   50.0
-200.0   120.0   33.333333333333336
-250.0   150.0   33.333333333333336
-200.0   0.0   0.0
-150.0   0.0   0.0
-200.0   30.0   0.0
-200.0   0.0   16.666666666666668
-150.0   0.0   0.0
-150.0   30.0   0.0
-200.0   30.0   0.0
-150.0   30.0   16.666666666666668
-200.0   0.0   16.666666666666668
-200.0   30.0   16.666666666666668
-150.0   30.0   16.666666666666668
-200.0   30.0   0.0
-200.0   0.0   16.666666666666668
-150.0   30.0   16.666666666666668
-150.0   0.0   16.666666666666668
-150.0   0.0   0.0
-200.0   0.0   16.666666666666668
-150.0   30.0   16.666666666666668
-150.0   0.0   0.0
-200.0   30.0   0.0
-200.0   0.0   16.666666666666668
-150.0   0.0   16.666666666666668
-200.0   30.0   16.666666666666668
-200.0   0.0   33.333333333333336
-150.0   0.0   16.666666666666668
-150.0   30.0   16.666666666666668
-200.0   30.0   16.666666666666668
-150.0   30.0   33.333333333333336
-200.0   0.0   33.333333333333336
-200.0   30.0   33.333333333333336
-150.0   30.0   33.333333333333336
-200.0   30.0   16.666666666666668
-200.0   0.0   33.333333333333336
-150.0   30.0   33.333333333333336
-150.0   0.0   33.333333333333336
-150.0   0.0   16.666666666666668
-200.0   0.0   33.333333333333336
-150.0   30.0   33.333333333333336
-150.0   0.0   16.666666666666668
-200.0   30.0   16.666666666666668
-200.0   0.0   33.333333333333336
-150.0   0.0   33.333333333333336
-200.0   30.0   33.333333333333336
-200.0   0.0   50.0
-150.0   0.0   33.333333333333336
-150.0   30.0   33.333333333333336
-200.0   30.0   33.333333333333336
-150.0   30.0   50.0
-200.0   0.0   50.0
-200.0   30.0   50.0
-150.0   30.0   50.0
-200.0   30.0   33.333333333333336
-200.0   0.0   50.0
-150.0   30.0   50.0
-150.0   0.0   50.0
-150.0   0.0   33.333333333333336
-200.0   0.0   50.0
-150.0   30.0   50.0
-150.0   0.0   33.333333333333336
-200.0   30.0   33.333333333333336
-200.0   30.0   0.0
-150.0   30.0   0.0
-200.0   60.0   0.0
-200.0   30.0   16.666666666666668
-150.0   30.0   0.0
-150.0   60.0   0.0
-200.0   60.0   0.0
-150.0   60.0   16.666666666666668
-200.0   30.0   16.666666666666668
-200.0   60.0   16.666666666666668
-150.0   60.0   16.666666666666668
-200.0   60.0   0.0
-200.0   30.0   16.666666666666668
-150.0   60.0   16.666666666666668
-150.0   30.0   16.666666666666668
-150.0   30.0   0.0
-200.0   30.0   16.666666666666668
-150.0   60.0   16.666666666666668
-150.0   30.0   0.0
-200.0   60.0   0.0
-200.0   30.0   16.666666666666668
-150.0   30.0   16.666666666666668
-200.0   60.0   16.666666666666668
-200.0   30.0   33.333333333333336
-150.0   30.0   16.666666666666668
-150.0   60.0   16.666666666666668
-200.0   60.0   16.666666666666668
-150.0   60.0   33.333333333333336
-200.0   30.0   33.333333333333336
-200.0   60.0   33.333333333333336
-150.0   60.0   33.333333333333336
-200.0   60.0   16.666666666666668
-200.0   30.0   33.333333333333336
-150.0   60.0   33.333333333333336
-150.0   30.0   33.333333333333336
-150.0   30.0   16.666666666666668
-200.0   30.0   33.333333333333336
-150.0   60.0   33.333333333333336
-150.0   30.0   16.666666666666668
-200.0   60.0   16.666666666666668
-200.0   30.0   33.333333333333336
-150.0   30.0   33.333333333333336
-200.0   60.0   33.333333333333336
-200.0   30.0   50.0
-150.0   30.0   33.333333333333336
-150.0   60.0   33.333333333333336
-200.0   60.0   33.333333333333336
-150.0   60.0   50.0
-200.0   30.0   50.0
-200.0   60.0   50.0
-150.0   60.0   50.0
-200.0   60.0   33.333333333333336
-200.0   30.0   50.0
-150.0   60.0   50.0
-150.0   30.0   50.0
-150.0   30.0   33.333333333333336
-200.0   30.0   50.0
-150.0   60.0   50.0
-150.0   30.0   33.333333333333336
-200.0   60.0   33.333333333333336
-200.0   60.0   0.0
-150.0   60.0   0.0
-200.0   90.0   0.0
-200.0   60.0   16.666666666666668
-150.0   60.0   0.0
-150.0   90.0   0.0
-200.0   90.0   0.0
-150.0   90.0   16.666666666666668
-200.0   60.0   16.666666666666668
-200.0   90.0   16.666666666666668
-150.0   90.0   16.666666666666668
-200.0   90.0   0.0
-200.0   60.0   16.666666666666668
-150.0   90.0   16.666666666666668
-150.0   60.0   16.666666666666668
-150.0   60.0   0.0
-200.0   60.0   16.666666666666668
-150.0   90.0   16.666666666666668
-150.0   60.0   0.0
-200.0   90.0   0.0
-200.0   60.0   16.666666666666668
-150.0   60.0   16.666666666666668
-200.0   90.0   16.666666666666668
-200.0   60.0   33.333333333333336
-150.0   60.0   16.666666666666668
-150.0   90.0   16.666666666666668
-200.0   90.0   16.666666666666668
-150.0   90.0   33.333333333333336
-200.0   60.0   33.333333333333336
-200.0   90.0   33.333333333333336
-150.0   90.0   33.333333333333336
-200.0   90.0   16.666666666666668
-200.0   60.0   33.333333333333336
-150.0   90.0   33.333333333333336
-150.0   60.0   33.333333333333336
-150.0   60.0   16.666666666666668
-200.0   60.0   33.333333333333336
-150.0   90.0   33.333333333333336
-150.0   60.0   16.666666666666668
-200.0   90.0   16.666666666666668
-200.0   60.0   33.333333333333336
-150.0   60.0   33.333333333333336
-200.0   90.0   33.333333333333336
-200.0   60.0   50.0
-150.0   60.0   33.333333333333336
-150.0   90.0   33.333333333333336
-200.0   90.0   33.333333333333336
-150.0   90.0   50.0
-200.0   60.0   50.0
-200.0   90.0   50.0
-150.0   90.0   50.0
-200.0   90.0   33.333333333333336
-200.0   60.0   50.0
-150.0   90.0   50.0
-150.0   60.0   50.0
-150.0   60.0   33.333333333333336
-200.0   60.0   50.0
-150.0   90.0   50.0
-150.0   60.0   33.333333333333336
-200.0   90.0   33.333333333333336
-200.0   90.0   0.0
-150.0   90.0   0.0
-200.0   120.0   0.0
-200.0   90.0   16.666666666666668
-150.0   90.0   0.0
-150.0   120.0   0.0
-200.0   120.0   0.0
-150.0   120.0   16.666666666666668
-200.0   90.0   16.666666666666668
-200.0   120.0   16.666666666666668
-150.0   120.0   16.666666666666668
-200.0   120.0   0.0
-200.0   90.0   16.666666666666668
-150.0   120.0   16.666666666666668
-150.0   90.0   16.666666666666668
-150.0   90.0   0.0
-200.0   90.0   16.666666666666668
-150.0   120.0   16.666666666666668
-150.0   90.0   0.0
-200.0   120.0   0.0
-200.0   90.0   16.666666666666668
-150.0   90.0   16.666666666666668
-200.0   120.0   16.666666666666668
-200.0   90.0   33.333333333333336
-150.0   90.0   16.666666666666668
-150.0   120.0   16.666666666666668
-200.0   120.0   16.666666666666668
-150.0   120.0   33.333333333333336
-200.0   90.0   33.333333333333336
-200.0   120.0   33.333333333333336
-150.0   120.0   33.333333333333336
-200.0   120.0   16.666666666666668
-200.0   90.0   33.333333333333336
-150.0   120.0   33.333333333333336
-150.0   90.0   33.333333333333336
-150.0   90.0   16.666666666666668
-200.0   90.0   33.333333333333336
-150.0   120.0   33.333333333333336
-150.0   90.0   16.666666666666668
-200.0   120.0   16.666666666666668
-200.0   90.0   33.333333333333336
-150.0   90.0   33.333333333333336
-200.0   120.0   33.333333333333336
-200.0   90.0   50.0
-150.0   90.0   33.333333333333336
-150.0   120.0   33.333333333333336
-200.0   120.0   33.333333333333336
-150.0   120.0   50.0
-200.0   90.0   50.0
-200.0   120.0   50.0
-150.0   120.0   50.0
-200.0   120.0   33.333333333333336
-200.0   90.0   50.0
-150.0   120.0   50.0
-150.0   90.0   50.0
-150.0   90.0   33.333333333333336
-200.0   90.0   50.0
-150.0   120.0   50.0
-150.0   90.0   33.333333333333336
-200.0   120.0   33.333333333333336
-200.0   120.0   0.0
-150.0   120.0   0.0
-200.0   150.0   0.0
-200.0   120.0   16.666666666666668
-150.0   120.0   0.0
-150.0   150.0   0.0
-200.0   150.0   0.0
-150.0   150.0   16.666666666666668
-200.0   120.0   16.666666666666668
-200.0   150.0   16.666666666666668
-150.0   150.0   16.666666666666668
-200.0   150.0   0.0
-200.0   120.0   16.666666666666668
-150.0   150.0   16.666666666666668
-150.0   120.0   16.666666666666668
-150.0   120.0   0.0
-200.0   120.0   16.666666666666668
-150.0   150.0   16.666666666666668
-150.0   120.0   0.0
-200.0   150.0   0.0
-200.0   120.0   16.666666666666668
-150.0   120.0   16.666666666666668
-200.0   150.0   16.666666666666668
-200.0   120.0   33.333333333333336
-150.0   120.0   16.666666666666668
-150.0   150.0   16.666666666666668
-200.0   150.0   16.666666666666668
-150.0   150.0   33.333333333333336
-200.0   120.0   33.333333333333336
-200.0   150.0   33.333333333333336
-150.0   150.0   33.333333333333336
-200.0   150.0   16.666666666666668
-200.0   120.0   33.333333333333336
-150.0   150.0   33.333333333333336
-150.0   120.0   33.333333333333336
-150.0   120.0   16.666666666666668
-200.0   120.0   33.333333333333336
-150.0   150.0   33.333333333333336
-150.0   120.0   16.666666666666668
-200.0   150.0   16.666666666666668
-200.0   120.0   33.333333333333336
-150.0   120.0   33.333333333333336
-200.0   150.0   33.333333333333336
-200.0   120.0   50.0
-150.0   120.0   33.333333333333336
-150.0   150.0   33.333333333333336
-200.0   150.0   33.333333333333336
-150.0   150.0   50.0
-200.0   120.0   50.0
-200.0   150.0   50.0
-150.0   150.0   50.0
-200.0   150.0   33.333333333333336
-200.0   120.0   50.0
-150.0   150.0   50.0
-150.0   120.0   50.0
-150.0   120.0   33.333333333333336
-200.0   120.0   50.0
-150.0   150.0   50.0
-150.0   120.0   33.333333333333336
-200.0   150.0   33.333333333333336
-150.0   0.0   0.0
-100.0   0.0   0.0
-150.0   30.0   0.0
-150.0   0.0   16.666666666666668
-100.0   0.0   0.0
-100.0   30.0   0.0
-150.0   30.0   0.0
-100.0   30.0   16.666666666666668
-150.0   0.0   16.666666666666668
-150.0   30.0   16.666666666666668
-100.0   30.0   16.666666666666668
-150.0   30.0   0.0
-150.0   0.0   16.666666666666668
-100.0   30.0   16.666666666666668
-100.0   0.0   16.666666666666668
-100.0   0.0   0.0
-150.0   0.0   16.666666666666668
-100.0   30.0   16.666666666666668
-100.0   0.0   0.0
-150.0   30.0   0.0
-150.0   0.0   16.666666666666668
-100.0   0.0   16.666666666666668
-150.0   30.0   16.666666666666668
-150.0   0.0   33.333333333333336
-100.0   0.0   16.666666666666668
-100.0   30.0   16.666666666666668
-150.0   30.0   16.666666666666668
-100.0   30.0   33.333333333333336
-150.0   0.0   33.333333333333336
-150.0   30.0   33.333333333333336
-100.0   30.0   33.333333333333336
-150.0   30.0   16.666666666666668
-150.0   0.0   33.333333333333336
-100.0   30.0   33.333333333333336
-100.0   0.0   33.333333333333336
-100.0   0.0   16.666666666666668
-150.0   0.0   33.333333333333336
-100.0   30.0   33.333333333333336
-100.0   0.0   16.666666666666668
-150.0   30.0   16.666666666666668
-150.0   0.0   33.333333333333336
-100.0   0.0   33.333333333333336
-150.0   30.0   33.333333333333336
-150.0   0.0   50.0
-100.0   0.0   33.333333333333336
-100.0   30.0   33.333333333333336
-150.0   30.0   33.333333333333336
-100.0   30.0   50.0
-150.0   0.0   50.0
-150.0   30.0   50.0
-100.0   30.0   50.0
-150.0   30.0   33.333333333333336
-150.0   0.0   50.0
-100.0   30.0   50.0
-100.0   0.0   50.0
-100.0   0.0   33.333333333333336
-150.0   0.0   50.0
-100.0   30.0   50.0
-100.0   0.0   33.333333333333336
-150.0   30.0   33.333333333333336
-150.0   30.0   0.0
-100.0   30.0   0.0
-150.0   60.0   0.0
-150.0   30.0   16.666666666666668
-100.0   30.0   0.0
-100.0   60.0   0.0
-150.0   60.0   0.0
-100.0   60.0   16.666666666666668
-150.0   30.0   16.666666666666668
-150.0   60.0   16.666666666666668
-100.0   60.0   16.666666666666668
-150.0   60.0   0.0
-150.0   30.0   16.666666666666668
-100.0   60.0   16.666666666666668
-100.0   30.0   16.666666666666668
-100.0   30.0   0.0
-150.0   30.0   16.666666666666668
-100.0   60.0   16.666666666666668
-100.0   30.0   0.0
-150.0   60.0   0.0
-150.0   30.0   16.666666666666668
-100.0   30.0   16.666666666666668
-150.0   60.0   16.666666666666668
-150.0   30.0   33.333333333333336
-100.0   30.0   16.666666666666668
-100.0   60.0   16.666666666666668
-150.0   60.0   16.666666666666668
-100.0   60.0   33.333333333333336
-150.0   30.0   33.333333333333336
-150.0   60.0   33.333333333333336
-100.0   60.0   33.333333333333336
-150.0   60.0   16.666666666666668
-150.0   30.0   33.333333333333336
-100.0   60.0   33.333333333333336
-100.0   30.0   33.333333333333336
-100.0   30.0   16.666666666666668
-150.0   30.0   33.333333333333336
-100.0   60.0   33.333333333333336
-100.0   30.0   16.666666666666668
-150.0   60.0   16.666666666666668
-150.0   30.0   33.333333333333336
-100.0   30.0   33.333333333333336
-150.0   60.0   33.333333333333336
-150.0   30.0   50.0
-100.0   30.0   33.333333333333336
-100.0   60.0   33.333333333333336
-150.0   60.0   33.333333333333336
-100.0   60.0   50.0
-150.0   30.0   50.0
-150.0   60.0   50.0
-100.0   60.0   50.0
-150.0   60.0   33.333333333333336
-150.0   30.0   50.0
-100.0   60.0   50.0
-100.0   30.0   50.0
-100.0   30.0   33.333333333333336
-150.0   30.0   50.0
-100.0   60.0   50.0
-100.0   30.0   33.333333333333336
-150.0   60.0   33.333333333333336
-150.0   60.0   0.0
-100.0   60.0   0.0
-150.0   90.0   0.0
-150.0   60.0   16.666666666666668
-100.0   60.0   0.0
-100.0   90.0   0.0
-150.0   90.0   0.0
-100.0   90.0   16.666666666666668
-150.0   60.0   16.666666666666668
-150.0   90.0   16.666666666666668
-100.0   90.0   16.666666666666668
-150.0   90.0   0.0
-150.0   60.0   16.666666666666668
-100.0   90.0   16.666666666666668
-100.0   60.0   16.666666666666668
-100.0   60.0   0.0
-150.0   60.0   16.666666666666668
-100.0   90.0   16.666666666666668
-100.0   60.0   0.0
-150.0   90.0   0.0
-150.0   60.0   16.666666666666668
-100.0   60.0   16.666666666666668
-150.0   90.0   16.666666666666668
-150.0   60.0   33.333333333333336
-100.0   60.0   16.666666666666668
-100.0   90.0   16.666666666666668
-150.0   90.0   16.666666666666668
-100.0   90.0   33.333333333333336
-150.0   60.0   33.333333333333336
-150.0   90.0   33.333333333333336
-100.0   90.0   33.333333333333336
-150.0   90.0   16.666666666666668
-150.0   60.0   33.333333333333336
-100.0   90.0   33.333333333333336
-100.0   60.0   33.333333333333336
-100.0   60.0   16.666666666666668
-150.0   60.0   33.333333333333336
-100.0   90.0   33.333333333333336
-100.0   60.0   16.666666666666668
-150.0   90.0   16.666666666666668
-150.0   60.0   33.333333333333336
-100.0   60.0   33.333333333333336
-150.0   90.0   33.333333333333336
-150.0   60.0   50.0
-100.0   60.0   33.333333333333336
-100.0   90.0   33.333333333333336
-150.0   90.0   33.333333333333336
-100.0   90.0   50.0
-150.0   60.0   50.0
-150.0   90.0   50.0
-100.0   90.0   50.0
-150.0   90.0   33.333333333333336
-150.0   60.0   50.0
-100.0   90.0   50.0
-100.0   60.0   50.0
-100.0   60.0   33.333333333333336
-150.0   60.0   50.0
-100.0   90.0   50.0
-100.0   60.0   33.333333333333336
-150.0   90.0   33.333333333333336
-150.0   90.0   0.0
-100.0   90.0   0.0
-150.0   120.0   0.0
-150.0   90.0   16.666666666666668
-100.0   90.0   0.0
-100.0   120.0   0.0
-150.0   120.0   0.0
-100.0   120.0   16.666666666666668
-150.0   90.0   16.666666666666668
-150.0   120.0   16.666666666666668
-100.0   120.0   16.666666666666668
-150.0   120.0   0.0
-150.0   90.0   16.666666666666668
-100.0   120.0   16.666666666666668
-100.0   90.0   16.666666666666668
-100.0   90.0   0.0
-150.0   90.0   16.666666666666668
-100.0   120.0   16.666666666666668
-100.0   90.0   0.0
-150.0   120.0   0.0
-150.0   90.0   16.666666666666668
-100.0   90.0   16.666666666666668
-150.0   120.0   16.666666666666668
-150.0   90.0   33.333333333333336
-100.0   90.0   16.666666666666668
-100.0   120.0   16.666666666666668
-150.0   120.0   16.666666666666668
-100.0   120.0   33.333333333333336
-150.0   90.0   33.333333333333336
-150.0   120.0   33.333333333333336
-100.0   120.0   33.333333333333336
-150.0   120.0   16.666666666666668
-150.0   90.0   33.333333333333336
-100.0   120.0   33.333333333333336
-100.0   90.0   33.333333333333336
-100.0   90.0   16.666666666666668
-150.0   90.0   33.333333333333336
-100.0   120.0   33.333333333333336
-100.0   90.0   16.666666666666668
-150.0   120.0   16.666666666666668
-150.0   90.0   33.333333333333336
-100.0   90.0   33.333333333333336
-150.0   120.0   33.333333333333336
-150.0   90.0   50.0
-100.0   90.0   33.333333333333336
-100.0   120.0   33.333333333333336
-150.0   120.0   33.333333333333336
-100.0   120.0   50.0
-150.0   90.0   50.0
-150.0   120.0   50.0
-100.0   120.0   50.0
-150.0   120.0   33.333333333333336
-150.0   90.0   50.0
-100.0   120.0   50.0
-100.0   90.0   50.0
-100.0   90.0   33.333333333333336
-150.0   90.0   50.0
-100.0   120.0   50.0
-100.0   90.0   33.333333333333336
-150.0   120.0   33.333333333333336
-150.0   120.0   0.0
-100.0   120.0   0.0
-150.0   150.0   0.0
-150.0   120.0   16.666666666666668
-100.0   120.0   0.0
-100.0   150.0   0.0
-150.0   150.0   0.0
-100.0   150.0   16.666666666666668
-150.0   120.0   16.666666666666668
-150.0   150.0   16.666666666666668
-100.0   150.0   16.666666666666668
-150.0   150.0   0.0
-150.0   120.0   16.666666666666668
-100.0   150.0   16.666666666666668
-100.0   120.0   16.666666666666668
-100.0   120.0   0.0
-150.0   120.0   16.666666666666668
-100.0   150.0   16.666666666666668
-100.0   120.0   0.0
-150.0   150.0   0.0
-150.0   120.0   16.666666666666668
-100.0   120.0   16.666666666666668
-150.0   150.0   16.666666666666668
-150.0   120.0   33.333333333333336
-100.0   120.0   16.666666666666668
-100.0   150.0   16.666666666666668
-150.0   150.0   16.666666666666668
-100.0   150.0   33.333333333333336
-150.0   120.0   33.333333333333336
-150.0   150.0   33.333333333333336
-100.0   150.0   33.333333333333336
-150.0   150.0   16.666666666666668
-150.0   120.0   33.333333333333336
-100.0   150.0   33.333333333333336
-100.0   120.0   33.333333333333336
-100.0   120.0   16.666666666666668
-150.0   120.0   33.333333333333336
-100.0   150.0   33.333333333333336
-100.0   120.0   16.666666666666668
-150.0   150.0   16.666666666666668
-150.0   120.0   33.333333333333336
-100.0   120.0   33.333333333333336
-150.0   150.0   33.333333333333336
-150.0   120.0   50.0
-100.0   120.0   33.333333333333336
-100.0   150.0   33.333333333333336
-150.0   150.0   33.333333333333336
-100.0   150.0   50.0
-150.0   120.0   50.0
-150.0   150.0   50.0
-100.0   150.0   50.0
-150.0   150.0   33.333333333333336
-150.0   120.0   50.0
-100.0   150.0   50.0
-100.0   120.0   50.0
-100.0   120.0   33.333333333333336
-150.0   120.0   50.0
-100.0   150.0   50.0
-100.0   120.0   33.333333333333336
-150.0   150.0   33.333333333333336
-100.0   0.0   0.0
-50.0   0.0   0.0
-100.0   30.0   0.0
-100.0   0.0   16.666666666666668
-50.0   0.0   0.0
-50.0   30.0   0.0
-100.0   30.0   0.0
-50.0   30.0   16.666666666666668
-100.0   0.0   16.666666666666668
-100.0   30.0   16.666666666666668
-50.0   30.0   16.666666666666668
-100.0   30.0   0.0
-100.0   0.0   16.666666666666668
-50.0   30.0   16.666666666666668
-50.0   0.0   16.666666666666668
-50.0   0.0   0.0
-100.0   0.0   16.666666666666668
-50.0   30.0   16.666666666666668
-50.0   0.0   0.0
-100.0   30.0   0.0
-100.0   0.0   16.666666666666668
-50.0   0.0   16.666666666666668
-100.0   30.0   16.666666666666668
-100.0   0.0   33.333333333333336
-50.0   0.0   16.666666666666668
-50.0   30.0   16.666666666666668
-100.0   30.0   16.666666666666668
-50.0   30.0   33.333333333333336
-100.0   0.0   33.333333333333336
-100.0   30.0   33.333333333333336
-50.0   30.0   33.333333333333336
-100.0   30.0   16.666666666666668
-100.0   0.0   33.333333333333336
-50.0   30.0   33.333333333333336
-50.0   0.0   33.333333333333336
-50.0   0.0   16.666666666666668
-100.0   0.0   33.333333333333336
-50.0   30.0   33.333333333333336
-50.0   0.0   16.666666666666668
-100.0   30.0   16.666666666666668
-100.0   0.0   33.333333333333336
-50.0   0.0   33.333333333333336
-100.0   30.0   33.333333333333336
-100.0   0.0   50.0
-50.0   0.0   33.333333333333336
-50.0   30.0   33.333333333333336
-100.0   30.0   33.333333333333336
-50.0   30.0   50.0
-100.0   0.0   50.0
-100.0   30.0   50.0
-50.0   30.0   50.0
-100.0   30.0   33.333333333333336
-100.0   0.0   50.0
-50.0   30.0   50.0
-50.0   0.0   50.0
-50.0   0.0   33.333333333333336
-100.0   0.0   50.0
-50.0   30.0   50.0
-50.0   0.0   33.333333333333336
-100.0   30.0   33.333333333333336
-100.0   30.0   0.0
-50.0   30.0   0.0
-100.0   60.0   0.0
-100.0   30.0   16.666666666666668
-50.0   30.0   0.0
-50.0   60.0   0.0
-100.0   60.0   0.0
-50.0   60.0   16.666666666666668
-100.0   30.0   16.666666666666668
-100.0   60.0   16.666666666666668
-50.0   60.0   16.666666666666668
-100.0   60.0   0.0
-100.0   30.0   16.666666666666668
-50.0   60.0   16.666666666666668
-50.0   30.0   16.666666666666668
-50.0   30.0   0.0
-100.0   30.0   16.666666666666668
-50.0   60.0   16.666666666666668
-50.0   30.0   0.0
-100.0   60.0   0.0
-100.0   30.0   16.666666666666668
-50.0   30.0   16.666666666666668
-100.0   60.0   16.666666666666668
-100.0   30.0   33.333333333333336
-50.0   30.0   16.666666666666668
-50.0   60.0   16.666666666666668
-100.0   60.0   16.666666666666668
-50.0   60.0   33.333333333333336
-100.0   30.0   33.333333333333336
-100.0   60.0   33.333333333333336
-50.0   60.0   33.333333333333336
-100.0   60.0   16.666666666666668
-100.0   30.0   33.333333333333336
-50.0   60.0   33.333333333333336
-50.0   30.0   33.333333333333336
-50.0   30.0   16.666666666666668
-100.0   30.0   33.333333333333336
-50.0   60.0   33.333333333333336
-50.0   30.0   16.666666666666668
-100.0   60.0   16.666666666666668
-100.0   30.0   33.333333333333336
-50.0   30.0   33.333333333333336
-100.0   60.0   33.333333333333336
-100.0   30.0   50.0
-50.0   30.0   33.333333333333336
-50.0   60.0   33.333333333333336
-100.0   60.0   33.333333333333336
-50.0   60.0   50.0
-100.0   30.0   50.0
-100.0   60.0   50.0
-50.0   60.0   50.0
-100.0   60.0   33.333333333333336
-100.0   30.0   50.0
-50.0   60.0   50.0
-50.0   30.0   50.0
-50.0   30.0   33.333333333333336
-100.0   30.0   50.0
-50.0   60.0   50.0
-50.0   30.0   33.333333333333336
-100.0   60.0   33.333333333333336
-100.0   60.0   0.0
-50.0   60.0   0.0
-100.0   90.0   0.0
-100.0   60.0   16.666666666666668
-50.0   60.0   0.0
-50.0   90.0   0.0
-100.0   90.0   0.0
-50.0   90.0   16.666666666666668
-100.0   60.0   16.666666666666668
-100.0   90.0   16.666666666666668
-50.0   90.0   16.666666666666668
-100.0   90.0   0.0
-100.0   60.0   16.666666666666668
-50.0   90.0   16.666666666666668
-50.0   60.0   16.666666666666668
-50.0   60.0   0.0
-100.0   60.0   16.666666666666668
-50.0   90.0   16.666666666666668
-50.0   60.0   0.0
-100.0   90.0   0.0
-100.0   60.0   16.666666666666668
-50.0   60.0   16.666666666666668
-100.0   90.0   16.666666666666668
-100.0   60.0   33.333333333333336
-50.0   60.0   16.666666666666668
-50.0   90.0   16.666666666666668
-100.0   90.0   16.666666666666668
-50.0   90.0   33.333333333333336
-100.0   60.0   33.333333333333336
-100.0   90.0   33.333333333333336
-50.0   90.0   33.333333333333336
-100.0   90.0   16.666666666666668
-100.0   60.0   33.333333333333336
-50.0   90.0   33.333333333333336
-50.0   60.0   33.333333333333336
-50.0   60.0   16.666666666666668
-100.0   60.0   33.333333333333336
-50.0   90.0   33.333333333333336
-50.0   60.0   16.666666666666668
-100.0   90.0   16.666666666666668
-100.0   60.0   33.333333333333336
-50.0   60.0   33.333333333333336
-100.0   90.0   33.333333333333336
-100.0   60.0   50.0
-50.0   60.0   33.333333333333336
-50.0   90.0   33.333333333333336
-100.0   90.0   33.333333333333336
-50.0   90.0   50.0
-100.0   60.0   50.0
-100.0   90.0   50.0
-50.0   90.0   50.0
-100.0   90.0   33.333333333333336
-100.0   60.0   50.0
-50.0   90.0   50.0
-50.0   60.0   50.0
-50.0   60.0   33.333333333333336
-100.0   60.0   50.0
-50.0   90.0   50.0
-50.0   60.0   33.333333333333336
-100.0   90.0   33.333333333333336
-100.0   90.0   0.0
-50.0   90.0   0.0
-100.0   120.0   0.0
-100.0   90.0   16.666666666666668
-50.0   90.0   0.0
-50.0   120.0   0.0
-100.0   120.0   0.0
-50.0   120.0   16.666666666666668
-100.0   90.0   16.666666666666668
-100.0   120.0   16.666666666666668
-50.0   120.0   16.666666666666668
-100.0   120.0   0.0
-100.0   90.0   16.666666666666668
-50.0   120.0   16.666666666666668
-50.0   90.0   16.666666666666668
-50.0   90.0   0.0
-100.0   90.0   16.666666666666668
-50.0   120.0   16.666666666666668
-50.0   90.0   0.0
-100.0   120.0   0.0
-100.0   90.0   16.666666666666668
-50.0   90.0   16.666666666666668
-100.0   120.0   16.666666666666668
-100.0   90.0   33.333333333333336
-50.0   90.0   16.666666666666668
-50.0   120.0   16.666666666666668
-100.0   120.0   16.666666666666668
-50.0   120.0   33.333333333333336
-100.0   90.0   33.333333333333336
-100.0   120.0   33.333333333333336
-50.0   120.0   33.333333333333336
-100.0   120.0   16.666666666666668
-100.0   90.0   33.333333333333336
-50.0   120.0   33.333333333333336
-50.0   90.0   33.333333333333336
-50.0   90.0   16.666666666666668
-100.0   90.0   33.333333333333336
-50.0   120.0   33.333333333333336
-50.0   90.0   16.666666666666668
-100.0   120.0   16.666666666666668
-100.0   90.0   33.333333333333336
-50.0   90.0   33.333333333333336
-100.0   120.0   33.333333333333336
-100.0   90.0   50.0
-50.0   90.0   33.333333333333336
-50.0   120.0   33.333333333333336
-100.0   120.0   33.333333333333336
-50.0   120.0   50.0
-100.0   90.0   50.0
-100.0   120.0   50.0
-50.0   120.0   50.0
-100.0   120.0   33.333333333333336
-100.0   90.0   50.0
-50.0   120.0   50.0
-50.0   90.0   50.0
-50.0   90.0   33.333333333333336
-100.0   90.0   50.0
-50.0   120.0   50.0
-50.0   90.0   33.333333333333336
-100.0   120.0   33.333333333333336
-100.0   120.0   0.0
-50.0   120.0   0.0
-100.0   150.0   0.0
-100.0   120.0   16.666666666666668
-50.0   120.0   0.0
-50.0   150.0   0.0
-100.0   150.0   0.0
-50.0   150.0   16.666666666666668
-100.0   120.0   16.666666666666668
-100.0   150.0   16.666666666666668
-50.0   150.0   16.666666666666668
-100.0   150.0   0.0
-100.0   120.0   16.666666666666668
-50.0   150.0   16.666666666666668
-50.0   120.0   16.666666666666668
-50.0   120.0   0.0
-100.0   120.0   16.666666666666668
-50.0   150.0   16.666666666666668
-50.0   120.0   0.0
-100.0   150.0   0.0
-100.0   120.0   16.666666666666668
-50.0   120.0   16.666666666666668
-100.0   150.0   16.666666666666668
-100.0   120.0   33.333333333333336
-50.0   120.0   16.666666666666668
-50.0   150.0   16.666666666666668
-100.0   150.0   16.666666666666668
-50.0   150.0   33.333333333333336
-100.0   120.0   33.333333333333336
-100.0   150.0   33.333333333333336
-50.0   150.0   33.333333333333336
-100.0   150.0   16.666666666666668
-100.0   120.0   33.333333333333336
-50.0   150.0   33.333333333333336
-50.0   120.0   33.333333333333336
-50.0   120.0   16.666666666666668
-100.0   120.0   33.333333333333336
-50.0   150.0   33.333333333333336
-50.0   120.0   16.666666666666668
-100.0   150.0   16.666666666666668
-100.0   120.0   33.333333333333336
-50.0   120.0   33.333333333333336
-100.0   150.0   33.333333333333336
-100.0   120.0   50.0
-50.0   120.0   33.333333333333336
-50.0   150.0   33.333333333333336
-100.0   150.0   33.333333333333336
-50.0   150.0   50.0
-100.0   120.0   50.0
-100.0   150.0   50.0
-50.0   150.0   50.0
-100.0   150.0   33.333333333333336
-100.0   120.0   50.0
-50.0   150.0   50.0
-50.0   120.0   50.0
-50.0   120.0   33.333333333333336
-100.0   120.0   50.0
-50.0   150.0   50.0
-50.0   120.0   33.333333333333336
-100.0   150.0   33.333333333333336
-50.0   0.0   0.0
0.0   0.0   0.0
-50.0   30.0   0.0
-50.0   0.0   16.666666666666668
0.0   0.0   0.0
0.0   30.0   0.0
-50.0   30.0   0.0
0.0   30.0   16.666666666666668
-50.0   0.0   16.666666666666668
-50.0   30.0   16.666666666666668
0.0   30.0   16.666666666666668
-50.0   30.0   0.0
-50.0   0.0   16.666666666666668
0.0   30.0   16.666666666666668
0.0   0.0   16.666666666666668
0.0   0.0   0.0
-50.0   0.0   16.666666666666668
0.0   30.0   16.666666666666668
0.0   0.0   0.0
-50.0   30.0   0.0
-50.0   0.0   16.666666666666668
0.0   0.0   16.666666666666668
-50.0   30.0   16.666666666666668
-50.0   0.0   33.333333333333336
0.0   0.0   16.666666666666668
0.0   30.0   16.666666666666668
-50.0   30.0   16.666666666666668
0.0   30.0   33.333333333333336
-50.0   0.0   33.333333333333336
-50.0   30.0   33.333333333333336
0.0   30.0   33.333333333333336
-50.0   30.0   16.666666666666668
-50.0   0.0   33.333333333333336
0.0   30.0   33.333333333333336
0.0   0.0   33.333333333333336
0.0   0.0   16.666666666666668
-50.0   0.0   33.333333333333336
0.0   30.0   33.333333333333336
0.0   0.0   16.666666666666668
-50.0   30.0   16.666666666666668
-50.0   0.0   33.333333333333336
0.0   0.0   33.333333333333336
-50.0   30.0   33.333333333333336
-50.0   0.0   50.0
0.0   0.0   33.333333333333336
0.0   30.0   33.333333333333336
-50.0   30.0   33.333333333333336
0.0   30.0   50.0
-50.0   0.0   50.0
-50.0   30.0   50.0
0.0   30.0   50.0
-50.0   30.0   33.333333333333336
-50.0   0.0   50.0
0.0   30.0   50.0
0.0   0.0   50.0
0.0   0.0   33.333333333333336
-50.0   0.0   50.0
0.0   30.0   50.0
0.0   0.0   33.333333333333336
-50.0   30.0   33.333333333333336
-50.0   30.0   0.0
0.0   30.0   0.0
-50.0   60.0   0.0
-50.0   30.0   16.666666666666668
0.0   30.0   0.0
0.0   60.0   0.0
-50.0   60.0   0.0
0.0   60.0   16.666666666666668
-50.0   30.0   16.666666666666668
-50.0   60.0   16.666666666666668
0.0   60.0   16.666666666666668
-50.0   60.0   0.0
-50.0   30.0   16.666666666666668
0.0   60.0   16.666666666666668
0.0   30.0   16.666666666666668
0.0   30.0   0.0
-50.0   30.0   16.666666666666668
0.0   60.0   16.666666666666668
0.0   30.0   0.0
-50.0   60.0   0.0
-50.0   30.0   16.666666666666668
0.0   30.0   16.666666666666668
-50.0   60.0   16.666666666666668
-50.0   30.0   33.333333333333336
0.0   30.0   16.666666666666668
0.0   60.0   16.666666666666668
-50.0   60.0   16.666666666666668
0.0   60.0   33.333333333333336
-50.0   30.0   33.333333333333336
-50.0   60.0   33.333333333333336
0.0   60.0   33.333333333333336
-50.0   60.0   16.666666666666668
-50.0   30.0   33.333333333333336
0.0   60.0   33.333333333333336
0.0   30.0   33.333333333333336
0.0   30.0   16.666666666666668
-50.0   30.0   33.333333333333336
0.0   60.0   33.333333333333336
0.0   30.0   16.666666666666668
-50.0   60.0   16.666666666666668
-50.0   30.0   33.333333333333336
0.0   30.0   33.333333333333336
-50.0   60.0   33.333333333333336
-50.0   30.0   50.0
0.0   30.0   33.333333333333336
0.0   60.0   33.333333333333336
-50.0   60.0   33.333333333333336
0.0   60.0   50.0
-50.0   30.0   50.0
-50.0   60.0   50.0
0.0   60.0   50.0
-50.0   60.0   33.333333333333336
-50.0   30.0   50.0
0.0   60.0   50.0
0.0   30.0   50.0
0.0   30.0   33.333333333333336
-50.0   30.0   50.0
0.0   60.0   50.0
0.0   30.0   33.333333333333336
-50.0   60.0   33.333333333333336
-50.0   60.0   0.0
0.0   60.0   0.0
-50.0   90.0   0.0
-50.0   60.0   16.666666666666668
0.0   60.0   0.0
0.0   90.0   0.0
-50.0   90.0   0.0
0.0   90.0   16.666666666666668
-50.0   60.0   16.666666666666668
-50.0   90.0   16.666666666666668
0.0   90.0   16.666666666666668
-50.0   90.0   0.0
-50.0   60.0   16.666666666666668
0.0   90.0   16.666666666666668
0.0   60.0   16.666666666666668
0.0   60.0   0.0
-50.0   60.0   16.666666666666668
0.0   90.0   16.666666666666668
0.0   60.0   0.0
-50.0   90.0   0.0
-50.0   60.0   16.666666666666668
0.0   60.0   16.666666666666668
-50.0   90.0   16.666666666666668
-50.0   60.0   33.333333333333336
0.0   60.0   16.666666666666668
0.0   90.0   16.666666666666668
-50.0   90.0   16.666666666666668
0.0   90.0   33.333333333333336
-50.0   60.0   33.333333333333336
-50.0   90.0   33.333333333333336
0.0   90.0   33.333333333333336
-50.0   90.0   16.666666666666668
-50.0   60.0   33.333333333333336
0.0   90.0   33.333333333333336
0.0   60.0   33.333333333333336
0.0   60.0   16.666666666666668
-50.0   60.0   33.333333333333336
0.0   90.0   33.333333333333336
0.0   60.0   16.666666666666668
-50.0   90.0   16.666666666666668
-50.0   60.0   33.333333333333336
0.0   60.0   33.333333333333336
-50.0   90.0   33.333333333333336
-50.0   60.0   50.0
0.0   60.0   33.333333333333336
0.0   90.0   33.333333333333336
-50.0   90.0   33.333333333333336
0.0   90.0   50.0
-50.0   60.0   50.0
-50.0   90.0   50.0
0.0   90.0   50.0
-50.0   90.0   33.333333333333336
-50.0   60.0   50.0
0.0   90.0   50.0
0.0   60.0   50.0
0.0   60.0   33.333333333333336
-50.0   60.0   50.0
0.0   90.0   50.0
0.0   60.0   33.333333333333336
-50.0   90.0   33.333333333333336
-50.0   90.0   0.0
0.0   90.0   0.0
-50.0   120.0   0.0
-50.0   90.0   16.666666666666668
0.0   90.0   0.0
0.0   120.0   0.0
-50.0   120.0   0.0
0.0   120.0   16.666666666666668
-50.0   90.0   16.666666666666668
-50.0   120.0   16.666666666666668
0.0   120.0   16.666666666666668
-50.0   120.0   0.0
-50.0   90.0   16.666666666666668
0.0   120.0   16.666666666666668
0.0   90.0   16.666666666666668
0.0   90.0   0.0
-50.0   90.0   16.666666666666668
0.0   120.0   16.666666666666668
0.0   90.0   0.0
-50.0   120.0   0.0
-50.0   90.0   16.666666666666668
0.0   90.0   16.666666666666668
-50.0   120.0   16.666666666666668
-50.0   90.0   33.333333333333336
0.0   90.0   16.666666666666668
0.0   120.0   16.666666666666668
-50.0   120.0   16.666666666666668
0.0   120.0   33.333333333333336
-50.0   90.0   33.333333333333336
-50.0   120.0   33.333333333333336
0.0   120.0   33.333333333333336
-50.0   120.0   16.666666666666668
-50.0   90.0   33.333333333333336
0.0   120.0   33.333333333333336
0.0   90.0   33.333333333333336
0.0   90.0   16.666666666666668
-50.0   90.0   33.333333333333336
0.0   120.0   33.333333333333336
0.0   90.0   16.666666666666668
-50.0   120.0   16.666666666666668
-50.0   90.0   33.333333333333336
0.0   90.0   33.333333333333336
-50.0   120.0   33.333333333333336
-50.0   90.0   50.0
0.0   90.0   33.333333333333336
0.0   120.0   33.333333333333336
-50.0   120.0   33.333333333333336
0.0   120.0   50.0
-50.0   90.0   50.0
-50.0   120.0   50.0
0.0   120.0   50.0
-50.0   120.0   33.333333333333336
-50.0   90.0   50.0
0.0   120.0   50.0
0.0   90.0   50.0
0.0   90.0   33.333333333333336
-50.0   90.0   50.0
0.0   120.0   50.0
0.0   90.0   33.333333333333336
-50.0   120.0   33.333333333333336
-50.0   120.0   0.0
0.0   120.0   0.0
-50.0   150.0   0.0
-50.0   120.0   16.666666666666668
0.0   120.0   0.0
0.0   150.0   0.0
-50.0   150.0   0.0
0.0   150.0   16.666666666666668
-50.0   120.0   16.666666666666668
-50.0   150.0   16.666666666666668
0.0   150.0   16.666666666666668
-50.0   150.0   0.0
-50.0   120.0   16.666666666666668
0.0   150.0   16.666666666666668
0.0   120.0   16.666666666666668
0.0   120.0   0.0
-50.0   120.0   16.666666666666668
0.0   150.0   16.666666666666668
0.0   120.0   0.0
-50.0   150.0   0.0
-50.0   120.0   16.666666666666668
0.0   120.0   16.666666666666668
-50.0   150.0   16.666666666666668
-50.0   120.0   33.333333333333336
0.0   120.0   16.666666666666668
0.0   150.0   16.666666666666668
-50.0   150.0   16.666666666666668
0.0   150.0   33.333333333333336
-50.0   120.0   33.333333333333336
-50.0   150.0   33.333333333333336
0.0   150.0   33.333333333333336
-50.0   150.0   16.666666666666668
-50.0   120.0   33.333333333333336
0.0   150.0   33.333333333333336
0.0   120.0   33.333333333333336
0.0   120.0   16.666666666666668
-50.0   120.0   33.333333333333336
0.0   150.0   33.333333333333336
0.0   120.0   16.666666666666668
-50.0   150.0   16.666666666666668
-50.0   120.0   33.333333333333336
0.0   120.0   33.333333333333336
-50.0   150.0   33.333333333333336
-50.0   120.0   50.0
0.0   120.0   33.333333333333336
0.0   150.0   33.333333333333336
-50.0   150.0   33.333333333333336
0.0   150.0   50.0
-50.0   120.0   50.0
-50.0   150.0   50.0
0.0   150.0   50.0
-50.0   150.0   33.333333333333336
-50.0   120.0   50.0
0.0   150.0   50.0
0.0   120.0   50.0
0.0   120.0   33.333333333333336
-50.0   120.0   50.0
0.0   150.0   50.0
0.0   120.0   33.333333333333336
-50.0   150.0   33.333333333333336
0.0   0.0   0.0
50.0   0.0   0.0
0.0   30.0   0.0
0.0   0.0   16.666666666666668
50.0   0.0   0.0
50.0   30.0   0.0
0.0   30.0   0.0
50.0   30.0   16.666666666666668
0.0   0.0   16.666666666666668
0.0   30.0   16.666666666666668
50.0   30.0   16.666666666666668
0.0   30.0   0.0
0.0   0.0   16.666666666666668
50.0   30.0   16.666666666666668
50.0   0.0   16.666666666666668
50.0   0.0   0.0
0.0   0.0   16.666666666666668
50.0   30.0   16.666666666666668
50.0   0.0   0.0
0.0   30.0   0.0
0.0   0.0   16.666666666666668
50.0   0.0   16.666666666666668
0.0   30.0   16.666666666666668
0.0   0.0   33.333333333333336
50.0   0.0   16.666666666666668
50.0   30.0   16.666666666666668
0.0   30.0   16.666666666666668
50.0   30.0   33.333333333333336
0.0   0.0   33.333333333333336
0.0   30.0   33.333333333333336
50.0   30.0   33.333333333333336
0.0   30.0   16.666666666666668
0.0   0.0   33.333333333333336
50.0   30.0   33.333333333333336
50.0   0.0   33.333333333333336
50.0   0.0   16.666666666666668
0.0   0.0   33.333333333333336
50.0   30.0   33.333333333333336
50.0   0.0   16.666666666666668
0.0   30.0   16.666666666666668
0.0   0.0   33.333333333333336
50.0   0.0   33.333333333333336
0.0   30.0   33.333333333333336
0.0   0.0   50.0
50.0   0.0   33.333333333333336
50.0   30.0   33.333333333333336
0.0   30.0   33.333333333333336
50.0   30.0   50.0
0.0   0.0   50.0
0.0   30.0   50.0
50.0   30.0   50.0
0.0   30.0   33.333333333333336
0.0   0.0   50.0
50.0   30.0   50.0
50.0   0.0   50.0
50.0   0.0   33.333333333333336
0.0   0.0   50.0
50.0   30.0   50.0
50.0   0.0   33.333333333333336
0.0   30.0   33.333333333333336
0.0   30.0   0.0
50.0   30.0   0.0
0.0   60.0   0.0
0.0   30.0   16.666666666666668
50.0   30.0   0.0
50.0   60.0   0.0
0.0   60.0   0.0
50.0   60.0   16.666666666666668
0.0   30.0   16.666666666666668
0.0   60.0   16.666666666666668
50.0   60.0   16.666666666666668
0.0   60.0   0.0
0.0   30.0   16.666666666666668
50.0   60.0   16.666666666666668
50.0   30.0   16.666666666666668
50.0   30.0   0.0
0.0   30.0   16.666666666666668
50.0   60.0   16.666666666666668
50.0   30.0   0.0
0.0   60.0   0.0
0.0   30.0   16.666666666666668
50.0   30.0   16.666666666666668
0.0   60.0   16.666666666666668
0.0   30.0   33.333333333333336
50.0   30.0   16.666666666666668
50.0   60.0   16.666666666666668
0.0   60.0   16.666666666666668
50.0   60.0   33.333333333333336
0.0   30.0   33.333333333333336
0.0   60.0   33.333333333333336
50.0   60.0   33.333333333333336
0.0   60.0   16.666666666666668
0.0   30.0   33.333333333333336
50.0   60.0   33.333333333333336
50.0   30.0   33.333333333333336
50.0   30.0   16.666666666666668
0.0   30.0   33.333333333333336
50.0   60.0   33.333333333333336
50.0   30.0   16.666666666666668
0.0   60.0   16.666666666666668
0.0   30.0   33.333333333333336
50.0   30.0   33.333333333333336
0.0   60.0   33.333333333333336
0.0   30.0   50.0
50.0   30.0   33.333333333333336
50.0   60.0   33.333333333333336
0.0   60.0   33.333333333333336
50.0   60.0   50.0
0.0   30.0   50.0
0.0   60.0   50.0
50.0   60.0   50.0
0.0   60.0   33.333333333333336
0.0   30.0   50.0
50.0   60.0   50.0
50.0   30.0   50.0
50.0   30.0   33.333333333333336
0.0   30.0   50.0
50.0   60.0   50.0
50.0   30.0   33.333333333333336
0.0   60.0   33.333333333333336
0.0   60.0   0.0
50.0   60.0   0.0
0.0   90.0   0.0
0.0   60.0   16.666666666666668
50.0   60.0   0.0
50.0   90.0   0.0
0.0   90.0   0.0
50.0   90.0   16.666666666666668
0.0   60.0   16.666666666666668
0.0   90.0   16.666666666666668
50.0   90.0   16.666666666666668
0.0   90.0   0.0
0.0   60.0   16.666666666666668
50.0   90.0   16.666666666666668
50.0   60.0   16.666666666666668
50.0   60.0   0.0
0.0   60.0   16.666666666666668
50.0   90.0   16.666666666666668
50.0   60.0   0.0
0.0   90.0   0.0
0.0   60.0   16.666666666666668
50.0   60.0   16.666666666666668
0.0   90.0   16.666666666666668
0.0   60.0   33.333333333333336
50.0   60.0   16.666666666666668
50.0   90.0   16.666666666666668
0.0   90.0   16.666666666666668
50.0   90.0   33.333333333333336
0.0   60.0   33.333333333333336
0.0   90.0   33.333333333333336
50.0   90.0   33.333333333333336
0.0   90.0   16.666666666666668
0.0   60.0   33.333333333333336
50.0   90.0   33.333333333333336
50.0   60.0   33.333333333333336
50.0   60.0   16.666666666666668
0.0   60.0   33.333333333333336
50.0   90.0   33.333333333333336
50.0   60.0   16.666666666666668
0.0   90.0   16.666666666666668
0.0   60.0   33.333333333333336
50.0   60.0   33.333333333333336
0.0   90.0   33.333333333333336
0.0   60.0   50.0
50.0   60.0   33.333333333333336
50.0   90.0   33.333333333333336
0.0   90.0   33.333333333333336
50.0   90.0   50.0
0.0   60.0   50.0
0.0   90.0   50.0
50.0   90.0   50.0
0.0   90.0   33.333333333333336
0.0   60.0   50.0
50.0   90.0   50.0
50.0   60.0   50.0
50.0   60.0   33.333333333333336
0.0   60.0   50.0
50.0   90.0   50.0
50.0   60.0   33.333333333333336
0.0   90.0   33.333333333333336
0.0   90.0   0.0
50.0   90.0   0.0
0.0   120.0   0.0
0.0   90.0   16.666666666666668
50.0   90.0   0.0
50.0   120.0   0.0
0.0   120.0   0.0
50.0   120.0   16.666666666666668
0.0   90.0   16.666666666666668
0.0   120.0   16.666666666666668
50.0   120.0   16.666666666666668
0.0   120.0   0.0
0.0   90.0   16.666666666666668
50.0   120.0   16.666666666666668
50.0   90.0   16.666666666666668
50.0   90.0   0.0
0.0   90.0   16.666666666666668
50.0   120.0   16.666666666666668
50.0   90.0   0.0
0.0   120.0   0.0
0.0   90.0   16.666666666666668
50.0   90.0   16.666666666666668
0.0   120.0   16.666666666666668
0.0   90.0   33.333333333333336
50.0   90.0   16.666666666666668
50.0   120.0   16.666666666666668
0.0   120.0   16.666666666666668
50.0   120.0   33.333333333333336
0.0   90.0   33.333333333333336
0.0   120.0   33.333333333333336
50.0   120.0   33.333333333333336
0.0   120.0   16.666666666666668
0.0   90.0   33.333333333333336
50.0   120.0   33.333333333333336
50.0   90.0   33.333333333333336
50.0   90.0   16.666666666666668
0.0   90.0   33.333333333333336
50.0   120.0   33.333333333333336
50.0   90.0   16.666666666666668
0.0   120.0   16.666666666666668
0.0   90.0   33.333333333333336
50.0   90.0   33.333333333333336
0.0   120.0   33.333333333333336
0.0   90.0   50.0
50.0   90.0   33.333333333333336
50.0   120.0   33.333333333333336
0.0   120.0   33.333333333333336
50.0   120.0   50.0
0.0   90.0   50.0
0.0   120.0   50.0
50.0   120.0   50.0
0.0   120.0   33.333333333333336
0.0   90.0   50.0
50.0   120.0   50.0
50.0   90.0   50.0
50.0   90.0   33.333333333333336
0.0   90.0   50.0
50.0   120.0   50.0
50.0   90.0   33.333333333333336
0.0   120.0   33.333333333333336
0.0   120.0   0.0
50.0   120.0   0.0
0.0   150.0   0.0
0.0   120.0   16.666666666666668
50.0   120.0   0.0
50.0   150.0   0.0
0.0   150.0   0.0
50.0   150.0   16.666666666666668
0.0   120.0   16.666666666666668
0.0   150.0   16.666666666666668
50.0   150.0   16.666666666666668
0.0   150.0   0.0
0.0   120.0   16.666666666666668
50.0   150.0   16.666666666666668
50.0   120.0   16.666666666666668
50.0   120.0   0.0
0.0   120.0   16.666666666666668
50.0   150.0   16.666666666666668
50.0   120.0   0.0
0.0   150.0   0.0
0.0   120.0   16.666666666666668
50.0   120.0   16.666666666666668
0.0   150.0   16.666666666666668
0.0   120.0   33.333333333333336
50.0   120.0   16.666666666666668
50.0   150.0   16.666666666666668
0.0   150.0   16.666666666666668
50.0   150.0   33.333333333333336
0.0   120.0   33.333333333333336
0.0   150.0   33.333333333333336
50.0   150.0   33.333333333333336
0.0   150.0   16.666666666666668
0.0   120.0   33.333333333333336
50.0   150.0   33.333333333333336
50.0   120.0   33.333333333333336
50.0   120.0   16.666666666666668
0.0   120.0   33.333333333333336
50.0   150.0   33.333333333333336
50.0   120.0   16.666666666666668
0.0   150.0   16.666666666666668
0.0   120.0   33.333333333333336
50.0   120.0   33.333333333333336
0.0   150.0   33.333333333333336
0.0   120.0   50.0
50.0   120.0   33.333333333333336
50.0   150.0   33.333333333333336
0.0   150.0   33.333333333333336
50.0   150.0   50.0
0.0   120.0   50.0
0.0   150.0   50.0
50.0   150.0   50.0
0.0   150.0   33.333333333333336
0.0   120.0   50.0
50.0   150.0   50.0
50.0   120.0   50.0
50.0   120.0   33.333333333333336
0.0   120.0   50.0
50.0   150.0   50.0
50.0   120.0   33.333333333333336
0.0   150.0   33.333333333333336
50.0   0.0   0.0
100.0   0.0   0.0
50.0   30.0   0.0
50.0   0.0   16.666666666666668
100.0   0.0   0.0
100.0   30.0   0.0
50.0   30.0   0.0
100.0   30.0   16.666666666666668
50.0   0.0   16.666666666666668
50.0   30.0   16.666666666666668
100.0   30.0   16.666666666666668
50.0   30.0   0.0
50.0   0.0   16.666666666666668
100.0   30.0   16.666666666666668
100.0   0.0   16.666666666666668
100.0   0.0   0.0
50.0   0.0   16.666666666666668
100.0   30.0   16.666666666666668
100.0   0.0   0.0
50.0   30.0   0.0
50.0   0.0   16.666666666666668
100.0   0.0   16.666666666666668
50.0   30.0   16.666666666666668
50.0   0.0   33.333333333333336
100.0   0.0   16.666666666666668
100.0   30.0   16.666666666666668
50.0   30.0   16.666666666666668
100.0   30.0   33.333333333333336
50.0   0.0   33.333333333333336
50.0   30.0   33.333333333333336
100.0   30.0   33.333333333333336
50.0   30.0   16.666666666666668
50.0   0.0   33.333333333333336
100.0   30.0   33.333333333333336
100.0   0.0   33.333333333333336
100.0   0.0   16.666666666666668
50.0   0.0   33.333333333333336
100.0   30.0   33.333333333333336
100.0   0.0   16.666666666666668
50.0   30.0   16.666666666666668
50.0   0.0   33.333333333333336
100.0   0.0   33.333333333333336
50.0   30.0   33.333333333333336
50.0   0.0   50.0
100.0   0.0   33.333333333333336
100.0   30.0   33.333333333333336
50.0   30.0   33.333333333333336
100.0   30.0   50.0
50.0   0.0   50.0
50.0   30.0   50.0
100.0   30.0   50.0
50.0   30.0   33.333333333333336
50.0   0.0   50.0
100.0   30.0   50.0
100.0   0.0   50.0
100.0   0.0   33.333333333333336
50.0   0.0   50.0
100.0   30.0   50.0
100.0   0.0   33.333333333333336
50.0   30.0   33.333333333333336
50.0   30.0   0.0
100.0   30.0   0.0
50.0   60.0   0.0
50.0   30.0   16.666666666666668
100.0   30.0   0.0
100.0   60.0   0.0
50.0   60.0   0.0
100.0   60.0   16.666666666666668
50.0   30.0   16.666666666666668
50.0   60.0   16.666666666666668
100.0   60.0   16.666666666666668
50.0   60.0   0.0
50.0   30.0   16.666666666666668
100.0   60.0   16.666666666666668
100.0   30.0   16.666666666666668
100.0   30.0   0.0
50.0   30.0   16.666666666666668
100.0   60.0   16.666666666666668
100.0   30.0   0.0
50.0   60.0   0.0
50.0   30.0   16.666666666666668
100.0   30.0   16.666666666666668
50.0   60.0   16.666666666666668
50.0   30.0   33.333333333333336
100.0   30.0   16.666666666666668
100.0   60.0   16.666666666666668
50.0   60.0   16.666666666666668
100.0   60.0   33.333333333333336
50.0   30.0   33.333333333333336
50.0   60.0   33.333333333333336
100.0   60.0   33.333333333333336
50.0   60.0   16.666666666666668
50.0   30.0   33.333333333333336
100.0   60.0   33.333333333333336
100.0   30.0   33.333333333333336
100.0   30.0   16.666666666666668
50.0   30.0   33.333333333333336
100.0   60.0   33.333333333333336
100.0   30.0   16.666666666666668
50.0   60.0   16.666666666666668
50.0   30.0   33.333333333333336
100.0   30.0   33.333333333333336
50.0   60.0   33.333333333333336
50.0   30.0   50.0
100.0   30.0   33.333333333333336
100.0   60.0   33.333333333333336
50.0   60.0   33.333333333333336
100.0   60.0   50.0
50.0   30.0   50.0
50.0   60.0   50.0
100.0   60.0   50.0
50.0   60.0   33.333333333333336
50.0   30.0   50.0
100.0   60.0   50.0
100.0   30.0   50.0
100.0   30.0   33.333333333333336
50.0   30.0   50.0
100.0   60.0   50.0
100.0   30.0   33.333333333333336
50.0   60.0   33.333333333333336
50.0   60.0   0.0
100.0   60.0   0.0
50.0   90.0   0.0
50.0   60.0   16.666666666666668
100.0   60.0   0.0
100.0   90.0   0.0
50.0   90.0   0.0
100.0   90.0   16.666666666666668
50.0   60.0   16.666666666666668
50.0   90.0   16.666666666666668
100.0   90.0   16.666666666666668
50.0   90.0   0.0
50.0   60.0   16.666666666666668
100.0   90.0   16.666666666666668
100.0   60.0   16.666666666666668
100.0   60.0   0.0
50.0   60.0   16.666666666666668
100.0   90.0   16.666666666666668
100.0   60.0   0.0
50.0   90.0   0.0
50.0   60.0   16.666666666666668
100.0   60.0   16.666666666666668
50.0   90.0   16.666666666666668
50.0   60.0   33.333333333333336
100.0   60.0   16.666666666666668
100.0   90.0   16.666666666666668
50.0   90.0   16.666666666666668
100.0   90.0   33.333333333333336
50.0   60.0   33.333333333333336
50.0   90.0   33.333333333333336
100.0   90.0   33.333333333333336
50.0   90.0   16.666666666666668
50.0   60.0   33.333333333333336
100.0   90.0   33.333333333333336
100.0   60.0   33.333333333333336
100.0   60.0   16.666666666666668
50.0   60.0   33.333333333333336
100.0   90.0   33.333333333333336
100.0   60.0   16.666666666666668
50.0   90.0   16.666666666666668
50.0   60.0   33.333333333333336
100.0   60.0   33.333333333333336
50.0   90.0   33.333333333333336
50.0   60.0   50.0
100.0   60.0   33.333333333333336
100.0   90.0   33.333333333333336
50.0   90.0   33.333333333333336
100.0   90.0   50.0
50.0   60.0   50.0
50.0   90.0   50.0
100.0   90.0   50.0
50.0   90.0   33.333333333333336
50.0   60.0   50.0
100.0   90.0   50.0
100.0   60.0   50.0
100.0   60.0   33.333333333333336
50.0   60.0   50.0
100.0   90.0   50.0
100.0   60.0   33.333333333333336
50.0   90.0   33.333333333333336
50.0   90.0   0.0
100.0   90.0   0.0
50.0   120.0   0.0
50.0   90.0   16.666666666666668
100.0   90.0   0.0
100.0   120.0   0.0
50.0   120.0   0.0
100.0   120.0   16.666666666666668
50.0   90.0   16.666666666666668
50.0   120.0   16.666666666666668
100.0   120.0   16.666666666666668
50.0   120.0   0.0
50.0   90.0   16.666666666666668
100.0   120.0   16.666666666666668
100.0   90.0   16.666666666666668
100.0   90.0   0.0
50.0   90.0   16.666666666666668
100.0   120.0   16.666666666666668
100.0   90.0   0.0
50.0   120.0   0.0
50.0   90.0   16.666666666666668
100.0   90.0   16.666666666666668
50.0   120.0   16.666666666666668
50.0   90.0   33.333333333333336
100.0   90.0   16.666666666666668
100.0   120.0   16.666666666666668
50.0   120.0   16.666666666666668
100.0   120.0   33.333333333333336
50.0   90.0   33.333333333333336
50.0   120.0   33.333333333333336
100.0   120.0   33.333333333333336
50.0   120.0   16.666666666666668
50.0   90.0   33.333333333333336
100.0   120.0   33.333333333333336
100.0   90.0   33.333333333333336
100.0   90.0   16.666666666666668
50.0   90.0   33.333333333333336
100.0   120.0   33.333333333333336
100.0   90.0   16.666666666666668
50.0   120.0   16.666666666666668
50.0   90.0   33.333333333333336
100.0   90.0   33.333333333333336
50.0   120.0   33.333333333333336
50.0   90.0   50.0
100.0   90.0   33.333333333333336
100.0   120.0   33.333333333333336
50.0   120.0   33.333333333333336
100.0   120.0   50.0
50.0   90.0   50.0
50.0   120.0   50.0
100.0   120.0   50.0
50.0   120.0   33.333333333333336
50.0   90.0   50.0
100.0   120.0   50.0
100.0   90.0   50.0
100.0   90.0   33.333333333333336
50.0   90.0   50.0
100.0   120.0   50.0
100.0   90.0   33.333333333333336
50.0   120.0   33.333333333333336
50.0   120.0   0.0
100.0   120.0   0.0
50.0   150.0   0.0
50.0   120.0   16.666666666666668
100.0   120.0   0.0
100.0   150.0   0.0
50.0   150.0   0.0
100.0   150.0   16.666666666666668
50.0   120.0   16.666666666666668
50.0   150.0   16.666666666666668
100.0   150.0   16.666666666666668
50.0   150.0   0.0
50.0   120.0   16.666666666666668
100.0   150.0   16.666666666666668
100.0   120.0   16.666666666666668
100.0   120.0   0.0
50.0   120.0   16.666666666666668
100.0   150.0   16.666666666666668
100.0   120.0   0.0
50.0   150.0   0.0
50.0   120.0   16.666666666666668
100.0   120.0   16.666666666666668
50.0   150.0   16.666666666666668
50.0   120.0   33.333333333333336
100.0   120.0   16.666666666666668
100.0   150.0   16.666666666666668
50.0   150.0   16.666666666666668
100.0   150.0   33.333333333333336
50.0   120.0   33.333333333333336
50.0   150.0   33.333333333333336
100.0   150.0   33.333333333333336
50.0   150.0   16.666666666666668
50.0   120.0   33.333333333333336
100.0   150.0   33.333333333333336
100.0   120.0   33.333333333333336
100.0   120.0   16.666666666666668
50.0   120.0   33.333333333333336
100.0   150.0   33.333333333333336
100.0   120.0   16.666666666666668
50.0   150.0   16.666666666666668
50.0   120.0   33.333333333333336
100.0   120.0   33.333333333333336
50.0   150.0   33.333333333333336
50.0   120.0   50.0
100.0   120.0   33.333333333333336
100.0   150.0   33.333333333333336
50.0   150.0   33.333333333333336
100.0   150.0   50.0
50.0   120.0   50.0
50.0   150.0   50.0
100.0   150.0   50.0
50.0   150.0   33.333333333333336
50.0   120.0   50.0
100.0   150.0   50.0
100.0   120.0   50.0
100.0   120.0   33.333333333333336
50.0   120.0   50.0
100.0   150.0   50.0
100.0   120.0   33.333333333333336
50.0   150.0   33.333333333333336
100.0   0.0   0.0
150.0   0.0   0.0
100.0   30.0   0.0
100.0   0.0   16.666666666666668
150.0   0.0   0.0
150.0   30.0   0.0
100.0   30.0   0.0
150.0   30.0   16.666666666666668
100.0   0.0   16.666666666666668
100.0   30.0   16.666666666666668
150.0   30.0   16.666666666666668
100.0   30.0   0.0
100.0   0.0   16.666666666666668
150.0   30.0   16.666666666666668
150.0   0.0   16.666666666666668
150.0   0.0   0.0
100.0   0.0   16.666666666666668
150.0   30.0   16.666666666666668
150.0   0.0   0.0
100.0   30.0   0.0
100.0   0.0   16.666666666666668
150.0   0.0   16.666666666666668
100.0   30.0   16.666666666666668
100.0   0.0   33.333333333333336
150.0   0.0   16.666666666666668
150.0   30.0   16.666666666666668
100.0   30.0   16.666666666666668
150.0   30.0   33.333333333333336
100.0   0.0   33.333333333333336
100.0   30.0   33.333333333333336
150.0   30.0   33.333333333333336
100.0   30.0   16.666666666666668
100.0   0.0   33.333333333333336
150.0   30.0   33.333333333333336
150.0   0.0   33.333333333333336
150.0   0.0   16.666666666666668
100.0   0.0   33.333333333333336
150.0   30.0   33.333333333333336
150.0   0.0   16.666666666666668
100.0   30.0   16.666666666666668
100.0   0.0   33.333333333333336
150.0   0.0   33.333333333333336
100.0   30.0   33.333333333333336
100.0   0.0   50.0
150.0   0.0   33.333333333333336
150.0   30.0   33.333333333333336
100.0   30.0   33.333333333333336
150.0   30.0   50.0
100.0   0.0   50.0
100.0   30.0   50.0
150.0   30.0   50.0
100.0   30.0   33.333333333333336
100.0   0.0   50.0
150.0   30.0   50.0
150.0   0.0   50.0
150.0   0.0   33.333333333333336
100.0   0.0   50.0
150.0   30.0   50.0
150.0   0.0   33.333333333333336
100.0   30.0   33.333333333333336
100.0   30.0   0.0
150.0   30.0   0.0
100.0   60.0   0.0
100.0   30.0   16.666666666666668
150.0   30.0   0.0
150.0   60.0   0.0
100.0   60.0   0.0
150.0   60.0   16.666666666666668
100.0   30.0   16.666666666666668
100.0   60.0   16.666666666666668
150.0   60.0   16.666666666666668
100.0   60.0   0.0
100.0   30.0   16.666666666666668
150.0   60.0   16.666666666666668
150.0   30.0   16.666666666666668
150.0   30.0   0.0
100.0   30.0   16.666666666666668
150.0   60.0   16.666666666666668
150.0   30.0   0.0
100.0   60.0   0.0
100.0   30.0   16.666666666666668
150.0   30.0   16.666666666666668
100.0   60.0   16.666666666666668
100.0   30.0   33.333333333333336
150.0   30.0   16.666666666666668
150.0   60.0   16.666666666666668
100.0   60.0   16.666666666666668
150.0   60.0   33.333333333333336
100.0   30.0   33.333333333333336
100.0   60.0   33.333333333333336
150.0   60.0   33.333333333333336
100.0   60.0   16.666666666666668
100.0   30.0   33.333333333333336
150.0   60.0   33.333333333333336
150.0   30.0   33.333333333333336
150.0   30.0   16.666666666666668
100.0   30.0   33.333333333333336
150.0   60.0   33.333333333333336
150.0   30.0   16.666666666666668
100.0   60.0   16.666666666666668
100.0   30.0   33.333333333333336
150.0   30.0   33.333333333333336
100.0   60.0   33.333333333333336
100.0   30.0   50.0
150.0   30.0   33.333333333333336
150.0   60.0   33.333333333333336
100.0   60.0   33.333333333333336
150.0   60.0   50.0
100.0   30.0   50.0
100.0   60.0   50.0
150.0   60.0   50.0
100.0   60.0   33.333333333333336
100.0   30.0   50.0
150.0   60.0   50.0
150.0   30.0   50.0
150.0   30.0   33.333333333333336
100.0   30.0   50.0
150.0   60.0   50.0
150.0   30.0   33.333333333333336
100.0   60.0   33.333333333333336
100.0   60.0   0.0
150.0   60.0   0.0
100.0   90.0   0.0
100.0   60.0   16.666666666666668
150.0   60.0   0.0
150.0   90.0   0.0
100.0   90.0   0.0
150.0   90.0   16.666666666666668
100.0   60.0   16.666666666666668
100.0   90.0   16.666666666666668
150.0   90.0   16.666666666666668
100.0   90.0   0.0
100.0   60.0   16.666666666666668
150.0   90.0   16.666666666666668
150.0   60.0   16.666666666666668
150.0   60.0   0.0
100.0   60.0   16.666666666666668
150.0   90.0   16.666666666666668
150.0   60.0   0.0
100.0   90.0   0.0
100.0   60.0   16.666666666666668
150.0   60.0   16.666666666666668
100.0   90.0   16.666666666666668
100.0   60.0   33.333333333333336
150.0   60.0   16.666666666666668
150.0   90.0   16.666666666666668
100.0   90.0   16.666666666666668
150.0   90.0   33.333333333333336
100.0   60.0   33.333333333333336
100.0   90.0   33.333333333333336
150.0   90.0   33.333333333333336
100.0   90.0   16.666666666666668
100.0   60.0   33.333333333333336
150.0   90.0   33.333333333333336
150.0   60.0   33.333333333333336
150.0   60.0   16.666666666666668
100.0   60.0   33.333333333333336
150.0   90.0   33.333333333333336
150.0   60.0   16.666666666666668
100.0   90.0   16.666666666666668
100.0   60.0   33.333333333333336
150.0   60.0   33.333333333333336
100.0   90.0   33.333333333333336
100.0   60.0   50.0
150.0   60.0   33.333333333333336
150.0   90.0   33.333333333333336
100.0   90.0   33.333333333333336
150.0   90.0   50.0
100.0   60.0   50.0
100.0   90.0   50.0
150.0   90.0   50.0
100.0   90.0   33.333333333333336
100.0   60.0   50.0
150.0   90.0   50.0
150.0   60.0   50.0
150.0   60.0   33.333333333333336
100.0   60.0   50.0
150.0   90.0   50.0
150.0   60.0   33.333333333333336
100.0   90.0   33.333333333333336
100.0   90.0   0.0
150.0   90.0   0.0
100.0   120.0   0.0
100.0   90.0   16.666666666666668
150.0   90.0   0.0
150.0   120.0   0.0
100.0   120.0   0.0
150.0   120.0   16.666666666666668
100.0   90.0   16.666666666666668
100.0   120.0   16.666666666666668
150.0   120.0   16.666666666666668
100.0   120.0   0.0
100.0   90.0   16.666666666666668
150.0   120.0   16.666666666666668
150.0   90.0   16.666666666666668
150.0   90.0   0.0
100.0   90.0   16.666666666666668
150.0   120.0   16.666666666666668
150.0   90.0   0.0
100.0   120.0   0.0
100.0   90.0   16.666666666666668
150.0   90.0   16.666666666666668
100.0   120.0   16.666666666666668
100.0   90.0   33.333333333333336
150.0   90.0   16.666666666666668
150.0   120.0   16.666666666666668
100.0   120.0   16.666666666666668
150.0   120.0   33.333333333333336
100.0   90.0   33.333333333333336
100.0   120.0   33.333333333333336
150.0   120.0   33.333333333333336
100.0   120.0   16.666666666666668
100.0   90.0   33.333333333333336
150.0   120.0   33.333333333333336
150.0   90.0   33.333333333333336
150.0   90.0   16.666666666666668
100.0   90.0   33.333333333333336
150.0   120.0   33.333333333333336
150.0   90.0   16.666666666666668
100.0   120.0   16.666666666666668
100.0   90.0   33.333333333333336
150.0   90.0   33.333333333333336
100.0   120.0   33.333333333333336
100.0   90.0   50.0
150.0   90.0   33.333333333333336
150.0   120.0   33.333333333333336
100.0   120.0   33.333333333333336
150.0   120.0   50.0
100.0   90.0   50.0
100.0   120.0   50.0
150.0   120.0   50.0
100.0   120.0   33.333333333333336
100.0   90.0   50.0
150.0   120.0   50.0
150.0   90.0   50.0
150.0   90.0   33.333333333333336
100.0   90.0   50.0
150.0   120.0   50.0
150.0   90.0   33.333333333333336
100.0   120.0   33.333333333333336
100.0   120.0   0.0
150.0   120.0   0.0
100.0   150.0   0.0
100.0   120.0   16.666666666666668
150.0   120.0   0.0
150.0   150.0   0.0
100.0   150.0   0.0
150.0   150.0   16.666666666666668
100.0   120.0   16.666666666666668
100.0   150.0   16.666666666666668
150.0   150.0   16.666666666666668
100.0   150.0   0.0
100.0   120.0   16.666666666666668
150.0   150.0   16.666666666666668
150.0   120.0   16.666666666666668
150.0   120.0   0.0
100.0   120.0   16.666666666666668
150.0   150.0   16.666666666666668
150.0   120.0   0.0
100.0   150.0   0.0
100.0   120.0   16.666666666666668
150.0   120.0   16.666666666666668
100.0   150.0   16.666666666666668
100.0   120.0   33.333333333333336
150.0   120.0   16.666666666666668
150.0   150.0   16.666666666666668
100.0   150.0   16.666666666666668
150.0   150.0   33.333333333333336
100.0   120.0   33.333333333333336
100.0   150.0   33.333333333333336
150.0   150.0   33.333333333333336
100.0   150.0   16.666666666666668
100.0   120.0   33.333333333333336
150.0   150.0   33.333333333333336
150.0   120.0   33.333333333333336
150.0   120.0   16.666666666666668
100.0   120.0   33.333333333333336
150.0   150.0   33.333333333333336
150.0   120.0   16.666666666666668
100.0   150.0   16.666666666666668
100.0   120.0   33.333333333333336
150.0   120.0   33.333333333333336
100.0   150.0   33.333333333333336
100.0   120.0   50.0
150.0   120.0   33.333333333333336
150.0   150.0   33.333333333333336
100.0   150.0   33.333333333333336
150.0   150.0   50.0
100.0   120.0   50.0
100.0   150.0   50.0
150.0   150.0   50.0
100.0   150.0   33.333333333333336
100.0   120.0   50.0
150.0   150.0   50.0
150.0   120.0   50.0
150.0   120.0   33.333333333333336
100.0   120.0   50.0
150.0   150.0   50.0
150.0   120.0   33.333333333333336
100.0   150.0   33.333333333333336
150.0   0.0   0.0
200.0   0.0   0.0
150.0   30.0   0.0
150.0   0.0   16.666666666666668
200.0   0.0   0.0
200.0   30.0   0.0
150.0   30.0   0.0
200.0   30.0   16.666666666666668
150.0   0.0   16.666666666666668
150.0   30.0   16.666666666666668
200.0   30.0   16.666666666666668
150.0   30.0   0.0
150.0   0.0   16.666666666666668
200.0   30.0   16.666666666666668
200.0   0.0   16.666666666666668
200.0   0.0   0.0
150.0   0.0   16.666666666666668
200.0   30.0   16.666666666666668
200.0   0.0   0.0
150.0   30.0   0.0
150.0   0.0   16.666666666666668
200.0   0.0   16.666666666666668
150.0   30.0   16.666666666666668
150.0   0.0   33.333333333333336
200.0   0.0   16.666666666666668
200.0   30.0   16.666666666666668
150.0   30.0   16.666666666666668
200.0   30.0   33.333333333333336
150.0   0.0   33.333333333333336
150.0   30.0   33.333333333333336
200.0   30.0   33.333333333333336
150.0   30.0   16.666666666666668
150.0   0.0   33.333333333333336
200.0   30.0   33.333333333333336
200.0   0.0   33.333333333333336
200.0   0.0   16.666666666666668
150.0   0.0   33.333333333333336
200.0   30.0   33.333333333333336
200.0   0.0   16.666666666666668
150.0   30.0   16.666666666666668
150.0   0.0   33.333333333333336
200.0   0.0   33.333333333333336
150.0   30.0   33.333333333333336
150.0   0.0   50.0
200.0   0.0   33.333333333333336
200.0   30.0   33.333333333333336
150.0   30.0   33.333333333333336
200.0   30.0   50.0
150.0   0.0   50.0
150.0   30.0   50.0
200.0   30.0   50.0
150.0   30.0   33.333333333333336
150.0   0.0   50.0
200.0   30.0   50.0
200.0   0.0   50.0
200.0   0.0   33.333333333333336
150.0   0.0   50.0
200.0   30.0   50.0
200.0   0.0   33.333333333333336
150.0   30.0   33.333333333333336
150.0   30.0   0.0
200.0   30.0   0.0
150.0   60.0   0.0
150.0   30.0   16.666666666666668
200.0   30.0   0.0
200.0   60.0   0.0
150.0   60.0   0.0
200.0   60.0   16.666666666666668
150.0   30.0   16.666666666666668
150.0   60.0   16.666666666666668
200.0   60.0   16.666666666666668
150.0   60.0   0.0
150.0   30.0   16.666666666666668
200.0   60.0   16.666666666666668
200.0   30.0   16.666666666666668
200.0   30.0   0.0
150.0   30.0   16.666666666666668
200.0   60.0   16.666666666666668
200.0   30.0   0.0
150.0   60.0   0.0
150.0   30.0   16.666666666666668
200.0   30.0   16.666666666666668
150.0   60.0   16.666666666666668
150.0   30.0   33.333333333333336
200.0   30.0   16.666666666666668
200.0   60.0   16.666666666666668
150.0   60.0   16.666666666666668
200.0   60.0   33.333333333333336
150.0   30.0   33.333333333333336
150.0   60.0   33.333333333333336
200.0   60.0   33.333333333333336
150.0   60.0   16.666666666666668
150.0   30.0   33.333333333333336
200.0   60.0   33.333333333333336
200.0   30.0   33.333333333333336
200.0   30.0   16.666666666666668
150.0   30.0   33.333333333333336
200.0   60.0   33.333333333333336
200.0   30.0   16.666666666666668
150.0   60.0   16.666666666666668
150.0   30.0   33.333333333333336
200.0   30.0   33.333333333333336
150.0   60.0   33.333333333333336
150.0   30.0   50.0
200.0   30.0   33.333333333333336
200.0   60.0   33.333333333333336
150.0   60.0   33.333333333333336
200.0   60.0   50.0
150.0   30.0   50.0
150.0   60.0   50.0
200.0   60.0   50.0
150.0   60.0   33.333333333333336
150.0   30.0   50.0
200.0   60.0   50.0
200.0   30.0   50.0
200.0   30.0   33.333333333333336
150.0   30.0   50.0
200.0   60.0   50.0
200.0   30.0   33.333333333333336
150.0   60.0   33.333333333333336
150.0   60.0   0.0
200.0   60.0   0.0
150.0   90.0   0.0
150.0   60.0   16.666666666666668
200.0   60.0   0.0
200.0   90.0   0.0
150.0   90.0   0.0
200.0   90.0   16.666666666666668
150.0   60.0   16.666666666666668
150.0   90.0   16.666666666666668
200.0   90.0   16.666666666666668
150.0   90.0   0.0
150.0   60.0   16.666666666666668
200.0   90.0   16.666666666666668
200.0   60.0   16.666666666666668
200.0   60.0   0.0
150.0   60.0   16.666666666666668
200.0   90.0   16.666666666666668
200.0   60.0   0.0
150.0   90.0   0.0
150.0   60.0   16.666666666666668
200.0   60.0   16.666666666666668
150.0   90.0   16.666666666666668
150.0   60.0   33.333333333333336
200.0   60.0   16.666666666666668
200.0   90.0   16.666666666666668
150.0   90.0   16.666666666666668
200.0   90.0   33.333333333333336
150.0   60.0   33.333333333333336
150.0   90.0   33.333333333333336
200.0   90.0   33.333333333333336
150.0   90.0   16.666666666666668
150.0   60.0   33.333333333333336
200.0   90.0   33.333333333333336
200.0   60.0   33.333333333333336
200.0   60.0   16.666666666666668
150.0   60.0   33.333333333333336
200.0   90.0   33.333333333333336
200.0   60.0   16.666666666666668
150.0   90.0   16.666666666666668
150.0   60.0   33.333333333333336
200.0   60.0   33.333333333333336
150.0   90.0   33.333333333333336
150.0   60.0   50.0
200.0   60.0   33.333333333333336
200.0   90.0   33.333333333333336
150.0   90.0   33.333333333333336
200.0   90.0   50.0
150.0   60.0   50.0
150.0   90.0   50.0
200.0   90.0   50.0
150.0   90.0   33.333333333333336
150.0   60.0   50.0
200.0   90.0   50.0
200.0   60.0   50.0
200.0   60.0   33.333333333333336
150.0   60.0   50.0
200.0   90.0   50.0
200.0   60.0   33.333333333333336
150.0   90.0   33.333333333333336
150.0   90.0   0.0
200.0   90.0   0.0
150.0   120.0   0.0
150.0   90.0   16.666666666666668
200.0   90.0   0.0
200.0   120.0   0.0
150.0   120.0   0.0
200.0   120.0   16.666666666666668
150.0   90.0   16.666666666666668
150.0   120.0   16.666666666666668
200.0   120.0   16.666666666666668
150.0   120.0   0.0
150.0   90.0   16.666666666666668
200.0   120.0   16.666666666666668
200.0   90.0   16.666666666666668
200.0   90.0   0.0
150.0   90.0   16.666666666666668
200.0   120.0   16.666666666666668
200.0   90.0   0.0
150.0   120.0   0.0
150.0   90.0   16.666666666666668
200.0   90.0   16.666666666666668
150.0   120.0   16.666666666666668
150.0   90.0   33.333333333333336
200.0   90.0   16.666666666666668
200.0   120.0   16.666666666666668
150.0   120.0   16.666666666666668
200.0   120.0   33.333333333333336
150.0   90.0   33.333333333333336
150.0   120.0   33.333333333333336
200.0   120.0   33.333333333333336
150.0   120.0   16.666666666666668
150.0   90.0   33.333333333333336
200.0   120.0   33.333333333333336
200.0   90.0   33.333333333333336
200.0   90.0   16.666666666666668
150.0   90.0   33.333333333333336
200.0   120.0   33.333333333333336
200.0   90.0   16.666666666666668
150.0   120.0   16.666666666666668
150.0   90.0   33.333333333333336
200.0   90.0   33.333333333333336
150.0   120.0   33.333333333333336
150.0   90.0   50.0
200.0   90.0   33.333333333333336
200.0   120.0   33.333333333333336
150.0   120.0   33.333333333333336
200.0   120.0   50.0
150.0   90.0   50.0
150.0   120.0   50.0
200.0   120.0   50.0
150.0   120.0   33.333333333333336
150.0   90.0   50.0
200.0   120.0   50.0
200.0   90.0   50.0
200.0   90.0   33.333333333333336
150.0   90.0   50.0
200.0   120.0   50.0
200.0   90.0   33.333333333333336
150.0   120.0   33.333333333333336
150.0   120.0   0.0
200.0   120.0   0.0
150.0   150.0   0.0
150.0   120.0   16.666666666666668
200.0   120.0   0.0
200.0   150.0   0.0
150.0   150.0   0.0
200.0   150.0   16.666666666666668
150.0   120.0   16.666666666666668
150.0   150.0   16.666666666666668
200.0   150.0   16.666666666666668
150.0   150.0   0.0
150.0   120.0   16.666666666666668
200.0   150.0   16.666666666666668
200.0   120.0   16.666666666666668
200.0   120.0   0.0
150.0   120.0   16.666666666666668
200.0   150.0   16.666666666666668
200.0   120.0   0.0
150.0   150.0   0.0
150.0   120.0   16.666666666666668
200.0   120.0   16.666666666666668
150.0   150.0   16.666666666666668
150.0   120.0   33.333333333333336
200.0   120.0   16.666666666666668
200.0   150.0   16.666666666666668
150.0   150.0   16.666666666666668
200.0   150.0   33.333333333333336
150.0   120.0   33.333333333333336
150.0   150.0   33.333333333333336
200.0   150.0   33.333333333333336
150.0   150.0   16.666666666666668
150.0   120.0   33.333333333333336
200.0   150.0   33.333333333333336
200.0   120.0   33.333333333333336
200.0   120.0   16.666666666666668
150.0   120.0   33.333333333333336
200.0   150.0   33.333333333333336
200.0   120.0   16.666666666666668
150.0   150.0   16.666666666666668
150.0   120.0   33.333333333333336
200.0   120.0   33.333333333333336
150.0   150.0   33.333333333333336
150.0   120.0   50.0
200.0   120.0   33.333333333333336
200.0   150.0   33.333333333333336
150.0   150.0   33.333333333333336
200.0   150.0   50.0
150.0   120.0   50.0
150.0   150.0   50.0
200.0   150.0   50.0
150.0   150.0   33.333333333333336
150.0   120.0   50.0
200.0   150.0   50.0
200.0   120.0   50.0
200.0   120.0   33.333333333333336
150.0   120.0   50.0
200.0   150.0   50.0
200.0   120.0   33.333333333333336
150.0   150.0   33.333333333333336
200.0   0.0   0.0
250.0   0.0   0.0
200.0   30.0   0.0
200.0   0.0   16.666666666666668
250.0   0.0   0.0
250.0   30.0   0.0
200.0   30.0   0.0
250.0   30.0   16.666666666666668
200.0   0.0   16.666666666666668
200.0   30.0   16.666666666666668
250.0   30.0   16.666666666666668
200.0   30.0   0.0
200.0   0.0   16.666666666666668
250.0   30.0   16.666666666666668
250.0   0.0   16.666666666666668
250.0   0.0   0.0
200.0   0.0   16.666666666666668
250.0   30.0   16.666666666666668
250.0   0.0   0.0
200.0   30.0   0.0
200.0   0.0   16.666666666666668
250.0   0.0   16.666666666666668
200.0   30.0   16.666666666666668
200.0   0.0   33.333333333333336
250.0   0.0   16.666666666666668
250.0   30.0   16.666666666666668
200.0   30.0   16.666666666666668
250.0   30.0   33.333333333333336
200.0   0.0   33.333333333333336
200.0   30.0   33.333333333333336
250.0   30.0   33.333333333333336
200.0   30.0   16.666666666666668
200.0   0.0   33.333333333333336
250.0   30.0   33.333333333333336
250.0   0.0   33.333333333333336
250.0   0.0   16.666666666666668
200.0   0.0   33.333333333333336
250.0   30.0   33.333333333333336
250.0   0.0   16.666666666666668
200.0   30.0   16.666666666666668
200.0   0.0   33.333333333333336
250.0   0.0   33.333333333333336
200.0   30.0   33.333333333333336
200.0   0.0   50.0
250.0   0.0   33.333333333333336
250.0   30.0   33.333333333333336
200.0   30.0   33.333333333333336
250.0   30.0   50.0
200.0   0.0   50.0
200.0   30.0   50.0
250.0   30.0   50.0
200.0   30.0   33.333333333333336
200.0   0.0   50.0
250.0   30.0   50.0
250.0   0.0   50.0
250.0   0.0   33.333333333333336
200.0   0.0   50.0
250.0   30.0   50.0
250.0   0.0   33.333333333333336
200.0   30.0   33.333333333333336
200.0   30.0   0.0
250.0   30.0   0.0
200.0   60.0   0.0
200.0   30.0   16.666666666666668
250.0   30.0   0.0
250.0   60.0   0.0
200.0   60.0   0.0
250.0   60.0   16.666666666666668
200.0   30.0   16.666666666666668
200.0   60.0   16.666666666666668
250.0   60.0   16.666666666666668
200.0   60.0   0.0
200.0   30.0   16.666666666666668
250.0   60.0   16.666666666666668
250.0   30.0   16.666666666666668
250.0   30.0   0.0
200.0   30.0   16.666666666666668
250.0   60.0   16.666666666666668
250.0   30.0   0.0
200.0   60.0   0.0
200.0   30.0   16.666666666666668
250.0   30.0   16.666666666666668
200.0   60.0   16.666666666666668
200.0   30.0   33.333333333333336
250.0   30.0   16.666666666666668
250.0   60.0   16.666666666666668
200.0   60.0   16.666666666666668
250.0   60.0   33.333333333333336
200.0   30.0   33.333333333333336
200.0   60.0   33.333333333333336
250.0   60.0   33.333333333333336
200.0   60.0   16.666666666666668
200.0   30.0   33.333333333333336
250.0   60.0   33.333333333333336
250.0   30.0   33.333333333333336
250.0   30.0   16.666666666666668
200.0   30.0   33.333333333333336
250.0   60.0   33.333333333333336
250.0   30.0   16.666666666666668
200.0   60.0   16.666666666666668
200.0   30.0   33.333333333333336
250.0   30.0   33.333333333333336
200.0   60.0   33.333333333333336
200.0   30.0   50.0
250.0   30.0   33.333333333333336
250.0   60.0   33.333333333333336
200.0   60.0   33.333333333333336
250.0   60.0   50.0
200.0   30.0   50.0
200.0   60.0   50.0
250.0   60.0   50.0
200.0   60.0   33.333333333333336
200.0   30.0   50.0
250.0   60.0   50.0
250.0   30.0   50.0
250.0   30.0   33.333333333333336
200.0   30.0   50.0
250.0   60.0   50.0
250.0   30.0   33.333333333333336
200.0   60.0   33.333333333333336
200.0   60.0   0.0
250.0   60.0   0.0
200.0   90.0   0.0
200.0   60.0   16.666666666666668
250.0   60.0   0.0
250.0   90.0   0.0
200.0   90.0   0.0
250.0   90.0   16.666666666666668
200.0   60.0   16.666666666666668
200.0   90.0   16.666666666666668
250.0   90.0   16.666666666666668
200.0   90.0   0.0
200.0   60.0   16.666666666666668
250.0   90.0   16.666666666666668
250.0   60.0   16.666666666666668
250.0   60.0   0.0
200.0   60.0   16.666666666666668
250.0   90.0   16.666666666666668
250.0   60.0   0.0
200.0   90.0   0.0
200.0   60.0   16.666666666666668
250.0   60.0   16.666666666666668
200.0   90.0   16.666666666666668
200.0   60.0   33.333333333333336
250.0   60.0   16.666666666666668
250.0   90.0   16.666666666666668
200.0   90.0   16.666666666666668
250.0   90.0   33.333333333333336
200.0   60.0   33.333333333333336
200.0   90.0   33.333333333333336
250.0   90.0   33.333333333333336
200.0   90.0   16.666666666666668
200.0   60.0   33.333333333333336
250.0   90.0   33.333333333333336
250.0   60.0   33.333333333333336
250.0   60.0   16.666666666666668
200.0   60.0   33.333333333333336
250.0   90.0   33.333333333333336
250.0   60.0   16.666666666666668
200.0   90.0   16.666666666666668
200.0   60.0   33.333333333333336
250.0   60.0   33.333333333333336
200.0   90.0   33.333333333333336
200.0   60.0   50.0
250.0   60.0   33.333333333333336
250.0   90.0   33.333333333333336
200.0   90.0   33.333333333333336
250.0   90.0   50.0
200.0   60.0   50.0
200.0   90.0   50.0
250.0   90.0   50.0
200.0   90.0   33.333333333333336
200.0   60.0   50.0
250.0   90.0   50.0
250.0   60.0   50.0
250.0   60.0   33.333333333333336
200.0   60.0   50.0
250.0   90.0   50.0
250.0   60.0   33.333333333333336
200.0   90.0   33.333333333333336
200.0   90.0   0.0
250.0   90.0   0.0
200.0   120.0   0.0
200.0   90.0   16.666666666666668
250.0   90.0   0.0
250.0   120.0   0.0
200.0   120.0   0.0
250.0   120.0   16.666666666666668
200.0   90.0   16.666666666666668
200.0   120.0   16.666666666666668
250.0   120.0   16.666666666666668
200.0   120.0   0.0
200.0   90.0   16.666666666666668
250.0   120.0   16.666666666666668
250.0   90.0   16.666666666666668
250.0   90.0   0.0
200.0   90.0   16.666666666666668
250.0   120.0   16.666666666666668
250.0   90.0   0.0
200.0   120.0   0.0
200.0   90.0   16.666666666666668
250.0   90.0   16.666666666666668
200.0   120.0   16.666666666666668
200.0   90.0   33.333333333333336
250.0   90.0   16.666666666666668
250.0   120.0   16.666666666666668
200.0   120.0   16.666666666666668
250.0   120.0   33.333333333333336
200.0   90.0   33.333333333333336
200.0   120.0   33.333333333333336
250.0   120.0   33.333333333333336
200.0   120.0   16.666666666666668
200.0   90.0   33.333333333333336
250.0   120.0   33.333333333333336
250.0   90.0   33.333333333333336
250.0   90.0   16.666666666666668
200.0   90.0   33.333333333333336
250.0   120.0   33.333333333333336
250.0   90.0   16.666666666666668
200.0   120.0   16.666666666666668
200.0   90.0   33.333333333333336
250.0   90.0   33.333333333333336
200.0   120.0   33.333333333333336
200.0   90.0   50.0
250.0   90.0   33.333333333333336
250.0   120.0   33.333333333333336
200.0   120.0   33.333333333333336
250.0   120.0   50.0
200.0   90.0   50.0
200.0   120.0   50.0
250.0   120.0   50.0
200.0   120.0   33.333333333333336
200.0   90.0   50.0
250.0   120.0   50.0
250.0   90.0   50.0
250.0   90.0   33.333333333333336
200.0   90.0   50.0
250.0   120.0   50.0
250.0   90.0   33.333333333333336
200.0   120.0   33.333333333333336
200.0   120.0   0.0
250.0   120.0   0.0
200.0   150.0   0.0
200.0   120.0   16.666666666666668
250.0   120.0   0.0
250.0   150.0   0.0
200.0   150.0   0.0
250.0   150.0   16.666666666666668
200.0   120.0   16.666666666666668
200.0   150.0   16.666666666666668
250.0   150.0   16.666666666666668
200.0   150.0   0.0
200.0   120.0   16.666666666666668
250.0   150.0   16.666666666666668
250.0   120.0   16.666666666666668
250.0   120.0   0.0
200.0   120.0   16.666666666666668
250.0   150.0   16.666666666666668
250.0   120.0   0.0
200.0   150.0   0.0
200.0   120.0   16.666666666666668
250.0   120.0   16.666666666666668
200.0   150.0   16.666666666666668
200.0   120.0   33.333333333333336
250.0   120.0   16.666666666666668
250.0   150.0   16.666666666666668
200.0   150.0   16.666666666666668
250.0   150.0   33.333333333333336
200.0   120.0   33.333333333333336
200.0   150.0   33.333333333333336
250.0   150.0   33.333333333333336
200.0   150.0   16.666666666666668
200.0   120.0   33.333333333333336
250.0   150.0   33.333333333333336
250.0   120.0   33.333333333333336
250.0   120.0   16.666666666666668
200.0   120.0   33.333333333333336
250.0   150.0   33.333333333333336
250.0   120.0   16.666666666666668
200.0   150.0   16.666666666666668
200.0   120.0   33.333333333333336
250.0   120.0   33.333333333333336
200.0   150.0   33.333333333333336
200.0   120.0   50.0
250.0   120.0   33.333333333333336
250.0   150.0   33.333333333333336
200.0   150.0   33.333333333333336
250.0   150.0   50.0
200.0   120.0   50.0
200.0   150.0   50.0
250.0   150.0   50.0
200.0   150.0   33.333333333333336
200.0   120.0   50.0
250.0   150.0   50.0
250.0   120.0   50.0
250.0   120.0   33.333333333333336
200.0   120.0   50.0
250.0   150.0   50.0
250.0   120.0   33.333333333333336
200.0   150.0   33.333333333333336
250.0   0.0   0.0
300.0   0.0   0.0
250.0   30.0   0.0
250.0   0.0   16.666666666666668
300.0   0.0   0.0
300.0   30.0   0.0
250.0   30.0   0.0
300.0   30.0   16.666666666666668
250.0   0.0   16.666666666666668
250.0   30.0   16.666666666666668
300.0   30.0   16.666666666666668
250.0   30.0   0.0
250.0   0.0   16.666666666666668
300.0   30.0   16.666666666666668
300.0   0.0   16.666666666666668
300.0   0.0   0.0
250.0   0.0   16.666666666666668
300.0   30.0   16.666666666666668
300.0   0.0   0.0
250.0   30.0   0.0
250.0   0.0   16.666666666666668
300.0   0.0   16.666666666666668
250.0   30.0   16.666666666666668
250.0   0.0   33.333333333333336
300.0   0.0   16.666666666666668
300.0   30.0   16.666666666666668
250.0   30.0   16.666666666666668
300.0   30.0   33.333333333333336
250.0   0.0   33.333333333333336
250.0   30.0   33.333333333333336
300.0   30.0   33.333333333333336
250.0   30.0   16.666666666666668
250.0   0.0   33.333333333333336
300.0   30.0   33.333333333333336
300.0   0.0   33.333333333333336
300.0   0.0   16.666666666666668
250.0   0.0   33.333333333333336
300.0   30.0   33.333333333333336
300.0   0.0   16.666666666666668
250.0   30.0   16.666666666666668
250.0   0.0   33.333333333333336
300.0   0.0   33.333333333333336
250.0   30.0   33.333333333333336
250.0   0.0   50.0
300.0   0.0   33.333333333333336
300.0   30.0   33.333333333333336
250.0   30.0   33.333333333333336
300.0   30.0   50.0
250.0   0.0   50.0
250.0   30.0   50.0
300.0   30.0   50.0
250.0   30.0   33.333333333333336
250.0   0.0   50.0
300.0   30.0   50.0
300.0   0.0   50.0
300.0   0.0   33.333333333333336
250.0   0.0   50.0
300.0   30.0   50.0
300.0   0.0   33.333333333333336
250.0   30.0   33.333333333333336
250.0   30.0   0.0
300.0   30.0   0.0
250.0   60.0   0.0
250.0   30.0   16.666666666666668
300.0   30.0   0.0
300.0   60.0   0.0
250.0   60.0   0.0
300.0   60.0   16.666666666666668
250.0   30.0   16.666666666666668
250.0   60.0   16.666666666666668
300.0   60.0   16.666666666666668
250.0   60.0   0.0
250.0   30.0   16.666666666666668
300.0   60.0   16.666666666666668
300.0   30.0   16.666666666666668
300.0   30.0   0.0
250.0   30.0   16.666666666666668
300.0   60.0   16.666666666666668
300.0   30.0   0.0
250.0   60.0   0.0
250.0   30.0   16.666666666666668
300.0   30.0   16.666666666666668
250.0   60.0   16.666666666666668
250.0   30.0   33.333333333333336
300.0   30.0   16.666666666666668
300.0   60.0   16.666666666666668
250.0   60.0   16.666666666666668
300.0   60.0   33.333333333333336
250.0   30.0   33.333333333333336
250.0   60.0   33.333333333333336
300.0   60.0   33.333333333333336
250.0   60.0   16.666666666666668
250.0   30.0   33.333333333333336
300.0   60.0   33.333333333333336
300.0   30.0   33.333333333333336
300.0   30.0   16.666666666666668
250.0   30.0   33.333333333333336
300.0   60.0   33.333333333333336
300.0   30.0   16.666666666666668
250.0   60.0   16.666666666666668
250.0   30.0   33.333333333333336
300.0   30.0   33.333333333333336
250.0   60.0   33.333333333333336
250.0   30.0   50.0
300.0   30.0   33.333333333333336
300.0   60.0   33.333333333333336
250.0   60.0   33.333333333333336
300.0   60.0   50.0
250.0   30.0   50.0
250.0   60.0   50.0
300.0   60.0   50.0
250.0   60.0   33.333333333333336
250.0   30.0   50.0
300.0   60.0   50.0
300.0   30.0   50.0
300.0   30.0   33.333333333333336
250.0   30.0   50.0
300.0   60.0   50.0
300.0   30.0   33.333333333333336
250.0   60.0   33.333333333333336
250.0   60.0   0.0
300.0   60.0   0.0
250.0   90.0   0.0
250.0   60.0   16.666666666666668
300.0   60.0   0.0
300.0   90.0   0.0
250.0   90.0   0.0
300.0   90.0   16.666666666666668
250.0   60.0   16.666666666666668
250.0   90.0   16.666666666666668
300.0   90.0   16.666666666666668
250.0   90.0   0.0
250.0   60.0   16.666666666666668
300.0   90.0   16.666666666666668
300.0   60.0   16.666666666666668
300.0   60.0   0.0
250.0   60.0   16.666666666666668
300.0   90.0   16.666666666666668
300.0   60.0   0.0
250.0   90.0   0.0
250.0   60.0   16.666666666666668
300.0   60.0   16.666666666666668
250.0   90.0   16.666666666666668
250.0   60.0   33.333333333333336
300.0   60.0   16.666666666666668
300.0   90.0   16.666666666666668
250.0   90.0   16.666666666666668
300.0   90.0   33.333333333333336
250.0   60.0   33.333333333333336
250.0   90.0   33.333333333333336
300.0   90.0   33.333333333333336
250.0   90.0   16.666666666666668
250.0   60.0   33.333333333333336
300.0   90.0   33.333333333333336
300.0   60.0   33.333333333333336
300.0   60.0   16.666666666666668
250.0   60.0   33.333333333333336
300.0   90.0   33.333333333333336
300.0   60.0   16.666666666666668
250.0   90.0   16.666666666666668
250.0   60.0   33.333333333333336
300.0   60.0   33.333333333333336
250.0   90.0   33.333333333333336
250.0   60.0   50.0
300.0   60.0   33.333333333333336
300.0   90.0   33.333333333333336
250.0   90.0   33.333333333333336
300.0   90.0   50.0
250.0   60.0   50.0
250.0   90.0   50.0
300.0   90.0   50.0
250.0   90.0   33.333333333333336
250.0   60.0   50.0
300.0   90.0   50.0
300.0   60.0   50.0
300.0   60.0   33.333333333333336
250.0   60.0   50.0
300.0   90.0   50.0
300.0   60.0   33.333333333333336
250.0   90.0   33.333333333333336
250.0   90.0   0.0
300.0   90.0   0.0
250.0   120.0   0.0
250.0   90.0   16.666666666666668
300.0   90.0   0.0
300.0   120.0   0.0
250.0   120.0   0.0
300.0   120.0   16.666666666666668
250.0   90.0   16.666666666666668
250.0   120.0   16.666666666666668
300.0   120.0   16.666666666666668
250.0   120.0   0.0
250.0   90.0   16.666666666666668
300.0   120.0   16.666666666666668
300.0   90.0   16.666666666666668
300.0   90.0   0.0
250.0   90.0   16.666666666666668
300.0   120.0   16.666666666666668
300.0   90.0   0.0
250.0   120.0   0.0
250.0   90.0   16.666666666666668
300.0   90.0   16.666666666666668
250.0   120.0   16.666666666666668
250.0   90.0   33.333333333333336
300.0   90.0   16.666666666666668
300.0   120.0   16.666666666666668
250.0   120.0   16.666666666666668
300.0   120.0   33.333333333333336
250.0   90.0   33.333333333333336
250.0   120.0   33.333333333333336
300.0   120.0   33.333333333333336
250.0   120.0   16.666666666666668
250.0   90.0   33.333333333333336
300.0   120.0   33.333333333333336
300.0   90.0   33.333333333333336
300.0   90.0   16.666666666666668
250.0   90.0   33.333333333333336
300.0   120.0   33.333333333333336
300.0   90.0   16.666666666666668
250.0   120.0   16.666666666666668
250.0   90.0   33.333333333333336
300.0   90.0   33.333333333333336
250.0   120.0   33.333333333333336
250.0   90.0   50.0
300.0   90.0   33.333333333333336
300.0   120.0   33.333333333333336
250.0   120.0   33.333333333333336
300.0   120.0   50.0
250.0   90.0   50.0
250.0   120.0   50.0
300.0   120.0   50.0
250.0   120.0   33.333333333333336
250.0   90.0   50.0
300.0   120.0   50.0
300.0   90.0   50.0
300.0   90.0   33.333333333333336
250.0   90.0   50.0
300.0   120.0   50.0
300.0   90.0   33.333333333333336
250.0   120.0   33.333333333333336
250.0   120.0   0.0
300.0   120.0   0.0
250.0   150.0   0.0
250.0   120.0   16.666666666666668
300.0   120.0   0.0
300.0   150.0   0.0
250.0   150.0   0.0
300.0   150.0   16.666666666666668
250.0   120.0   16.666666666666668
250.0   150.0   16.666666666666668
300.0   150.0   16.666666666666668
250.0   150.0   0.0
250.0   120.0   16.666666666666668
300.0   150.0   16.666666666666668
300.0   120.0   16.666666666666668
300.0   120.0   0.0
250.0   120.0   16.666666666666668
300.0   150.0   16.666666666666668
300.0   120.0   0.0
250.0   150.0   0.0
250.0   120.0   16.666666666666668
300.0   120.0   16.666666666666668
250.0   150.0   16.666666666666668
250.0   120.0   33.333333333333336
300.0   120.0   16.666666666666668
300.0   150.0   16.666666666666668
250.0   150.0   16.666666666666668
300.0   150.0   33.333333333333336
250.0   120.0   33.333333333333336
250.0   150.0   33.333333333333336
300.0   150.0   33.333333333333336
250.0   150.0   16.666666666666668
250.0   120.0   33.333333333333336
300.0   150.0   33.333333333333336
300.0   120.0   33.333333333333336
300.0   120.0   16.666666666666668
250.0   120.0   33.333333333333336
300.0   150.0   33.333333333333336
300.0   120.0   16.666666666666668
250.0   150.0   16.666666666666668
250.0   120.0   33.333333333333336
300.0   120.0   33.333333333333336
250.0   150.0   33.333333333333336
250.0   120.0   50.0
300.0   120.0   33.333333333333336
300.0   150.0   33.333333333333336
250.0   150.0   33.333333333333336
300.0   150.0   50.0
250.0   120.0   50.0
250.0   150.0   50.0
300.0   150.0   50.0
250.0   150.0   33.333333333333336
250.0   120.0   50.0
300.0   150.0   50.0
300.0   120.0   50.0
300.0   120.0   33.333333333333336
250.0   120.0   50.0
300.0   150.0   50.0
300.0   120.0   33.333333333333336
250.0   150.0   33.333333333333336
300.0   0.0   0.0
350.0   0.0   0.0
300.0   30.0   0.0
300.0   0.0   16.666666666666668
350.0   0.0   0.0
350.0   30.0   0.0
300.0   30.0   0.0
350.0   30.0   16.666666666666668
300.0   0.0   16.666666666666668
300.0   30.0   16.666666666666668
350.0   30.0   16.666666666666668
300.0   30.0   0.0
300.0   0.0   16.666666666666668
350.0   30.0   16.666666666666668
350.0   0.0   16.666666666666668
350.0   0.0   0.0
300.0   0.0   16.666666666666668
350.0   30.0   16.666666666666668
350.0   0.0   0.0
300.0   30.0   0.0
300.0   0.0   16.666666666666668
350.0   0.0   16.666666666666668
300.0   30.0   16.666666666666668
300.0   0.0   33.333333333333336
350.0   0.0   16.666666666666668
350.0   30.0   16.666666666666668
300.0   30.0   16.666666666666668
350.0   30.0   33.333333333333336
300.0   0.0   33.333333333333336
300.0   30.0   33.333333333333336
350.0   30.0   33.333333333333336
300.0   30.0   16.666666666666668
300.0   0.0   33.333333333333336
350.0   30.0   33.333333333333336
350.0   0.0   33.333333333333336
350.0   0.0   16.666666666666668
300.0   0.0   33.333333333333336
350.0   30.0   33.333333333333336
350.0   0.0   16.666666666666668
300.0   30.0   16.666666666666668
300.0   0.0   33.333333333333336
350.0   0.0   33.333333333333336
300.0   30.0   33.333333333333336
300.0   0.0   50.0
350.0   0.0   33.333333333333336
350.0   30.0   33.333333333333336
300.0   30.0   33.333333333333336
350.0   30.0   50.0
300.0   0.0   50.0
300.0   30.0   50.0
350.0   30.0   50.0
300.0   30.0   33.333333333333336
300.0   0.0   50.0
350.0   30.0   50.0
350.0   0.0   50.0
350.0   0.0   33.333333333333336
300.0   0.0   50.0
350.0   30.0   50.0
350.0   0.0   33.333333333333336
300.0   30.0   33.333333333333336
300.0   30.0   0.0
350.0   30.0   0.0
300.0   60.0   0.0
300.0   30.0   16.666666666666668
350.0   30.0   0.0
350.0   60.0   0.0
300.0   60.0   0.0
350.0   60.0   16.666666666666668
300.0   30.0   16.666666666666668
300.0   60.0   16.666666666666668
350.0   60.0   16.666666666666668
300.0   60.0   0.0
300.0   30.0   16.666666666666668
350.0   60.0   16.666666666666668
350.0   30.0   16.666666666666668
350.0   30.0   0.0
300.0   30.0   16.666666666666668
350.0   60.0   16.666666666666668
350.0   30.0   0.0
300.0   60.0   0.0
300.0   30.0   16.666666666666668
350.0   30.0   16.666666666666668
300.0   60.0   16.666666666666668
300.0   30.0   33.333333333333336
350.0   30.0   16.666666666666668
350.0   60.0   16.666666666666668
300.0   60.0   16.666666666666668
350.0   60.0   33.333333333333336
300.0   30.0   33.333333333333336
300.0   60.0   33.333333333333336
350.0   60.0   33.333333333333336
300.0   60.0   16.666666666666668
300.0   30.0   33.333333333333336
350.0   60.0   33.333333333333336
350.0   30.0   33.333333333333336
350.0   30.0   16.666666666666668
300.0   30.0   33.333333333333336
350.0   60.0   33.333333333333336
350.0   30.0   16.666666666666668
300.0   60.0   16.666666666666668
300.0   30.0   33.333333333333336
350.0   30.0   33.333333333333336
300.0   60.0   33.333333333333336
300.0   30.0   50.0
350.0   30.0   33.333333333333336
350.0   60.0   33.333333333333336
300.0   60.0   33.333333333333336
350.0   60.0   50.0
300.0   30.0   50.0
300.0   60.0   50.0
350.0   60.0   50.0
300.0   60.0   33.333333333333336
300.0   30.0   50.0
350.0   60.0   50.0
350.0   30.0   50.0
350.0   30.0   33.333333333333336
300.0   30.0   50.0
350.0   60.0   50.0
350.0   30.0   33.333333333333336
300.0   60.0   33.333333333333336
300.0   60.0   0.0
350.0   60.0   0.0
300.0   90.0   0.0
300.0   60.0   16.666666666666668
350.0   60.0   0.0
350.0   90.0   0.0
300.0   90.0   0.0
350.0   90.0   16.666666666666668
300.0   60.0   16.666666666666668
300.0   90.0   16.666666666666668
350.0   90.0   16.666666666666668
300.0   90.0   0.0
300.0   60.0   16.666666666666668
350.0   90.0   16.666666666666668
350.0   60.0   16.666666666666668
350.0   60.0   0.0
300.0   60.0   16.666666666666668
350.0   90.0   16.666666666666668
350.0   60.0   0.0
300.0   90.0   0.0
300.0   60.0   16.666666666666668
350.0   60.0   16.666666666666668
300.0   90.0   16.666666666666668
300.0   60.0   33.333333333333336
350.0   60.0   16.666666666666668
350.0   90.0   16.666666666666668
300.0   90.0   16.666666666666668
350.0   90.0   33.333333333333336
300.0   60.0   33.333333333333336
300.0   90.0   33.333333333333336
350.0   90.0   33.333333333333336
300.0   90.0   16.666666666666668
300.0   60.0   33.333333333333336
350.0   90.0   33.333333333333336
350.0   60.0   33.333333333333336
350.0   60.0   16.666666666666668
300.0   60.0   33.333333333333336
350.0   90.0   33.333333333333336
350.0   60.0   16.666666666666668
300.0   90.0   16.666666666666668
300.0   60.0   33.333333333333336
350.0   60.0   33.333333333333336
300.0   90.0   33.333333333333336
300.0   60.0   50.0
350.0   60.0   33.333333333333336
350.0   90.0   33.333333333333336
300.0   90.0   33.333333333333336
350.0   90.0   50.0
300.0   60.0   50.0
300.0   90.0   50.0
350.0   90.0   50.0
300.0   90.0   33.333333333333336
300.0   60.0   50.0
350.0   90.0   50.0
350.0   60.0   50.0
350.0   60.0   33.333333333333336
300.0   60.0   50.0
350.0   90.0   50.0
350.0   60.0   33.333333333333336
300.0   90.0   33.333333333333336
300.0   90.0   0.0
350.0   90.0   0.0
300.0   120.0   0.0
300.0   90.0   16.666666666666668
350.0   90.0   0.0
350.0   120.0   0.0
300.0   120.0   0.0
350.0   120.0   16.666666666666668
300.0   90.0   16.666666666666668
300.0   120.0   16.666666666666668
350.0   120.0   16.666666666666668
300.0   120.0   0.0
300.0   90.0   16.666666666666668
350.0   120.0   16.666666666666668
350.0   90.0   16.666666666666668
350.0   90.0   0.0
300.0   90.0   16.666666666666668
350.0   120.0   16.666666666666668
350.0   90.0   0.0
300.0   120.0   0.0
300.0   90.0   16.666666666666668
350.0   90.0   16.666666666666668
300.0   120.0   16.666666666666668
300.0   90.0   33.333333333333336
350.0   90.0   16.666666666666668
350.0   120.0   16.666666666666668
300.0   120.0   16.666666666666668
350.0   120.0   33.333333333333336
300.0   90.0   33.333333333333336
300.0   120.0   33.333333333333336
350.0   120.0   33.333333333333336
300.0   120.0   16.666666666666668
300.0   90.0   33.333333333333336
350.0   120.0   33.333333333333336
350.0   90.0   33.333333333333336
350.0   90.0   16.666666666666668
300.0   90.0   33.333333333333336
350.0   120.0   33.333333333333336
350.0   90.0   16.666666666666668
300.0   120.0   16.666666666666668
300.0   90.0   33.333333333333336
350.0   90.0   33.333333333333336
300.0   120.0   33.333333333333336
300.0   90.0   50.0
350.0   90.0   33.333333333333336
350.0   120.0   33.333333333333336
300.0   120.0   33.333333333333336
350.0   120.0   50.0
300.0   90.0   50.0
300.0   120.0   50.0
350.0   120.0   50.0
300.0   120.0   33.333333333333336
300.0   90.0   50.0
350.0   120.0   50.0
350.0   90.0   50.0
350.0   90.0   33.333333333333336
300.0   90.0   50.0
350.0   120.0   50.0
350.0   90.0   33.333333333333336
300.0   120.0   33.333333333333336
300.0   120.0   0.0
350.0   120.0   0.0
300.0   150.0   0.0
300.0   120.0   16.666666666666668
350.0   120.0   0.0
350.0   150.0   0.0
300.0   150.0   0.0
350.0   150.0   16.666666666666668
300.0   120.0   16.666666666666668
300.0   150.0   16.666666666666668
350.0   150.0   16.666666666666668
300.0   150.0   0.0
300.0   120.0   16.666666666666668
350.0   150.0   16.666666666666668
350.0   120.0   16.666666666666668
350.0   120.0   0.0
300.0   120.0   16.666666666666668
350.0   150.0   16.666666666666668
350.0   120.0   0.0
300.0   150.0   0.0
300.0   120.0   16.666666666666668
350.0   120.0   16.666666666666668
300.0   150.0   16.666666666666668
300.0   120.0   33.333333333333336
350.0   120.0   16.666666666666668
350.0   150.0   16.666666666666668
300.0   150.0   16.666666666666668
350.0   150.0   33.333333333333336
300.0   120.0   33.333333333333336
300.0   150.0   33.333333333333336
350.0   150.0   33.333333333333336
300.0   150.0   16.666666666666668
300.0   120.0   33.333333333333336
350.0   150.0   33.333333333333336
350.0   120.0   33.333333333333336
350.0   120.0   16.666666666666668
300.0   120.0   33.333333333333336
350.0   150.0   33.333333333333336
350.0   120.0   16.666666666666668
300.0   150.0   16.666666666666668
300.0   120.0   33.333333333333336
350.0   120.0   33.333333333333336
300.0   150.0   33.333333333333336
300.0   120.0   50.0
350.0   120.0   33.333333333333336
350.0   150.0   33.333333333333336
300.0   150.0   33.333333333333336
350.0   150.0   50.0
300.0   120.0   50.0
300.0   150.0   50.0
350.0   150.0   50.0
300.0   150.0   33.333333333333336
300.0   120.0   50.0
350.0   150.0   50.0
350.0   120.0   50.0
350.0   120.0   33.333333333333336
300.0   120.0   50.0
350.0   150.0   50.0
350.0   120.0   33.333333333333336
300.0   150.0   33.333333333333336
350.0   0.0   0.0
400.0   0.0   0.0
350.0   30.0   0.0
350.0   0.0   16.666666666666668
400.0   0.0   0.0
400.0   30.0   0.0
350.0   30.0   0.0
400.0   30.0   16.666666666666668
350.0   0.0   16.666666666666668
350.0   30.0   16.666666666666668
400.0   30.0   16.666666666666668
350.0   30.0   0.0
350.0   0.0   16.666666666666668
400.0   30.0   16.666666666666668
400.0   0.0   16.666666666666668
400.0   0.0   0.0
350.0   0.0   16.666666666666668
400.0   30.0   16.666666666666668
400.0   0.0   0.0
350.0   30.0   0.0
350.0   0.0   16.666666666666668
400.0   0.0   16.666666666666668
350.0   30.0   16.666666666666668
350.0   0.0   33.333333333333336
400.0   0.0   16.666666666666668
400.0   30.0   16.666666666666668
350.0   30.0   16.666666666666668
400.0   30.0   33.333333333333336
350.0   0.0   33.333333333333336
350.0   30.0   33.333333333333336
400.0   30.0   33.333333333333336
350.0   30.0   16.666666666666668
350.0   0.0   33.333333333333336
400.0   30.0   33.333333333333336
400.0   0.0   33.333333333333336
400.0   0.0   16.666666666666668
350.0   0.0   33.333333333333336
400.0   30.0   33.333333333333336
400.0   0.0   16.666666666666668
350.0   30.0   16.666666666666668
350.0   0.0   33.333333333333336
400.0   0.0   33.333333333333336
350.0   30.0   33.333333333333336
350.0   0.0   50.0
400.0   0.0   33.333333333333336
400.0   30.0   33.333333333333336
350.0   30.0   33.333333333333336
400.0   30.0   50.0
350.0   0.0   50.0
350.0   30.0   50.0
400.0   30.0   50.0
350.0   30.0   33.333333333333336
350.0   0.0   50.0
400.0   30.0   50.0
400.0   0.0   50.0
400.0   0.0   33.333333333333336
350.0   0.0   50.0
400.0   30.0   50.0
400.0   0.0   33.333333333333336
350.0   30.0   33.333333333333336
350.0   30.0   0.0
400.0   30.0   0.0
350.0   60.0   0.0
350.0   30.0   16.666666666666668
400.0   30.0   0.0
400.0   60.0   0.0
350.0   60.0   0.0
400.0   60.0   16.666666666666668
350.0   30.0   16.666666666666668
350.0   60.0   16.666666666666668
400.0   60.0   16.666666666666668
350.0   60.0   0.0
350.0   30.0   16.666666666666668
400.0   60.0   16.666666666666668
400.0   30.0   16.666666666666668
400.0   30.0   0.0
350.0   30.0   16.666666666666668
400.0   60.0   16.666666666666668
400.0   30.0   0.0
350.0   60.0   0.0
350.0   30.0   16.666666666666668
400.0   30.0   16.666666666666668
350.0   60.0   16.666666666666668
350.0   30.0   33.333333333333336
400.0   30.0   16.666666666666668
400.0   60.0   16.666666666666668
350.0   60.0   16.666666666666668
400.0   60.0   33.333333333333336
350.0   30.0   33.333333333333336
350.0   60.0   33.333333333333336
400.0   60.0   33.333333333333336
350.0   60.0   16.666666666666668
350.0   30.0   33.333333333333336
400.0   60.0   33.333333333333336
400.0   30.0   33.333333333333336
400.0   30.0   16.666666666666668
350.0   30.0   33.333333333333336
400.0   60.0   33.333333333333336
400.0   30.0   16.666666666666668
350.0   60.0   16.666666666666668
350.0   30.0   33.333333333333336
400.0   30.0   33.333333333333336
350.0   60.0   33.333333333333336
350.0   30.0   50.0
400.0   30.0   33.333333333333336
400.0   60.0   33.333333333333336
350.0   60.0   33.333333333333336
400.0   60.0   50.0
350.0   30.0   50.0
350.0   60.0   50.0
400.0   60.0   50.0
350.0   60.0   33.333333333333336
350.0   30.0   50.0
400.0   60.0   50.0
400.0   30.0   50.0
400.0   30.0   33.333333333333336
350.0   30.0   50.0
400.0   60.0   50.0
400.0   30.0   33.333333333333336
350.0   60.0   33.333333333333336
350.0   60.0   0.0
400.0   60.0   0.0
350.0   90.0   0.0
350.0   60.0   16.666666666666668
400.0   60.0   0.0
400.0   90.0   0.0
350.0   90.0   0.0
400.0   90.0   16.666666666666668
350.0   60.0   16.666666666666668
350.0   90.0   16.666666666666668
400.0   90.0   16.666666666666668
350.0   90.0   0.0
350.0   60.0   16.666666666666668
400.0   90.0   16.666666666666668
400.0   60.0   16.666666666666668
400.0   60.0   0.0
350.0   60.0   16.666666666666668
400.0   90.0   16.666666666666668
400.0   60.0   0.0
350.0   90.0   0.0
350.0   60.0   16.666666666666668
400.0   60.0   16.666666666666668
350.0   90.0   16.666666666666668
350.0   60.0   33.333333333333336
400.0   60.0   16.666666666666668
400.0   90.0   16.666666666666668
350.0   90.0   16.666666666666668
400.0   90.0   33.333333333333336
350.0   60.0   33.333333333333336
350.0   90.0   33.333333333333336
400.0   90.0   33.333333333333336
350.0   90.0   16.666666666666668
350.0   60.0   33.333333333333336
400.0   90.0   33.333333333333336
400.0   60.0   33.333333333333336
400.0   60.0   16.666666666666668
350.0   60.0   33.333333333333336
400.0   90.0   33.333333333333336
400.0   60.0   16.666666666666668
350.0   90.0   16.666666666666668
350.0   60.0   33.333333333333336
400.0   60.0   33.333333333333336
350.0   90.0   33.333333333333336
350.0   60.0   50.0
400.0   60.0   33.333333333333336
400.0   90.0   33.333333333333336
350.0   90.0   33.333333333333336
400.0   90.0   50.0
350.0   60.0   50.0
350.0   90.0   50.0
400.0   90.0   50.0
350.0   90.0   33.333333333333336
350.0   60.0   50.0
400.0   90.0   50.0
400.0   60.0   50.0
400.0   60.0   33.333333333333336
350.0   60.0   50.0
400.0   90.0   50.0
400.0   60.0   33.333333333333336
350.0   90.0   33.333333333333336
350.0   90.0   0.0
400.0   90.0   0.0
350.0   120.0   0.0
350.0   90.0   16.666666666666668
400.0   90.0   0.0
400.0   120.0   0.0
350.0   120.0   0.0
400.0   120.0   16.666666666666668
350.0   90.0   16.666666666666668
350.0   120.0   16.666666666666668
400.0   120.0   16.666666666666668
350.0   120.0   0.0
350.0   90.0   16.666666666666668
400.0   120.0   16.666666666666668
400.0   90.0   16.666666666666668
400.0   90.0   0.0
350.0   90.0   16.666666666666668
400.0   120.0   16.666666666666668
400.0   90.0   0.0
350.0   120.0   0.0
350.0   90.0   16.666666666666668
400.0   90.0   16.666666666666668
350.0   120.0   16.666666666666668
350.0   90.0   33.333333333333336
400.0   90.0   16.666666666666668
400.0   120.0   16.666666666666668
350.0   120.0   16.666666666666668
400.0   120.0   33.333333333333336
350.0   90.0   33.333333333333336
350.0   120.0   33.333333333333336
400.0   120.0   33.333333333333336
350.0   120.0   16.666666666666668
350.0   90.0   33.333333333333336
400.0   120.0   33.333333333333336
400.0   90.0   33.333333333333336
400.0   90.0   16.666666666666668
350.0   90.0   33.333333333333336
400.0   120.0   33.333333333333336
400.0   90.0   16.666666666666668
350.0   120.0   16.666666666666668
350.0   90.0   33.333333333333336
400.0   90.0   33.333333333333336
350.0   120.0   33.333333333333336
350.0   90.0   50.0
400.0   90.0   33.333333333333336
400.0   120.0   33.333333333333336
350.0   120.0   33.333333333333336
400.0   120.0   50.0
350.0   90.0   50.0
350.0   120.0   50.0
400.0   120.0   50.0
350.0   120.0   33.333333333333336
350.0   90.0   50.0
400.0   120.0   50.0
400.0   90.0   50.0
400.0   90.0   33.333333333333336
350.0   90.0   50.0
400.0   120.0   50.0
400.0   90.0   33.333333333333336
350.0   120.0   33.333333333333336
350.0   120.0   0.0
400.0   120.0   0.0
350.0   150.0   0.0
350.0   120.0   16.666666666666668
400.0   120.0   0.0
400.0   150.0   0.0
350.0   150.0   0.0
400.0   150.0   16.666666666666668
350.0   120.0   16.666666666666668
350.0   150.0   16.666666666666668
400.0   150.0   16.666666666666668
350.0   150.0   0.0
350.0   120.0   16.666666666666668
400.0   150.0   16.666666666666668
400.0   120.0   16.666666666666668
400.0   120.0   0.0
350.0   120.0   16.666666666666668
400.0   150.0   16.666666666666668
400.0   120.0   0.0
350.0   150.0   0.0
350.0   120.0   16.666666666666668
400.0   120.0   16.666666666666668
350.0   150.0   16.666666666666668
350.0   120.0   33.333333333333336
400.0   120.0   16.666666666666668
400.0   150.0   16.666666666666668
350.0   150.0   16.666666666666668
400.0   150.0   33.333333333333336
350.0   120.0   33.333333333333336
350.0   150.0   33.333333333333336
400.0   150.0   33.333333333333336
350.0   150.0   16.666666666666668
350.0   120.0   33.333333333333336
400.0   150.0   33.333333333333336
400.0   120.0   33.333333333333336
400.0   120.0   16.666666666666668
350.0   120.0   33.333333333333336
400.0   150.0   33.333333333333336
400.0   120.0   16.666666666666668
350.0   150.0   16.666666666666668
350.0   120.0   33.333333333333336
400.0   120.0   33.333333333333336
350.0   150.0   33.333333333333336
350.0   120.0   50.0
400.0   120.0   33.333333333333336
400.0   150.0   33.333333333333336
350.0   150.0   33.333333333333336
400.0   150.0   50.0
350.0   120.0   50.0
350.0   150.0   50.0
400.0   150.0   50.0
350.0   150.0   33.333333333333336
350.0   120.0   50.0
400.0   150.0   50.0
400.0   120.0   50.0
400.0   120.0   33.333333333333336
350.0   120.0   50.0
400.0   150.0   50.0
400.0   120.0   33.333333333333336
350.0   150.0   33.333333333333336
400.0   0.0   0.0
450.0   0.0   0.0
400.0   30.0   0.0
400.0   0.0   16.666666666666668
450.0   0.0   0.0
450.0   30.0   0.0
400.0   30.0   0.0
450.0   30.0   16.666666666666668
400.0   0.0   16.666666666666668
400.0   30.0   16.666666666666668
450.0   30.0   16.666666666666668
400.0   30.0   0.0
400.0   0.0   16.666666666666668
450.0   30.0   16.666666666666668
450.0   0.0   16.666666666666668
450.0   0.0   0.0
400.0   0.0   16.666666666666668
450.0   30.0   16.666666666666668
450.0   0.0   0.0
400.0   30.0   0.0
400.0   0.0   16.666666666666668
450.0   0.0   16.666666666666668
400.0   30.0   16.666666666666668
400.0   0.0   33.333333333333336
450.0   0.0   16.666666666666668
450.0   30.0   16.666666666666668
400.0   30.0   16.666666666666668
450.0   30.0   33.333333333333336
400.0   0.0   33.333333333333336
400.0   30.0   33.333333333333336
450.0   30.0   33.333333333333336
400.0   30.0   16.666666666666668
400.0   0.0   33.333333333333336
450.0   30.0   33.333333333333336
450.0   0.0   33.333333333333336
450.0   0.0   16.666666666666668
400.0   0.0   33.333333333333336
450.0   30.0   33.333333333333336
450.0   0.0   16.666666666666668
400.0   30.0   16.666666666666668
400.0   0.0   33.333333333333336
450.0   0.0   33.333333333333336
400.0   30.0   33.333333333333336
400.0   0.0   50.0
450.0   0.0   33.333333333333336
450.0   30.0   33.333333333333336
400.0   30.0   33.333333333333336
450.0   30.0   50.0
400.0   0.0   50.0
400.0   30.0   50.0
450.0   30.0   50.0
400.0   30.0   33.333333333333336
400.0   0.0   50.0
450.0   30.0   50.0
450.0   0.0   50.0
450.0   0.0   33.333333333333336
400.0   0.0   50.0
450.0   30.0   50.0
450.0   0.0   33.333333333333336
400.0   30.0   33.333333333333336
400.0   30.0   0.0
450.0   30.0   0.0
400.0   60.0   0.0
400.0   30.0   16.666666666666668
450.0   30.0   0.0
450.0   60.0   0.0
400.0   60.0   0.0
450.0   60.0   16.666666666666668
400.0   30.0   16.666666666666668
400.0   60.0   16.666666666666668
450.0   60.0   16.666666666666668
400.0   60.0   0.0
400.0   30.0   16.666666666666668
450.0   60.0   16.666666666666668
450.0   30.0   16.666666666666668
450.0   30.0   0.0
400.0   30.0   16.666666666666668
450.0   60.0   16.666666666666668
450.0   30.0   0.0
400.0   60.0   0.0
400.0   30.0   16.666666666666668
450.0   30.0   16.666666666666668
400.0   60.0   16.666666666666668
400.0   30.0   33.333333333333336
450.0   30.0   16.666666666666668
450.0   60.0   16.666666666666668
400.0   60.0   16.666666666666668
450.0   60.0   33.333333333333336
400.0   30.0   33.333333333333336
400.0   60.0   33.333333333333336
450.0   60.0   33.333333333333336
400.0   60.0   16.666666666666668
400.0   30.0   33.333333333333336
450.0   60.0   33.333333333333336
450.0   30.0   33.333333333333336
450.0   30.0   16.666666666666668
400.0   30.0   33.333333333333336
450.0   60.0   33.333333333333336
450.0   30.0   16.666666666666668
400.0   60.0   16.666666666666668
400.0   30.0   33.333333333333336
450.0   30.0   33.333333333333336
400.0   60.0   33.333333333333336
400.0   30.0   50.0
450.0   30.0   33.333333333333336
450.0   60.0   33.333333333333336
400.0   60.0   33.333333333333336
450.0   60.0   50.0
400.0   30.0   50.0
400.0   60.0   50.0
450.0   60.0   50.0
400.0   60.0   33.333333333333336
400.0   30.0   50.0
450.0   60.0   50.0
450.0   30.0   50.0
450.0   30.0   33.333333333333336
400.0   30.0   50.0
450.0   60.0   50.0
450.0   30.0   33.333333333333336
400.0   60.0   33.333333333333336
400.0   60.0   0.0
450.0   60.0   0.0
400.0   90.0   0.0
400.0   60.0   16.666666666666668
450.0   60.0   0.0
450.0   90.0   0.0
400.0   90.0   0.0
450.0   90.0   16.666666666666668
400.0   60.0   16.666666666666668
400.0   90.0   16.666666666666668
450.0   90.0   16.666666666666668
400.0   90.0   0.0
400.0   60.0   16.666666666666668
450.0   90.0   16.666666666666668
450.0   60.0   16.666666666666668
450.0   60.0   0.0
400.0   60.0   16.666666666666668
450.0   90.0   16.666666666666668
450.0   60.0   0.0
400.0   90.0   0.0
400.0   60.0   16.666666666666668
450.0   60.0   16.666666666666668
400.0   90.0   16.666666666666668
400.0   60.0   33.333333333333336
450.0   60.0   16.666666666666668
450.0   90.0   16.666666666666668
400.0   90.0   16.666666666666668
450.0   90.0   33.333333333333336
400.0   60.0   33.333333333333336
400.0   90.0   33.333333333333336
450.0   90.0   33.333333333333336
400.0   90.0   16.666666666666668
400.0   60.0   33.333333333333336
450.0   90.0   33.333333333333336
450.0   60.0   33.333333333333336
450.0   60.0   16.666666666666668
400.0   60.0   33.333333333333336
450.0   90.0   33.333333333333336
450.0   60.0   16.666666666666668
400.0   90.0   16.666666666666668
400.0   60.0   33.333333333333336
450.0   60.0   33.333333333333336
400.0   90.0   33.333333333333336
400.0   60.0   50.0
450.0   60.0   33.333333333333336
450.0   90.0   33.333333333333336
400.0   90.0   33.333333333333336
450.0   90.0   50.0
400.0   60.0   50.0
400.0   90.0   50.0
450.0   90.0   50.0
400.0   90.0   33.333333333333336
400.0   60.0   50.0
450.0   90.0   50.0
450.0   60.0   50.0
450.0   60.0   33.333333333333336
400.0   60.0   50.0
450.0   90.0   50.0
450.0   60.0   33.333333333333336
400.0   90.0   33.333333333333336
400.0   90.0   0.0
450.0   90.0   0.0
400.0   120.0   0.0
400.0   90.0   16.666666666666668
450.0   90.0   0.0
450.0   120.0   0.0
400.0   120.0   0.0
450.0   120.0   16.666666666666668
400.0   90.0   16.666666666666668
400.0   120.0   16.666666666666668
450.0   120.0   16.666666666666668
400.0   120.0   0.0
400.0   90.0   16.666666666666668
450.0   120.0   16.666666666666668
450.0   90.0   16.666666666666668
450.0   90.0   0.0
400.0   90.0   16.666666666666668
450.0   120.0   16.666666666666668
450.0   90.0   0.0
400.0   120.0   0.0
400.0   90.0   16.666666666666668
450.0   90.0   16.666666666666668
400.0   120.0   16.666666666666668
400.0   90.0   33.333333333333336
450.0   90.0   16.666666666666668
450.0   120.0   16.666666666666668
400.0   120.0   16.666666666666668
450.0   120.0   33.333333333333336
400.0   90.0   33.333333333333336
400.0   120.0   33.333333333333336
450.0   120.0   33.333333333333336
400.0   120.0   16.666666666666668
400.0   90.0   33.333333333333336
450.0   120.0   33.333333333333336
450.0   90.0   33.333333333333336
450.0   90.0   16.666666666666668
400.0   90.0   33.333333333333336
450.0   120.0   33.333333333333336
450.0   90.0   16.666666666666668
400.0   120.0   16.666666666666668
400.0   90.0   33.333333333333336
450.0   90.0   33.333333333333336
400.0   120.0   33.333333333333336
400.0   90.0   50.0
450.0   90.0   33.333333333333336
450.0   120.0   33.333333333333336
400.0   120.0   33.333333333333336
450.0   120.0   50.0
400.0   90.0   50.0
400.0   120.0   50.0
450.0   120.0   50.0
400.0   120.0   33.333333333333336
400.0   90.0   50.0
450.0   120.0   50.0
450.0   90.0   50.0
450.0   90.0   33.333333333333336
400.0   90.0   50.0
450.0   120.0   50.0
450.0   90.0   33.333333333333336
400.0   120.0   33.333333333333336
400.0   120.0   0.0
450.0   120.0   0.0
400.0   150.0   0.0
400.0   120.0   16.666666666666668
450.0   120.0   0.0
450.0   150.0   0.0
400.0   150.0   0.0
450.0   150.0   16.666666666666668
400.0   120.0   16.666666666666668
400.0   150.0   16.666666666666668
450.0   150.0   16.666666666666668
400.0   150.0   0.0
400.0   120.0   16.666666666666668
450.0   150.0   16.666666666666668
450.0   120.0   16.666666666666668
450.0   120.0   0.0
400.0   120.0   16.666666666666668
450.0   150.0   16.666666666666668
450.0   120.0   0.0
400.0   150.0   0.0
400.0   120.0   16.666666666666668
450.0   120.0   16.666666666666668
400.0   150.0   16.666666666666668
400.0   120.0   33.333333333333336
450.0   120.0   16.666666666666668
450.0   150.0   16.666666666666668
400.0   150.0   16.666666666666668
450.0   150.0   33.333333333333336
400.0   120.0   33.333333333333336
400.0   150.0   33.333333333333336
450.0   150.0   33.333333333333336
400.0   150.0   16.666666666666668
400.0   120.0   33.333333333333336
450.0   150.0   33.333333333333336
450.0   120.0   33.333333333333336
450.0   120.0   16.666666666666668
400.0   120.0   33.333333333333336
450.0   150.0   33.333333333333336
450.0   120.0   16.666666666666668
400.0   150.0   16.666666666666668
400.0   120.0   33.333333333333336
450.0   120.0   33.333333333333336
400.0   150.0   33.333333333333336
400.0   120.0   50.0
450.0   120.0   33.333333333333336
450.0   150.0   33.333333333333336
400.0   150.0   33.333333333333336
450.0   150.0   50.0
400.0   120.0   50.0
400.0   150.0   50.0
450.0   150.0   50.0
400.0   150.0   33.333333333333336
400.0   120.0   50.0
450.0   150.0   50.0
450.0   120.0   50.0
450.0   120.0   33.333333333333336
400.0   120.0   50.0
450.0   150.0   50.0
450.0   120.0   33.333333333333336
400.0   150.0   33.333333333333336
450.0   0.0   0.0
500.0   0.0   0.0
450.0   30.0   0.0
450.0   0.0   16.666666666666668
500.0   0.0   0.0
500.0   30.0   0.0
450.0   30.0   0.0
500.0   30.0   16.666666666666668
450.0   0.0   16.666666666666668
450.0   30.0   16.666666666666668
500.0   30.0   16.666666666666668
450.0   30.0   0.0
450.0   0.0   16.666666666666668
500.0   30.0   16.666666666666668
500.0   0.0   16.666666666666668
500.0   0.0   0.0
450.0   0.0   16.666666666666668
500.0   30.0   16.666666666666668
500.0   0.0   0.0
450.0   30.0   0.0
450.0   0.0   16.666666666666668
500.0   0.0   16.666666666666668
450.0   30.0   16.666666666666668
450.0   0.0   33.333333333333336
500.0   0.0   16.666666666666668
500.0   30.0   16.666666666666668
450.0   30.0   16.666666666666668
500.0   30.0   33.333333333333336
450.0   0.0   33.333333333333336
450.0   30.0   33.333333333333336
500.0   30.0   33.333333333333336
450.0   30.0   16.666666666666668
450.0   0.0   33.333333333333336
500.0   30.0   33.333333333333336
500.0   0.0   33.333333333333336
500.0   0.0   16.666666666666668
450.0   0.0   33.333333333333336
500.0   30.0   33.333333333333336
500.0   0.0   16.666666666666668
450.0   30.0   16.666666666666668
450.0   0.0   33.333333333333336
500.0   0.0   33.333333333333336
450.0   30.0   33.333333333333336
450.0   0.0   50.0
500.0   0.0   33.333333333333336
500.0   30.0   33.333333333333336
450.0   30.0   33.333333333333336
500.0   30.0   50.0
450.0   0.0   50.0
450.0   30.0   50.0
500.0   30.0   50.0
450.0   30.0   33.333333333333336
450.0   0.0   50.0
500.0   30.0   50.0
500.0   0.0   50.0
500.0   0.0   33.333333333333336
450.0   0.0   50.0
500.0   30.0   50.0
500.0   0.0   33.333333333333336
450.0   30.0   33.333333333333336
450.0   30.0   0.0
500.0   30.0   0.0
450.0   60.0   0.0
450.0   30.0   16.666666666666668
500.0   30.0   0.0
500.0   60.0   0.0
450.0   60.0   0.0
500.0   60.0   16.666666666666668
450.0   30.0   16.666666666666668
450.0   60.0   16.666666666666668
500.0   60.0   16.666666666666668
450.0   60.0   0.0
450.0   30.0   16.666666666666668
500.0   60.0   16.666666666666668
500.0   30.0   16.666666666666668
500.0   30.0   0.0
450.0   30.0   16.666666666666668
500.0   60.0   16.666666666666668
500.0   30.0   0.0
450.0   60.0   0.0
450.0   30.0   16.666666666666668
500.0   30.0   16.666666666666668
450.0   60.0   16.666666666666668
450.0   30.0   33.333333333333336
500.0   30.0   16.666666666666668
500.0   60.0   16.666666666666668
450.0   60.0   16.666666666666668
500.0   60.0   33.333333333333336
450.0   30.0   33.333333333333336
450.0   60.0   33.333333333333336
500.0   60.0   33.333333333333336
450.0   60.0   16.666666666666668
450.0   30.0   33.333333333333336
500.0   60.0   33.333333333333336
500.0   30.0   33.333333333333336
500.0   30.0   16.666666666666668
450.0   30.0   33.333333333333336
500.0   60.0   33.333333333333336
500.0   30.0   16.666666666666668
450.0   60.0   16.666666666666668
450.0   30.0   33.333333333333336
500.0   30.0   33.333333333333336
450.0   60.0   33.333333333333336
450.0   30.0   50.0
500.0   30.0   33.333333333333336
500.0   60.0   33.333333333333336
450.0   60.0   33.333333333333336
500.0   60.0   50.0
450.0   30.0   50.0
450.0   60.0   50.0
500.0   60.0   50.0
450.0   60.0   33.333333333333336
450.0   30.0   50.0
500.0   60.0   50.0
500.0   30.0   50.0
500.0   30.0   33.333333333333336
450.0   30.0   50.0
500.0   60.0   50.0
500.0   30.0   33.333333333333336
450.0   60.0   33.333333333333336
450.0   60.0   0.0
500.0   60.0   0.0
450.0   90.0   0.0
450.0   60.0   16.666666666666668
500.0   60.0   0.0
500.0   90.0   0.0
450.0   90.0   0.0
500.0   90.0   16.666666666666668
450.0   60.0   16.666666666666668
450.0   90.0   16.666666666666668
500.0   90.0   16.666666666666668
450.0   90.0   0.0
450.0   60.0   16.666666666666668
500.0   90.0   16.666666666666668
500.0   60.0   16.666666666666668
500.0   60.0   0.0
450.0   60.0   16.666666666666668
500.0   90.0   16.666666666666668
500.0   60.0   0.0
450.0   90.0   0.0
450.0   60.0   16.666666666666668
500.0   60.0   16.666666666666668
450.0   90.0   16.666666666666668
450.0   60.0   33.333333333333336
500.0   60.0   16.666666666666668
500.0   90.0   16.666666666666668
450.0   90.0   16.666666666666668
500.0   90.0   33.333333333333336
450.0   60.0   33.333333333333336
450.0   90.0   33.333333333333336
500.0   90.0   33.333333333333336
450.0   90.0   16.666666666666668
450.0   60.0   33.333333333333336
500.0   90.0   33.333333333333336
500.0   60.0   33.333333333333336
500.0   60.0   16.666666666666668
450.0   60.0   33.333333333333336
500.0   90.0   33.333333333333336
500.0   60.0   16.666666666666668
450.0   90.0   16.666666666666668
450.0   60.0   33.333333333333336
500.0   60.0   33.333333333333336
450.0   90.0   33.333333333333336
450.0   60.0   50.0
500.0   60.0   33.333333333333336
500.0   90.0   33.333333333333336
450.0   90.0   33.333333333333336
500.0   90.0   50.0
450.0   60.0   50.0
450.0   90.0   50.0
500.0   90.0   50.0
450.0   90.0   33.333333333333336
450.0   60.0   50.0
500.0   90.0   50.0
500.0   60.0   50.0
500.0   60.0   33.333333333333336
450.0   60.0   50.0
500.0   90.0   50.0
500.0   60.0   33.333333333333336
450.0   90.0   33.333333333333336
450.0   90.0   0.0
500.0   90.0   0.0
450.0   120.0   0.0
450.0   90.0   16.666666666666668
500.0   90.0   0.0
500.0   120.0   0.0
450.0   120.0   0.0
500.0   120.0   16.666666666666668
450.0   90.0   16.666666666666668
450.0   120.0   16.666666666666668
500.0   120.0   16.666666666666668
450.0   120.0   0.0
450.0   90.0   16.666666666666668
500.0   120.0   16.666666666666668
500.0   90.0   16.666666666666668
500.0   90.0   0.0
450.0   90.0   16.666666666666668
500.0   120.0   16.666666666666668
500.0   90.0   0.0
450.0   120.0   0.0
450.0   90.0   16.666666666666668
500.0   90.0   16.666666666666668
450.0   120.0   16.666666666666668
450.0   90.0   33.333333333333336
500.0   90.0   16.666666666666668
500.0   120.0   16.666666666666668
450.0   120.0   16.666666666666668
500.0   120.0   33.333333333333336
450.0   90.0   33.333333333333336
450.0   120.0   33.333333333333336
500.0   120.0   33.333333333333336
450.0   120.0   16.666666666666668
450.0   90.0   33.333333333333336
500.0   120.0   33.333333333333336
500.0   90.0   33.333333333333336
500.0   90.0   16.666666666666668
450.0   90.0   33.333333333333336
500.0   120.0   33.333333333333336
500.0   90.0   16.666666666666668
450.0   120.0   16.666666666666668
450.0   90.0   33.333333333333336
500.0   90.0   33.333333333333336
450.0   120.0   33.333333333333336
450.0   90.0   50.0
500.0   90.0   33.333333333333336
500.0   120.0   33.333333333333336
450.0   120.0   33.333333333333336
500.0   120.0   50.0
450.0   90.0   50.0
450.0   120.0   50.0
500.0   120.0   50.0
450.0   120.0   33.333333333333336
450.0   90.0   50.0
500.0   120.0   50.0
500.0   90.0   50.0
500.0   90.0   33.333333333333336
450.0   90.0   50.0
500.0   120.0   50.0
500.0   90.0   33.333333333333336
450.0   120.0   33.333333333333336
450.0   120.0   0.0
500.0   120.0   0.0
450.0   150.0   0.0
450.0   120.0   16.666666666666668
500.0   120.0   0.0
500.0   150.0   0.0
450.0   150.0   0.0
500.0   150.0   16.666666666666668
450.0   120.0   16.666666666666668
450.0   150.0   16.666666666666668
500.0   150.0   16.666666666666668
450.0   150.0   0.0
450.0   120.0   16.666666666666668
500.0   150.0   16.666666666666668
500.0   120.0   16.666666666666668
500.0   120.0   0.0
450.0   120.0   16.666666666666668
500.0   150.0   16.666666666666668
500.0   120.0   0.0
450.0   150.0   0.0
450.0   120.0   16.666666666666668
500.0   120.0   16.666666666666668
450.0   150.0   16.666666666666668
450.0   120.0   33.333333333333336
500.0   120.0   16.666666666666668
500.0   150.0   16.666666666666668
450.0   150.0   16.666666666666668
500.0   150.0   33.333333333333336
450.0   120.0   33.333333333333336
450.0   150.0   33.333333333333336
500.0   150.0   33.333333333333336
450.0   150.0   16.666666666666668
450.0   120.0   33.333333333333336
500.0   150.0   33.333333333333336
500.0   120.0   33.333333333333336
500.0   120.0   16.666666666666668
450.0   120.0   33.333333333333336
500.0   150.0   33.333333333333336
500.0   120.0   16.666666666666668
450.0   150.0   16.666666666666668
450.0   120.0   33.333333333333336
500.0   120.0   33.333333333333336
450.0   150.0   33.333333333333336
450.0   120.0   50.0
500.0   120.0   33.333333333333336
500.0   150.0   33.333333333333336
450.0   150.0   33.333333333333336
500.0   150.0   50.0
450.0   120.0   50.0
450.0   150.0   50.0
500.0   150.0   50.0
450.0   150.0   33.333333333333336
450.0   120.0   50.0
500.0   150.0   50.0
500.0   120.0   50.0
500.0   120.0   33.333333333333336
450.0   120.0   50.0
500.0   150.0   50.0
500.0   120.0   33.333333333333336
450.0   150.0   33.333333333333336
             </DataArray>   
          </Points>  
          <Cells>  
             <DataArray type="Int32" Name="connectivity" format="ascii">   
0   1   2   3
4   5   6   7
8   9   10   11
12   13   14   15
16   17   18   19
20   21   22   23
24   25   26   27
28   29   30   31
32   33   34   35
36   37   38   39
40   41   42   43
44   45   46   47
48   49   50   51
52   53   54   55
56   57   58   59
60   61   62   63
64   65   66   67
68   69   70   71
72   73   74   75
76   77   78   79
80   81   82   83
84   85   86   87
88   89   90   91
92   93   94   95
96   97   98   99
100   101   102   103
104   105   106   107
108   109   110   111
112   113   114   115
116   117   118   119
120   121   122   123
124   125   126   127
128   129   130   131
132   133   134   135
136   137   138   139
140   141   142   143
144   145   146   147
148   149   150   151
152   153   154   155
156   157   158   159
160   161   162   163
164   165   166   167
168   169   170   171
172   173   174   175
176   177   178   179
180   181   182   183
184   185   186   187
188   189   190   191
192   193   194   195
196   197   198   199
200   201   202   203
204   205   206   207
208   209   210   211
212   213   214   215
216   217   218   219
220   221   222   223
224   225   226   227
228   229   230   231
232   233   234   235
236   237   238   239
240   241   242   243
244   245   246   247
248   249   250   251
252   253   254   255
256   257   258   259
260   261   262   263
264   265   266   267
268   269   270   271
272   273   274   275
276   277   278   279
280   281   282   283
284   285   286   287
288   289   290   291
292   293   294   295
296   297   298   299
300   301   302   303
304   305   306   307
308   309   310   311
312   313   314   315
316   317   318   319
320   321   322   323
324   325   326   327
328   329   330   331
332   333   334   335
336   337   338   339
340   341   342   343
344   345   346   347
348   349   350   351
352   353   354   355
356   357   358   359
360   361   362   363
364   365   366   367
368   369   370   371
372   373   374   375
376   377   378   379
380   381   382   383
384   385   386   387
388   389   390   391
392   393   394   395
396   397   398   399
400   401   402   403
404   405   406   407
408   409   410   411
412   413   414   415
416   417   418   419
420   421   422   423
424   425   426   427
428   429   430   431
432   433   434   435
436   437   438   439
440   441   442   443
444   445   446   447
448   449   450   451
452   453   454   455
456   457   458   459
460   461   462   463
464   465   466   467
468   469   470   471
472   473   474   475
476   477   478   479
480   481   482   483
484   485   486   487
488   489   490   491
492   493   494   495
496   497   498   499
500   501   502   503
504   505   506   507
508   509   510   511
512   513   514   515
516   517   518   519
520   521   522   523
524   525   526   527
528   529   530   531
532   533   534   535
536   537   538   539
540   541   542   543
544   545   546   547
548   549   550   551
552   553   554   555
556   557   558   559
560   561   562   563
564   565   566   567
568   569   570   571
572   573   574   575
576   577   578   579
580   581   582   583
584   585   586   587
588   589   590   591
592   593   594   595
596   597   598   599
600   601   602   603
604   605   606   607
608   609   610   611
612   613   614   615
616   617   618   619
620   621   622   623
624   625   626   627
628   629   630   631
632   633   634   635
636   637   638   639
640   641   642   643
644   645   646   647
648   649   650   651
652   653   654   655
656   657   658   659
660   661   662   663
664   665   666   667
668   669   670   671
672   673   674   675
676   677   678   679
680   681   682   683
684   685   686   687
688   689   690   691
692   693   694   695
696   697   698   699
700   701   702   703
704   705   706   707
708   709   710   711
712   713   714   715
716   717   718   719
720   721   722   723
724   725   726   727
728   729   730   731
732   733   734   735
736   737   738   739
740   741   742   743
744   745   746   747
748   749   750   751
752   753   754   755
756   757   758   759
760   761   762   763
764   765   766   767
768   769   770   771
772   773   774   775
776   777   778   779
780   781   782   783
784   785   786   787
788   789   790   791
792   793   794   795
796   797   798   799
800   801   802   803
804   805   806   807
808   809   810   811
812   813   814   815
816   817   818   819
820   821   822   823
824   825   826   827
828   829   830   831
832   833   834   835
836   837   838   839
840   841   842   843
844   845   846   847
848   849   850   851
852   853   854   855
856   857   858   859
860   861   862   863
864   865   866   867
868   869   870   871
872   873   874   875
876   877   878   879
880   881   882   883
884   885   886   887
888   889   890   891
892   893   894   895
896   897   898   899
900   901   902   903
904   905   906   907
908   909   910   911
912   913   914   915
916   917   918   919
920   921   922   923
924   925   926   927
928   929   930   931
932   933   934   935
936   937   938   939
940   941   942   943
944   945   946   947
948   949   950   951
952   953   954   955
956   957   958   959
960   961   962   963
964   965   966   967
968   969   970   971
972   973   974   975
976   977   978   979
980   981   982   983
984   985   986   987
988   989   990   991
992   993   994   995
996   997   998   999
1000   1001   1002   1003
1004   1005   1006   1007
1008   1009   1010   1011
1012   1013   1014   1015
1016   1017   1018   1019
1020   1021   1022   1023
1024   1025   1026   1027
1028   1029   1030   1031
1032   1033   1034   1035
1036   1037   1038   1039
1040   1041   1042   1043
1044   1045   1046   1047
1048   1049   1050   1051
1052   1053   1054   1055
1056   1057   1058   1059
1060   1061   1062   1063
1064   1065   1066   1067
1068   1069   1070   1071
1072   1073   1074   1075
1076   1077   1078   1079
1080   1081   1082   1083
1084   1085   1086   1087
1088   1089   1090   1091
1092   1093   1094   1095
1096   1097   1098   1099
1100   1101   1102   1103
1104   1105   1106   1107
1108   1109   1110   1111
1112   1113   1114   1115
1116   1117   1118   1119
1120   1121   1122   1123
1124   1125   1126   1127
1128   1129   1130   1131
1132   1133   1134   1135
1136   1137   1138   1139
1140   1141   1142   1143
1144   1145   1146   1147
1148   1149   1150   1151
1152   1153   1154   1155
1156   1157   1158   1159
1160   1161   1162   1163
1164   1165   1166   1167
1168   1169   1170   1171
1172   1173   1174   1175
1176   1177   1178   1179
1180   1181   1182   1183
1184   1185   1186   1187
1188   1189   1190   1191
1192   1193   1194   1195
1196   1197   1198   1199
1200   1201   1202   1203
1204   1205   1206   1207
1208   1209   1210   1211
1212   1213   1214   1215
1216   1217   1218   1219
1220   1221   1222   1223
1224   1225   1226   1227
1228   1229   1230   1231
1232   1233   1234   1235
1236   1237   1238   1239
1240   1241   1242   1243
1244   1245   1246   1247
1248   1249   1250   1251
1252   1253   1254   1255
1256   1257   1258   1259
1260   1261   1262   1263
1264   1265   1266   1267
1268   1269   1270   1271
1272   1273   1274   1275
1276   1277   1278   1279
1280   1281   1282   1283
1284   1285   1286   1287
1288   1289   1290   1291
1292   1293   1294   1295
1296   1297   1298   1299
1300   1301   1302   1303
1304   1305   1306   1307
1308   1309   1310   1311
1312   1313   1314   1315
1316   1317   1318   1319
1320   1321   1322   1323
1324   1325   1326   1327
1328   1329   1330   1331
1332   1333   1334   1335
1336   1337   1338   1339
1340   1341   1342   1343
1344   1345   1346   1347
1348   1349   1350   1351
1352   1353   1354   1355
1356   1357   1358   1359
1360   1361   1362   1363
1364   1365   1366   1367
1368   1369   1370   1371
1372   1373   1374   1375
1376   1377   1378   1379
1380   1381   1382   1383
1384   1385   1386   1387
1388   1389   1390   1391
1392   1393   1394   1395
1396   1397   1398   1399
1400   1401   1402   1403
1404   1405   1406   1407
1408   1409   1410   1411
1412   1413   1414   1415
1416   1417   1418   1419
1420   1421   1422   1423
1424   1425   1426   1427
1428   1429   1430   1431
1432   1433   1434   1435
1436   1437   1438   1439
1440   1441   1442   1443
1444   1445   1446   1447
1448   1449   1450   1451
1452   1453   1454   1455
1456   1457   1458   1459
1460   1461   1462   1463
1464   1465   1466   1467
1468   1469   1470   1471
1472   1473   1474   1475
1476   1477   1478   1479
1480   1481   1482   1483
1484   1485   1486   1487
1488   1489   1490   1491
1492   1493   1494   1495
1496   1497   1498   1499
1500   1501   1502   1503
1504   1505   1506   1507
1508   1509   1510   1511
1512   1513   1514   1515
1516   1517   1518   1519
1520   1521   1522   1523
1524   1525   1526   1527
1528   1529   1530   1531
1532   1533   1534   1535
1536   1537   1538   1539
1540   1541   1542   1543
1544   1545   1546   1547
1548   1549   1550   1551
1552   1553   1554   1555
1556   1557   1558   1559
1560   1561   1562   1563
1564   1565   1566   1567
1568   1569   1570   1571
1572   1573   1574   1575
1576   1577   1578   1579
1580   1581   1582   1583
1584   1585   1586   1587
1588   1589   1590   1591
1592   1593   1594   1595
1596   1597   1598   1599
1600   1601   1602   1603
1604   1605   1606   1607
1608   1609   1610   1611
1612   1613   1614   1615
1616   1617   1618   1619
1620   1621   1622   1623
1624   1625   1626   1627
1628   1629   1630   1631
1632   1633   1634   1635
1636   1637   1638   1639
1640   1641   1642   1643
1644   1645   1646   1647
1648   1649   1650   1651
1652   1653   1654   1655
1656   1657   1658   1659
1660   1661   1662   1663
1664   1665   1666   1667
1668   1669   1670   1671
1672   1673   1674   1675
1676   1677   1678   1679
1680   1681   1682   1683
1684   1685   1686   1687
1688   1689   1690   1691
1692   1693   1694   1695
1696   1697   1698   1699
1700   1701   1702   1703
1704   1705   1706   1707
1708   1709   1710   1711
1712   1713   1714   1715
1716   1717   1718   1719
1720   1721   1722   1723
1724   1725   1726   1727
1728   1729   1730   1731
1732   1733   1734   1735
1736   1737   1738   1739
1740   1741   1742   1743
1744   1745   1746   1747
1748   1749   1750   1751
1752   1753   1754   1755
1756   1757   1758   1759
1760   1761   1762   1763
1764   1765   1766   1767
1768   1769   1770   1771
1772   1773   1774   1775
1776   1777   1778   1779
1780   1781   1782   1783
1784   1785   1786   1787
1788   1789   1790   1791
1792   1793   1794   1795
1796   1797   1798   1799
1800   1801   1802   1803
1804   1805   1806   1807
1808   1809   1810   1811
1812   1813   1814   1815
1816   1817   1818   1819
1820   1821   1822   1823
1824   1825   1826   1827
1828   1829   1830   1831
1832   1833   1834   1835
1836   1837   1838   1839
1840   1841   1842   1843
1844   1845   1846   1847
1848   1849   1850   1851
1852   1853   1854   1855
1856   1857   1858   1859
1860   1861   1862   1863
1864   1865   1866   1867
1868   1869   1870   1871
1872   1873   1874   1875
1876   1877   1878   1879
1880   1881   1882   1883
1884   1885   1886   1887
1888   1889   1890   1891
1892   1893   1894   1895
1896   1897   1898   1899
1900   1901   1902   1903
1904   1905   1906   1907
1908   1909   1910   1911
1912   1913   1914   1915
1916   1917   1918   1919
1920   1921   1922   1923
1924   1925   1926   1927
1928   1929   1930   1931
1932   1933   1934   1935
1936   1937   1938   1939
1940   1941   1942   1943
1944   1945   1946   1947
1948   1949   1950   1951
1952   1953   1954   1955
1956   1957   1958   1959
1960   1961   1962   1963
1964   1965   1966   1967
1968   1969   1970   1971
1972   1973   1974   1975
1976   1977   1978   1979
1980   1981   1982   1983
1984   1985   1986   1987
1988   1989   1990   1991
1992   1993   1994   1995
1996   1997   1998   1999
2000   2001   2002   2003
2004   2005   2006   2007
2008   2009   2010   2011
2012   2013   2014   2015
2016   2017   2018   2019
2020   2021   2022   2023
2024   2025   2026   2027
2028   2029   2030   2031
2032   2033   2034   2035
2036   2037   2038   2039
2040   2041   2042   2043
2044   2045   2046   2047
2048   2049   2050   2051
2052   2053   2054   2055
2056   2057   2058   2059
2060   2061   2062   2063
2064   2065   2066   2067
2068   2069   2070   2071
2072   2073   2074   2075
2076   2077   2078   2079
2080   2081   2082   2083
2084   2085   2086   2087
2088   2089   2090   2091
2092   2093   2094   2095
2096   2097   2098   2099
2100   2101   2102   2103
2104   2105   2106   2107
2108   2109   2110   2111
2112   2113   2114   2115
2116   2117   2118   2119
2120   2121   2122   2123
2124   2125   2126   2127
2128   2129   2130   2131
2132   2133   2134   2135
2136   2137   2138   2139
2140   2141   2142   2143
2144   2145   2146   2147
2148   2149   2150   2151
2152   2153   2154   2155
2156   2157   2158   2159
2160   2161   2162   2163
2164   2165   2166   2167
2168   2169   2170   2171
2172   2173   2174   2175
2176   2177   2178   2179
2180   2181   2182   2183
2184   2185   2186   2187
2188   2189   2190   2191
2192   2193   2194   2195
2196   2197   2198   2199
2200   2201   2202   2203
2204   2205   2206   2207
2208   2209   2210   2211
2212   2213   2214   2215
2216   2217   2218   2219
2220   2221   2222   2223
2224   2225   2226   2227
2228   2229   2230   2231
2232   2233   2234   2235
2236   2237   2238   2239
2240   2241   2242   2243
2244   2245   2246   2247
2248   2249   2250   2251
2252   2253   2254   2255
2256   2257   2258   2259
2260   2261   2262   2263
2264   2265   2266   2267
2268   2269   2270   2271
2272   2273   2274   2275
2276   2277   2278   2279
2280   2281   2282   2283
2284   2285   2286   2287
2288   2289   2290   2291
2292   2293   2294   2295
2296   2297   2298   2299
2300   2301   2302   2303
2304   2305   2306   2307
2308   2309   2310   2311
2312   2313   2314   2315
2316   2317   2318   2319
2320   2321   2322   2323
2324   2325   2326   2327
2328   2329   2330   2331
2332   2333   2334   2335
2336   2337   2338   2339
2340   2341   2342   2343
2344   2345   2346   2347
2348   2349   2350   2351
2352   2353   2354   2355
2356   2357   2358   2359
2360   2361   2362   2363
2364   2365   2366   2367
2368   2369   2370   2371
2372   2373   2374   2375
2376   2377   2378   2379
2380   2381   2382   2383
2384   2385   2386   2387
2388   2389   2390   2391
2392   2393   2394   2395
2396   2397   2398   2399
2400   2401   2402   2403
2404   2405   2406   2407
2408   2409   2410   2411
2412   2413   2414   2415
2416   2417   2418   2419
2420   2421   2422   2423
2424   2425   2426   2427
2428   2429   2430   2431
2432   2433   2434   2435
2436   2437   2438   2439
2440   2441   2442   2443
2444   2445   2446   2447
2448   2449   2450   2451
2452   2453   2454   2455
2456   2457   2458   2459
2460   2461   2462   2463
2464   2465   2466   2467
2468   2469   2470   2471
2472   2473   2474   2475
2476   2477   2478   2479
2480   2481   2482   2483
2484   2485   2486   2487
2488   2489   2490   2491
2492   2493   2494   2495
2496   2497   2498   2499
2500   2501   2502   2503
2504   2505   2506   2507
2508   2509   2510   2511
2512   2513   2514   2515
2516   2517   2518   2519
2520   2521   2522   2523
2524   2525   2526   2527
2528   2529   2530   2531
2532   2533   2534   2535
2536   2537   2538   2539
2540   2541   2542   2543
2544   2545   2546   2547
2548   2549   2550   2551
2552   2553   2554   2555
2556   2557   2558   2559
2560   2561   2562   2563
2564   2565   2566   2567
2568   2569   2570   2571
2572   2573   2574   2575
2576   2577   2578   2579
2580   2581   2582   2583
2584   2585   2586   2587
2588   2589   2590   2591
2592   2593   2594   2595
2596   2597   2598   2599
2600   2601   2602   2603
2604   2605   2606   2607
2608   2609   2610   2611
2612   2613   2614   2615
2616   2617   2618   2619
2620   2621   2622   2623
2624   2625   2626   2627
2628   2629   2630   2631
2632   2633   2634   2635
2636   2637   2638   2639
2640   2641   2642   2643
2644   2645   2646   2647
2648   2649   2650   2651
2652   2653   2654   2655
2656   2657   2658   2659
2660   2661   2662   2663
2664   2665   2666   2667
2668   2669   2670   2671
2672   2673   2674   2675
2676   2677   2678   2679
2680   2681   2682   2683
2684   2685   2686   2687
2688   2689   2690   2691
2692   2693   2694   2695
2696   2697   2698   2699
2700   2701   2702   2703
2704   2705   2706   2707
2708   2709   2710   2711
2712   2713   2714   2715
2716   2717   2718   2719
2720   2721   2722   2723
2724   2725   2726   2727
2728   2729   2730   2731
2732   2733   2734   2735
2736   2737   2738   2739
2740   2741   2742   2743
2744   2745   2746   2747
2748   2749   2750   2751
2752   2753   2754   2755
2756   2757   2758   2759
2760   2761   2762   2763
2764   2765   2766   2767
2768   2769   2770   2771
2772   2773   2774   2775
2776   2777   2778   2779
2780   2781   2782   2783
2784   2785   2786   2787
2788   2789   2790   2791
2792   2793   2794   2795
2796   2797   2798   2799
2800   2801   2802   2803
2804   2805   2806   2807
2808   2809   2810   2811
2812   2813   2814   2815
2816   2817   2818   2819
2820   2821   2822   2823
2824   2825   2826   2827
2828   2829   2830   2831
2832   2833   2834   2835
2836   2837   2838   2839
2840   2841   2842   2843
2844   2845   2846   2847
2848   2849   2850   2851
2852   2853   2854   2855
2856   2857   2858   2859
2860   2861   2862   2863
2864   2865   2866   2867
2868   2869   2870   2871
2872   2873   2874   2875
2876   2877   2878   2879
2880   2881   2882   2883
2884   2885   2886   2887
2888   2889   2890   2891
2892   2893   2894   2895
2896   2897   2898   2899
2900   2901   2902   2903
2904   2905   2906   2907
2908   2909   2910   2911
2912   2913   2914   2915
2916   2917   2918   2919
2920   2921   2922   2923
2924   2925   2926   2927
2928   2929   2930   2931
2932   2933   2934   2935
2936   2937   2938   2939
2940   2941   2942   2943
2944   2945   2946   2947
2948   2949   2950   2951
2952   2953   2954   2955
2956   2957   2958   2959
2960   2961   2962   2963
2964   2965   2966   2967
2968   2969   2970   2971
2972   2973   2974   2975
2976   2977   2978   2979
2980   2981   2982   2983
2984   2985   2986   2987
2988   2989   2990   2991
2992   2993   2994   2995
2996   2997   2998   2999
3000   3001   3002   3003
3004   3005   3006   3007
3008   3009   3010   3011
3012   3013   3014   3015
3016   3017   3018   3019
3020   3021   3022   3023
3024   3025   3026   3027
3028   3029   3030   3031
3032   3033   3034   3035
3036   3037   3038   3039
3040   3041   3042   3043
3044   3045   3046   3047
3048   3049   3050   3051
3052   3053   3054   3055
3056   3057   3058   3059
3060   3061   3062   3063
3064   3065   3066   3067
3068   3069   3070   3071
3072   3073   3074   3075
3076   3077   3078   3079
3080   3081   3082   3083
3084   3085   3086   3087
3088   3089   3090   3091
3092   3093   3094   3095
3096   3097   3098   3099
3100   3101   3102   3103
3104   3105   3106   3107
3108   3109   3110   3111
3112   3113   3114   3115
3116   3117   3118   3119
3120   3121   3122   3123
3124   3125   3126   3127
3128   3129   3130   3131
3132   3133   3134   3135
3136   3137   3138   3139
3140   3141   3142   3143
3144   3145   3146   3147
3148   3149   3150   3151
3152   3153   3154   3155
3156   3157   3158   3159
3160   3161   3162   3163
3164   3165   3166   3167
3168   3169   3170   3171
3172   3173   3174   3175
3176   3177   3178   3179
3180   3181   3182   3183
3184   3185   3186   3187
3188   3189   3190   3191
3192   3193   3194   3195
3196   3197   3198   3199
3200   3201   3202   3203
3204   3205   3206   3207
3208   3209   3210   3211
3212   3213   3214   3215
3216   3217   3218   3219
3220   3221   3222   3223
3224   3225   3226   3227
3228   3229   3230   3231
3232   3233   3234   3235
3236   3237   3238   3239
3240   3241   3242   3243
3244   3245   3246   3247
3248   3249   3250   3251
3252   3253   3254   3255
3256   3257   3258   3259
3260   3261   3262   3263
3264   3265   3266   3267
3268   3269   3270   3271
3272   3273   3274   3275
3276   3277   3278   3279
3280   3281   3282   3283
3284   3285   3286   3287
3288   3289   3290   3291
3292   3293   3294   3295
3296   3297   3298   3299
3300   3301   3302   3303
3304   3305   3306   3307
3308   3309   3310   3311
3312   3313   3314   3315
3316   3317   3318   3319
3320   3321   3322   3323
3324   3325   3326   3327
3328   3329   3330   3331
3332   3333   3334   3335
3336   3337   3338   3339
3340   3341   3342   3343
3344   3345   3346   3347
3348   3349   3350   3351
3352   3353   3354   3355
3356   3357   3358   3359
3360   3361   3362   3363
3364   3365   3366   3367
3368   3369   3370   3371
3372   3373   3374   3375
3376   3377   3378   3379
3380   3381   3382   3383
3384   3385   3386   3387
3388   3389   3390   3391
3392   3393   3394   3395
3396   3397   3398   3399
3400   3401   3402   3403
3404   3405   3406   3407
3408   3409   3410   3411
3412   3413   3414   3415
3416   3417   3418   3419
3420   3421   3422   3423
3424   3425   3426   3427
3428   3429   3430   3431
3432   3433   3434   3435
3436   3437   3438   3439
3440   3441   3442   3443
3444   3445   3446   3447
3448   3449   3450   3451
3452   3453   3454   3455
3456   3457   3458   3459
3460   3461   3462   3463
3464   3465   3466   3467
3468   3469   3470   3471
3472   3473   3474   3475
3476   3477   3478   3479
3480   3481   3482   3483
3484   3485   3486   3487
3488   3489   3490   3491
3492   3493   3494   3495
3496   3497   3498   3499
3500   3501   3502   3503
3504   3505   3506   3507
3508   3509   3510   3511
3512   3513   3514   3515
3516   3517   3518   3519
3520   3521   3522   3523
3524   3525   3526   3527
3528   3529   3530   3531
3532   3533   3534   3535
3536   3537   3538   3539
3540   3541   3542   3543
3544   3545   3546   3547
3548   3549   3550   3551
3552   3553   3554   3555
3556   3557   3558   3559
3560   3561   3562   3563
3564   3565   3566   3567
3568   3569   3570   3571
3572   3573   3574   3575
3576   3577   3578   3579
3580   3581   3582   3583
3584   3585   3586   3587
3588   3589   3590   3591
3592   3593   3594   3595
3596   3597   3598   3599
3600   3601   3602   3603
3604   3605   3606   3607
3608   3609   3610   3611
3612   3613   3614   3615
3616   3617   3618   3619
3620   3621   3622   3623
3624   3625   3626   3627
3628   3629   3630   3631
3632   3633   3634   3635
3636   3637   3638   3639
3640   3641   3642   3643
3644   3645   3646   3647
3648   3649   3650   3651
3652   3653   3654   3655
3656   3657   3658   3659
3660   3661   3662   3663
3664   3665   3666   3667
3668   3669   3670   3671
3672   3673   3674   3675
3676   3677   3678   3679
3680   3681   3682   3683
3684   3685   3686   3687
3688   3689   3690   3691
3692   3693   3694   3695
3696   3697   3698   3699
3700   3701   3702   3703
3704   3705   3706   3707
3708   3709   3710   3711
3712   3713   3714   3715
3716   3717   3718   3719
3720   3721   3722   3723
3724   3725   3726   3727
3728   3729   3730   3731
3732   3733   3734   3735
3736   3737   3738   3739
3740   3741   3742   3743
3744   3745   3746   3747
3748   3749   3750   3751
3752   3753   3754   3755
3756   3757   3758   3759
3760   3761   3762   3763
3764   3765   3766   3767
3768   3769   3770   3771
3772   3773   3774   3775
3776   3777   3778   3779
3780   3781   3782   3783
3784   3785   3786   3787
3788   3789   3790   3791
3792   3793   3794   3795
3796   3797   3798   3799
3800   3801   3802   3803
3804   3805   3806   3807
3808   3809   3810   3811
3812   3813   3814   3815
3816   3817   3818   3819
3820   3821   3822   3823
3824   3825   3826   3827
3828   3829   3830   3831
3832   3833   3834   3835
3836   3837   3838   3839
3840   3841   3842   3843
3844   3845   3846   3847
3848   3849   3850   3851
3852   3853   3854   3855
3856   3857   3858   3859
3860   3861   3862   3863
3864   3865   3866   3867
3868   3869   3870   3871
3872   3873   3874   3875
3876   3877   3878   3879
3880   3881   3882   3883
3884   3885   3886   3887
3888   3889   3890   3891
3892   3893   3894   3895
3896   3897   3898   3899
3900   3901   3902   3903
3904   3905   3906   3907
3908   3909   3910   3911
3912   3913   3914   3915
3916   3917   3918   3919
3920   3921   3922   3923
3924   3925   3926   3927
3928   3929   3930   3931
3932   3933   3934   3935
3936   3937   3938   3939
3940   3941   3942   3943
3944   3945   3946   3947
3948   3949   3950   3951
3952   3953   3954   3955
3956   3957   3958   3959
3960   3961   3962   3963
3964   3965   3966   3967
3968   3969   3970   3971
3972   3973   3974   3975
3976   3977   3978   3979
3980   3981   3982   3983
3984   3985   3986   3987
3988   3989   3990   3991
3992   3993   3994   3995
3996   3997   3998   3999
4000   4001   4002   4003
4004   4005   4006   4007
4008   4009   4010   4011
4012   4013   4014   4015
4016   4017   4018   4019
4020   4021   4022   4023
4024   4025   4026   4027
4028   4029   4030   4031
4032   4033   4034   4035
4036   4037   4038   4039
4040   4041   4042   4043
4044   4045   4046   4047
4048   4049   4050   4051
4052   4053   4054   4055
4056   4057   4058   4059
4060   4061   4062   4063
4064   4065   4066   4067
4068   4069   4070   4071
4072   4073   4074   4075
4076   4077   4078   4079
4080   4081   4082   4083
4084   4085   4086   4087
4088   4089   4090   4091
4092   4093   4094   4095
4096   4097   4098   4099
4100   4101   4102   4103
4104   4105   4106   4107
4108   4109   4110   4111
4112   4113   4114   4115
4116   4117   4118   4119
4120   4121   4122   4123
4124   4125   4126   4127
4128   4129   4130   4131
4132   4133   4134   4135
4136   4137   4138   4139
4140   4141   4142   4143
4144   4145   4146   4147
4148   4149   4150   4151
4152   4153   4154   4155
4156   4157   4158   4159
4160   4161   4162   4163
4164   4165   4166   4167
4168   4169   4170   4171
4172   4173   4174   4175
4176   4177   4178   4179
4180   4181   4182   4183
4184   4185   4186   4187
4188   4189   4190   4191
4192   4193   4194   4195
4196   4197   4198   4199
4200   4201   4202   4203
4204   4205   4206   4207
4208   4209   4210   4211
4212   4213   4214   4215
4216   4217   4218   4219
4220   4221   4222   4223
4224   4225   4226   4227
4228   4229   4230   4231
4232   4233   4234   4235
4236   4237   4238   4239
4240   4241   4242   4243
4244   4245   4246   4247
4248   4249   4250   4251
4252   4253   4254   4255
4256   4257   4258   4259
4260   4261   4262   4263
4264   4265   4266   4267
4268   4269   4270   4271
4272   4273   4274   4275
4276   4277   4278   4279
4280   4281   4282   4283
4284   4285   4286   4287
4288   4289   4290   4291
4292   4293   4294   4295
4296   4297   4298   4299
4300   4301   4302   4303
4304   4305   4306   4307
4308   4309   4310   4311
4312   4313   4314   4315
4316   4317   4318   4319
4320   4321   4322   4323
4324   4325   4326   4327
4328   4329   4330   4331
4332   4333   4334   4335
4336   4337   4338   4339
4340   4341   4342   4343
4344   4345   4346   4347
4348   4349   4350   4351
4352   4353   4354   4355
4356   4357   4358   4359
4360   4361   4362   4363
4364   4365   4366   4367
4368   4369   4370   4371
4372   4373   4374   4375
4376   4377   4378   4379
4380   4381   4382   4383
4384   4385   4386   4387
4388   4389   4390   4391
4392   4393   4394   4395
4396   4397   4398   4399
4400   4401   4402   4403
4404   4405   4406   4407
4408   4409   4410   4411
4412   4413   4414   4415
4416   4417   4418   4419
4420   4421   4422   4423
4424   4425   4426   4427
4428   4429   4430   4431
4432   4433   4434   4435
4436   4437   4438   4439
4440   4441   4442   4443
4444   4445   4446   4447
4448   4449   4450   4451
4452   4453   4454   4455
4456   4457   4458   4459
4460   4461   4462   4463
4464   4465   4466   4467
4468   4469   4470   4471
4472   4473   4474   4475
4476   4477   4478   4479
4480   4481   4482   4483
4484   4485   4486   4487
4488   4489   4490   4491
4492   4493   4494   4495
4496   4497   4498   4499
4500   4501   4502   4503
4504   4505   4506   4507
4508   4509   4510   4511
4512   4513   4514   4515
4516   4517   4518   4519
4520   4521   4522   4523
4524   4525   4526   4527
4528   4529   4530   4531
4532   4533   4534   4535
4536   4537   4538   4539
4540   4541   4542   4543
4544   4545   4546   4547
4548   4549   4550   4551
4552   4553   4554   4555
4556   4557   4558   4559
4560   4561   4562   4563
4564   4565   4566   4567
4568   4569   4570   4571
4572   4573   4574   4575
4576   4577   4578   4579
4580   4581   4582   4583
4584   4585   4586   4587
4588   4589   4590   4591
4592   4593   4594   4595
4596   4597   4598   4599
4600   4601   4602   4603
4604   4605   4606   4607
4608   4609   4610   4611
4612   4613   4614   4615
4616   4617   4618   4619
4620   4621   4622   4623
4624   4625   4626   4627
4628   4629   4630   4631
4632   4633   4634   4635
4636   4637   4638   4639
4640   4641   4642   4643
4644   4645   4646   4647
4648   4649   4650   4651
4652   4653   4654   4655
4656   4657   4658   4659
4660   4661   4662   4663
4664   4665   4666   4667
4668   4669   4670   4671
4672   4673   4674   4675
4676   4677   4678   4679
4680   4681   4682   4683
4684   4685   4686   4687
4688   4689   4690   4691
4692   4693   4694   4695
4696   4697   4698   4699
4700   4701   4702   4703
4704   4705   4706   4707
4708   4709   4710   4711
4712   4713   4714   4715
4716   4717   4718   4719
4720   4721   4722   4723
4724   4725   4726   4727
4728   4729   4730   4731
4732   4733   4734   4735
4736   4737   4738   4739
4740   4741   4742   4743
4744   4745   4746   4747
4748   4749   4750   4751
4752   4753   4754   4755
4756   4757   4758   4759
4760   4761   4762   4763
4764   4765   4766   4767
4768   4769   4770   4771
4772   4773   4774   4775
4776   4777   4778   4779
4780   4781   4782   4783
4784   4785   4786   4787
4788   4789   4790   4791
4792   4793   4794   4795
4796   4797   4798   4799
4800   4801   4802   4803
4804   4805   4806   4807
4808   4809   4810   4811
4812   4813   4814   4815
4816   4817   4818   4819
4820   4821   4822   4823
4824   4825   4826   4827
4828   4829   4830   4831
4832   4833   4834   4835
4836   4837   4838   4839
4840   4841   4842   4843
4844   4845   4846   4847
4848   4849   4850   4851
4852   4853   4854   4855
4856   4857   4858   4859
4860   4861   4862   4863
4864   4865   4866   4867
4868   4869   4870   4871
4872   4873   4874   4875
4876   4877   4878   4879
4880   4881   4882   4883
4884   4885   4886   4887
4888   4889   4890   4891
4892   4893   4894   4895
4896   4897   4898   4899
4900   4901   4902   4903
4904   4905   4906   4907
4908   4909   4910   4911
4912   4913   4914   4915
4916   4917   4918   4919
4920   4921   4922   4923
4924   4925   4926   4927
4928   4929   4930   4931
4932   4933   4934   4935
4936   4937   4938   4939
4940   4941   4942   4943
4944   4945   4946   4947
4948   4949   4950   4951
4952   4953   4954   4955
4956   4957   4958   4959
4960   4961   4962   4963
4964   4965   4966   4967
4968   4969   4970   4971
4972   4973   4974   4975
4976   4977   4978   4979
4980   4981   4982   4983
4984   4985   4986   4987
4988   4989   4990   4991
4992   4993   4994   4995
4996   4997   4998   4999
5000   5001   5002   5003
5004   5005   5006   5007
5008   5009   5010   5011
5012   5013   5014   5015
5016   5017   5018   5019
5020   5021   5022   5023
5024   5025   5026   5027
5028   5029   5030   5031
5032   5033   5034   5035
5036   5037   5038   5039
5040   5041   5042   5043
5044   5045   5046   5047
5048   5049   5050   5051
5052   5053   5054   5055
5056   5057   5058   5059
5060   5061   5062   5063
5064   5065   5066   5067
5068   5069   5070   5071
5072   5073   5074   5075
5076   5077   5078   5079
5080   5081   5082   5083
5084   5085   5086   5087
5088   5089   5090   5091
5092   5093   5094   5095
5096   5097   5098   5099
5100   5101   5102   5103
5104   5105   5106   5107
5108   5109   5110   5111
5112   5113   5114   5115
5116   5117   5118   5119
5120   5121   5122   5123
5124   5125   5126   5127
5128   5129   5130   5131
5132   5133   5134   5135
5136   5137   5138   5139
5140   5141   5142   5143
5144   5145   5146   5147
5148   5149   5150   5151
5152   5153   5154   5155
5156   5157   5158   5159
5160   5161   5162   5163
5164   5165   5166   5167
5168   5169   5170   5171
5172   5173   5174   5175
5176   5177   5178   5179
5180   5181   5182   5183
5184   5185   5186   5187
5188   5189   5190   5191
5192   5193   5194   5195
5196   5197   5198   5199
5200   5201   5202   5203
5204   5205   5206   5207
5208   5209   5210   5211
5212   5213   5214   5215
5216   5217   5218   5219
5220   5221   5222   5223
5224   5225   5226   5227
5228   5229   5230   5231
5232   5233   5234   5235
5236   5237   5238   5239
5240   5241   5242   5243
5244   5245   5246   5247
5248   5249   5250   5251
5252   5253   5254   5255
5256   5257   5258   5259
5260   5261   5262   5263
5264   5265   5266   5267
5268   5269   5270   5271
5272   5273   5274   5275
5276   5277   5278   5279
5280   5281   5282   5283
5284   5285   5286   5287
5288   5289   5290   5291
5292   5293   5294   5295
5296   5297   5298   5299
5300   5301   5302   5303
5304   5305   5306   5307
5308   5309   5310   5311
5312   5313   5314   5315
5316   5317   5318   5319
5320   5321   5322   5323
5324   5325   5326   5327
5328   5329   5330   5331
5332   5333   5334   5335
5336   5337   5338   5339
5340   5341   5342   5343
5344   5345   5346   5347
5348   5349   5350   5351
5352   5353   5354   5355
5356   5357   5358   5359
5360   5361   5362   5363
5364   5365   5366   5367
5368   5369   5370   5371
5372   5373   5374   5375
5376   5377   5378   5379
5380   5381   5382   5383
5384   5385   5386   5387
5388   5389   5390   5391
5392   5393   5394   5395
5396   5397   5398   5399
5400   5401   5402   5403
5404   5405   5406   5407
5408   5409   5410   5411
5412   5413   5414   5415
5416   5417   5418   5419
5420   5421   5422   5423
5424   5425   5426   5427
5428   5429   5430   5431
5432   5433   5434   5435
5436   5437   5438   5439
5440   5441   5442   5443
5444   5445   5446   5447
5448   5449   5450   5451
5452   5453   5454   5455
5456   5457   5458   5459
5460   5461   5462   5463
5464   5465   5466   5467
5468   5469   5470   5471
5472   5473   5474   5475
5476   5477   5478   5479
5480   5481   5482   5483
5484   5485   5486   5487
5488   5489   5490   5491
5492   5493   5494   5495
5496   5497   5498   5499
5500   5501   5502   5503
5504   5505   5506   5507
5508   5509   5510   5511
5512   5513   5514   5515
5516   5517   5518   5519
5520   5521   5522   5523
5524   5525   5526   5527
5528   5529   5530   5531
5532   5533   5534   5535
5536   5537   5538   5539
5540   5541   5542   5543
5544   5545   5546   5547
5548   5549   5550   5551
5552   5553   5554   5555
5556   5557   5558   5559
5560   5561   5562   5563
5564   5565   5566   5567
5568   5569   5570   5571
5572   5573   5574   5575
5576   5577   5578   5579
5580   5581   5582   5583
5584   5585   5586   5587
5588   5589   5590   5591
5592   5593   5594   5595
5596   5597   5598   5599
5600   5601   5602   5603
5604   5605   5606   5607
5608   5609   5610   5611
5612   5613   5614   5615
5616   5617   5618   5619
5620   5621   5622   5623
5624   5625   5626   5627
5628   5629   5630   5631
5632   5633   5634   5635
5636   5637   5638   5639
5640   5641   5642   5643
5644   5645   5646   5647
5648   5649   5650   5651
5652   5653   5654   5655
5656   5657   5658   5659
5660   5661   5662   5663
5664   5665   5666   5667
5668   5669   5670   5671
5672   5673   5674   5675
5676   5677   5678   5679
5680   5681   5682   5683
5684   5685   5686   5687
5688   5689   5690   5691
5692   5693   5694   5695
5696   5697   5698   5699
5700   5701   5702   5703
5704   5705   5706   5707
5708   5709   5710   5711
5712   5713   5714   5715
5716   5717   5718   5719
5720   5721   5722   5723
5724   5725   5726   5727
5728   5729   5730   5731
5732   5733   5734   5735
5736   5737   5738   5739
5740   5741   5742   5743
5744   5745   5746   5747
5748   5749   5750   5751
5752   5753   5754   5755
5756   5757   5758   5759
5760   5761   5762   5763
5764   5765   5766   5767
5768   5769   5770   5771
5772   5773   5774   5775
5776   5777   5778   5779
5780   5781   5782   5783
5784   5785   5786   5787
5788   5789   5790   5791
5792   5793   5794   5795
5796   5797   5798   5799
5800   5801   5802   5803
5804   5805   5806   5807
5808   5809   5810   5811
5812   5813   5814   5815
5816   5817   5818   5819
5820   5821   5822   5823
5824   5825   5826   5827
5828   5829   5830   5831
5832   5833   5834   5835
5836   5837   5838   5839
5840   5841   5842   5843
5844   5845   5846   5847
5848   5849   5850   5851
5852   5853   5854   5855
5856   5857   5858   5859
5860   5861   5862   5863
5864   5865   5866   5867
5868   5869   5870   5871
5872   5873   5874   5875
5876   5877   5878   5879
5880   5881   5882   5883
5884   5885   5886   5887
5888   5889   5890   5891
5892   5893   5894   5895
5896   5897   5898   5899
5900   5901   5902   5903
5904   5905   5906   5907
5908   5909   5910   5911
5912   5913   5914   5915
5916   5917   5918   5919
5920   5921   5922   5923
5924   5925   5926   5927
5928   5929   5930   5931
5932   5933   5934   5935
5936   5937   5938   5939
5940   5941   5942   5943
5944   5945   5946   5947
5948   5949   5950   5951
5952   5953   5954   5955
5956   5957   5958   5959
5960   5961   5962   5963
5964   5965   5966   5967
5968   5969   5970   5971
5972   5973   5974   5975
5976   5977   5978   5979
5980   5981   5982   5983
5984   5985   5986   5987
5988   5989   5990   5991
5992   5993   5994   5995
5996   5997   5998   5999
              </DataArray>   
              <DataArray type="Int32" Name="offsets" format="ascii">   
4
8
12
16
20
24
28
32
36
40
44
48
52
56
60
64
68
72
76
80
84
88
92
96
100
104
108
112
116
120
124
128
132
136
140
144
148
152
156
160
164
168
172
176
180
184
188
192
196
200
204
208
212
216
220
224
228
232
236
240
244
248
252
256
260
264
268
272
276
280
284
288
292
296
300
304
308
312
316
320
324
328
332
336
340
344
348
352
356
360
364
368
372
376
380
384
388
392
396
400
404
408
412
416
420
424
428
432
436
440
444
448
452
456
460
464
468
472
476
480
484
488
492
496
500
504
508
512
516
520
524
528
532
536
540
544
548
552
556
560
564
568
572
576
580
584
588
592
596
600
604
608
612
616
620
624
628
632
636
640
644
648
652
656
660
664
668
672
676
680
684
688
692
696
700
704
708
712
716
720
724
728
732
736
740
744
748
752
756
760
764
768
772
776
780
784
788
792
796
800
804
808
812
816
820
824
828
832
836
840
844
848
852
856
860
864
868
872
876
880
884
888
892
896
900
904
908
912
916
920
924
928
932
936
940
944
948
952
956
960
964
968
972
976
980
984
988
992
996
1000
1004
1008
1012
1016
1020
1024
1028
1032
1036
1040
1044
1048
1052
1056
1060
1064
1068
1072
1076
1080
1084
1088
1092
1096
1100
1104
1108
1112
1116
1120
1124
1128
1132
1136
1140
1144
1148
1152
1156
1160
1164
1168
1172
1176
1180
1184
1188
1192
1196
1200
1204
1208
1212
1216
1220
1224
1228
1232
1236
1240
1244
1248
1252
1256
1260
1264
1268
1272
1276
1280
1284
1288
1292
1296
1300
1304
1308
1312
1316
1320
1324
1328
1332
1336
1340
1344
1348
1352
1356
1360
1364
1368
1372
1376
1380
1384
1388
1392
1396
1400
1404
1408
1412
1416
1420
1424
1428
1432
1436
1440
1444
1448
1452
1456
1460
1464
1468
1472
1476
1480
1484
1488
1492
1496
1500
1504
1508
1512
1516
1520
1524
1528
1532
1536
1540
1544
1548
1552
1556
1560
1564
1568
1572
1576
1580
1584
1588
1592
1596
1600
1604
1608
1612
1616
1620
1624
1628
1632
1636
1640
1644
1648
1652
1656
1660
1664
1668
1672
1676
1680
1684
1688
1692
1696
1700
1704
1708
1712
1716
1720
1724
1728
1732
1736
1740
1744
1748
1752
1756
1760
1764
1768
1772
1776
1780
1784
1788
1792
1796
1800
1804
1808
1812
1816
1820
1824
1828
1832
1836
1840
1844
1848
1852
1856
1860
1864
1868
1872
1876
1880
1884
1888
1892
1896
1900
1904
1908
1912
1916
1920
1924
1928
1932
1936
1940
1944
1948
1952
1956
1960
1964
1968
1972
1976
1980
1984
1988
1992
1996
2000
2004
2008
2012
2016
2020
2024
2028
2032
2036
2040
2044
2048
2052
2056
2060
2064
2068
2072
2076
2080
2084
2088
2092
2096
2100
2104
2108
2112
2116
2120
2124
2128
2132
2136
2140
2144
2148
2152
2156
2160
2164
2168
2172
2176
2180
2184
2188
2192
2196
2200
2204
2208
2212
2216
2220
2224
2228
2232
2236
2240
2244
2248
2252
2256
2260
2264
2268
2272
2276
2280
2284
2288
2292
2296
2300
2304
2308
2312
2316
2320
2324
2328
2332
2336
2340
2344
2348
2352
2356
2360
2364
2368
2372
2376
2380
2384
2388
2392
2396
2400
2404
2408
2412
2416
2420
2424
2428
2432
2436
2440
2444
2448
2452
2456
2460
2464
2468
2472
2476
2480
2484
2488
2492
2496
2500
2504
2508
2512
2516
2520
2524
2528
2532
2536
2540
2544
2548
2552
2556
2560
2564
2568
2572
2576
2580
2584
2588
2592
2596
2600
2604
2608
2612
2616
2620
2624
2628
2632
2636
2640
2644
2648
2652
2656
2660
2664
2668
2672
2676
2680
2684
2688
2692
2696
2700
2704
2708
2712
2716
2720
2724
2728
2732
2736
2740
2744
2748
2752
2756
2760
2764
2768
2772
2776
2780
2784
2788
2792
2796
2800
2804
2808
2812
2816
2820
2824
2828
2832
2836
2840
2844
2848
2852
2856
2860
2864
2868
2872
2876
2880
2884
2888
2892
2896
2900
2904
2908
2912
2916
2920
2924
2928
2932
2936
2940
2944
2948
2952
2956
2960
2964
2968
2972
2976
2980
2984
2988
2992
2996
3000
3004
3008
3012
3016
3020
3024
3028
3032
3036
3040
3044
3048
3052
3056
3060
3064
3068
3072
3076
3080
3084
3088
3092
3096
3100
3104
3108
3112
3116
3120
3124
3128
3132
3136
3140
3144
3148
3152
3156
3160
3164
3168
3172
3176
3180
3184
3188
3192
3196
3200
3204
3208
3212
3216
3220
3224
3228
3232
3236
3240
3244
3248
3252
3256
3260
3264
3268
3272
3276
3280
3284
3288
3292
3296
3300
3304
3308
3312
3316
3320
3324
3328
3332
3336
3340
3344
3348
3352
3356
3360
3364
3368
3372
3376
3380
3384
3388
3392
3396
3400
3404
3408
3412
3416
3420
3424
3428
3432
3436
3440
3444
3448
3452
3456
3460
3464
3468
3472
3476
3480
3484
3488
3492
3496
3500
3504
3508
3512
3516
3520
3524
3528
3532
3536
3540
3544
3548
3552
3556
3560
3564
3568
3572
3576
3580
3584
3588
3592
3596
3600
3604
3608
3612
3616
3620
3624
3628
3632
3636
3640
3644
3648
3652
3656
3660
3664
3668
3672
3676
3680
3684
3688
3692
3696
3700
3704
3708
3712
3716
3720
3724
3728
3732
3736
3740
3744
3748
3752
3756
3760
3764
3768
3772
3776
3780
3784
3788
3792
3796
3800
3804
3808
3812
3816
3820
3824
3828
3832
3836
3840
3844
3848
3852
3856
3860
3864
3868
3872
3876
3880
3884
3888
3892
3896
3900
3904
3908
3912
3916
3920
3924
3928
3932
3936
3940
3944
3948
3952
3956
3960
3964
3968
3972
3976
3980
3984
3988
3992
3996
4000
4004
4008
4012
4016
4020
4024
4028
4032
4036
4040
4044
4048
4052
4056
4060
4064
4068
4072
4076
4080
4084
4088
4092
4096
4100
4104
4108
4112
4116
4120
4124
4128
4132
4136
4140
4144
4148
4152
4156
4160
4164
4168
4172
4176
4180
4184
4188
4192
4196
4200
4204
4208
4212
4216
4220
4224
4228
4232
4236
4240
4244
4248
4252
4256
4260
4264
4268
4272
4276
4280
4284
4288
4292
4296
4300
4304
4308
4312
4316
4320
4324
4328
4332
4336
4340
4344
4348
4352
4356
4360
4364
4368
4372
4376
4380
4384
4388
4392
4396
4400
4404
4408
4412
4416
4420
4424
4428
4432
4436
4440
4444
4448
4452
4456
4460
4464
4468
4472
4476
4480
4484
4488
4492
4496
4500
4504
4508
4512
4516
4520
4524
4528
4532
4536
4540
4544
4548
4552
4556
4560
4564
4568
4572
4576
4580
4584
4588
4592
4596
4600
4604
4608
4612
4616
4620
4624
4628
4632
4636
4640
4644
4648
4652
4656
4660
4664
4668
4672
4676
4680
4684
4688
4692
4696
4700
4704
4708
4712
4716
4720
4724
4728
4732
4736
4740
4744
4748
4752
4756
4760
4764
4768
4772
4776
4780
4784
4788
4792
4796
4800
4804
4808
4812
4816
4820
4824
4828
4832
4836
4840
4844
4848
4852
4856
4860
4864
4868
4872
4876
4880
4884
4888
4892
4896
4900
4904
4908
4912
4916
4920
4924
4928
4932
4936
4940
4944
4948
4952
4956
4960
4964
4968
4972
4976
4980
4984
4988
4992
4996
5000
5004
5008
5012
5016
5020
5024
5028
5032
5036
5040
5044
5048
5052
5056
5060
5064
5068
5072
5076
5080
5084
5088
5092
5096
5100
5104
5108
5112
5116
5120
5124
5128
5132
5136
5140
5144
5148
5152
5156
5160
5164
5168
5172
5176
5180
5184
5188
5192
5196
5200
5204
5208
5212
5216
5220
5224
5228
5232
5236
5240
5244
5248
5252
5256
5260
5264
5268
5272
5276
5280
5284
5288
5292
5296
5300
5304
5308
5312
5316
5320
5324
5328
5332
5336
5340
5344
5348
5352
5356
5360
5364
5368
5372
5376
5380
5384
5388
5392
5396
5400
5404
5408
5412
5416
5420
5424
5428
5432
5436
5440
5444
5448
5452
5456
5460
5464
5468
5472
5476
5480
5484
5488
5492
5496
5500
5504
5508
5512
5516
5520
5524
5528
5532
5536
5540
5544
5548
5552
5556
5560
5564
5568
5572
5576
5580
5584
5588
5592
5596
5600
5604
5608
5612
5616
5620
5624
5628
5632
5636
5640
5644
5648
5652
5656
5660
5664
5668
5672
5676
5680
5684
5688
5692
5696
5700
5704
5708
5712
5716
5720
5724
5728
5732
5736
5740
5744
5748
5752
5756
5760
5764
5768
5772
5776
5780
5784
5788
5792
5796
5800
5804
5808
5812
5816
5820
5824
5828
5832
5836
5840
5844
5848
5852
5856
5860
5864
5868
5872
5876
5880
5884
5888
5892
5896
5900
5904
5908
5912
5916
5920
5924
5928
5932
5936
5940
5944
5948
5952
5956
5960
5964
5968
5972
5976
5980
5984
5988
5992
5996
6000
              </DataArray>   
              <DataArray type="UInt8" Name="types" format="ascii">   
10
10
10
10
10
10
10
10
10
10
10
10
10
10
10
10
10
10
10
10
10
10
10
10
10
10
10
10
10
10
10
10
10
10
10
10
10
10
10
10
10
10
10
10
10
10
10
10
10
10
10
10
10
10
10
10
10
10
10
10
10
10
10
10
10
10
10
10
10
10
10
10
10
10
10
10
10
10
10
10
10
10
10
10
10
10
10
10
10
10
10
10
10
10
10
10
10
10
10
10
10
10
10
10
10
10
10
10
10
10
10
10
10
10
10
10
10
10
10
10
10
10
10
10
10
10
10
10
10
10
10
10
10
10
10
10
10
10
10
10
10
10
10
10
10
10
10
10
10
10
10
10
10
10
10
10
10
10
10
10
10
10
10
10
10
10
10
10
10
10
10
10
10
10
10
10
10
10
10
10
10
10
10
10
10
10
10
10
10
10
10
10
10
10
10
10
10
10
10
10
10
10
10
10
10
10
10
10
10
10
10
10
10
10
10
10
10
10
10
10
10
10
10
10
10
10
10
10
10
10
10
10
10
10
10
10
10
10
10
10
10
10
10
10
10
10
10
10
10
10
10
10
10
10
10
10
10
10
10
10
10
10
10
10
10
10
10
10
10
10
10
10
10
10
10
10
10
10
10
10
10
10
10
10
10
10
10
10
10
10
10
10
10
10
10
10
10
10
10
10
10
10
10
10
10
10
10
10
10
10
10
10
10
10
10
10
10
10
10
10
10
10
10
10
10
10
10
10
10
10
10
10
10
10
10
10
10
10
10
10
10
10
10
10
10
10
10
10
10
10
10
10
10
10
10
10
10
10
10
10
10
10
10
10
10
10
10
10
10
10
10
10
10
10
10
10
10
10
10
10
10
10
10
10
10
10
10
10
10
10
10
10
10
10
10
10
10
10
10
10
10
10
10
10
10
10
10
10
10
10
10
10
10
10
10
10
10
10
10
10
10
10
10
10
10
10
10
10
10
10
10
10
10
10
10
10
10
10
10
10
10
10
10
10
10
10
10
10
10
10
10
10
10
10
10
10
10
10
10
10
10
10
10
10
10
10
10
10
10
10
10
10
10
10
10
10
10
10
10
10
10
10
10
10
10
10
10
10
10
10
10
10
10
10
10
10
10
10
10
10
10
10
10
10
10
10
10
10
10
10
10
10
10
10
10
10
10
10
10
10
10
10
10
10
10
10
10
10
10
10
10
10
10
10
10
10
10
10
10
10
10
10
10
10
10
10
10
10
10
10
10
10
10
10
10
10
10
10
10
10
10
10
10
10
10
10
10
10
10
10
10
10
10
10
10
10
10
10
10
10
10
10
10
10
10
10
10
10
10
10
10
10
10
10
10
10
10
10
10
10
10
10
10
10
10
10
10
10
10
10
10
10
10
10
10
10
10
10
10
10
10
10
10
10
10
10
10
10
10
10
10
10
10
10
10
10
10
10
10
10
10
10
10
10
10
10
10
10
10
10
10
10
10
10
10
10
10
10
10
10
10
10
10
10
10
10
10
10
10
10
10
10
10
10
10
10
10
10
10
10
10
10
10
10
10
10
10
10
10
10
10
10
10
10
10
10
10
10
10
10
10
10
10
10
10
10
10
10
10
10
10
10
10
10
10
10
10
10
10
10
10
10
10
10
10
10
10
10
10
10
10
10
10
10
10
10
10
10
10
10
10
10
10
10
10
10
10
10
10
10
10
10
10
10
10
10
10
10
10
10
10
10
10
10
10
10
10
10
10
10
10
10
10
10
10
10
10
10
10
10
10
10
10
10
10
10
10
10
10
10
10
10
10
10
10
10
10
10
10
10
10
10
10
10
10
10
10
10
10
10
10
10
10
10
10
10
10
10
10
10
10
10
10
10
10
10
10
10
10
10
10
10
10
10
10
10
10
10
10
10
10
10
10
10
10
10
10
10
10
10
10
10
10
10
10
10
10
10
10
10
10
10
10
10
10
10
10
10
10
10
10
10
10
10
10
10
10
10
10
10
10
10
10
10
10
10
10
10
10
10
10
10
10
10
10
10
10
10
10
10
10
10
10
10
10
10
10
10
10
10
10
10
10
10
10
10
10
10
10
10
10
10
10
10
10
10
10
10
10
10
10
10
10
10
10
10
10
10
10
10
10
10
10
10
10
10
10
10
10
10
10
10
10
10
10
10
10
10
10
10
10
10
10
10
10
10
10
10
10
10
10
10
10
10
10
10
10
10
10
10
10
10
10
10
10
10
10
10
10
10
10
10
10
10
10
10
10
10
10
10
10
10
10
10
10
10
10
10
10
10
10
10
10
10
10
10
10
10
10
10
10
10
10
10
10
10
10
10
10
10
10
10
10
10
10
10
10
10
10
10
10
10
10
10
10
10
10
10
10
10
10
10
10
10
10
10
10
10
10
10
10
10
10
10
10
10
10
10
10
10
10
10
10
10
10
10
10
10
10
10
10
10
10
10
10
10
10
10
10
10
10
10
10
10
10
10
10
10
10
10
10
10
10
10
10
10
10
10
10
10
10
10
10
10
10
10
10
10
10
10
10
10
10
10
10
10
10
10
10
10
10
10
10
10
10
10
10
10
10
10
10
10
10
10
10
10
10
10
10
10
10
10
10
10
10
10
10
10
10
10
10
10
10
10
10
10
10
10
10
10
10
10
10
10
10
10
10
10
10
10
10
10
10
10
10
10
10
10
10
10
10
10
10
10
10
10
10
10
10
10
10
10
10
10
10
10
10
10
10
10
10
10
10
10
10
10
10
10
10
10
10
10
10
10
10
10
10
10
10
10
10
10
10
10
10
10
10
10
10
10
10
10
10
10
10
10
10
10
10
10
10
10
10
10
10
10
10
10
10
10
10
10
10
10
10
10
10
10
10
10
10
10
10
10
10
10
10
10
10
10
10
10
10
10
10
10
10
10
10
10
10
10
10
10
10
10
10
10
10
10
10
10
10
10
10
10
10
10
10
10
10
10
10
10
10
10
10
10
10
10
10
10
10
10
10
10
10
10
10
10
10
10
10
10
10
10
10
10
10
10
10
10
10
10
10
10
10
10
10
10
10
10
10
10
10
10
10
10
10
10
10
10
10
10
10
10
10
10
10
10
10
10
10
10
10
10
10
10
10
10
10
10
10
10
10
10
10
10
10
10
10
10
10
10
10
10
10
10
10
10
10
10
10
10
10
10
10
10
10
10
10
10
10
10
10
10
10
10
10
10
10
10
10
10
10
10
10
10
10
10
10
10
10
10
10
10
10
10
10
10
10
10
10
10
10
10
10
10
10
10
10
10
10
10
10
10
10
10
10
10
10
10
10
10
10
10
10
10
10
10
10
10
10
10
10
10
10
10
10
10
10
10
10
10
10
10
10
10
10
10
10
10
10
10
10
10
10
10
10
10
              </DataArray>   
          </Cells>  
          <PointData>  
             <DataArray type="Float64" NumberOfComponents="3" Name="Strains" format="ascii">   
-8.811470777282397e-05   0.0   -5.784762011345268e-05
-8.811470777282397e-05   0.0   -5.784762011345268e-05
-8.811470777282397e-05   0.0   -5.784762011345268e-05
-8.811470777282397e-05   0.0   -5.784762011345268e-05
-5.606733686609815e-05   9.759060494663531e-06   1.4201010278883628e-06
-5.606733686609815e-05   9.759060494663531e-06   1.4201010278883628e-06
-5.606733686609815e-05   9.759060494663531e-06   1.4201010278883628e-06
-5.606733686609815e-05   9.759060494663531e-06   1.4201010278883628e-06
-5.495745030111011e-05   0.0   -5.4599083097141415e-05
-5.495745030111011e-05   0.0   -5.4599083097141415e-05
-5.495745030111011e-05   0.0   -5.4599083097141415e-05
-5.495745030111011e-05   0.0   -5.4599083097141415e-05
-9.221490587969048e-05   1.1712495372744207e-05   4.691789768462677e-07
-9.221490587969048e-05   1.1712495372744207e-05   4.691789768462677e-07
-9.221490587969048e-05   1.1712495372744207e-05   4.691789768462677e-07
-9.221490587969048e-05   1.1712495372744207e-05   4.691789768462677e-07
-7.153607903696691e-05   2.7071141802593836e-06   -2.859230371220209e-05
-7.153607903696691e-05   2.7071141802593836e-06   -2.859230371220209e-05
-7.153607903696691e-05   2.7071141802593836e-06   -2.859230371220209e-05
-7.153607903696691e-05   2.7071141802593836e-06   -2.859230371220209e-05
-9.221490587969063e-05   0.0   -6.162658032078796e-05
-9.221490587969063e-05   0.0   -6.162658032078796e-05
-9.221490587969063e-05   0.0   -6.162658032078796e-05
-9.221490587969063e-05   0.0   -6.162658032078796e-05
-5.495745030111011e-05   1.1712495372744234e-05   7.4966762004928e-06
-5.495745030111011e-05   1.1712495372744234e-05   7.4966762004928e-06
-5.495745030111011e-05   1.1712495372744234e-05   7.4966762004928e-06
-5.495745030111011e-05   1.1712495372744234e-05   7.4966762004928e-06
-5.511129806235496e-05   0.0   -5.5935169433819126e-05
-5.511129806235496e-05   0.0   -5.5935169433819126e-05
-5.511129806235496e-05   0.0   -5.5935169433819126e-05
-5.511129806235496e-05   0.0   -5.5935169433819126e-05
-9.509391057787935e-05   1.2548479668886929e-05   3.1734302907229523e-06
-9.509391057787935e-05   1.2548479668886929e-05   3.1734302907229523e-06
-9.509391057787935e-05   1.2548479668886929e-05   3.1734302907229523e-06
-9.509391057787935e-05   1.2548479668886929e-05   3.1734302907229523e-06
-7.366310197102268e-05   4.742842405807359e-06   -2.7861201696190392e-05
-7.366310197102268e-05   4.742842405807359e-06   -2.7861201696190392e-05
-7.366310197102268e-05   4.742842405807359e-06   -2.7861201696190392e-05
-7.366310197102268e-05   4.742842405807359e-06   -2.7861201696190392e-05
-9.509391057787952e-05   0.0   -6.34642572351513e-05
-9.509391057787952e-05   0.0   -6.34642572351513e-05
-9.509391057787952e-05   0.0   -6.34642572351513e-05
-9.509391057787952e-05   0.0   -6.34642572351513e-05
-5.511129806235496e-05   1.2548479668886942e-05   1.0702518092055131e-05
-5.511129806235496e-05   1.2548479668886942e-05   1.0702518092055131e-05
-5.511129806235496e-05   1.2548479668886942e-05   1.0702518092055131e-05
-5.511129806235496e-05   1.2548479668886942e-05   1.0702518092055131e-05
-5.5081043023663255e-05   0.0   -5.627867041288872e-05
-5.5081043023663255e-05   0.0   -5.627867041288872e-05
-5.5081043023663255e-05   0.0   -5.627867041288872e-05
-5.5081043023663255e-05   0.0   -5.627867041288872e-05
-0.00010129721312654502   1.4296246229896119e-05   1.2170532020643456e-05
-0.00010129721312654502   1.4296246229896119e-05   1.2170532020643456e-05
-0.00010129721312654502   1.4296246229896119e-05   1.2170532020643456e-05
-0.00010129721312654502   1.4296246229896119e-05   1.2170532020643456e-05
-7.508747680077125e-05   5.98798901855213e-06   -2.652740752883972e-05
-7.508747680077125e-05   5.98798901855213e-06   -2.652740752883972e-05
-7.508747680077125e-05   5.98798901855213e-06   -2.652740752883972e-05
-7.508747680077125e-05   5.98798901855213e-06   -2.652740752883972e-05
-5.6067336866098246e-05   0.0   -5.199218381665455e-05
-5.6067336866098246e-05   0.0   -5.199218381665455e-05
-5.6067336866098246e-05   0.0   -5.199218381665455e-05
-5.6067336866098246e-05   0.0   -5.199218381665455e-05
-2.5534689006915927e-05   3.578784418787519e-06   1.0428332665884615e-06
-2.5534689006915927e-05   3.578784418787519e-06   1.0428332665884615e-06
-2.5534689006915927e-05   3.578784418787519e-06   1.0428332665884615e-06
-2.5534689006915927e-05   3.578784418787519e-06   1.0428332665884615e-06
-2.4557789629964824e-05   0.0   -5.1541568491511935e-05
-2.4557789629964824e-05   0.0   -5.1541568491511935e-05
-2.4557789629964824e-05   0.0   -5.1541568491511935e-05
-2.4557789629964824e-05   0.0   -5.1541568491511935e-05
-5.495745030111011e-05   5.095857676049137e-06   -3.932981978565955e-06
-5.495745030111011e-05   5.095857676049137e-06   -3.932981978565955e-06
-5.495745030111011e-05   5.095857676049137e-06   -3.932981978565955e-06
-5.495745030111011e-05   5.095857676049137e-06   -3.932981978565955e-06
-4.031256324803147e-05   3.755127709521798e-07   -2.550892012397199e-05
-4.031256324803147e-05   3.755127709521798e-07   -2.550892012397199e-05
-4.031256324803147e-05   3.755127709521798e-07   -2.550892012397199e-05
-4.031256324803147e-05   3.755127709521798e-07   -2.550892012397199e-05
-5.495745030111006e-05   0.0   -5.459908309714137e-05
-5.495745030111006e-05   0.0   -5.459908309714137e-05
-5.495745030111006e-05   0.0   -5.459908309714137e-05
-5.495745030111006e-05   0.0   -5.459908309714137e-05
-2.4557789629964824e-05   5.095857676049137e-06   -8.754673729364688e-07
-2.4557789629964824e-05   5.095857676049137e-06   -8.754673729364688e-07
-2.4557789629964824e-05   5.095857676049137e-06   -8.754673729364688e-07
-2.4557789629964824e-05   5.095857676049137e-06   -8.754673729364688e-07
-2.40086660513943e-05   0.0   -5.218831806579165e-05
-2.40086660513943e-05   0.0   -5.218831806579165e-05
-2.40086660513943e-05   0.0   -5.218831806579165e-05
-2.40086660513943e-05   0.0   -5.218831806579165e-05
-5.511129806235496e-05   6.244752280045796e-06   -4.097449415551362e-06
-5.511129806235496e-05   6.244752280045796e-06   -4.097449415551362e-06
-5.511129806235496e-05   6.244752280045796e-06   -4.097449415551362e-06
-5.511129806235496e-05   6.244752280045796e-06   -4.097449415551362e-06
-3.948305817625212e-05   2.008970859458133e-06   -2.7603047040036606e-05
-3.948305817625212e-05   2.008970859458133e-06   -2.7603047040036606e-05
-3.948305817625212e-05   2.008970859458133e-06   -2.7603047040036606e-05
-3.948305817625212e-05   2.008970859458133e-06   -2.7603047040036606e-05
-5.511129806235496e-05   0.0   -5.5935169433819126e-05
-5.511129806235496e-05   0.0   -5.5935169433819126e-05
-5.511129806235496e-05   0.0   -5.5935169433819126e-05
-5.511129806235496e-05   0.0   -5.5935169433819126e-05
-2.40086660513943e-05   6.244752280045796e-06   -3.505980475238923e-07
-2.40086660513943e-05   6.244752280045796e-06   -3.505980475238923e-07
-2.40086660513943e-05   6.244752280045796e-06   -3.505980475238923e-07
-2.40086660513943e-05   6.244752280045796e-06   -3.505980475238923e-07
-2.3508457373626243e-05   0.0   -5.1918609024735055e-05
-2.3508457373626243e-05   0.0   -5.1918609024735055e-05
-2.3508457373626243e-05   0.0   -5.1918609024735055e-05
-2.3508457373626243e-05   0.0   -5.1918609024735055e-05
-5.5081043023663106e-05   7.266768980256026e-06   -3.6576943294936896e-06
-5.5081043023663106e-05   7.266768980256026e-06   -3.6576943294936896e-06
-5.5081043023663106e-05   7.266768980256026e-06   -3.6576943294936896e-06
-5.5081043023663106e-05   7.266768980256026e-06   -3.6576943294936896e-06
-3.9309877717990586e-05   3.3471336742366852e-06   -2.7591188655336487e-05
-3.9309877717990586e-05   3.3471336742366852e-06   -2.7591188655336487e-05
-3.9309877717990586e-05   3.3471336742366852e-06   -2.7591188655336487e-05
-3.9309877717990586e-05   3.3471336742366852e-06   -2.7591188655336487e-05
-2.553468900691597e-05   0.0   -4.9844913165382034e-05
-2.553468900691597e-05   0.0   -4.9844913165382034e-05
-2.553468900691597e-05   0.0   -4.9844913165382034e-05
-2.553468900691597e-05   0.0   -4.9844913165382034e-05
3.311951520449832e-06   -4.5883749773861413e-07   -2.0424814517488204e-06
3.311951520449832e-06   -4.5883749773861413e-07   -2.0424814517488204e-06
3.311951520449832e-06   -4.5883749773861413e-07   -2.0424814517488204e-06
3.311951520449832e-06   -4.5883749773861413e-07   -2.0424814517488204e-06
3.936034150392571e-06   0.0   -5.099942451445691e-05
3.936034150392571e-06   0.0   -5.099942451445691e-05
3.936034150392571e-06   0.0   -5.099942451445691e-05
3.936034150392571e-06   0.0   -5.099942451445691e-05
-2.4557789629964783e-05   9.035732950914003e-07   -4.0518621909162495e-06
-2.4557789629964783e-05   9.035732950914003e-07   -4.0518621909162495e-06
-2.4557789629964783e-05   9.035732950914003e-07   -4.0518621909162495e-06
-2.4557789629964783e-05   9.035732950914003e-07   -4.0518621909162495e-06
-1.0799327428261656e-05   -9.620927908958728e-07   -2.586323287549566e-05
-1.0799327428261656e-05   -9.620927908958728e-07   -2.586323287549566e-05
-1.0799327428261656e-05   -9.620927908958728e-07   -2.586323287549566e-05
-1.0799327428261656e-05   -9.620927908958728e-07   -2.586323287549566e-05
-2.4557789629964824e-05   0.0   -5.1541568491511935e-05
-2.4557789629964824e-05   0.0   -5.1541568491511935e-05
-2.4557789629964824e-05   0.0   -5.1541568491511935e-05
-2.4557789629964824e-05   0.0   -5.1541568491511935e-05
3.936034150392577e-06   9.035732950914003e-07   -3.5097182138614058e-06
3.936034150392577e-06   9.035732950914003e-07   -3.5097182138614058e-06
3.936034150392577e-06   9.035732950914003e-07   -3.5097182138614058e-06
3.936034150392577e-06   9.035732950914003e-07   -3.5097182138614058e-06
4.4287506609082955e-06   0.0   -5.0926374449465534e-05
4.4287506609082955e-06   0.0   -5.0926374449465534e-05
4.4287506609082955e-06   0.0   -5.0926374449465534e-05
4.4287506609082955e-06   0.0   -5.0926374449465534e-05
-2.4008666051394215e-05   2.1032393605433794e-06   -4.7926235452873075e-06
-2.4008666051394215e-05   2.1032393605433794e-06   -4.7926235452873075e-06
-2.4008666051394215e-05   2.1032393605433794e-06   -4.7926235452873075e-06
-2.4008666051394215e-05   2.1032393605433794e-06   -4.7926235452873075e-06
-1.0064519484528244e-05   5.126617017052609e-07   -2.707852122809444e-05
-1.0064519484528244e-05   5.126617017052609e-07   -2.707852122809444e-05
-1.0064519484528244e-05   5.126617017052609e-07   -2.707852122809444e-05
-1.0064519484528244e-05   5.126617017052609e-07   -2.707852122809444e-05
-2.40086660513943e-05   0.0   -5.218831806579165e-05
-2.40086660513943e-05   0.0   -5.218831806579165e-05
-2.40086660513943e-05   0.0   -5.218831806579165e-05
-2.40086660513943e-05   0.0   -5.218831806579165e-05
4.428750660908303e-06   2.1032393605433794e-06   -3.5306799289612926e-06
4.428750660908303e-06   2.1032393605433794e-06   -3.5306799289612926e-06
4.428750660908303e-06   2.1032393605433794e-06   -3.5306799289612926e-06
4.428750660908303e-06   2.1032393605433794e-06   -3.5306799289612926e-06
5.091323994772014e-06   0.0   -4.982299471603048e-05
5.091323994772014e-06   0.0   -4.982299471603048e-05
5.091323994772014e-06   0.0   -4.982299471603048e-05
5.091323994772014e-06   0.0   -4.982299471603048e-05
-2.350845737362618e-05   3.492690514507552e-06   -4.2523067440712844e-06
-2.350845737362618e-05   3.492690514507552e-06   -4.2523067440712844e-06
-2.350845737362618e-05   3.492690514507552e-06   -4.2523067440712844e-06
-2.350845737362618e-05   3.492690514507552e-06   -4.2523067440712844e-06
-9.458671028311123e-06   1.97110279146757e-06   -2.6755664685772443e-05
-9.458671028311123e-06   1.97110279146757e-06   -2.6755664685772443e-05
-9.458671028311123e-06   1.97110279146757e-06   -2.6755664685772443e-05
-9.458671028311123e-06   1.97110279146757e-06   -2.6755664685772443e-05
3.3119515204498373e-06   0.0   -5.012021566402521e-05
3.3119515204498373e-06   0.0   -5.012021566402521e-05
3.3119515204498373e-06   0.0   -5.012021566402521e-05
3.3119515204498373e-06   0.0   -5.012021566402521e-05
3.462551490354716e-05   -4.061225247405675e-06   -3.676785073063616e-07
3.462551490354716e-05   -4.061225247405675e-06   -3.676785073063616e-07
3.462551490354716e-05   -4.061225247405675e-06   -3.676785073063616e-07
3.462551490354716e-05   -4.061225247405675e-06   -3.676785073063616e-07
3.4687990267985134e-05   0.0   -5.283620722423964e-05
3.4687990267985134e-05   0.0   -5.283620722423964e-05
3.4687990267985134e-05   0.0   -5.283620722423964e-05
3.4687990267985134e-05   0.0   -5.283620722423964e-05
3.936034150392584e-06   -3.0613045163042658e-06   2.538356815304893e-07
3.936034150392584e-06   -3.0613045163042658e-06   2.538356815304893e-07
3.936034150392584e-06   -3.0613045163042658e-06   2.538356815304893e-07
3.936034150392584e-06   -3.0613045163042658e-06   2.538356815304893e-07
1.8999970894217486e-05   -2.2633263001786987e-06   -2.533151248785299e-05
1.8999970894217486e-05   -2.2633263001786987e-06   -2.533151248785299e-05
1.8999970894217486e-05   -2.2633263001786987e-06   -2.533151248785299e-05
1.8999970894217486e-05   -2.2633263001786987e-06   -2.533151248785299e-05
3.936034150392584e-06   0.0   -5.0999424514457086e-05
3.936034150392584e-06   0.0   -5.0999424514457086e-05
3.936034150392584e-06   0.0   -5.0999424514457086e-05
3.936034150392584e-06   0.0   -5.0999424514457086e-05
3.4687990267985134e-05   -3.0613045163042658e-06   -1.5829470282520622e-06
3.4687990267985134e-05   -3.0613045163042658e-06   -1.5829470282520622e-06
3.4687990267985134e-05   -3.0613045163042658e-06   -1.5829470282520622e-06
3.4687990267985134e-05   -3.0613045163042658e-06   -1.5829470282520622e-06
3.4540206869976876e-05   0.0   -5.2081732620487684e-05
3.4540206869976876e-05   0.0   -5.2081732620487684e-05
3.4540206869976876e-05   0.0   -5.2081732620487684e-05
3.4540206869976876e-05   0.0   -5.2081732620487684e-05
4.428750660908303e-06   -1.925596951703434e-06   -7.406141010180041e-07
4.428750660908303e-06   -1.925596951703434e-06   -7.406141010180041e-07
4.428750660908303e-06   -1.925596951703434e-06   -7.406141010180041e-07
4.428750660908303e-06   -1.925596951703434e-06   -7.406141010180041e-07
1.923812051018473e-05   -9.019234216921631e-07   -2.6037101301152123e-05
1.923812051018473e-05   -9.019234216921631e-07   -2.6037101301152123e-05
1.923812051018473e-05   -9.019234216921631e-07   -2.6037101301152123e-05
1.923812051018473e-05   -9.019234216921631e-07   -2.6037101301152123e-05
4.4287506609083e-06   0.0   -5.0926374449465575e-05
4.4287506609083e-06   0.0   -5.0926374449465575e-05
4.4287506609083e-06   0.0   -5.0926374449465575e-05
4.4287506609083e-06   0.0   -5.0926374449465575e-05
3.4540206869976876e-05   -1.925596951703434e-06   -1.8959722720400676e-06
3.4540206869976876e-05   -1.925596951703434e-06   -1.8959722720400676e-06
3.4540206869976876e-05   -1.925596951703434e-06   -1.8959722720400676e-06
3.4540206869976876e-05   -1.925596951703434e-06   -1.8959722720400676e-06
3.520989644507275e-05   0.0   -5.006269898399655e-05
3.520989644507275e-05   0.0   -5.006269898399655e-05
3.520989644507275e-05   0.0   -5.006269898399655e-05
3.520989644507275e-05   0.0   -5.006269898399655e-05
5.0913239947720225e-06   -3.9950711327664437e-07   3.7462603447064367e-07
5.0913239947720225e-06   -3.9950711327664437e-07   3.7462603447064367e-07
5.0913239947720225e-06   -3.9950711327664437e-07   3.7462603447064367e-07
5.0913239947720225e-06   -3.9950711327664437e-07   3.7462603447064367e-07
1.9819323552990513e-05   7.197295545575581e-07   -2.484358189659401e-05
1.9819323552990513e-05   7.197295545575581e-07   -2.484358189659401e-05
1.9819323552990513e-05   7.197295545575581e-07   -2.484358189659401e-05
1.9819323552990513e-05   7.197295545575581e-07   -2.484358189659401e-05
3.462551490354716e-05   0.0   -5.2556950812468604e-05
3.462551490354716e-05   0.0   -5.2556950812468604e-05
3.462551490354716e-05   0.0   -5.2556950812468604e-05
3.462551490354716e-05   0.0   -5.2556950812468604e-05
7.817683139686392e-05   -1.0295796335177605e-05   1.3851098875286498e-05
7.817683139686392e-05   -1.0295796335177605e-05   1.3851098875286498e-05
7.817683139686392e-05   -1.0295796335177605e-05   1.3851098875286498e-05
7.817683139686392e-05   -1.0295796335177605e-05   1.3851098875286498e-05
7.342183676005355e-05   0.0   -5.809197091334327e-05
7.342183676005355e-05   0.0   -5.809197091334327e-05
7.342183676005355e-05   0.0   -5.809197091334327e-05
7.342183676005355e-05   0.0   -5.809197091334327e-05
3.4687990267985134e-05   -8.759606148506038e-06   1.1720203595874375e-05
3.4687990267985134e-05   -8.759606148506038e-06   1.1720203595874375e-05
3.4687990267985134e-05   -8.759606148506038e-06   1.1720203595874375e-05
3.4687990267985134e-05   -8.759606148506038e-06   1.1720203595874375e-05
5.402367583180036e-05   -4.6125167507288865e-06   -2.299419264915059e-05
5.402367583180036e-05   -4.6125167507288865e-06   -2.299419264915059e-05
5.402367583180036e-05   -4.6125167507288865e-06   -2.299419264915059e-05
5.402367583180036e-05   -4.6125167507288865e-06   -2.299419264915059e-05
3.468799026798511e-05   0.0   -5.28362072242396e-05
3.468799026798511e-05   0.0   -5.28362072242396e-05
3.468799026798511e-05   0.0   -5.28362072242396e-05
3.468799026798511e-05   0.0   -5.28362072242396e-05
7.34218367600533e-05   -8.75960614850601e-06   6.4644399067707305e-06
7.34218367600533e-05   -8.75960614850601e-06   6.4644399067707305e-06
7.34218367600533e-05   -8.75960614850601e-06   6.4644399067707305e-06
7.34218367600533e-05   -8.75960614850601e-06   6.4644399067707305e-06
7.122947103040596e-05   0.0   -5.688421559955485e-05
7.122947103040596e-05   0.0   -5.688421559955485e-05
7.122947103040596e-05   0.0   -5.688421559955485e-05
7.122947103040596e-05   0.0   -5.688421559955485e-05
3.4540206869976876e-05   -8.004138298445273e-06   9.06704098022741e-06
3.4540206869976876e-05   -8.004138298445273e-06   9.06704098022741e-06
3.4540206869976876e-05   -8.004138298445273e-06   9.06704098022741e-06
3.4540206869976876e-05   -8.004138298445273e-06   9.06704098022741e-06
5.2958730649195514e-05   -3.3733403127626736e-06   -2.4408977443213188e-05
5.2958730649195514e-05   -3.3733403127626736e-06   -2.4408977443213188e-05
5.2958730649195514e-05   -3.3733403127626736e-06   -2.4408977443213188e-05
5.2958730649195514e-05   -3.3733403127626736e-06   -2.4408977443213188e-05
3.4540206869976876e-05   0.0   -5.2081732620487684e-05
3.4540206869976876e-05   0.0   -5.2081732620487684e-05
3.4540206869976876e-05   0.0   -5.2081732620487684e-05
3.4540206869976876e-05   0.0   -5.2081732620487684e-05
7.12294710304057e-05   -8.004138298445246e-06   4.264558001160237e-06
7.12294710304057e-05   -8.004138298445246e-06   4.264558001160237e-06
7.12294710304057e-05   -8.004138298445246e-06   4.264558001160237e-06
7.12294710304057e-05   -8.004138298445246e-06   4.264558001160237e-06
6.796510978900927e-05   0.0   -5.3794967249556424e-05
6.796510978900927e-05   0.0   -5.3794967249556424e-05
6.796510978900927e-05   0.0   -5.3794967249556424e-05
6.796510978900927e-05   0.0   -5.3794967249556424e-05
3.520989644507275e-05   -6.220447109266607e-06   4.529323255897842e-06
3.520989644507275e-05   -6.220447109266607e-06   4.529323255897842e-06
3.520989644507275e-05   -6.220447109266607e-06   4.529323255897842e-06
3.520989644507275e-05   -6.220447109266607e-06   4.529323255897842e-06
5.1252658329493136e-05   -1.4276955242240285e-06   -2.5084264169161663e-05
5.1252658329493136e-05   -1.4276955242240285e-06   -2.5084264169161663e-05
5.1252658329493136e-05   -1.4276955242240285e-06   -2.5084264169161663e-05
5.1252658329493136e-05   -1.4276955242240285e-06   -2.5084264169161663e-05
-7.643886827158099e-05   9.759060494663518e-06   -5.016559748321717e-05
-7.643886827158099e-05   9.759060494663518e-06   -5.016559748321717e-05
-7.643886827158099e-05   9.759060494663518e-06   -5.016559748321717e-05
-7.643886827158099e-05   9.759060494663518e-06   -5.016559748321717e-05
-4.89596550167551e-05   8.77535871754171e-06   -4.957129791447081e-06
-4.89596550167551e-05   8.77535871754171e-06   -4.957129791447081e-06
-4.89596550167551e-05   8.77535871754171e-06   -4.957129791447081e-06
-4.89596550167551e-05   8.77535871754171e-06   -4.957129791447081e-06
-5.0191062769751725e-05   1.1712495372744207e-05   -4.213216676480274e-05
-5.0191062769751725e-05   1.1712495372744207e-05   -4.213216676480274e-05
-5.0191062769751725e-05   1.1712495372744207e-05   -4.213216676480274e-05
-5.0191062769751725e-05   1.1712495372744207e-05   -4.213216676480274e-05
-7.72654099911456e-05   1.0533150461824981e-05   3.699352217405381e-06
-7.72654099911456e-05   1.0533150461824981e-05   3.699352217405381e-06
-7.72654099911456e-05   1.0533150461824981e-05   3.699352217405381e-06
-7.72654099911456e-05   1.0533150461824981e-05   3.699352217405381e-06
-6.0709923184739054e-05   1.0194074821473064e-05   -2.368968040906142e-05
-6.0709923184739054e-05   1.0194074821473064e-05   -2.368968040906142e-05
-6.0709923184739054e-05   1.0194074821473064e-05   -2.368968040906142e-05
-6.0709923184739054e-05   1.0194074821473064e-05   -2.368968040906142e-05
-7.72654099911456e-05   1.1712495372744207e-05   -4.142455981825122e-05
-7.72654099911456e-05   1.1712495372744207e-05   -4.142455981825122e-05
-7.72654099911456e-05   1.1712495372744207e-05   -4.142455981825122e-05
-7.72654099911456e-05   1.1712495372744207e-05   -4.142455981825122e-05
-5.0191062769751895e-05   1.0533150461824981e-05   2.9917452708538454e-06
-5.0191062769751895e-05   1.0533150461824981e-05   2.9917452708538454e-06
-5.0191062769751895e-05   1.0533150461824981e-05   2.9917452708538454e-06
-5.0191062769751895e-05   1.0533150461824981e-05   2.9917452708538454e-06
-5.044858051922945e-05   1.2548479668886915e-05   -3.788004981318595e-05
-5.044858051922945e-05   1.2548479668886915e-05   -3.788004981318595e-05
-5.044858051922945e-05   1.2548479668886915e-05   -3.788004981318595e-05
-5.044858051922945e-05   1.2548479668886915e-05   -3.788004981318595e-05
-7.780838548764195e-05   1.1326518162862965e-05   8.452802037782372e-06
-7.780838548764195e-05   1.1326518162862965e-05   8.452802037782372e-06
-7.780838548764195e-05   1.1326518162862965e-05   8.452802037782372e-06
-7.780838548764195e-05   1.1326518162862965e-05   8.452802037782372e-06
-6.249441678671563e-05   1.1299305668170044e-05   -1.7054151633612204e-05
-6.249441678671563e-05   1.1299305668170044e-05   -1.7054151633612204e-05
-6.249441678671563e-05   1.1299305668170044e-05   -1.7054151633612204e-05
-6.249441678671563e-05   1.1299305668170044e-05   -1.7054151633612204e-05
-7.780838548764182e-05   1.2548479668886915e-05   -3.714687290957157e-05
-7.780838548764182e-05   1.2548479668886915e-05   -3.714687290957157e-05
-7.780838548764182e-05   1.2548479668886915e-05   -3.714687290957157e-05
-7.780838548764182e-05   1.2548479668886915e-05   -3.714687290957157e-05
-5.044858051922953e-05   1.1326518162862965e-05   7.71962513416794e-06
-5.044858051922953e-05   1.1326518162862965e-05   7.71962513416794e-06
-5.044858051922953e-05   1.1326518162862965e-05   7.71962513416794e-06
-5.044858051922953e-05   1.1326518162862965e-05   7.71962513416794e-06
-5.016148937801442e-05   1.4296246229896105e-05   -2.7991422029095288e-05
-5.016148937801442e-05   1.4296246229896105e-05   -2.7991422029095288e-05
-5.016148937801442e-05   1.4296246229896105e-05   -2.7991422029095288e-05
-5.016148937801442e-05   1.4296246229896105e-05   -2.7991422029095288e-05
-7.56496099635337e-05   1.195777041540318e-05   1.5891864435465673e-05
-7.56496099635337e-05   1.195777041540318e-05   1.5891864435465673e-05
-7.56496099635337e-05   1.195777041540318e-05   1.5891864435465673e-05
-7.56496099635337e-05   1.195777041540318e-05   1.5891864435465673e-05
-6.086815863914955e-05   1.2394186478458723e-05   -9.005737409674528e-06
-6.086815863914955e-05   1.2394186478458723e-05   -9.005737409674528e-06
-6.086815863914955e-05   1.2394186478458723e-05   -9.005737409674528e-06
-6.086815863914955e-05   1.2394186478458723e-05   -9.005737409674528e-06
-4.89596550167551e-05   3.578784418787519e-06   -5.3280356962062676e-05
-4.89596550167551e-05   3.578784418787519e-06   -5.3280356962062676e-05
-4.89596550167551e-05   3.578784418787519e-06   -5.3280356962062676e-05
-4.89596550167551e-05   3.578784418787519e-06   -5.3280356962062676e-05
-2.3201972640582137e-05   4.083334583971417e-06   -1.004815623599732e-05
-2.3201972640582137e-05   4.083334583971417e-06   -1.004815623599732e-05
-2.3201972640582137e-05   4.083334583971417e-06   -1.004815623599732e-05
-2.3201972640582137e-05   4.083334583971417e-06   -1.004815623599732e-05
-2.3755845600971428e-05   5.095857676049124e-06   -5.319950683434934e-05
-2.3755845600971428e-05   5.095857676049124e-06   -5.319950683434934e-05
-2.3755845600971428e-05   5.095857676049124e-06   -5.319950683434934e-05
-2.3755845600971428e-05   5.095857676049124e-06   -5.319950683434934e-05
-5.0191062769751725e-05   5.699721191902707e-06   -9.503129662560887e-06
-5.0191062769751725e-05   5.699721191902707e-06   -9.503129662560887e-06
-5.0191062769751725e-05   5.699721191902707e-06   -9.503129662560887e-06
-5.0191062769751725e-05   5.699721191902707e-06   -9.503129662560887e-06
-3.642424390288182e-05   4.589400581675218e-06   -3.178163540787452e-05
-3.642424390288182e-05   4.589400581675218e-06   -3.178163540787452e-05
-3.642424390288182e-05   4.589400581675218e-06   -3.178163540787452e-05
-3.642424390288182e-05   4.589400581675218e-06   -3.178163540787452e-05
-5.019106276975168e-05   5.095857676049124e-06   -5.356182494386142e-05
-5.019106276975168e-05   5.095857676049124e-06   -5.356182494386142e-05
-5.019106276975168e-05   5.095857676049124e-06   -5.356182494386142e-05
-5.019106276975168e-05   5.095857676049124e-06   -5.356182494386142e-05
-2.3755845600971465e-05   5.699721191902761e-06   -9.140811553048735e-06
-2.3755845600971465e-05   5.699721191902761e-06   -9.140811553048735e-06
-2.3755845600971465e-05   5.699721191902761e-06   -9.140811553048735e-06
-2.3755845600971465e-05   5.699721191902761e-06   -9.140811553048735e-06
-2.3929811246650122e-05   6.244752280045769e-06   -5.220422647992531e-05
-2.3929811246650122e-05   6.244752280045769e-06   -5.220422647992531e-05
-2.3929811246650122e-05   6.244752280045769e-06   -5.220422647992531e-05
-2.3929811246650122e-05   6.244752280045769e-06   -5.220422647992531e-05
-5.044858051922945e-05   7.0377370148242725e-06   -8.482068533160244e-06
-5.044858051922945e-05   7.0377370148242725e-06   -8.482068533160244e-06
-5.044858051922945e-05   7.0377370148242725e-06   -8.482068533160244e-06
-5.044858051922945e-05   7.0377370148242725e-06   -8.482068533160244e-06
-3.670895133829327e-05   5.825287948250821e-06   -3.0653981061443e-05
-3.670895133829327e-05   5.825287948250821e-06   -3.0653981061443e-05
-3.670895133829327e-05   5.825287948250821e-06   -3.0653981061443e-05
-3.670895133829327e-05   5.825287948250821e-06   -3.0653981061443e-05
-5.044858051922945e-05   6.244752280045769e-06   -5.268001732079239e-05
-5.044858051922945e-05   6.244752280045769e-06   -5.268001732079239e-05
-5.044858051922945e-05   6.244752280045769e-06   -5.268001732079239e-05
-5.044858051922945e-05   6.244752280045769e-06   -5.268001732079239e-05
-2.3929811246650207e-05   7.0377370148242725e-06   -8.006277692293162e-06
-2.3929811246650207e-05   7.0377370148242725e-06   -8.006277692293162e-06
-2.3929811246650207e-05   7.0377370148242725e-06   -8.006277692293162e-06
-2.3929811246650207e-05   7.0377370148242725e-06   -8.006277692293162e-06
-2.3871365875748036e-05   7.266768980256026e-06   -5.1670985033146276e-05
-2.3871365875748036e-05   7.266768980256026e-06   -5.1670985033146276e-05
-2.3871365875748036e-05   7.266768980256026e-06   -5.1670985033146276e-05
-2.3871365875748036e-05   7.266768980256026e-06   -5.1670985033146276e-05
-5.0161489378014386e-05   8.477454120295628e-06   -8.580523613392854e-06
-5.0161489378014386e-05   8.477454120295628e-06   -8.580523613392854e-06
-5.0161489378014386e-05   8.477454120295628e-06   -8.580523613392854e-06
-5.0161489378014386e-05   8.477454120295628e-06   -8.580523613392854e-06
-3.6924996377950606e-05   6.943907482249913e-06   -2.9721217297338498e-05
-3.6924996377950606e-05   6.943907482249913e-06   -2.9721217297338498e-05
-3.6924996377950606e-05   6.943907482249913e-06   -2.9721217297338498e-05
-3.6924996377950606e-05   6.943907482249913e-06   -2.9721217297338498e-05
-2.32019726405821e-05   -4.5883749773861413e-07   -5.578763908264643e-05
-2.32019726405821e-05   -4.5883749773861413e-07   -5.578763908264643e-05
-2.32019726405821e-05   -4.5883749773861413e-07   -5.578763908264643e-05
-2.32019726405821e-05   -4.5883749773861413e-07   -5.578763908264643e-05
2.2307147609575634e-06   -1.2183230463168977e-07   -1.319762363088281e-05
2.2307147609575634e-06   -1.2183230463168977e-07   -1.319762363088281e-05
2.2307147609575634e-06   -1.2183230463168977e-07   -1.319762363088281e-05
2.2307147609575634e-06   -1.2183230463168977e-07   -1.319762363088281e-05
2.126145970194525e-06   9.035732950914138e-07   -5.6097561690479544e-05
2.126145970194525e-06   9.035732950914138e-07   -5.6097561690479544e-05
2.126145970194525e-06   9.035732950914138e-07   -5.6097561690479544e-05
2.126145970194525e-06   9.035732950914138e-07   -5.6097561690479544e-05
-2.3755845600971428e-05   1.367473231507477e-06   -1.3239249033719075e-05
-2.3755845600971428e-05   1.367473231507477e-06   -1.3239249033719075e-05
-2.3755845600971428e-05   1.367473231507477e-06   -1.3239249033719075e-05
-2.3755845600971428e-05   1.367473231507477e-06   -1.3239249033719075e-05
-1.0714321708697989e-05   4.541223185493791e-07   -3.4427111639733395e-05
-1.0714321708697989e-05   4.541223185493791e-07   -3.4427111639733395e-05
-1.0714321708697989e-05   4.541223185493791e-07   -3.4427111639733395e-05
-1.0714321708697989e-05   4.541223185493791e-07   -3.4427111639733395e-05
-2.3755845600971428e-05   9.035732950914138e-07   -5.63759016523291e-05
-2.3755845600971428e-05   9.035732950914138e-07   -5.63759016523291e-05
-2.3755845600971428e-05   9.035732950914138e-07   -5.63759016523291e-05
-2.3755845600971428e-05   9.035732950914138e-07   -5.63759016523291e-05
2.126145970194525e-06   1.367473231507477e-06   -1.2960909071869456e-05
2.126145970194525e-06   1.367473231507477e-06   -1.2960909071869456e-05
2.126145970194525e-06   1.367473231507477e-06   -1.2960909071869456e-05
2.126145970194525e-06   1.367473231507477e-06   -1.2960909071869456e-05
1.9837985705536776e-06   2.1032393605433794e-06   -5.6214602834567097e-05
1.9837985705536776e-06   2.1032393605433794e-06   -5.6214602834567097e-05
1.9837985705536776e-06   2.1032393605433794e-06   -5.6214602834567097e-05
1.9837985705536776e-06   2.1032393605433794e-06   -5.6214602834567097e-05
-2.3929811246650122e-05   2.8226545990794037e-06   -1.3456902282349097e-05
-2.3929811246650122e-05   2.8226545990794037e-06   -1.3456902282349097e-05
-2.3929811246650122e-05   2.8226545990794037e-06   -1.3456902282349097e-05
-2.3929811246650122e-05   2.8226545990794037e-06   -1.3456902282349097e-05
-1.0914227049236279e-05   1.7161651593619305e-06   -3.448564894754154e-05
-1.0914227049236279e-05   1.7161651593619305e-06   -3.448564894754154e-05
-1.0914227049236279e-05   1.7161651593619305e-06   -3.448564894754154e-05
-1.0914227049236279e-05   1.7161651593619305e-06   -3.448564894754154e-05
-2.3929811246650122e-05   2.1032393605433794e-06   -5.6646251977688734e-05
-2.3929811246650122e-05   2.1032393605433794e-06   -5.6646251977688734e-05
-2.3929811246650122e-05   2.1032393605433794e-06   -5.6646251977688734e-05
-2.3929811246650122e-05   2.1032393605433794e-06   -5.6646251977688734e-05
1.983798570553682e-06   2.8226545990794037e-06   -1.3025253139227466e-05
1.983798570553682e-06   2.8226545990794037e-06   -1.3025253139227466e-05
1.983798570553682e-06   2.8226545990794037e-06   -1.3025253139227466e-05
1.983798570553682e-06   2.8226545990794037e-06   -1.3025253139227466e-05
1.6969284311127267e-06   3.492690514507552e-06   -5.611799968164026e-05
1.6969284311127267e-06   3.492690514507552e-06   -5.611799968164026e-05
1.6969284311127267e-06   3.492690514507552e-06   -5.611799968164026e-05
1.6969284311127267e-06   3.492690514507552e-06   -5.611799968164026e-05
-2.3871365875748056e-05   4.338789104903055e-06   -1.401183499110962e-05
-2.3871365875748056e-05   4.338789104903055e-06   -1.401183499110962e-05
-2.3871365875748056e-05   4.338789104903055e-06   -1.401183499110962e-05
-2.3871365875748056e-05   4.338789104903055e-06   -1.401183499110962e-05
-1.1035259079720856e-05   3.012668717432954e-06   -3.460967408533953e-05
-1.1035259079720856e-05   3.012668717432954e-06   -3.460967408533953e-05
-1.1035259079720856e-05   3.012668717432954e-06   -3.460967408533953e-05
-1.1035259079720856e-05   3.012668717432954e-06   -3.460967408533953e-05
2.2307147609575634e-06   -4.061225247405662e-06   -5.147389787389643e-05
2.2307147609575634e-06   -4.061225247405662e-06   -5.147389787389643e-05
2.2307147609575634e-06   -4.061225247405662e-06   -5.147389787389643e-05
2.2307147609575634e-06   -4.061225247405662e-06   -5.147389787389643e-05
2.843946621550242e-05   -4.1752937084382465e-06   -7.86108652627452e-06
2.843946621550242e-05   -4.1752937084382465e-06   -7.86108652627452e-06
2.843946621550242e-05   -4.1752937084382465e-06   -7.86108652627452e-06
2.843946621550242e-05   -4.1752937084382465e-06   -7.86108652627452e-06
2.8672671253075353e-05   -3.0613045163042387e-06   -5.219039144530395e-05
2.8672671253075353e-05   -3.0613045163042387e-06   -5.219039144530395e-05
2.8672671253075353e-05   -3.0613045163042387e-06   -5.219039144530395e-05
2.8672671253075353e-05   -3.0613045163042387e-06   -5.219039144530395e-05
2.126145970194525e-06   -2.8219439333316914e-06   -8.089798990286018e-06
2.126145970194525e-06   -2.8219439333316914e-06   -8.089798990286018e-06
2.126145970194525e-06   -2.8219439333316914e-06   -8.089798990286018e-06
2.126145970194525e-06   -2.8219439333316914e-06   -8.089798990286018e-06
1.5170889374264092e-05   -3.3783327670491663e-06   -2.9497204696838238e-05
1.5170889374264092e-05   -3.3783327670491663e-06   -2.9497204696838238e-05
1.5170889374264092e-05   -3.3783327670491663e-06   -2.9497204696838238e-05
1.5170889374264092e-05   -3.3783327670491663e-06   -2.9497204696838238e-05
2.1261459701945215e-06   -3.0613045163042522e-06   -5.2334007795087584e-05
2.1261459701945215e-06   -3.0613045163042522e-06   -5.2334007795087584e-05
2.1261459701945215e-06   -3.0613045163042522e-06   -5.2334007795087584e-05
2.1261459701945215e-06   -3.0613045163042522e-06   -5.2334007795087584e-05
2.86726712530754e-05   -2.8219439333316914e-06   -7.946182640502462e-06
2.86726712530754e-05   -2.8219439333316914e-06   -7.946182640502462e-06
2.86726712530754e-05   -2.8219439333316914e-06   -7.946182640502462e-06
2.86726712530754e-05   -2.8219439333316914e-06   -7.946182640502462e-06
2.853102393095789e-05   -1.9255969517034205e-06   -5.316700459755952e-05
2.853102393095789e-05   -1.9255969517034205e-06   -5.316700459755952e-05
2.853102393095789e-05   -1.9255969517034205e-06   -5.316700459755952e-05
2.853102393095789e-05   -1.9255969517034205e-06   -5.316700459755952e-05
1.9837985705536776e-06   -1.4963762699297923e-06   -9.179161405950084e-06
1.9837985705536776e-06   -1.4963762699297923e-06   -9.179161405950084e-06
1.9837985705536776e-06   -1.4963762699297923e-06   -9.179161405950084e-06
1.9837985705536776e-06   -1.4963762699297923e-06   -9.179161405950084e-06
1.5008334996314245e-05   -2.29803152978052e-06   -3.0405728959640522e-05
1.5008334996314245e-05   -2.29803152978052e-06   -3.0405728959640522e-05
1.5008334996314245e-05   -2.29803152978052e-06   -3.0405728959640522e-05
1.5008334996314245e-05   -2.29803152978052e-06   -3.0405728959640522e-05
1.983798570553676e-06   -1.925596951703434e-06   -5.3424537006623714e-05
1.983798570553676e-06   -1.925596951703434e-06   -5.3424537006623714e-05
1.983798570553676e-06   -1.925596951703434e-06   -5.3424537006623714e-05
1.983798570553676e-06   -1.925596951703434e-06   -5.3424537006623714e-05
2.8531023930957986e-05   -1.496376269929738e-06   -8.921628996885913e-06
2.8531023930957986e-05   -1.496376269929738e-06   -8.921628996885913e-06
2.8531023930957986e-05   -1.496376269929738e-06   -8.921628996885913e-06
2.8531023930957986e-05   -1.496376269929738e-06   -8.921628996885913e-06
2.769669054902285e-05   -3.9950711327664437e-07   -5.3261143195753205e-05
2.769669054902285e-05   -3.9950711327664437e-07   -5.3261143195753205e-05
2.769669054902285e-05   -3.9950711327664437e-07   -5.3261143195753205e-05
2.769669054902285e-05   -3.9950711327664437e-07   -5.3261143195753205e-05
1.6969284311127267e-06   1.4305624680590722e-07   -1.0253744348619271e-05
1.6969284311127267e-06   1.4305624680590722e-07   -1.0253744348619271e-05
1.6969284311127267e-06   1.4305624680590722e-07   -1.0253744348619271e-05
1.6969284311127267e-06   1.4305624680590722e-07   -1.0253744348619271e-05
1.484380268040436e-05   -1.0362741918092805e-06   -3.145760316760281e-05
1.484380268040436e-05   -1.0362741918092805e-06   -3.145760316760281e-05
1.484380268040436e-05   -1.0362741918092805e-06   -3.145760316760281e-05
1.484380268040436e-05   -1.0362741918092805e-06   -3.145760316760281e-05
2.843946621550242e-05   -1.0295796335177605e-05   -3.114608376681653e-05
2.843946621550242e-05   -1.0295796335177605e-05   -3.114608376681653e-05
2.843946621550242e-05   -1.0295796335177605e-05   -3.114608376681653e-05
2.843946621550242e-05   -1.0295796335177605e-05   -3.114608376681653e-05
5.4305551188596314e-05   -7.759839568672157e-06   1.3485631914909814e-05
5.4305551188596314e-05   -7.759839568672157e-06   1.3485631914909814e-05
5.4305551188596314e-05   -7.759839568672157e-06   1.3485631914909814e-05
5.4305551188596314e-05   -7.759839568672157e-06   1.3485631914909814e-05
5.637045987156736e-05   -8.759606148506038e-06   -3.785494375272607e-05
5.637045987156736e-05   -8.759606148506038e-06   -3.785494375272607e-05
5.637045987156736e-05   -8.759606148506038e-06   -3.785494375272607e-05
5.637045987156736e-05   -8.759606148506038e-06   -3.785494375272607e-05
2.867267125307545e-05   -7.039111034420019e-06   7.2757402096422925e-06
2.867267125307545e-05   -7.039111034420019e-06   7.2757402096422925e-06
2.867267125307545e-05   -7.039111034420019e-06   7.2757402096422925e-06
2.867267125307545e-05   -7.039111034420019e-06   7.2757402096422925e-06
3.999622804291062e-05   -8.427487339476722e-06   -1.0763828657049017e-05
3.999622804291062e-05   -8.427487339476722e-06   -1.0763828657049017e-05
3.999622804291062e-05   -8.427487339476722e-06   -1.0763828657049017e-05
3.999622804291062e-05   -8.427487339476722e-06   -1.0763828657049017e-05
2.8672671253075374e-05   -8.759606148506024e-06   -3.8887240821177536e-05
2.8672671253075374e-05   -8.759606148506024e-06   -3.8887240821177536e-05
2.8672671253075374e-05   -8.759606148506024e-06   -3.8887240821177536e-05
2.8672671253075374e-05   -8.759606148506024e-06   -3.8887240821177536e-05
5.637045987156736e-05   -7.039111034420019e-06   8.308037278093917e-06
5.637045987156736e-05   -7.039111034420019e-06   8.308037278093917e-06
5.637045987156736e-05   -7.039111034420019e-06   8.308037278093917e-06
5.637045987156736e-05   -7.039111034420019e-06   8.308037278093917e-06
5.6158297280932794e-05   -8.004138298445273e-06   -4.116728674894623e-05
5.6158297280932794e-05   -8.004138298445273e-06   -4.116728674894623e-05
5.6158297280932794e-05   -8.004138298445273e-06   -4.116728674894623e-05
5.6158297280932794e-05   -8.004138298445273e-06   -4.116728674894623e-05
2.8531023930957986e-05   -6.276297304535312e-06   3.841464237999069e-06
2.8531023930957986e-05   -6.276297304535312e-06   3.841464237999069e-06
2.8531023930957986e-05   -6.276297304535312e-06   3.841464237999069e-06
2.8531023930957986e-05   -6.276297304535312e-06   3.841464237999069e-06
4.139319310118439e-05   -7.442212813783605e-06   -1.6895935073495935e-05
4.139319310118439e-05   -7.442212813783605e-06   -1.6895935073495935e-05
4.139319310118439e-05   -7.442212813783605e-06   -1.6895935073495935e-05
4.139319310118439e-05   -7.442212813783605e-06   -1.6895935073495935e-05
2.853102393095794e-05   -8.004138298445246e-06   -4.2203991345292154e-05
2.853102393095794e-05   -8.004138298445246e-06   -4.2203991345292154e-05
2.853102393095794e-05   -8.004138298445246e-06   -4.2203991345292154e-05
2.853102393095794e-05   -8.004138298445246e-06   -4.2203991345292154e-05
5.6158297280932794e-05   -6.276297304535312e-06   4.87816883434504e-06
5.6158297280932794e-05   -6.276297304535312e-06   4.87816883434504e-06
5.6158297280932794e-05   -6.276297304535312e-06   4.87816883434504e-06
5.6158297280932794e-05   -6.276297304535312e-06   4.87816883434504e-06
5.5817337608477996e-05   -6.220447109266607e-06   -4.7915357220827894e-05
5.5817337608477996e-05   -6.220447109266607e-06   -4.7915357220827894e-05
5.5817337608477996e-05   -6.220447109266607e-06   -4.7915357220827894e-05
5.5817337608477996e-05   -6.220447109266607e-06   -4.7915357220827894e-05
2.7696690549022946e-05   -4.634806300046095e-06   -1.9989966072685026e-06
2.7696690549022946e-05   -4.634806300046095e-06   -1.9989966072685026e-06
2.7696690549022946e-05   -4.634806300046095e-06   -1.9989966072685026e-06
2.7696690549022946e-05   -4.634806300046095e-06   -1.9989966072685026e-06
4.020715536147178e-05   -6.407804799451767e-06   -2.17859721950398e-05
4.020715536147178e-05   -6.407804799451767e-06   -2.17859721950398e-05
4.020715536147178e-05   -6.407804799451767e-06   -2.17859721950398e-05
4.020715536147178e-05   -6.407804799451767e-06   -2.17859721950398e-05
-6.087965485787516e-05   8.77535871754171e-06   -4.202944261894596e-05
-6.087965485787516e-05   8.77535871754171e-06   -4.202944261894596e-05
-6.087965485787516e-05   8.77535871754171e-06   -4.202944261894596e-05
-6.087965485787516e-05   8.77535871754171e-06   -4.202944261894596e-05
-3.991479164493785e-05   6.704309688606853e-06   -8.330633348078013e-06
-3.991479164493785e-05   6.704309688606853e-06   -8.330633348078013e-06
-3.991479164493785e-05   6.704309688606853e-06   -8.330633348078013e-06
-3.991479164493785e-05   6.704309688606853e-06   -8.330633348078013e-06
-4.010766598336882e-05   1.0533150461824981e-05   -3.4897640341714645e-05
-4.010766598336882e-05   1.0533150461824981e-05   -3.4897640341714645e-05
-4.010766598336882e-05   1.0533150461824981e-05   -3.4897640341714645e-05
-4.010766598336882e-05   1.0533150461824981e-05   -3.4897640341714645e-05
-5.995690694920227e-05   8.110807860672539e-06   -3.6216650463414407e-07
-5.995690694920227e-05   8.110807860672539e-06   -3.6216650463414407e-07
-5.995690694920227e-05   8.110807860672539e-06   -3.6216650463414407e-07
-5.995690694920227e-05   8.110807860672539e-06   -3.6216650463414407e-07
-4.809105110141069e-05   8.92350837845558e-06   -2.0626213228290102e-05
-4.809105110141069e-05   8.92350837845558e-06   -2.0626213228290102e-05
-4.809105110141069e-05   8.92350837845558e-06   -2.0626213228290102e-05
-4.809105110141069e-05   8.92350837845558e-06   -2.0626213228290102e-05
-5.995690694920227e-05   1.0533150461824981e-05   -3.344423478102317e-05
-5.995690694920227e-05   1.0533150461824981e-05   -3.344423478102317e-05
-5.995690694920227e-05   1.0533150461824981e-05   -3.344423478102317e-05
-5.995690694920227e-05   1.0533150461824981e-05   -3.344423478102317e-05
-4.010766598336882e-05   8.110807860672539e-06   -1.8155720653254578e-06
-4.010766598336882e-05   8.110807860672539e-06   -1.8155720653254578e-06
-4.010766598336882e-05   8.110807860672539e-06   -1.8155720653254578e-06
-4.010766598336882e-05   8.110807860672539e-06   -1.8155720653254578e-06
-4.006694052424279e-05   1.1326518162862965e-05   -2.9855715525309756e-05
-4.006694052424279e-05   1.1326518162862965e-05   -2.9855715525309756e-05
-4.006694052424279e-05   1.1326518162862965e-05   -2.9855715525309756e-05
-4.006694052424279e-05   1.1326518162862965e-05   -2.9855715525309756e-05
-5.905753241620948e-05   8.72885755204755e-06   3.3538673277905273e-06
-5.905753241620948e-05   8.72885755204755e-06   3.3538673277905273e-06
-5.905753241620948e-05   8.72885755204755e-06   3.3538673277905273e-06
-5.905753241620948e-05   8.72885755204755e-06   3.3538673277905273e-06
-4.850661639474128e-05   9.738857742157487e-06   -1.4836992822055313e-05
-4.850661639474128e-05   9.738857742157487e-06   -1.4836992822055313e-05
-4.850661639474128e-05   9.738857742157487e-06   -1.4836992822055313e-05
-4.850661639474128e-05   9.738857742157487e-06   -1.4836992822055313e-05
-5.905753241620948e-05   1.1326518162862965e-05   -2.8297119158820523e-05
-5.905753241620948e-05   1.1326518162862965e-05   -2.8297119158820523e-05
-5.905753241620948e-05   1.1326518162862965e-05   -2.8297119158820523e-05
-5.905753241620948e-05   1.1326518162862965e-05   -2.8297119158820523e-05
-4.0066940524242844e-05   8.728857552047658e-06   1.7952709613015518e-06
-4.0066940524242844e-05   8.728857552047658e-06   1.7952709613015518e-06
-4.0066940524242844e-05   8.728857552047658e-06   1.7952709613015518e-06
-4.0066940524242844e-05   8.728857552047658e-06   1.7952709613015518e-06
-4.0107705899383e-05   1.195777041540318e-05   -2.2796118739085245e-05
-4.0107705899383e-05   1.195777041540318e-05   -2.2796118739085245e-05
-4.0107705899383e-05   1.195777041540318e-05   -2.2796118739085245e-05
-4.0107705899383e-05   1.195777041540318e-05   -2.2796118739085245e-05
-5.788321662254564e-05   9.337514455769321e-06   8.40188604196582e-06
-5.788321662254564e-05   9.337514455769321e-06   8.40188604196582e-06
-5.788321662254564e-05   9.337514455769321e-06   8.40188604196582e-06
-5.788321662254564e-05   9.337514455769321e-06   8.40188604196582e-06
-4.7401682555564175e-05   1.0168154077156918e-05   -9.565721175835257e-06
-4.7401682555564175e-05   1.0168154077156918e-05   -9.565721175835257e-06
-4.7401682555564175e-05   1.0168154077156918e-05   -9.565721175835257e-06
-4.7401682555564175e-05   1.0168154077156918e-05   -9.565721175835257e-06
-3.991479164493785e-05   4.083334583971417e-06   -4.866582857996745e-05
-3.991479164493785e-05   4.083334583971417e-06   -4.866582857996745e-05
-3.991479164493785e-05   4.083334583971417e-06   -4.866582857996745e-05
-3.991479164493785e-05   4.083334583971417e-06   -4.866582857996745e-05
-2.03180397714599e-05   3.343336677525755e-06   -1.6448574201371606e-05
-2.03180397714599e-05   3.343336677525755e-06   -1.6448574201371606e-05
-2.03180397714599e-05   3.343336677525755e-06   -1.6448574201371606e-05
-2.03180397714599e-05   3.343336677525755e-06   -1.6448574201371606e-05
-2.056479469702741e-05   5.699721191902707e-06   -4.797633186009992e-05
-2.056479469702741e-05   5.699721191902707e-06   -4.797633186009992e-05
-2.056479469702741e-05   5.699721191902707e-06   -4.797633186009992e-05
-2.056479469702741e-05   5.699721191902707e-06   -4.797633186009992e-05
-4.0107665983368755e-05   4.7266935502851635e-06   -1.4821063131227038e-05
-4.0107665983368755e-05   4.7266935502851635e-06   -1.4821063131227038e-05
-4.0107665983368755e-05   4.7266935502851635e-06   -1.4821063131227038e-05
-4.0107665983368755e-05   4.7266935502851635e-06   -1.4821063131227038e-05
-2.9967519368697476e-05   4.70979237036798e-06   -3.171116678106226e-05
-2.9967519368697476e-05   4.70979237036798e-06   -3.171116678106226e-05
-2.9967519368697476e-05   4.70979237036798e-06   -3.171116678106226e-05
-2.9967519368697476e-05   4.70979237036798e-06   -3.171116678106226e-05
-4.010766598336881e-05   5.699721191902707e-06   -4.739251527512923e-05
-4.010766598336881e-05   5.699721191902707e-06   -4.739251527512923e-05
-4.010766598336881e-05   5.699721191902707e-06   -4.739251527512923e-05
-4.010766598336881e-05   5.699721191902707e-06   -4.739251527512923e-05
-2.0564794697027444e-05   4.7266935502851635e-06   -1.5404879716197495e-05
-2.0564794697027444e-05   4.7266935502851635e-06   -1.5404879716197495e-05
-2.0564794697027444e-05   4.7266935502851635e-06   -1.5404879716197495e-05
-2.0564794697027444e-05   4.7266935502851635e-06   -1.5404879716197495e-05
-2.072480250027016e-05   7.0377370148242725e-06   -4.6706564301738295e-05
-2.072480250027016e-05   7.0377370148242725e-06   -4.6706564301738295e-05
-2.072480250027016e-05   7.0377370148242725e-06   -4.6706564301738295e-05
-2.072480250027016e-05   7.0377370148242725e-06   -4.6706564301738295e-05
-4.006694052424279e-05   5.955811832990244e-06   -1.3820512486017084e-05
-4.006694052424279e-05   5.955811832990244e-06   -1.3820512486017084e-05
-4.006694052424279e-05   5.955811832990244e-06   -1.3820512486017084e-05
-4.006694052424279e-05   5.955811832990244e-06   -1.3820512486017084e-05
-3.0022972520012273e-05   5.847961242836264e-06   -3.0495748805641664e-05
-3.0022972520012273e-05   5.847961242836264e-06   -3.0495748805641664e-05
-3.0022972520012273e-05   5.847961242836264e-06   -3.0495748805641664e-05
-3.0022972520012273e-05   5.847961242836264e-06   -3.0495748805641664e-05
-4.006694052424279e-05   7.0377370148242725e-06   -4.6057409192637954e-05
-4.006694052424279e-05   7.0377370148242725e-06   -4.6057409192637954e-05
-4.006694052424279e-05   7.0377370148242725e-06   -4.6057409192637954e-05
-4.006694052424279e-05   7.0377370148242725e-06   -4.6057409192637954e-05
-2.0724802500270223e-05   5.955811832990244e-06   -1.446966759511731e-05
-2.0724802500270223e-05   5.955811832990244e-06   -1.446966759511731e-05
-2.0724802500270223e-05   5.955811832990244e-06   -1.446966759511731e-05
-2.0724802500270223e-05   5.955811832990244e-06   -1.446966759511731e-05
-2.093185917564501e-05   8.477454120295682e-06   -4.659384469483398e-05
-2.093185917564501e-05   8.477454120295682e-06   -4.659384469483398e-05
-2.093185917564501e-05   8.477454120295682e-06   -4.659384469483398e-05
-2.093185917564501e-05   8.477454120295682e-06   -4.659384469483398e-05
-4.010770589938296e-05   7.263415127652497e-06   -1.3905676759684842e-05
-4.010770589938296e-05   7.263415127652497e-06   -1.3905676759684842e-05
-4.010770589938296e-05   7.263415127652497e-06   -1.3905676759684842e-05
-4.010770589938296e-05   7.263415127652497e-06   -1.3905676759684842e-05
-3.0378745915562155e-05   6.975416164669884e-06   -2.9947810688262888e-05
-3.0378745915562155e-05   6.975416164669884e-06   -2.9947810688262888e-05
-3.0378745915562155e-05   6.975416164669884e-06   -2.9947810688262888e-05
-3.0378745915562155e-05   6.975416164669884e-06   -2.9947810688262888e-05
-2.0318039771459866e-05   -1.2183230463168977e-07   -5.246149783458452e-05
-2.0318039771459866e-05   -1.2183230463168977e-07   -5.246149783458452e-05
-2.0318039771459866e-05   -1.2183230463168977e-07   -5.246149783458452e-05
-2.0318039771459866e-05   -1.2183230463168977e-07   -5.246149783458452e-05
-9.404881290672207e-07   1.7807051703620444e-07   -1.9985636737596032e-05
-9.404881290672207e-07   1.7807051703620444e-07   -1.9985636737596032e-05
-9.404881290672207e-07   1.7807051703620444e-07   -1.9985636737596032e-05
-9.404881290672207e-07   1.7807051703620444e-07   -1.9985636737596032e-05
-1.138473234894562e-06   1.367473231507477e-06   -5.197131520179744e-05
-1.138473234894562e-06   1.367473231507477e-06   -5.197131520179744e-05
-1.138473234894562e-06   1.367473231507477e-06   -5.197131520179744e-05
-1.138473234894562e-06   1.367473231507477e-06   -5.197131520179744e-05
-2.056479469702741e-05   1.539896796462015e-06   -1.9697566903882207e-05
-2.056479469702741e-05   1.539896796462015e-06   -1.9697566903882207e-05
-2.056479469702741e-05   1.539896796462015e-06   -1.9697566903882207e-05
-2.056479469702741e-05   1.539896796462015e-06   -1.9697566903882207e-05
-1.068001279186827e-05   8.972956815688849e-07   -3.578664274354483e-05
-1.068001279186827e-05   8.972956815688849e-07   -3.578664274354483e-05
-1.068001279186827e-05   8.972956815688849e-07   -3.578664274354483e-05
-1.068001279186827e-05   8.972956815688849e-07   -3.578664274354483e-05
-2.056479469702741e-05   1.367473231507477e-06   -5.207476934077028e-05
-2.056479469702741e-05   1.367473231507477e-06   -5.207476934077028e-05
-2.056479469702741e-05   1.367473231507477e-06   -5.207476934077028e-05
-2.056479469702741e-05   1.367473231507477e-06   -5.207476934077028e-05
-1.1384732348945637e-06   1.539896796462015e-06   -1.959411276490931e-05
-1.1384732348945637e-06   1.539896796462015e-06   -1.959411276490931e-05
-1.1384732348945637e-06   1.539896796462015e-06   -1.959411276490931e-05
-1.1384732348945637e-06   1.539896796462015e-06   -1.959411276490931e-05
-1.2815264222944116e-06   2.8226545990794037e-06   -5.211217598982915e-05
-1.2815264222944116e-06   2.8226545990794037e-06   -5.211217598982915e-05
-1.2815264222944116e-06   2.8226545990794037e-06   -5.211217598982915e-05
-1.2815264222944116e-06   2.8226545990794037e-06   -5.211217598982915e-05
-2.0724802500270182e-05   2.8976761023546266e-06   -1.9751728761834795e-05
-2.0724802500270182e-05   2.8976761023546266e-06   -1.9751728761834795e-05
-2.0724802500270182e-05   2.8976761023546266e-06   -1.9751728761834795e-05
-2.0724802500270182e-05   2.8976761023546266e-06   -1.9751728761834795e-05
-1.0935554970669388e-05   2.098320627212571e-06   -3.558752802608397e-05
-1.0935554970669388e-05   2.098320627212571e-06   -3.558752802608397e-05
-1.0935554970669388e-05   2.098320627212571e-06   -3.558752802608397e-05
-1.0935554970669388e-05   2.098320627212571e-06   -3.558752802608397e-05
-2.0724802500270182e-05   2.8226545990794037e-06   -5.215718889179429e-05
-2.0724802500270182e-05   2.8226545990794037e-06   -5.215718889179429e-05
-2.0724802500270182e-05   2.8226545990794037e-06   -5.215718889179429e-05
-2.0724802500270182e-05   2.8226545990794037e-06   -5.215718889179429e-05
-1.281526422294415e-06   2.8976761023546266e-06   -1.970671585986946e-05
-1.281526422294415e-06   2.8976761023546266e-06   -1.970671585986946e-05
-1.281526422294415e-06   2.8976761023546266e-06   -1.970671585986946e-05
-1.281526422294415e-06   2.8976761023546266e-06   -1.970671585986946e-05
-1.5063047002977693e-06   4.338789104903055e-06   -5.278263653332594e-05
-1.5063047002977693e-06   4.338789104903055e-06   -5.278263653332594e-05
-1.5063047002977693e-06   4.338789104903055e-06   -5.278263653332594e-05
-1.5063047002977693e-06   4.338789104903055e-06   -5.278263653332594e-05
-2.0931859175644997e-05   4.28700681031713e-06   -2.037564303099593e-05
-2.0931859175644997e-05   4.28700681031713e-06   -2.037564303099593e-05
-2.0931859175644997e-05   4.28700681031713e-06   -2.037564303099593e-05
-2.0931859175644997e-05   4.28700681031713e-06   -2.037564303099593e-05
-1.1207029027407647e-05   3.3136138927252422e-06   -3.5999657527502734e-05
-1.1207029027407647e-05   3.3136138927252422e-06   -3.5999657527502734e-05
-1.1207029027407647e-05   3.3136138927252422e-06   -3.5999657527502734e-05
-1.1207029027407647e-05   3.3136138927252422e-06   -3.5999657527502734e-05
-9.404881290672224e-07   -4.1752937084382465e-06   -4.6876577960355955e-05
-9.404881290672224e-07   -4.1752937084382465e-06   -4.6876577960355955e-05
-9.404881290672224e-07   -4.1752937084382465e-06   -4.6876577960355955e-05
-9.404881290672224e-07   -4.1752937084382465e-06   -4.6876577960355955e-05
1.8338788681259067e-05   -2.7989918694091252e-06   -1.3918668839728093e-05
1.8338788681259067e-05   -2.7989918694091252e-06   -1.3918668839728093e-05
1.8338788681259067e-05   -2.7989918694091252e-06   -1.3918668839728093e-05
1.8338788681259067e-05   -2.7989918694091252e-06   -1.3918668839728093e-05
1.8324739728591745e-05   -2.8219439333316914e-06   -4.6337359866085147e-05
1.8324739728591745e-05   -2.8219439333316914e-06   -4.6337359866085147e-05
1.8324739728591745e-05   -2.8219439333316914e-06   -4.6337359866085147e-05
1.8324739728591745e-05   -2.8219439333316914e-06   -4.6337359866085147e-05
-1.1384732348945637e-06   -1.5505351764499332e-06   -1.4661516847736946e-05
-1.1384732348945637e-06   -1.5505351764499332e-06   -1.4661516847736946e-05
-1.1384732348945637e-06   -1.5505351764499332e-06   -1.4661516847736946e-05
-1.1384732348945637e-06   -1.5505351764499332e-06   -1.4661516847736946e-05
8.580209081177863e-06   -2.7383906351470186e-06   -3.0146607432639445e-05
8.580209081177863e-06   -2.7383906351470186e-06   -3.0146607432639445e-05
8.580209081177863e-06   -2.7383906351470186e-06   -3.0146607432639445e-05
8.580209081177863e-06   -2.7383906351470186e-06   -3.0146607432639445e-05
-1.1384732348945637e-06   -2.8219439333316914e-06   -4.710020512021409e-05
-1.1384732348945637e-06   -2.8219439333316914e-06   -4.710020512021409e-05
-1.1384732348945637e-06   -2.8219439333316914e-06   -4.710020512021409e-05
-1.1384732348945637e-06   -2.8219439333316914e-06   -4.710020512021409e-05
1.8324739728591745e-05   -1.5505351764500417e-06   -1.3898671593607856e-05
1.8324739728591745e-05   -1.5505351764500417e-06   -1.3898671593607856e-05
1.8324739728591745e-05   -1.5505351764500417e-06   -1.3898671593607856e-05
1.8324739728591745e-05   -1.5505351764500417e-06   -1.3898671593607856e-05
1.841147947006891e-05   -1.4963762699297923e-06   -4.756260670170522e-05
1.841147947006891e-05   -1.4963762699297923e-06   -4.756260670170522e-05
1.841147947006891e-05   -1.4963762699297923e-06   -4.756260670170522e-05
1.841147947006891e-05   -1.4963762699297923e-06   -4.756260670170522e-05
-1.2815264222944166e-06   -3.2391367851857585e-07   -1.5444407769279805e-05
-1.2815264222944166e-06   -3.2391367851857585e-07   -1.5444407769279805e-05
-1.2815264222944166e-06   -3.2391367851857585e-07   -1.5444407769279805e-05
-1.2815264222944166e-06   -3.2391367851857585e-07   -1.5444407769279805e-05
8.316603202086858e-06   -1.6558838764832722e-06   -3.064210835780288e-05
8.316603202086858e-06   -1.6558838764832722e-06   -3.064210835780288e-05
8.316603202086858e-06   -1.6558838764832722e-06   -3.064210835780288e-05
8.316603202086858e-06   -1.6558838764832722e-06   -3.064210835780288e-05
-1.2815264222944133e-06   -1.496376269929738e-06   -4.82660842565517e-05
-1.2815264222944133e-06   -1.496376269929738e-06   -4.82660842565517e-05
-1.2815264222944133e-06   -1.496376269929738e-06   -4.82660842565517e-05
-1.2815264222944133e-06   -1.496376269929738e-06   -4.82660842565517e-05
1.841147947006891e-05   -3.2391367851857585e-07   -1.4740930214432891e-05
1.841147947006891e-05   -3.2391367851857585e-07   -1.4740930214432891e-05
1.841147947006891e-05   -3.2391367851857585e-07   -1.4740930214432891e-05
1.841147947006891e-05   -3.2391367851857585e-07   -1.4740930214432891e-05
1.8270156770849286e-05   1.4305624680590722e-07   -4.8951960338523696e-05
1.8270156770849286e-05   1.4305624680590722e-07   -4.8951960338523696e-05
1.8270156770849286e-05   1.4305624680590722e-07   -4.8951960338523696e-05
1.8270156770849286e-05   1.4305624680590722e-07   -4.8951960338523696e-05
-1.5063047002977719e-06   1.1101307577215122e-06   -1.6571435926494746e-05
-1.5063047002977719e-06   1.1101307577215122e-06   -1.6571435926494746e-05
-1.5063047002977719e-06   1.1101307577215122e-06   -1.6571435926494746e-05
-1.5063047002977719e-06   1.1101307577215122e-06   -1.6571435926494746e-05
8.224141673646431e-06   -4.977414670077115e-07   -3.182412321489724e-05
8.224141673646431e-06   -4.977414670077115e-07   -3.182412321489724e-05
8.224141673646431e-06   -4.977414670077115e-07   -3.182412321489724e-05
8.224141673646431e-06   -4.977414670077115e-07   -3.182412321489724e-05
1.8338788681259026e-05   -7.759839568672157e-06   -2.6225652475657407e-05
1.8338788681259026e-05   -7.759839568672157e-06   -2.6225652475657407e-05
1.8338788681259026e-05   -7.759839568672157e-06   -2.6225652475657407e-05
1.8338788681259026e-05   -7.759839568672157e-06   -2.6225652475657407e-05
3.638908031569418e-05   -5.075316537518854e-06   5.468880733759912e-06
3.638908031569418e-05   -5.075316537518854e-06   5.468880733759912e-06
3.638908031569418e-05   -5.075316537518854e-06   5.468880733759912e-06
3.638908031569418e-05   -5.075316537518854e-06   5.468880733759912e-06
3.7616787956143774e-05   -7.039111034419965e-06   -2.950533259080762e-05
3.7616787956143774e-05   -7.039111034419965e-06   -2.950533259080762e-05
3.7616787956143774e-05   -7.039111034419965e-06   -2.950533259080762e-05
3.7616787956143774e-05   -7.039111034419965e-06   -2.950533259080762e-05
1.8324739728591704e-05   -4.355603659198957e-06   1.0379766966465574e-06
1.8324739728591704e-05   -4.355603659198957e-06   1.0379766966465574e-06
1.8324739728591704e-05   -4.355603659198957e-06   1.0379766966465574e-06
1.8324739728591704e-05   -4.355603659198957e-06   1.0379766966465574e-06
2.648490514077611e-05   -5.98564434771214e-06   -1.158427457721958e-05
2.648490514077611e-05   -5.98564434771214e-06   -1.158427457721958e-05
2.648490514077611e-05   -5.98564434771214e-06   -1.158427457721958e-05
2.648490514077611e-05   -5.98564434771214e-06   -1.158427457721958e-05
1.832473972859169e-05   -7.039111034419965e-06   -3.111543701594016e-05
1.832473972859169e-05   -7.039111034419965e-06   -3.111543701594016e-05
1.832473972859169e-05   -7.039111034419965e-06   -3.111543701594016e-05
1.832473972859169e-05   -7.039111034419965e-06   -3.111543701594016e-05
3.7616787956143774e-05   -4.355603659198849e-06   2.648081121779276e-06
3.7616787956143774e-05   -4.355603659198849e-06   2.648081121779276e-06
3.7616787956143774e-05   -4.355603659198849e-06   2.648081121779276e-06
3.7616787956143774e-05   -4.355603659198849e-06   2.648081121779276e-06
3.8560617756053136e-05   -6.276297304535312e-06   -3.3276942419685453e-05
3.8560617756053136e-05   -6.276297304535312e-06   -3.3276942419685453e-05
3.8560617756053136e-05   -6.276297304535312e-06   -3.3276942419685453e-05
3.8560617756053136e-05   -6.276297304535312e-06   -3.3276942419685453e-05
1.8411479470068843e-05   -3.738678892644125e-06   -1.2176163235131927e-06
1.8411479470068843e-05   -3.738678892644125e-06   -1.2176163235131927e-06
1.8411479470068843e-05   -3.738678892644125e-06   -1.2176163235131927e-06
1.8411479470068843e-05   -3.738678892644125e-06   -1.2176163235131927e-06
2.7385129942244122e-05   -5.521323116825536e-06   -1.5104113909296325e-05
2.7385129942244122e-05   -5.521323116825536e-06   -1.5104113909296325e-05
2.7385129942244122e-05   -5.521323116825536e-06   -1.5104113909296325e-05
2.7385129942244122e-05   -5.521323116825536e-06   -1.5104113909296325e-05
1.841147947006887e-05   -6.276297304535312e-06   -3.479951346682013e-05
1.841147947006887e-05   -6.276297304535312e-06   -3.479951346682013e-05
1.841147947006887e-05   -6.276297304535312e-06   -3.479951346682013e-05
1.841147947006887e-05   -6.276297304535312e-06   -3.479951346682013e-05
3.8560617756053055e-05   -3.738678892644125e-06   3.049547236217364e-07
3.8560617756053055e-05   -3.738678892644125e-06   3.049547236217364e-07
3.8560617756053055e-05   -3.738678892644125e-06   3.049547236217364e-07
3.8560617756053055e-05   -3.738678892644125e-06   3.049547236217364e-07
3.956656598219798e-05   -4.634806300046095e-06   -3.969453045905573e-05
3.956656598219798e-05   -4.634806300046095e-06   -3.969453045905573e-05
3.956656598219798e-05   -4.634806300046095e-06   -3.969453045905573e-05
3.956656598219798e-05   -4.634806300046095e-06   -3.969453045905573e-05
1.827015677084923e-05   -2.421106043101664e-06   -5.5287352609746415e-06
1.827015677084923e-05   -2.421106043101664e-06   -5.5287352609746415e-06
1.827015677084923e-05   -2.421106043101664e-06   -5.5287352609746415e-06
1.827015677084923e-05   -2.421106043101664e-06   -5.5287352609746415e-06
2.7268684172627336e-05   -4.756014424969865e-06   -1.9125335901483756e-05
2.7268684172627336e-05   -4.756014424969865e-06   -1.9125335901483756e-05
2.7268684172627336e-05   -4.756014424969865e-06   -1.9125335901483756e-05
2.7268684172627336e-05   -4.756014424969865e-06   -1.9125335901483756e-05
-4.3738474496075224e-05   6.704309688606853e-06   -3.328292188876713e-05
-4.3738474496075224e-05   6.704309688606853e-06   -3.328292188876713e-05
-4.3738474496075224e-05   6.704309688606853e-06   -3.328292188876713e-05
-4.3738474496075224e-05   6.704309688606853e-06   -3.328292188876713e-05
-2.9785753936591516e-05   4.263841170903016e-06   -1.1492668733583187e-05
-2.9785753936591516e-05   4.263841170903016e-06   -1.1492668733583187e-05
-2.9785753936591516e-05   4.263841170903016e-06   -1.1492668733583187e-05
-2.9785753936591516e-05   4.263841170903016e-06   -1.1492668733583187e-05
-2.9677246473340714e-05   8.110807860672539e-06   -2.827542135865036e-05
-2.9677246473340714e-05   8.110807860672539e-06   -2.827542135865036e-05
-2.9677246473340714e-05   8.110807860672539e-06   -2.827542135865036e-05
-2.9677246473340714e-05   8.110807860672539e-06   -2.827542135865036e-05
-4.242922524392759e-05   5.4278166314313285e-06   -5.412328670127567e-06
-4.242922524392759e-05   5.4278166314313285e-06   -5.412328670127567e-06
-4.242922524392759e-05   5.4278166314313285e-06   -5.412328670127567e-06
-4.242922524392759e-05   5.4278166314313285e-06   -5.412328670127567e-06
-3.486306228904849e-05   6.45603645068292e-06   -1.8639532153143636e-05
-3.486306228904849e-05   6.45603645068292e-06   -1.8639532153143636e-05
-3.486306228904849e-05   6.45603645068292e-06   -1.8639532153143636e-05
-3.486306228904849e-05   6.45603645068292e-06   -1.8639532153143636e-05
-4.242922524392759e-05   8.110807860672539e-06   -2.6665626621105688e-05
-4.242922524392759e-05   8.110807860672539e-06   -2.6665626621105688e-05
-4.242922524392759e-05   8.110807860672539e-06   -2.6665626621105688e-05
-4.242922524392759e-05   8.110807860672539e-06   -2.6665626621105688e-05
-2.967724647334074e-05   5.4278166314313285e-06   -7.022123407672317e-06
-2.967724647334074e-05   5.4278166314313285e-06   -7.022123407672317e-06
-2.967724647334074e-05   5.4278166314313285e-06   -7.022123407672317e-06
-2.967724647334074e-05   5.4278166314313285e-06   -7.022123407672317e-06
-2.9452123199738485e-05   8.728857552047658e-06   -2.4656135139653227e-05
-2.9452123199738485e-05   8.728857552047658e-06   -2.4656135139653227e-05
-2.9452123199738485e-05   8.728857552047658e-06   -2.4656135139653227e-05
-2.9452123199738485e-05   8.728857552047658e-06   -2.4656135139653227e-05
-4.145071722916281e-05   5.970317785703567e-06   -3.0033545641397247e-06
-4.145071722916281e-05   5.970317785703567e-06   -3.0033545641397247e-06
-4.145071722916281e-05   5.970317785703567e-06   -3.0033545641397247e-06
-4.145071722916281e-05   5.970317785703567e-06   -3.0033545641397247e-06
-3.486469141678519e-05   7.105567815770728e-06   -1.4661214269476091e-05
-3.486469141678519e-05   7.105567815770728e-06   -1.4661214269476091e-05
-3.486469141678519e-05   7.105567815770728e-06   -1.4661214269476091e-05
-3.486469141678519e-05   7.105567815770728e-06   -1.4661214269476091e-05
-4.145071722916281e-05   8.728857552047658e-06   -2.300101127984688e-05
-4.145071722916281e-05   8.728857552047658e-06   -2.300101127984688e-05
-4.145071722916281e-05   8.728857552047658e-06   -2.300101127984688e-05
-4.145071722916281e-05   8.728857552047658e-06   -2.300101127984688e-05
-2.945212319973854e-05   5.970317785703567e-06   -4.658478423946007e-06
-2.945212319973854e-05   5.970317785703567e-06   -4.658478423946007e-06
-2.945212319973854e-05   5.970317785703567e-06   -4.658478423946007e-06
-2.945212319973854e-05   5.970317785703567e-06   -4.658478423946007e-06
-2.936213038691178e-05   9.337514455769321e-06   -1.9646756428814667e-05
-2.936213038691178e-05   9.337514455769321e-06   -1.9646756428814667e-05
-2.936213038691178e-05   9.337514455769321e-06   -1.9646756428814667e-05
-2.936213038691178e-05   9.337514455769321e-06   -1.9646756428814667e-05
-4.0170642752795205e-05   6.652772561666987e-06   -2.1724015880674255e-08
-4.0170642752795205e-05   6.652772561666987e-06   -2.1724015880674255e-08
-4.0170642752795205e-05   6.652772561666987e-06   -2.1724015880674255e-08
-4.0170642752795205e-05   6.652772561666987e-06   -2.1724015880674255e-08
-3.3833027790207296e-05   7.457853885796373e-06   -1.1067464414671671e-05
-3.3833027790207296e-05   7.457853885796373e-06   -1.1067464414671671e-05
-3.3833027790207296e-05   7.457853885796373e-06   -1.1067464414671671e-05
-3.3833027790207296e-05   7.457853885796373e-06   -1.1067464414671671e-05
-2.9785753936591462e-05   3.343336677525755e-06   -4.242114510881554e-05
-2.9785753936591462e-05   3.343336677525755e-06   -4.242114510881554e-05
-2.9785753936591462e-05   3.343336677525755e-06   -4.242114510881554e-05
-2.9785753936591462e-05   3.343336677525755e-06   -4.242114510881554e-05
-1.7137542387339708e-05   2.2051564206905516e-06   -2.2023700680830416e-05
-1.7137542387339708e-05   2.2051564206905516e-06   -2.2023700680830416e-05
-1.7137542387339708e-05   2.2051564206905516e-06   -2.2023700680830416e-05
-1.7137542387339708e-05   2.2051564206905516e-06   -2.2023700680830416e-05
-1.7145909326959203e-05   4.7266935502851635e-06   -4.205645746113609e-05
-1.7145909326959203e-05   4.7266935502851635e-06   -4.205645746113609e-05
-1.7145909326959203e-05   4.7266935502851635e-06   -4.205645746113609e-05
-1.7145909326959203e-05   4.7266935502851635e-06   -4.205645746113609e-05
-2.9677246473340714e-05   3.4341184893116458e-06   -2.039535051391589e-05
-2.9677246473340714e-05   3.4341184893116458e-06   -2.039535051391589e-05
-2.9677246473340714e-05   3.4341184893116458e-06   -2.039535051391589e-05
-2.9677246473340714e-05   3.4341184893116458e-06   -2.039535051391589e-05
-2.3220498123058478e-05   3.6574395183136803e-06   -3.129059038178776e-05
-2.3220498123058478e-05   3.6574395183136803e-06   -3.129059038178776e-05
-2.3220498123058478e-05   3.6574395183136803e-06   -3.129059038178776e-05
-2.3220498123058478e-05   3.6574395183136803e-06   -3.129059038178776e-05
-2.967724647334066e-05   4.7266935502851635e-06   -4.128091242455164e-05
-2.967724647334066e-05   4.7266935502851635e-06   -4.128091242455164e-05
-2.967724647334066e-05   4.7266935502851635e-06   -4.128091242455164e-05
-2.967724647334066e-05   4.7266935502851635e-06   -4.128091242455164e-05
-1.7145909326959203e-05   3.4341184893116458e-06   -2.1170895550500147e-05
-1.7145909326959203e-05   3.4341184893116458e-06   -2.1170895550500147e-05
-1.7145909326959203e-05   3.4341184893116458e-06   -2.1170895550500147e-05
-1.7145909326959203e-05   3.4341184893116458e-06   -2.1170895550500147e-05
-1.7133277285757845e-05   5.955811832990244e-06   -4.1113865869000805e-05
-1.7133277285757845e-05   5.955811832990244e-06   -4.1113865869000805e-05
-1.7133277285757845e-05   5.955811832990244e-06   -4.1113865869000805e-05
-1.7133277285757845e-05   5.955811832990244e-06   -4.1113865869000805e-05
-2.9452123199738485e-05   4.552566362941795e-06   -1.9740508730337286e-05
-2.9452123199738485e-05   4.552566362941795e-06   -1.9740508730337286e-05
-2.9452123199738485e-05   4.552566362941795e-06   -1.9740508730337286e-05
-2.9452123199738485e-05   4.552566362941795e-06   -1.9740508730337286e-05
-2.3112366788926446e-05   4.666860680644768e-06   -3.0375346005645488e-05
-2.3112366788926446e-05   4.666860680644768e-06   -3.0375346005645488e-05
-2.3112366788926446e-05   4.666860680644768e-06   -3.0375346005645488e-05
-2.3112366788926446e-05   4.666860680644768e-06   -3.0375346005645488e-05
-2.9452123199738485e-05   5.955811832990244e-06   -4.027191858697166e-05
-2.9452123199738485e-05   5.955811832990244e-06   -4.027191858697166e-05
-2.9452123199738485e-05   5.955811832990244e-06   -4.027191858697166e-05
-2.9452123199738485e-05   5.955811832990244e-06   -4.027191858697166e-05
-1.7133277285757872e-05   4.552566362941795e-06   -2.0582456012366242e-05
-1.7133277285757872e-05   4.552566362941795e-06   -2.0582456012366242e-05
-1.7133277285757872e-05   4.552566362941795e-06   -2.0582456012366242e-05
-1.7133277285757872e-05   4.552566362941795e-06   -2.0582456012366242e-05
-1.7147050783793204e-05   7.263415127652497e-06   -4.127964346994787e-05
-1.7147050783793204e-05   7.263415127652497e-06   -4.127964346994787e-05
-1.7147050783793204e-05   7.263415127652497e-06   -4.127964346994787e-05
-1.7147050783793204e-05   7.263415127652497e-06   -4.127964346994787e-05
-2.9362130386911806e-05   5.7676187688810235e-06   -2.0023699649487307e-05
-2.9362130386911806e-05   5.7676187688810235e-06   -2.0023699649487307e-05
-2.9362130386911806e-05   5.7676187688810235e-06   -2.0023699649487307e-05
-2.9362130386911806e-05   5.7676187688810235e-06   -2.0023699649487307e-05
-2.326207870750141e-05   5.665653065995563e-06   -3.0129273026773305e-05
-2.326207870750141e-05   5.665653065995563e-06   -3.0129273026773305e-05
-2.326207870750141e-05   5.665653065995563e-06   -3.0129273026773305e-05
-2.326207870750141e-05   5.665653065995563e-06   -3.0129273026773305e-05
-1.713754238733968e-05   1.7807051703609602e-07   -4.682105749214186e-05
-1.713754238733968e-05   1.7807051703609602e-07   -4.682105749214186e-05
-1.713754238733968e-05   1.7807051703609602e-07   -4.682105749214186e-05
-1.713754238733968e-05   1.7807051703609602e-07   -4.682105749214186e-05
-4.66439930455052e-06   3.8011002082482745e-07   -2.591126198522013e-05
-4.66439930455052e-06   3.8011002082482745e-07   -2.591126198522013e-05
-4.66439930455052e-06   3.8011002082482745e-07   -2.591126198522013e-05
-4.66439930455052e-06   3.8011002082482745e-07   -2.591126198522013e-05
-4.67332611343025e-06   1.539896796462015e-06   -4.630352876417598e-05
-4.67332611343025e-06   1.539896796462015e-06   -4.630352876417598e-05
-4.67332611343025e-06   1.539896796462015e-06   -4.630352876417598e-05
-4.67332611343025e-06   1.539896796462015e-06   -4.630352876417598e-05
-1.7145909326959176e-05   1.6159232708697546e-06   -2.5561505959605763e-05
-1.7145909326959176e-05   1.6159232708697546e-06   -2.5561505959605763e-05
-1.7145909326959176e-05   1.6159232708697546e-06   -2.5561505959605763e-05
-1.7145909326959176e-05   1.6159232708697546e-06   -2.5561505959605763e-05
-1.0832805629205919e-05   1.088511426778965e-06   -3.5766898349406647e-05
-1.0832805629205919e-05   1.088511426778965e-06   -3.5766898349406647e-05
-1.0832805629205919e-05   1.088511426778965e-06   -3.5766898349406647e-05
-1.0832805629205919e-05   1.088511426778965e-06   -3.5766898349406647e-05
-1.7145909326959176e-05   1.539896796462015e-06   -4.6349144648820644e-05
-1.7145909326959176e-05   1.539896796462015e-06   -4.6349144648820644e-05
-1.7145909326959176e-05   1.539896796462015e-06   -4.6349144648820644e-05
-1.7145909326959176e-05   1.539896796462015e-06   -4.6349144648820644e-05
-4.67332611343025e-06   1.6159232708697546e-06   -2.5515890074961152e-05
-4.67332611343025e-06   1.6159232708697546e-06   -2.5515890074961152e-05
-4.67332611343025e-06   1.6159232708697546e-06   -2.5515890074961152e-05
-4.67332611343025e-06   1.6159232708697546e-06   -2.5515890074961152e-05
-4.656937528940183e-06   2.8976761023546266e-06   -4.642111862383086e-05
-4.656937528940183e-06   2.8976761023546266e-06   -4.642111862383086e-05
-4.656937528940183e-06   2.8976761023546266e-06   -4.642111862383086e-05
-4.656937528940183e-06   2.8976761023546266e-06   -4.642111862383086e-05
-1.7133277285757845e-05   2.8556901221665114e-06   -2.560202744102198e-05
-1.7133277285757845e-05   2.8556901221665114e-06   -2.560202744102198e-05
-1.7133277285757845e-05   2.8556901221665114e-06   -2.560202744102198e-05
-1.7133277285757845e-05   2.8556901221665114e-06   -2.560202744102198e-05
-1.0905340531036698e-05   2.1696889788081408e-06   -3.557032134620885e-05
-1.0905340531036698e-05   2.1696889788081408e-06   -3.557032134620885e-05
-1.0905340531036698e-05   2.1696889788081408e-06   -3.557032134620885e-05
-1.0905340531036698e-05   2.1696889788081408e-06   -3.557032134620885e-05
-1.7133277285757845e-05   2.8976761023546266e-06   -4.6395927035718066e-05
-1.7133277285757845e-05   2.8976761023546266e-06   -4.6395927035718066e-05
-1.7133277285757845e-05   2.8976761023546266e-06   -4.6395927035718066e-05
-1.7133277285757845e-05   2.8976761023546266e-06   -4.6395927035718066e-05
-4.6569375289401905e-06   2.8556901221665114e-06   -2.562721902913469e-05
-4.6569375289401905e-06   2.8556901221665114e-06   -2.562721902913469e-05
-4.6569375289401905e-06   2.8556901221665114e-06   -2.562721902913469e-05
-4.6569375289401905e-06   2.8556901221665114e-06   -2.562721902913469e-05
-4.664266691237805e-06   4.287006810317238e-06   -4.712311065577262e-05
-4.664266691237805e-06   4.287006810317238e-06   -4.712311065577262e-05
-4.664266691237805e-06   4.287006810317238e-06   -4.712311065577262e-05
-4.664266691237805e-06   4.287006810317238e-06   -4.712311065577262e-05
-1.714705078379319e-05   4.117132960151557e-06   -2.6216546191414004e-05
-1.714705078379319e-05   4.117132960151557e-06   -2.6216546191414004e-05
-1.714705078379319e-05   4.117132960151557e-06   -2.6216546191414004e-05
-1.714705078379319e-05   4.117132960151557e-06   -2.6216546191414004e-05
-1.0999108216935763e-05   3.265066851951509e-06   -3.5951877471256403e-05
-1.0999108216935763e-05   3.265066851951509e-06   -3.5951877471256403e-05
-1.0999108216935763e-05   3.265066851951509e-06   -3.5951877471256403e-05
-1.0999108216935763e-05   3.265066851951509e-06   -3.5951877471256403e-05
-4.664399304550512e-06   -2.798991869409017e-06   -4.1458646995418146e-05
-4.664399304550512e-06   -2.798991869409017e-06   -4.1458646995418146e-05
-4.664399304550512e-06   -2.798991869409017e-06   -4.1458646995418146e-05
-4.664399304550512e-06   -2.798991869409017e-06   -4.1458646995418146e-05
7.626121186837852e-06   -1.2888480460188307e-06   -2.006835988240343e-05
7.626121186837852e-06   -1.2888480460188307e-06   -2.006835988240343e-05
7.626121186837852e-06   -1.2888480460188307e-06   -2.006835988240343e-05
7.626121186837852e-06   -1.2888480460188307e-06   -2.006835988240343e-05
7.72643313827171e-06   -1.5505351764500417e-06   -4.05154033202854e-05
7.72643313827171e-06   -1.5505351764500417e-06   -4.05154033202854e-05
7.72643313827171e-06   -1.5505351764500417e-06   -4.05154033202854e-05
7.72643313827171e-06   -1.5505351764500417e-06   -4.05154033202854e-05
-4.67332611343025e-06   -1.2465263191986133e-07   -2.070466742750026e-05
-4.67332611343025e-06   -1.2465263191986133e-07   -2.070466742750026e-05
-4.67332611343025e-06   -1.2465263191986133e-07   -2.070466742750026e-05
-4.67332611343025e-06   -1.2465263191986133e-07   -2.070466742750026e-05
1.511068274856237e-06   -1.333314232529058e-06   -3.0286794447612243e-05
1.511068274856237e-06   -1.333314232529058e-06   -3.0286794447612243e-05
1.511068274856237e-06   -1.333314232529058e-06   -3.0286794447612243e-05
1.511068274856237e-06   -1.333314232529058e-06   -3.0286794447612243e-05
-4.67332611343025e-06   -1.5505351764499332e-06   -4.137093284700352e-05
-4.67332611343025e-06   -1.5505351764499332e-06   -4.137093284700352e-05
-4.67332611343025e-06   -1.5505351764499332e-06   -4.137093284700352e-05
-4.67332611343025e-06   -1.5505351764499332e-06   -4.137093284700352e-05
7.726433138271737e-06   -1.2465263191986133e-07   -1.9849137900782162e-05
7.726433138271737e-06   -1.2465263191986133e-07   -1.9849137900782162e-05
7.726433138271737e-06   -1.2465263191986133e-07   -1.9849137900782162e-05
7.726433138271737e-06   -1.2465263191986133e-07   -1.9849137900782162e-05
7.96313583591251e-06   -3.2391367851857585e-07   -4.1367357219805004e-05
7.96313583591251e-06   -3.2391367851857585e-07   -4.1367357219805004e-05
7.96313583591251e-06   -3.2391367851857585e-07   -4.1367357219805004e-05
7.96313583591251e-06   -3.2391367851857585e-07   -4.1367357219805004e-05
-4.6569375289401905e-06   9.951751772079714e-07   -2.1125354925153126e-05
-4.6569375289401905e-06   9.951751772079714e-07   -2.1125354925153126e-05
-4.6569375289401905e-06   9.951751772079714e-07   -2.1125354925153126e-05
-4.6569375289401905e-06   9.951751772079714e-07   -2.1125354925153126e-05
1.4399014101793573e-06   -3.647907074250849e-07   -3.0470773626239186e-05
1.4399014101793573e-06   -3.647907074250849e-07   -3.0470773626239186e-05
1.4399014101793573e-06   -3.647907074250849e-07   -3.0470773626239186e-05
1.4399014101793573e-06   -3.647907074250849e-07   -3.0470773626239186e-05
-4.656937528940187e-06   -3.2391367851857585e-07   -4.215881053324088e-05
-4.656937528940187e-06   -3.2391367851857585e-07   -4.215881053324088e-05
-4.656937528940187e-06   -3.2391367851857585e-07   -4.215881053324088e-05
-4.656937528940187e-06   -3.2391367851857585e-07   -4.215881053324088e-05
7.963135835912537e-06   9.951751772079714e-07   -2.0333901611717072e-05
7.963135835912537e-06   9.951751772079714e-07   -2.0333901611717072e-05
7.963135835912537e-06   9.951751772079714e-07   -2.0333901611717072e-05
7.963135835912537e-06   9.951751772079714e-07   -2.0333901611717072e-05
8.07905460341058e-06   1.1101307577215122e-06   -4.2586833310432216e-05
8.07905460341058e-06   1.1101307577215122e-06   -4.2586833310432216e-05
8.07905460341058e-06   1.1101307577215122e-06   -4.2586833310432216e-05
8.07905460341058e-06   1.1101307577215122e-06   -4.2586833310432216e-05
-4.664266691237797e-06   2.2784655312005917e-06   -2.2048965350105672e-05
-4.664266691237797e-06   2.2784655312005917e-06   -2.2048965350105672e-05
-4.664266691237797e-06   2.2784655312005917e-06   -2.2048965350105672e-05
-4.664266691237797e-06   2.2784655312005917e-06   -2.2048965350105672e-05
1.4826128259960644e-06   6.709943120506963e-07   -3.132928181400537e-05
1.4826128259960644e-06   6.709943120506963e-07   -3.132928181400537e-05
1.4826128259960644e-06   6.709943120506963e-07   -3.132928181400537e-05
1.4826128259960644e-06   6.709943120506963e-07   -3.132928181400537e-05
7.626121186837852e-06   -5.075316537518962e-06   -2.2775724946588055e-05
7.626121186837852e-06   -5.075316537518962e-06   -2.2775724946588055e-05
7.626121186837852e-06   -5.075316537518962e-06   -2.2775724946588055e-05
7.626121186837852e-06   -5.075316537518962e-06   -2.2775724946588055e-05
1.8537594582123014e-05   -2.3672996721938247e-06   -2.965125835251029e-06
1.8537594582123014e-05   -2.3672996721938247e-06   -2.965125835251029e-06
1.8537594582123014e-05   -2.3672996721938247e-06   -2.965125835251029e-06
1.8537594582123014e-05   -2.3672996721938247e-06   -2.965125835251029e-06
1.9835127834451225e-05   -4.355603659198957e-06   -2.3912510316817216e-05
1.9835127834451225e-05   -4.355603659198957e-06   -2.3912510316817216e-05
1.9835127834451225e-05   -4.355603659198957e-06   -2.3912510316817216e-05
1.9835127834451225e-05   -4.355603659198957e-06   -2.3912510316817216e-05
7.726433138271723e-06   -1.5785291371759333e-06   -5.397597203065133e-06
7.726433138271723e-06   -1.5785291371759333e-06   -5.397597203065133e-06
7.726433138271723e-06   -1.5785291371759333e-06   -5.397597203065133e-06
7.726433138271723e-06   -1.5785291371759333e-06   -5.397597203065133e-06
1.2858619629277708e-05   -3.2405454586420697e-06   -1.2954031561862063e-05
1.2858619629277708e-05   -3.2405454586420697e-06   -1.2954031561862063e-05
1.2858619629277708e-05   -3.2405454586420697e-06   -1.2954031561862063e-05
1.2858619629277708e-05   -3.2405454586420697e-06   -1.2954031561862063e-05
7.726433138271723e-06   -4.355603659198957e-06   -2.5578755030030798e-05
7.726433138271723e-06   -4.355603659198957e-06   -2.5578755030030798e-05
7.726433138271723e-06   -4.355603659198957e-06   -2.5578755030030798e-05
7.726433138271723e-06   -4.355603659198957e-06   -2.5578755030030798e-05
1.983512783445117e-05   -1.578529137175825e-06   -3.7313524898514167e-06
1.983512783445117e-05   -1.578529137175825e-06   -3.7313524898514167e-06
1.983512783445117e-05   -1.578529137175825e-06   -3.7313524898514167e-06
1.983512783445117e-05   -1.578529137175825e-06   -3.7313524898514167e-06
2.083406483749129e-05   -3.738678892644125e-06   -2.6221354332715043e-05
2.083406483749129e-05   -3.738678892644125e-06   -2.6221354332715043e-05
2.083406483749129e-05   -3.738678892644125e-06   -2.6221354332715043e-05
2.083406483749129e-05   -3.738678892644125e-06   -2.6221354332715043e-05
7.963135835912537e-06   -1.0341972323604526e-06   -6.392494992920624e-06
7.963135835912537e-06   -1.0341972323604526e-06   -6.392494992920624e-06
7.963135835912537e-06   -1.0341972323604526e-06   -6.392494992920624e-06
7.963135835912537e-06   -1.0341972323604526e-06   -6.392494992920624e-06
1.3651245217019252e-05   -2.8354079979856254e-06   -1.4791950835390052e-05
1.3651245217019252e-05   -2.8354079979856254e-06   -1.4791950835390052e-05
1.3651245217019252e-05   -2.8354079979856254e-06   -1.4791950835390052e-05
1.3651245217019252e-05   -2.8354079979856254e-06   -1.4791950835390052e-05
7.963135835912537e-06   -3.7386788926442333e-06   -2.7844043328885144e-05
7.963135835912537e-06   -3.7386788926442333e-06   -2.7844043328885144e-05
7.963135835912537e-06   -3.7386788926442333e-06   -2.7844043328885144e-05
7.963135835912537e-06   -3.7386788926442333e-06   -2.7844043328885144e-05
2.0834064837491235e-05   -1.034197232360561e-06   -4.769805996750307e-06
2.0834064837491235e-05   -1.034197232360561e-06   -4.769805996750307e-06
2.0834064837491235e-05   -1.034197232360561e-06   -4.769805996750307e-06
2.0834064837491235e-05   -1.034197232360561e-06   -4.769805996750307e-06
2.216188910852466e-05   -2.421106043101664e-06   -3.065042576321715e-05
2.216188910852466e-05   -2.421106043101664e-06   -3.065042576321715e-05
2.216188910852466e-05   -2.421106043101664e-06   -3.065042576321715e-05
2.216188910852466e-05   -2.421106043101664e-06   -3.065042576321715e-05
8.079054603410594e-06   3.5479937305835096e-08   -8.65298650960469e-06
8.079054603410594e-06   3.5479937305835096e-08   -8.65298650960469e-06
8.079054603410594e-06   3.5479937305835096e-08   -8.65298650960469e-06
8.079054603410594e-06   3.5479937305835096e-08   -8.65298650960469e-06
1.3915809381394743e-05   -2.2332581330831904e-06   -1.7019668297344934e-05
1.3915809381394743e-05   -2.2332581330831904e-06   -1.7019668297344934e-05
1.3915809381394743e-05   -2.2332581330831904e-06   -1.7019668297344934e-05
1.3915809381394743e-05   -2.2332581330831904e-06   -1.7019668297344934e-05
-2.646528341325574e-05   4.263841170903016e-06   -2.480963958820183e-05
-2.646528341325574e-05   4.263841170903016e-06   -2.480963958820183e-05
-2.646528341325574e-05   4.263841170903016e-06   -2.480963958820183e-05
-2.646528341325574e-05   4.263841170903016e-06   -2.480963958820183e-05
-1.9549030289264287e-05   1.7359566004111846e-06   -1.4799281790511218e-05
-1.9549030289264287e-05   1.7359566004111846e-06   -1.4799281790511218e-05
-1.9549030289264287e-05   1.7359566004111846e-06   -1.4799281790511218e-05
-1.9549030289264287e-05   1.7359566004111846e-06   -1.4799281790511218e-05
-1.9261927268211397e-05   5.42781663143122e-06   -2.1886635409526902e-05
-1.9261927268211397e-05   5.42781663143122e-06   -2.1886635409526902e-05
-1.9261927268211397e-05   5.42781663143122e-06   -2.1886635409526902e-05
-1.9261927268211397e-05   5.42781663143122e-06   -2.1886635409526902e-05
-2.502629599566384e-05   2.7042319483523095e-06   -1.0645203387258523e-05
-2.502629599566384e-05   2.7042319483523095e-06   -1.0645203387258523e-05
-2.502629599566384e-05   2.7042319483523095e-06   -1.0645203387258523e-05
-2.502629599566384e-05   2.7042319483523095e-06   -1.0645203387258523e-05
-2.1619178039522562e-05   3.824923213364951e-06   -1.6996148073169257e-05
-2.1619178039522562e-05   3.824923213364951e-06   -1.6996148073169257e-05
-2.1619178039522562e-05   3.824923213364951e-06   -1.6996148073169257e-05
-2.1619178039522562e-05   3.824923213364951e-06   -1.6996148073169257e-05
-2.502629599566384e-05   5.42781663143122e-06   -2.0252484599679404e-05
-2.502629599566384e-05   5.42781663143122e-06   -2.0252484599679404e-05
-2.502629599566384e-05   5.42781663143122e-06   -2.0252484599679404e-05
-2.502629599566384e-05   5.42781663143122e-06   -2.0252484599679404e-05
-1.926192726821145e-05   2.7042319483525264e-06   -1.2279354197105994e-05
-1.926192726821145e-05   2.7042319483525264e-06   -1.2279354197105994e-05
-1.926192726821145e-05   2.7042319483525264e-06   -1.2279354197105994e-05
-1.926192726821145e-05   2.7042319483525264e-06   -1.2279354197105994e-05
-1.885203372076216e-05   5.970317785703567e-06   -1.954340015728514e-05
-1.885203372076216e-05   5.970317785703567e-06   -1.954340015728514e-05
-1.885203372076216e-05   5.970317785703567e-06   -1.954340015728514e-05
-1.885203372076216e-05   5.970317785703567e-06   -1.954340015728514e-05
-2.3878849024084562e-05   3.1937010434609885e-06   -9.499404606402146e-06
-2.3878849024084562e-05   3.1937010434609885e-06   -9.499404606402146e-06
-2.3878849024084562e-05   3.1937010434609885e-06   -9.499404606402146e-06
-2.3878849024084562e-05   3.1937010434609885e-06   -9.499404606402146e-06
-2.1239874423746415e-05   4.347497481488761e-06   -1.4589973469782505e-05
-2.1239874423746415e-05   4.347497481488761e-06   -1.4589973469782505e-05
-2.1239874423746415e-05   4.347497481488761e-06   -1.4589973469782505e-05
-2.1239874423746415e-05   4.347497481488761e-06   -1.4589973469782505e-05
-2.3878849024084508e-05   5.970317785703567e-06   -1.787743011193952e-05
-2.3878849024084508e-05   5.970317785703567e-06   -1.787743011193952e-05
-2.3878849024084508e-05   5.970317785703567e-06   -1.787743011193952e-05
-2.3878849024084508e-05   5.970317785703567e-06   -1.787743011193952e-05
-1.8852033720762187e-05   3.1937010434609885e-06   -1.1165374651747687e-05
-1.8852033720762187e-05   3.1937010434609885e-06   -1.1165374651747687e-05
-1.8852033720762187e-05   3.1937010434609885e-06   -1.1165374651747687e-05
-1.8852033720762187e-05   3.1937010434609885e-06   -1.1165374651747687e-05
-1.857312186348946e-05   6.652772561666987e-06   -1.653787933979993e-05
-1.857312186348946e-05   6.652772561666987e-06   -1.653787933979993e-05
-1.857312186348946e-05   6.652772561666987e-06   -1.653787933979993e-05
-1.857312186348946e-05   6.652772561666987e-06   -1.653787933979993e-05
-2.2417833146744573e-05   3.96916419045934e-06   -8.519862178316714e-06
-2.2417833146744573e-05   3.96916419045934e-06   -8.519862178316714e-06
-2.2417833146744573e-05   3.96916419045934e-06   -8.519862178316714e-06
-2.2417833146744573e-05   3.96916419045934e-06   -8.519862178316714e-06
-2.0247630257727475e-05   4.71018418919146e-06   -1.258147899258497e-05
-2.0247630257727475e-05   4.71018418919146e-06   -1.258147899258497e-05
-2.0247630257727475e-05   4.71018418919146e-06   -1.258147899258497e-05
-2.0247630257727475e-05   4.71018418919146e-06   -1.258147899258497e-05
-1.9549030289264287e-05   2.2051564206905516e-06   -3.617449412364297e-05
-1.9549030289264287e-05   2.2051564206905516e-06   -3.617449412364297e-05
-1.9549030289264287e-05   2.2051564206905516e-06   -3.617449412364297e-05
-1.9549030289264287e-05   2.2051564206905516e-06   -3.617449412364297e-05
-1.3928524818953276e-05   9.979788442430505e-07   -2.7531291552326408e-05
-1.3928524818953276e-05   9.979788442430505e-07   -2.7531291552326408e-05
-1.3928524818953276e-05   9.979788442430505e-07   -2.7531291552326408e-05
-1.3928524818953276e-05   9.979788442430505e-07   -2.7531291552326408e-05
-1.3740836345616853e-05   3.4341184893116458e-06   -3.6055298133866125e-05
-1.3740836345616853e-05   3.4341184893116458e-06   -3.6055298133866125e-05
-1.3740836345616853e-05   3.4341184893116458e-06   -3.6055298133866125e-05
-1.3740836345616853e-05   3.4341184893116458e-06   -3.6055298133866125e-05
-1.926192726821145e-05   2.1083924591524302e-06   -2.6058044311445924e-05
-1.926192726821145e-05   2.1083924591524302e-06   -2.6058044311445924e-05
-1.926192726821145e-05   2.1083924591524302e-06   -2.6058044311445924e-05
-1.926192726821145e-05   2.1083924591524302e-06   -2.6058044311445924e-05
-1.6458037010158837e-05   2.3998110373652393e-06   -3.0906045888462144e-05
-1.6458037010158837e-05   2.3998110373652393e-06   -3.0906045888462144e-05
-1.6458037010158837e-05   2.3998110373652393e-06   -3.0906045888462144e-05
-1.6458037010158837e-05   2.3998110373652393e-06   -3.0906045888462144e-05
-1.9261927268211397e-05   3.4341184893116458e-06   -3.5259862515770336e-05
-1.9261927268211397e-05   3.4341184893116458e-06   -3.5259862515770336e-05
-1.9261927268211397e-05   3.4341184893116458e-06   -3.5259862515770336e-05
-1.9261927268211397e-05   3.4341184893116458e-06   -3.5259862515770336e-05
-1.3740836345616853e-05   2.1083924591522134e-06   -2.6853479929541606e-05
-1.3740836345616853e-05   2.1083924591522134e-06   -2.6853479929541606e-05
-1.3740836345616853e-05   2.1083924591522134e-06   -2.6853479929541606e-05
-1.3740836345616853e-05   2.1083924591522134e-06   -2.6853479929541606e-05
-1.3533511075168616e-05   4.552566362941686e-06   -3.5472303886222e-05
-1.3533511075168616e-05   4.552566362941686e-06   -3.5472303886222e-05
-1.3533511075168616e-05   4.552566362941686e-06   -3.5472303886222e-05
-1.3533511075168616e-05   4.552566362941686e-06   -3.5472303886222e-05
-1.885203372076224e-05   3.1411106586991255e-06   -2.576122605435358e-05
-1.885203372076224e-05   3.1411106586991255e-06   -2.576122605435358e-05
-1.885203372076224e-05   3.1411106586991255e-06   -2.576122605435358e-05
-1.885203372076224e-05   3.1411106586991255e-06   -2.576122605435358e-05
-1.621106969726765e-05   3.297837188466317e-06   -3.0256868678037857e-05
-1.621106969726765e-05   3.297837188466317e-06   -3.0256868678037857e-05
-1.621106969726765e-05   3.297837188466317e-06   -3.0256868678037857e-05
-1.621106969726765e-05   3.297837188466317e-06   -3.0256868678037857e-05
-1.885203372076216e-05   4.552566362941686e-06   -3.462543046367625e-05
-1.885203372076216e-05   4.552566362941686e-06   -3.462543046367625e-05
-1.885203372076216e-05   4.552566362941686e-06   -3.462543046367625e-05
-1.885203372076216e-05   4.552566362941686e-06   -3.462543046367625e-05
-1.3533511075168589e-05   3.1411106586991255e-06   -2.660809947689917e-05
-1.3533511075168589e-05   3.1411106586991255e-06   -2.660809947689917e-05
-1.3533511075168589e-05   3.1411106586991255e-06   -2.660809947689917e-05
-1.3533511075168589e-05   3.1411106586991255e-06   -2.660809947689917e-05
-1.3349248567471507e-05   5.767618768880915e-06   -3.581627610885793e-05
-1.3349248567471507e-05   5.767618768880915e-06   -3.581627610885793e-05
-1.3349248567471507e-05   5.767618768880915e-06   -3.581627610885793e-05
-1.3349248567471507e-05   5.767618768880915e-06   -3.581627610885793e-05
-1.8573121863489487e-05   4.288841649026159e-06   -2.6222554343581354e-05
-1.8573121863489487e-05   4.288841649026159e-06   -2.6222554343581354e-05
-1.8573121863489487e-05   4.288841649026159e-06   -2.6222554343581354e-05
-1.8573121863489487e-05   4.288841649026159e-06   -2.6222554343581354e-05
-1.611501601528343e-05   4.207651392611395e-06   -3.027068327007639e-05
-1.611501601528343e-05   4.207651392611395e-06   -3.027068327007639e-05
-1.611501601528343e-05   4.207651392611395e-06   -3.027068327007639e-05
-1.611501601528343e-05   4.207651392611395e-06   -3.027068327007639e-05
-1.3928524818953222e-05   3.8011002082482745e-07   -4.090758567617419e-05
-1.3928524818953222e-05   3.8011002082482745e-07   -4.090758567617419e-05
-1.3928524818953222e-05   3.8011002082482745e-07   -4.090758567617419e-05
-1.3928524818953222e-05   3.8011002082482745e-07   -4.090758567617419e-05
-8.450791347187161e-06   5.728485532358225e-07   -3.166238677045107e-05
-8.450791347187161e-06   5.728485532358225e-07   -3.166238677045107e-05
-8.450791347187161e-06   5.728485532358225e-07   -3.166238677045107e-05
-8.450791347187161e-06   5.728485532358225e-07   -3.166238677045107e-05
-8.267946767043393e-06   1.6159232708697546e-06   -4.039302741344294e-05
-8.267946767043393e-06   1.6159232708697546e-06   -4.039302741344294e-05
-8.267946767043393e-06   1.6159232708697546e-06   -4.039302741344294e-05
-8.267946767043393e-06   1.6159232708697546e-06   -4.039302741344294e-05
-1.3740836345616853e-05   1.704058486751191e-06   -3.132442591201559e-05
-1.3740836345616853e-05   1.704058486751191e-06   -3.132442591201559e-05
-1.3740836345616853e-05   1.704058486751191e-06   -3.132442591201559e-05
-1.3740836345616853e-05   1.704058486751191e-06   -3.132442591201559e-05
-1.102588710644941e-05   1.2258466243758462e-06   -3.5562414193203684e-05
-1.102588710644941e-05   1.2258466243758462e-06   -3.5562414193203684e-05
-1.102588710644941e-05   1.2258466243758462e-06   -3.5562414193203684e-05
-1.102588710644941e-05   1.2258466243758462e-06   -3.5562414193203684e-05
-1.374083634561684e-05   1.6159232708697546e-06   -4.0445908542971606e-05
-1.374083634561684e-05   1.6159232708697546e-06   -4.0445908542971606e-05
-1.374083634561684e-05   1.6159232708697546e-06   -4.0445908542971606e-05
-1.374083634561684e-05   1.6159232708697546e-06   -4.0445908542971606e-05
-8.267946767043393e-06   1.704058486751191e-06   -3.1271544782487005e-05
-8.267946767043393e-06   1.704058486751191e-06   -3.1271544782487005e-05
-8.267946767043393e-06   1.704058486751191e-06   -3.1271544782487005e-05
-8.267946767043393e-06   1.704058486751191e-06   -3.1271544782487005e-05
-8.062097860193346e-06   2.85569012216662e-06   -4.049818879026774e-05
-8.062097860193346e-06   2.85569012216662e-06   -4.049818879026774e-05
-8.062097860193346e-06   2.85569012216662e-06   -4.049818879026774e-05
-8.062097860193346e-06   2.85569012216662e-06   -4.049818879026774e-05
-1.3533511075168589e-05   2.845167663182834e-06   -3.13728532899187e-05
-1.3533511075168589e-05   2.845167663182834e-06   -3.13728532899187e-05
-1.3533511075168589e-05   2.845167663182834e-06   -3.13728532899187e-05
-1.3533511075168589e-05   2.845167663182834e-06   -3.13728532899187e-05
-1.090350593434775e-05   2.1979032444453903e-06   -3.536783654004434e-05
-1.090350593434775e-05   2.1979032444453903e-06   -3.536783654004434e-05
-1.090350593434775e-05   2.1979032444453903e-06   -3.536783654004434e-05
-1.090350593434775e-05   2.1979032444453903e-06   -3.536783654004434e-05
-1.3533511075168562e-05   2.85569012216662e-06   -4.049187531487752e-05
-1.3533511075168562e-05   2.85569012216662e-06   -4.049187531487752e-05
-1.3533511075168562e-05   2.85569012216662e-06   -4.049187531487752e-05
-1.3533511075168562e-05   2.85569012216662e-06   -4.049187531487752e-05
-8.06209786019336e-06   2.845167663182834e-06   -3.1379166765309026e-05
-8.06209786019336e-06   2.845167663182834e-06   -3.1379166765309026e-05
-8.06209786019336e-06   2.845167663182834e-06   -3.1379166765309026e-05
-8.06209786019336e-06   2.845167663182834e-06   -3.1379166765309026e-05
-7.87719723475096e-06   4.117132960151557e-06   -4.11798183834435e-05
-7.87719723475096e-06   4.117132960151557e-06   -4.11798183834435e-05
-7.87719723475096e-06   4.117132960151557e-06   -4.11798183834435e-05
-7.87719723475096e-06   4.117132960151557e-06   -4.11798183834435e-05
-1.3349248567471507e-05   4.003510380282344e-06   -3.199155928098739e-05
-1.3349248567471507e-05   4.003510380282344e-06   -3.199155928098739e-05
-1.3349248567471507e-05   4.003510380282344e-06   -3.199155928098739e-05
-1.3349248567471507e-05   4.003510380282344e-06   -3.199155928098739e-05
-1.0802468215528839e-05   3.1828869300456943e-06   -3.574381913075021e-05
-1.0802468215528839e-05   3.1828869300456943e-06   -3.574381913075021e-05
-1.0802468215528839e-05   3.1828869300456943e-06   -3.574381913075021e-05
-1.0802468215528839e-05   3.1828869300456943e-06   -3.574381913075021e-05
-8.450791347187132e-06   -1.2888480460188307e-06   -3.585512674794526e-05
-8.450791347187132e-06   -1.2888480460188307e-06   -3.585512674794526e-05
-8.450791347187132e-06   -1.2888480460188307e-06   -3.585512674794526e-05
-8.450791347187132e-06   -1.2888480460188307e-06   -3.585512674794526e-05
-3.1400949892893432e-06   2.464618334698746e-07   -2.60827802237558e-05
-3.1400949892893432e-06   2.464618334698746e-07   -2.60827802237558e-05
-3.1400949892893432e-06   2.464618334698746e-07   -2.60827802237558e-05
-3.1400949892893432e-06   2.464618334698746e-07   -2.60827802237558e-05
-2.8665745452608236e-06   -1.2465263191986133e-07   -3.470157080476938e-05
-2.8665745452608236e-06   -1.2465263191986133e-07   -3.470157080476938e-05
-2.8665745452608236e-06   -1.2465263191986133e-07   -3.470157080476938e-05
-2.8665745452608236e-06   -1.2465263191986133e-07   -3.470157080476938e-05
-8.267946767043379e-06   1.3424039701011737e-06   -2.6579517729677425e-05
-8.267946767043379e-06   1.3424039701011737e-06   -2.6579517729677425e-05
-8.267946767043379e-06   1.3424039701011737e-06   -2.6579517729677425e-05
-8.267946767043379e-06   1.3424039701011737e-06   -2.6579517729677425e-05
-5.624012208071549e-06   1.5823867436422917e-07   -3.0275576150522274e-05
-5.624012208071549e-06   1.5823867436422917e-07   -3.0275576150522274e-05
-5.624012208071549e-06   1.5823867436422917e-07   -3.0275576150522274e-05
-5.624012208071549e-06   1.5823867436422917e-07   -3.0275576150522274e-05
-8.267946767043366e-06   -1.2465263191986133e-07   -3.5581804765981906e-05
-8.267946767043366e-06   -1.2465263191986133e-07   -3.5581804765981906e-05
-8.267946767043366e-06   -1.2465263191986133e-07   -3.5581804765981906e-05
-8.267946767043366e-06   -1.2465263191986133e-07   -3.5581804765981906e-05
-2.866574545260837e-06   1.3424039701011737e-06   -2.569928376846501e-05
-2.866574545260837e-06   1.3424039701011737e-06   -2.569928376846501e-05
-2.866574545260837e-06   1.3424039701011737e-06   -2.569928376846501e-05
-2.866574545260837e-06   1.3424039701011737e-06   -2.569928376846501e-05
-2.4599458097345796e-06   9.951751772079714e-07   -3.5168437212566796e-05
-2.4599458097345796e-06   9.951751772079714e-07   -3.5168437212566796e-05
-2.4599458097345796e-06   9.951751772079714e-07   -3.5168437212566796e-05
-2.4599458097345796e-06   9.951751772079714e-07   -3.5168437212566796e-05
-8.062097860193346e-06   2.3749876334067804e-06   -2.6659404602188104e-05
-8.062097860193346e-06   2.3749876334067804e-06   -2.6659404602188104e-05
-8.062097860193346e-06   2.3749876334067804e-06   -2.6659404602188104e-05
-8.062097860193346e-06   2.3749876334067804e-06   -2.6659404602188104e-05
-5.458792682875395e-06   1.0431964407301613e-06   -3.0199171848778602e-05
-5.458792682875395e-06   1.0431964407301613e-06   -3.0199171848778602e-05
-5.458792682875395e-06   1.0431964407301613e-06   -3.0199171848778602e-05
-5.458792682875395e-06   1.0431964407301613e-06   -3.0199171848778602e-05
-8.062097860193326e-06   9.951751772079714e-07   -3.599632468628594e-05
-8.062097860193326e-06   9.951751772079714e-07   -3.599632468628594e-05
-8.062097860193326e-06   9.951751772079714e-07   -3.599632468628594e-05
-8.062097860193326e-06   9.951751772079714e-07   -3.599632468628594e-05
-2.459945809734593e-06   2.3749876334069973e-06   -2.5831517128468767e-05
-2.459945809734593e-06   2.3749876334069973e-06   -2.5831517128468767e-05
-2.459945809734593e-06   2.3749876334069973e-06   -2.5831517128468767e-05
-2.459945809734593e-06   2.3749876334069973e-06   -2.5831517128468767e-05
-2.176128033509807e-06   2.2784655312007e-06   -3.615198894372129e-05
-2.176128033509807e-06   2.2784655312007e-06   -3.615198894372129e-05
-2.176128033509807e-06   2.2784655312007e-06   -3.615198894372129e-05
-2.176128033509807e-06   2.2784655312007e-06   -3.615198894372129e-05
-7.87719723475096e-06   3.542339345057738e-06   -2.7408531229966774e-05
-7.87719723475096e-06   3.542339345057738e-06   -2.7408531229966774e-05
-7.87719723475096e-06   3.542339345057738e-06   -2.7408531229966774e-05
-7.87719723475096e-06   3.542339345057738e-06   -2.7408531229966774e-05
-5.285934693192875e-06   1.9704938795114075e-06   -3.0784194853235904e-05
-5.285934693192875e-06   1.9704938795114075e-06   -3.0784194853235904e-05
-5.285934693192875e-06   1.9704938795114075e-06   -3.0784194853235904e-05
-5.285934693192875e-06   1.9704938795114075e-06   -3.0784194853235904e-05
-3.1400949892893297e-06   -2.3672996721938247e-06   -1.9455516892294736e-05
-3.1400949892893297e-06   -2.3672996721938247e-06   -1.9455516892294736e-05
-3.1400949892893297e-06   -2.3672996721938247e-06   -1.9455516892294736e-05
-3.1400949892893297e-06   -2.3672996721938247e-06   -1.9455516892294736e-05
7.81310160133218e-07   3.435540610054969e-07   -1.1293329403337508e-05
7.81310160133218e-07   3.435540610054969e-07   -1.1293329403337508e-05
7.81310160133218e-07   3.435540610054969e-07   -1.1293329403337508e-05
7.81310160133218e-07   3.435540610054969e-07   -1.1293329403337508e-05
2.2279728629858537e-06   -1.578529137175825e-06   -1.8576914775319208e-05
2.2279728629858537e-06   -1.578529137175825e-06   -1.8576914775319208e-05
2.2279728629858537e-06   -1.578529137175825e-06   -1.8576914775319208e-05
2.2279728629858537e-06   -1.578529137175825e-06   -1.8576914775319208e-05
-2.8665745452608236e-06   1.2099964157128058e-06   -1.1759117759974292e-05
-2.8665745452608236e-06   1.2099964157128058e-06   -1.1759117759974292e-05
-2.8665745452608236e-06   1.2099964157128058e-06   -1.1759117759974292e-05
-2.8665745452608236e-06   1.2099964157128058e-06   -1.1759117759974292e-05
-7.294552940714186e-07   -4.813175546512869e-07   -1.4306194796405224e-05
-7.294552940714186e-07   -4.813175546512869e-07   -1.4306194796405224e-05
-7.294552940714186e-07   -4.813175546512869e-07   -1.4306194796405224e-05
-7.294552940714186e-07   -4.813175546512869e-07   -1.4306194796405224e-05
-2.86657454526081e-06   -1.578529137175825e-06   -2.025003010705219e-05
-2.86657454526081e-06   -1.578529137175825e-06   -2.025003010705219e-05
-2.86657454526081e-06   -1.578529137175825e-06   -2.025003010705219e-05
-2.86657454526081e-06   -1.578529137175825e-06   -2.025003010705219e-05
2.2279728629858537e-06   1.2099964157130227e-06   -1.0086002428241173e-05
2.2279728629858537e-06   1.2099964157130227e-06   -1.0086002428241173e-05
2.2279728629858537e-06   1.2099964157130227e-06   -1.0086002428241173e-05
2.2279728629858537e-06   1.2099964157130227e-06   -1.0086002428241173e-05
3.3703321907919536e-06   -1.034197232360561e-06   -1.9588209028142576e-05
3.3703321907919536e-06   -1.034197232360561e-06   -1.9588209028142576e-05
3.3703321907919536e-06   -1.034197232360561e-06   -1.9588209028142576e-05
3.3703321907919536e-06   -1.034197232360561e-06   -1.9588209028142576e-05
-2.459945809734593e-06   1.6971720436856613e-06   -1.150990059289243e-05
-2.459945809734593e-06   1.6971720436856613e-06   -1.150990059289243e-05
-2.459945809734593e-06   1.6971720436856613e-06   -1.150990059289243e-05
-2.459945809734593e-06   1.6971720436856613e-06   -1.150990059289243e-05
3.992204602949788e-09   -6.627167966960154e-08   -1.455839771610852e-05
3.992204602949788e-09   -6.627167966960154e-08   -1.455839771610852e-05
3.992204602949788e-09   -6.627167966960154e-08   -1.455839771610852e-05
3.992204602949788e-09   -6.627167966960154e-08   -1.455839771610852e-05
-2.4599458097345796e-06   -1.034197232360561e-06   -2.1227030593770212e-05
-2.4599458097345796e-06   -1.034197232360561e-06   -2.1227030593770212e-05
-2.4599458097345796e-06   -1.034197232360561e-06   -2.1227030593770212e-05
-2.4599458097345796e-06   -1.034197232360561e-06   -2.1227030593770212e-05
3.3703321907919536e-06   1.6971720436854444e-06   -9.871079027264822e-06
3.3703321907919536e-06   1.6971720436854444e-06   -9.871079027264822e-06
3.3703321907919536e-06   1.6971720436854444e-06   -9.871079027264822e-06
3.3703321907919536e-06   1.6971720436854444e-06   -9.871079027264822e-06
4.81224015244278e-06   3.5479937305835096e-08   -2.1941936833619943e-05
4.81224015244278e-06   3.5479937305835096e-08   -2.1941936833619943e-05
4.81224015244278e-06   3.5479937305835096e-08   -2.1941936833619943e-05
4.81224015244278e-06   3.5479937305835096e-08   -2.1941936833619943e-05
-2.176128033509807e-06   2.560603493452669e-06   -1.180973065738664e-05
-2.176128033509807e-06   2.560603493452669e-06   -1.180973065738664e-05
-2.176128033509807e-06   2.560603493452669e-06   -1.180973065738664e-05
-2.176128033509807e-06   2.560603493452669e-06   -1.180973065738664e-05
6.353968322978873e-07   4.069704277536671e-07   -1.520342559431387e-05
6.353968322978873e-07   4.069704277536671e-07   -1.520342559431387e-05
6.353968322978873e-07   4.069704277536671e-07   -1.520342559431387e-05
6.353968322978873e-07   4.069704277536671e-07   -1.520342559431387e-05
-9.206871504835684e-06   1.7359566004111846e-06   -1.6526981842702624e-05
-9.206871504835684e-06   1.7359566004111846e-06   -1.6526981842702624e-05
-9.206871504835684e-06   1.7359566004111846e-06   -1.6526981842702624e-05
-9.206871504835684e-06   1.7359566004111846e-06   -1.6526981842702624e-05
-9.343248863506146e-06   -8.09303787897668e-07   -1.82814336734719e-05
-9.343248863506146e-06   -8.09303787897668e-07   -1.82814336734719e-05
-9.343248863506146e-06   -8.09303787897668e-07   -1.82814336734719e-05
-9.343248863506146e-06   -8.09303787897668e-07   -1.82814336734719e-05
-8.875995878197276e-06   2.7042319483523095e-06   -1.5528613584407788e-05
-8.875995878197276e-06   2.7042319483523095e-06   -1.5528613584407788e-05
-8.875995878197276e-06   2.7042319483523095e-06   -1.5528613584407788e-05
-8.875995878197276e-06   2.7042319483523095e-06   -1.5528613584407788e-05
-7.596239862618225e-06   -2.6255234648062467e-08   -1.6023247967239507e-05
-7.596239862618225e-06   -2.6255234648062467e-08   -1.6023247967239507e-05
-7.596239862618225e-06   -2.6255234648062467e-08   -1.6023247967239507e-05
-7.596239862618225e-06   -2.6255234648062467e-08   -1.6023247967239507e-05
-8.372948588574993e-06   1.1951647592336589e-06   -1.5461585420307696e-05
-8.372948588574993e-06   1.1951647592336589e-06   -1.5461585420307696e-05
-8.372948588574993e-06   1.1951647592336589e-06   -1.5461585420307696e-05
-8.372948588574993e-06   1.1951647592336589e-06   -1.5461585420307696e-05
-7.596239862618171e-06   2.7042319483523095e-06   -1.389032127460763e-05
-7.596239862618171e-06   2.7042319483523095e-06   -1.389032127460763e-05
-7.596239862618171e-06   2.7042319483523095e-06   -1.389032127460763e-05
-7.596239862618171e-06   2.7042319483523095e-06   -1.389032127460763e-05
-8.875995878197276e-06   -2.6255234648062467e-08   -1.7661540277039774e-05
-8.875995878197276e-06   -2.6255234648062467e-08   -1.7661540277039774e-05
-8.875995878197276e-06   -2.6255234648062467e-08   -1.7661540277039774e-05
-8.875995878197276e-06   -2.6255234648062467e-08   -1.7661540277039774e-05
-8.286430339611908e-06   3.1937010434607716e-06   -1.4410551968802553e-05
-8.286430339611908e-06   3.1937010434607716e-06   -1.4410551968802553e-05
-8.286430339611908e-06   3.1937010434607716e-06   -1.4410551968802553e-05
-8.286430339611908e-06   3.1937010434607716e-06   -1.4410551968802553e-05
-6.264759943921342e-06   4.1699018401794054e-07   -1.611397611262107e-05
-6.264759943921342e-06   4.1699018401794054e-07   -1.611397611262107e-05
-6.264759943921342e-06   4.1699018401794054e-07   -1.611397611262107e-05
-6.264759943921342e-06   4.1699018401794054e-07   -1.611397611262107e-05
-7.610821378713475e-06   1.5973472440725719e-06   -1.4578754624000882e-05
-7.610821378713475e-06   1.5973472440725719e-06   -1.4578754624000882e-05
-7.610821378713475e-06   1.5973472440725719e-06   -1.4578754624000882e-05
-7.610821378713475e-06   1.5973472440725719e-06   -1.4578754624000882e-05
-6.264759943921342e-06   3.1937010434607716e-06   -1.274452545313681e-05
-6.264759943921342e-06   3.1937010434607716e-06   -1.274452545313681e-05
-6.264759943921342e-06   3.1937010434607716e-06   -1.274452545313681e-05
-6.264759943921342e-06   3.1937010434607716e-06   -1.274452545313681e-05
-8.286430339611908e-06   4.169901840181574e-07   -1.7780002628286812e-05
-8.286430339611908e-06   4.169901840181574e-07   -1.7780002628286812e-05
-8.286430339611908e-06   4.169901840181574e-07   -1.7780002628286812e-05
-8.286430339611908e-06   4.169901840181574e-07   -1.7780002628286812e-05
-7.826945967131697e-06   3.96916419045934e-06   -1.3371480065961462e-05
-7.826945967131697e-06   3.96916419045934e-06   -1.3371480065961462e-05
-7.826945967131697e-06   3.96916419045934e-06   -1.3371480065961462e-05
-7.826945967131697e-06   3.96916419045934e-06   -1.3371480065961462e-05
-4.620809301701927e-06   1.3009151450865328e-06   -1.711409174778725e-05
-4.620809301701927e-06   1.3009151450865328e-06   -1.711409174778725e-05
-4.620809301701927e-06   1.3009151450865328e-06   -1.711409174778725e-05
-4.620809301701927e-06   1.3009151450865328e-06   -1.711409174778725e-05
-6.658549779500601e-06   1.983128283978815e-06   -1.4127185501458279e-05
-6.658549779500601e-06   1.983128283978815e-06   -1.4127185501458279e-05
-6.658549779500601e-06   1.983128283978815e-06   -1.4127185501458279e-05
-6.658549779500601e-06   1.983128283978815e-06   -1.4127185501458279e-05
-9.343248863506092e-06   9.979788442430505e-07   -3.006184129163462e-05
-9.343248863506092e-06   9.979788442430505e-07   -3.006184129163462e-05
-9.343248863506092e-06   9.979788442430505e-07   -3.006184129163462e-05
-9.343248863506092e-06   9.979788442430505e-07   -3.006184129163462e-05
-1.077510564653673e-05   -1.743838449355748e-07   -3.3151686876859625e-05
-1.077510564653673e-05   -1.743838449355748e-07   -3.3151686876859625e-05
-1.077510564653673e-05   -1.743838449355748e-07   -3.3151686876859625e-05
-1.077510564653673e-05   -1.743838449355748e-07   -3.3151686876859625e-05
-1.0397867448546386e-05   2.1083924591524302e-06   -3.0084052905108454e-05
-1.0397867448546386e-05   2.1083924591524302e-06   -3.0084052905108454e-05
-1.0397867448546386e-05   2.1083924591524302e-06   -3.0084052905108454e-05
-1.0397867448546386e-05   2.1083924591524302e-06   -3.0084052905108454e-05
-8.875995878197303e-06   8.138104485519177e-07   -3.184375631599647e-05
-8.875995878197303e-06   8.138104485519177e-07   -3.184375631599647e-05
-8.875995878197303e-06   8.138104485519177e-07   -3.184375631599647e-05
-8.875995878197303e-06   8.138104485519177e-07   -3.184375631599647e-05
-9.733369122602753e-06   1.153595325404039e-06   -3.061867183476577e-05
-9.733369122602753e-06   1.153595325404039e-06   -3.061867183476577e-05
-9.733369122602753e-06   1.153595325404039e-06   -3.061867183476577e-05
-9.733369122602753e-06   1.153595325404039e-06   -3.061867183476577e-05
-8.875995878197276e-06   2.1083924591524302e-06   -2.93073036987478e-05
-8.875995878197276e-06   2.1083924591524302e-06   -2.93073036987478e-05
-8.875995878197276e-06   2.1083924591524302e-06   -2.93073036987478e-05
-8.875995878197276e-06   2.1083924591524302e-06   -2.93073036987478e-05
-1.0397867448546372e-05   8.138104485519177e-07   -3.262050552235669e-05
-1.0397867448546372e-05   8.138104485519177e-07   -3.262050552235669e-05
-1.0397867448546372e-05   8.138104485519177e-07   -3.262050552235669e-05
-1.0397867448546372e-05   8.138104485519177e-07   -3.262050552235669e-05
-1.000549680791868e-05   3.1411106586991255e-06   -2.983182437379722e-05
-1.000549680791868e-05   3.1411106586991255e-06   -2.983182437379722e-05
-1.000549680791868e-05   3.1411106586991255e-06   -2.983182437379722e-05
-1.000549680791868e-05   3.1411106586991255e-06   -2.983182437379722e-05
-8.286430339611908e-06   1.7654089880510346e-06   -3.18715141519196e-05
-8.286430339611908e-06   1.7654089880510346e-06   -3.18715141519196e-05
-8.286430339611908e-06   1.7654089880510346e-06   -3.18715141519196e-05
-8.286430339611908e-06   1.7654089880510346e-06   -3.18715141519196e-05
-9.35538100713608e-06   1.9505250632681666e-06   -3.020099935117617e-05
-9.35538100713608e-06   1.9505250632681666e-06   -3.020099935117617e-05
-9.35538100713608e-06   1.9505250632681666e-06   -3.020099935117617e-05
-9.35538100713608e-06   1.9505250632681666e-06   -3.020099935117617e-05
-8.286430339611908e-06   3.1411106586991255e-06   -2.9006403371408364e-05
-8.286430339611908e-06   3.1411106586991255e-06   -2.9006403371408364e-05
-8.286430339611908e-06   3.1411106586991255e-06   -2.9006403371408364e-05
-8.286430339611908e-06   3.1411106586991255e-06   -2.9006403371408364e-05
-1.0005496807918653e-05   1.7654089880510346e-06   -3.269693515430824e-05
-1.0005496807918653e-05   1.7654089880510346e-06   -3.269693515430824e-05
-1.0005496807918653e-05   1.7654089880510346e-06   -3.269693515430824e-05
-1.0005496807918653e-05   1.7654089880510346e-06   -3.269693515430824e-05
-9.636056978890085e-06   4.288841649026159e-06   -3.0325977140766296e-05
-9.636056978890085e-06   4.288841649026159e-06   -3.0325977140766296e-05
-9.636056978890085e-06   4.288841649026159e-06   -3.0325977140766296e-05
-9.636056978890085e-06   4.288841649026159e-06   -3.0325977140766296e-05
-7.826945967131751e-06   2.852225095252136e-06   -3.247919222809875e-05
-7.826945967131751e-06   2.852225095252136e-06   -3.247919222809875e-05
-7.826945967131751e-06   2.852225095252136e-06   -3.247919222809875e-05
-7.826945967131751e-06   2.852225095252136e-06   -3.247919222809875e-05
-9.022943205205402e-06   2.786718973715697e-06   -3.0446559825054206e-05
-9.022943205205402e-06   2.786718973715697e-06   -3.0446559825054206e-05
-9.022943205205402e-06   2.786718973715697e-06   -3.0446559825054206e-05
-9.022943205205402e-06   2.786718973715697e-06   -3.0446559825054206e-05
-1.0775105646536703e-05   5.728485532356057e-07   -3.5011997242713044e-05
-1.0775105646536703e-05   5.728485532356057e-07   -3.5011997242713044e-05
-1.0775105646536703e-05   5.728485532356057e-07   -3.5011997242713044e-05
-1.0775105646536703e-05   5.728485532356057e-07   -3.5011997242713044e-05
-1.2281524763799778e-05   8.207857206880657e-07   -3.737393347101343e-05
-1.2281524763799778e-05   8.207857206880657e-07   -3.737393347101343e-05
-1.2281524763799778e-05   8.207857206880657e-07   -3.737393347101343e-05
-1.2281524763799778e-05   8.207857206880657e-07   -3.737393347101343e-05
-1.1910859071598322e-05   1.7040584867509742e-06   -3.447198870253955e-05
-1.1910859071598322e-05   1.7040584867509742e-06   -3.447198870253955e-05
-1.1910859071598322e-05   1.7040584867509742e-06   -3.447198870253955e-05
-1.1910859071598322e-05   1.7040584867509742e-06   -3.447198870253955e-05
-1.0397867448546372e-05   1.8424087951560923e-06   -3.707665159266883e-05
-1.0397867448546372e-05   1.8424087951560923e-06   -3.707665159266883e-05
-1.0397867448546372e-05   1.8424087951560923e-06   -3.707665159266883e-05
-1.0397867448546372e-05   1.8424087951560923e-06   -3.707665159266883e-05
-1.127305561911491e-05   1.3942196924912435e-06   -3.534909118012292e-05
-1.127305561911491e-05   1.3942196924912435e-06   -3.534909118012292e-05
-1.127305561911491e-05   1.3942196924912435e-06   -3.534909118012292e-05
-1.127305561911491e-05   1.3942196924912435e-06   -3.534909118012292e-05
-1.0397867448546345e-05   1.704058486751191e-06   -3.455499888758236e-05
-1.0397867448546345e-05   1.704058486751191e-06   -3.455499888758236e-05
-1.0397867448546345e-05   1.704058486751191e-06   -3.455499888758236e-05
-1.0397867448546345e-05   1.704058486751191e-06   -3.455499888758236e-05
-1.1910859071598342e-05   1.8424087951560923e-06   -3.6993641407626044e-05
-1.1910859071598342e-05   1.8424087951560923e-06   -3.6993641407626044e-05
-1.1910859071598342e-05   1.8424087951560923e-06   -3.6993641407626044e-05
-1.1910859071598342e-05   1.8424087951560923e-06   -3.6993641407626044e-05
-1.152089572106422e-05   2.8451676631826173e-06   -3.457180763372656e-05
-1.152089572106422e-05   2.8451676631826173e-06   -3.457180763372656e-05
-1.152089572106422e-05   2.8451676631826173e-06   -3.457180763372656e-05
-1.152089572106422e-05   2.8451676631826173e-06   -3.457180763372656e-05
-1.000549680791868e-05   2.8864519183331716e-06   -3.712224304205922e-05
-1.000549680791868e-05   2.8864519183331716e-06   -3.712224304205922e-05
-1.000549680791868e-05   2.8864519183331716e-06   -3.712224304205922e-05
-1.000549680791868e-05   2.8864519183331716e-06   -3.712224304205922e-05
-1.0962158598047069e-05   2.2683197121843926e-06   -3.515692740148991e-05
-1.0962158598047069e-05   2.2683197121843926e-06   -3.515692740148991e-05
-1.0962158598047069e-05   2.2683197121843926e-06   -3.515692740148991e-05
-1.0962158598047069e-05   2.2683197121843926e-06   -3.515692740148991e-05
-1.0005496807918653e-05   2.845167663182834e-06   -3.4596578186816586e-05
-1.0005496807918653e-05   2.845167663182834e-06   -3.4596578186816586e-05
-1.0005496807918653e-05   2.845167663182834e-06   -3.4596578186816586e-05
-1.0005496807918653e-05   2.845167663182834e-06   -3.4596578186816586e-05
-1.152089572106422e-05   2.8864519183331716e-06   -3.7097472488969e-05
-1.152089572106422e-05   2.8864519183331716e-06   -3.7097472488969e-05
-1.152089572106422e-05   2.8864519183331716e-06   -3.7097472488969e-05
-1.152089572106422e-05   2.8864519183331716e-06   -3.7097472488969e-05
-1.1153135250923476e-05   4.003510380282344e-06   -3.524284438229954e-05
-1.1153135250923476e-05   4.003510380282344e-06   -3.524284438229954e-05
-1.1153135250923476e-05   4.003510380282344e-06   -3.524284438229954e-05
-1.1153135250923476e-05   4.003510380282344e-06   -3.524284438229954e-05
-9.636056978890099e-06   3.9449627535484075e-06   -3.773617959298127e-05
-9.636056978890099e-06   3.9449627535484075e-06   -3.773617959298127e-05
-9.636056978890099e-06   3.9449627535484075e-06   -3.773617959298127e-05
-9.636056978890099e-06   3.9449627535484075e-06   -3.773617959298127e-05
-1.0676111031117503e-05   3.1546588635422874e-06   -3.5528573838598874e-05
-1.0676111031117503e-05   3.1546588635422874e-06   -3.5528573838598874e-05
-1.0676111031117503e-05   3.1546588635422874e-06   -3.5528573838598874e-05
-1.0676111031117503e-05   3.1546588635422874e-06   -3.5528573838598874e-05
-1.2281524763799736e-05   2.464618334698746e-07   -3.020481432323952e-05
-1.2281524763799736e-05   2.464618334698746e-07   -3.020481432323952e-05
-1.2281524763799736e-05   2.464618334698746e-07   -3.020481432323952e-05
-1.2281524763799736e-05   2.464618334698746e-07   -3.020481432323952e-05
-1.3873173764281305e-05   1.8237779873221064e-06   -3.191117296506417e-05
-1.3873173764281305e-05   1.8237779873221064e-06   -3.191117296506417e-05
-1.3873173764281305e-05   1.8237779873221064e-06   -3.191117296506417e-05
-1.3873173764281305e-05   1.8237779873221064e-06   -3.191117296506417e-05
-1.3424465148962003e-05   1.3424039701011737e-06   -2.8876017077438692e-05
-1.3424465148962003e-05   1.3424039701011737e-06   -2.8876017077438692e-05
-1.3424465148962003e-05   1.3424039701011737e-06   -2.8876017077438692e-05
-1.3424465148962003e-05   1.3424039701011737e-06   -2.8876017077438692e-05
-1.1910859071598322e-05   2.8489782572535885e-06   -3.230263844533609e-05
-1.1910859071598322e-05   2.8489782572535885e-06   -3.230263844533609e-05
-1.1910859071598322e-05   2.8489782572535885e-06   -3.230263844533609e-05
-1.1910859071598322e-05   2.8489782572535885e-06   -3.230263844533609e-05
-1.2772986286286079e-05   1.6795176341333467e-06   -3.0164083380318225e-05
-1.2772986286286079e-05   1.6795176341333467e-06   -3.0164083380318225e-05
-1.2772986286286079e-05   1.6795176341333467e-06   -3.0164083380318225e-05
-1.2772986286286079e-05   1.6795176341333467e-06   -3.0164083380318225e-05
-1.1910859071598302e-05   1.3424039701011737e-06   -2.9779961649730076e-05
-1.1910859071598302e-05   1.3424039701011737e-06   -2.9779961649730076e-05
-1.1910859071598302e-05   1.3424039701011737e-06   -2.9779961649730076e-05
-1.1910859071598302e-05   1.3424039701011737e-06   -2.9779961649730076e-05
-1.3424465148962003e-05   2.8489782572535885e-06   -3.1398693873044715e-05
-1.3424465148962003e-05   2.8489782572535885e-06   -3.1398693873044715e-05
-1.3424465148962003e-05   2.8489782572535885e-06   -3.1398693873044715e-05
-1.3424465148962003e-05   2.8489782572535885e-06   -3.1398693873044715e-05
-1.2844108917838535e-05   2.3749876334067804e-06   -2.9000285504358816e-05
-1.2844108917838535e-05   2.3749876334067804e-06   -2.9000285504358816e-05
-1.2844108917838535e-05   2.3749876334067804e-06   -2.9000285504358816e-05
-1.2844108917838535e-05   2.3749876334067804e-06   -2.9000285504358816e-05
-1.15208957210642e-05   3.794587577151537e-06   -3.2057400798562716e-05
-1.15208957210642e-05   3.794587577151537e-06   -3.2057400798562716e-05
-1.15208957210642e-05   3.794587577151537e-06   -3.2057400798562716e-05
-1.15208957210642e-05   3.794587577151537e-06   -3.2057400798562716e-05
-1.2371940474866738e-05   2.4930272566415015e-06   -2.9858056683252884e-05
-1.2371940474866738e-05   2.4930272566415015e-06   -2.9858056683252884e-05
-1.2371940474866738e-05   2.4930272566415015e-06   -2.9858056683252884e-05
-1.2371940474866738e-05   2.4930272566415015e-06   -2.9858056683252884e-05
-1.1520895721064172e-05   2.3749876334069973e-06   -2.9852045470605496e-05
-1.1520895721064172e-05   2.3749876334069973e-06   -2.9852045470605496e-05
-1.1520895721064172e-05   2.3749876334069973e-06   -2.9852045470605496e-05
-1.1520895721064172e-05   2.3749876334069973e-06   -2.9852045470605496e-05
-1.2844108917838562e-05   3.794587577151537e-06   -3.1205640832316e-05
-1.2844108917838562e-05   3.794587577151537e-06   -3.1205640832316e-05
-1.2844108917838562e-05   3.794587577151537e-06   -3.1205640832316e-05
-1.2844108917838562e-05   3.794587577151537e-06   -3.1205640832316e-05
-1.238830838642198e-05   3.542339345057738e-06   -2.9804596505117573e-05
-1.238830838642198e-05   3.542339345057738e-06   -2.9804596505117573e-05
-1.238830838642198e-05   3.542339345057738e-06   -2.9804596505117573e-05
-1.238830838642198e-05   3.542339345057738e-06   -2.9804596505117573e-05
-1.1153135250923476e-05   4.854083142124361e-06   -3.265026467585485e-05
-1.1153135250923476e-05   4.854083142124361e-06   -3.265026467585485e-05
-1.1153135250923476e-05   4.854083142124361e-06   -3.265026467585485e-05
-1.1153135250923476e-05   4.854083142124361e-06   -3.265026467585485e-05
-1.2071965224693175e-05   3.3242131020003174e-06   -3.020095936216396e-05
-1.2071965224693175e-05   3.3242131020003174e-06   -3.020095936216396e-05
-1.2071965224693175e-05   3.3242131020003174e-06   -3.020095936216396e-05
-1.2071965224693175e-05   3.3242131020003174e-06   -3.020095936216396e-05
-1.3873173764281251e-05   3.435540610054969e-07   -1.6095486050429547e-05
-1.3873173764281251e-05   3.435540610054969e-07   -1.6095486050429547e-05
-1.3873173764281251e-05   3.435540610054969e-07   -1.6095486050429547e-05
-1.3873173764281251e-05   3.435540610054969e-07   -1.6095486050429547e-05
-1.6810944515938548e-05   3.065686609040252e-06   -1.935849110770412e-05
-1.6810944515938548e-05   3.065686609040252e-06   -1.935849110770412e-05
-1.6810944515938548e-05   3.065686609040252e-06   -1.935849110770412e-05
-1.6810944515938548e-05   3.065686609040252e-06   -1.935849110770412e-05
-1.521411600005805e-05   1.2099964157128058e-06   -1.3264644022538451e-05
-1.521411600005805e-05   1.2099964157128058e-06   -1.3264644022538451e-05
-1.521411600005805e-05   1.2099964157128058e-06   -1.3264644022538451e-05
-1.521411600005805e-05   1.2099964157128058e-06   -1.3264644022538451e-05
-1.342446514896199e-05   3.995341493062254e-06   -1.7918602487441366e-05
-1.342446514896199e-05   3.995341493062254e-06   -1.7918602487441366e-05
-1.342446514896199e-05   3.995341493062254e-06   -1.7918602487441366e-05
-1.342446514896199e-05   3.995341493062254e-06   -1.7918602487441366e-05
-1.423046798367728e-05   2.2658744324556904e-06   -1.5537584193218957e-05
-1.423046798367728e-05   2.2658744324556904e-06   -1.5537584193218957e-05
-1.423046798367728e-05   2.2658744324556904e-06   -1.5537584193218957e-05
-1.423046798367728e-05   2.2658744324556904e-06   -1.5537584193218957e-05
-1.3424465148961963e-05   1.2099964157128058e-06   -1.493585106894773e-05
-1.3424465148961963e-05   1.2099964157128058e-06   -1.493585106894773e-05
-1.3424465148961963e-05   1.2099964157128058e-06   -1.493585106894773e-05
-1.3424465148961963e-05   1.2099964157128058e-06   -1.493585106894773e-05
-1.5214116000058023e-05   3.995341493062254e-06   -1.624739544103175e-05
-1.5214116000058023e-05   3.995341493062254e-06   -1.624739544103175e-05
-1.5214116000058023e-05   3.995341493062254e-06   -1.624739544103175e-05
-1.5214116000058023e-05   3.995341493062254e-06   -1.624739544103175e-05
-1.391531973885134e-05   1.6971720436854444e-06   -1.304438175732728e-05
-1.391531973885134e-05   1.6971720436854444e-06   -1.304438175732728e-05
-1.391531973885134e-05   1.6971720436854444e-06   -1.304438175732728e-05
-1.391531973885134e-05   1.6971720436854444e-06   -1.304438175732728e-05
-1.2844108917838535e-05   4.4209840627776505e-06   -1.6464020337137136e-05
-1.2844108917838535e-05   4.4209840627776505e-06   -1.6464020337137136e-05
-1.2844108917838535e-05   4.4209840627776505e-06   -1.6464020337137136e-05
-1.2844108917838535e-05   4.4209840627776505e-06   -1.6464020337137136e-05
-1.3549913765929345e-05   2.6965345505565452e-06   -1.425300921631986e-05
-1.3549913765929345e-05   2.6965345505565452e-06   -1.425300921631986e-05
-1.3549913765929345e-05   2.6965345505565452e-06   -1.425300921631986e-05
-1.3549913765929345e-05   2.6965345505565452e-06   -1.425300921631986e-05
-1.2844108917838522e-05   1.6971720436854444e-06   -1.467866896878267e-05
-1.2844108917838522e-05   1.6971720436854444e-06   -1.467866896878267e-05
-1.2844108917838522e-05   1.6971720436854444e-06   -1.467866896878267e-05
-1.2844108917838522e-05   1.6971720436854444e-06   -1.467866896878267e-05
-1.391531973885134e-05   4.4209840627776505e-06   -1.4829733125681856e-05
-1.391531973885134e-05   4.4209840627776505e-06   -1.4829733125681856e-05
-1.391531973885134e-05   4.4209840627776505e-06   -1.4829733125681856e-05
-1.391531973885134e-05   4.4209840627776505e-06   -1.4829733125681856e-05
-1.2326290346677775e-05   2.560603493452669e-06   -1.3452521723575752e-05
-1.2326290346677775e-05   2.560603493452669e-06   -1.3452521723575752e-05
-1.2326290346677775e-05   2.560603493452669e-06   -1.3452521723575752e-05
-1.2326290346677775e-05   2.560603493452669e-06   -1.3452521723575752e-05
-1.238830838642194e-05   5.079934322245504e-06   -1.4860756821277743e-05
-1.238830838642194e-05   5.079934322245504e-06   -1.4860756821277743e-05
-1.238830838642194e-05   5.079934322245504e-06   -1.4860756821277743e-05
-1.238830838642194e-05   5.079934322245504e-06   -1.4860756821277743e-05
-1.2546904878601328e-05   3.0443028238612627e-06   -1.3375050435281697e-05
-1.2546904878601328e-05   3.0443028238612627e-06   -1.3375050435281697e-05
-1.2546904878601328e-05   3.0443028238612627e-06   -1.3375050435281697e-05
-1.2546904878601328e-05   3.0443028238612627e-06   -1.3375050435281697e-05
8.183374358108897e-06   -8.093037878974512e-07   -8.356214619778275e-06
8.183374358108897e-06   -8.093037878974512e-07   -8.356214619778275e-06
8.183374358108897e-06   -8.093037878974512e-07   -8.356214619778275e-06
8.183374358108897e-06   -8.093037878974512e-07   -8.356214619778275e-06
8.4197588013049e-07   -3.3987595462981954e-06   -2.214555220478244e-05
8.4197588013049e-07   -3.3987595462981954e-06   -2.214555220478244e-05
8.4197588013049e-07   -3.3987595462981954e-06   -2.214555220478244e-05
8.4197588013049e-07   -3.3987595462981954e-06   -2.214555220478244e-05
1.4823917272439554e-06   -2.6255234647845627e-08   -9.23463077419904e-06
1.4823917272439554e-06   -2.6255234647845627e-08   -9.23463077419904e-06
1.4823917272439554e-06   -2.6255234647845627e-08   -9.23463077419904e-06
1.4823917272439554e-06   -2.6255234647845627e-08   -9.23463077419904e-06
9.974843163790248e-06   -2.7933599569412732e-06   -2.172845366840042e-05
9.974843163790248e-06   -2.7933599569412732e-06   -2.172845366840042e-05
9.974843163790248e-06   -2.7933599569412732e-06   -2.172845366840042e-05
9.974843163790248e-06   -2.7933599569412732e-06   -2.172845366840042e-05
4.929678817163565e-06   -1.4186701246434851e-06   -1.414466032340127e-05
4.929678817163565e-06   -1.4186701246434851e-06   -1.414466032340127e-05
4.929678817163565e-06   -1.4186701246434851e-06   -1.414466032340127e-05
4.929678817163565e-06   -1.4186701246434851e-06   -1.414466032340127e-05
9.974843163790248e-06   -2.6255234647845627e-08   -7.574367940823201e-06
9.974843163790248e-06   -2.6255234647845627e-08   -7.574367940823201e-06
9.974843163790248e-06   -2.6255234647845627e-08   -7.574367940823201e-06
9.974843163790248e-06   -2.6255234647845627e-08   -7.574367940823201e-06
1.4823917272439283e-06   -2.7933599569412732e-06   -2.3388716501776584e-05
1.4823917272439283e-06   -2.7933599569412732e-06   -2.3388716501776584e-05
1.4823917272439283e-06   -2.7933599569412732e-06   -2.3388716501776584e-05
1.4823917272439283e-06   -2.7933599569412732e-06   -2.3388716501776584e-05
2.237473649378737e-06   4.1699018401794054e-07   -9.306320319580263e-06
2.237473649378737e-06   4.1699018401794054e-07   -9.306320319580263e-06
2.237473649378737e-06   4.1699018401794054e-07   -9.306320319580263e-06
2.237473649378737e-06   4.1699018401794054e-07   -9.306320319580263e-06
1.1488637628674669e-05   -2.389427314452913e-06   -2.304107645265764e-05
1.1488637628674669e-05   -2.389427314452913e-06   -2.304107645265764e-05
1.1488637628674669e-05   -2.389427314452913e-06   -2.304107645265764e-05
1.1488637628674669e-05   -2.389427314452913e-06   -2.304107645265764e-05
6.0657149389303e-06   -1.1355832085740807e-06   -1.4755178433278546e-05
6.0657149389303e-06   -1.1355832085740807e-06   -1.4755178433278546e-05
6.0657149389303e-06   -1.1355832085740807e-06   -1.4755178433278546e-05
6.0657149389303e-06   -1.1355832085740807e-06   -1.4755178433278546e-05
1.1488637628674669e-05   4.1699018401794054e-07   -7.622469820497599e-06
1.1488637628674669e-05   4.1699018401794054e-07   -7.622469820497599e-06
1.1488637628674669e-05   4.1699018401794054e-07   -7.622469820497599e-06
1.1488637628674669e-05   4.1699018401794054e-07   -7.622469820497599e-06
2.237473649378764e-06   -2.389427314452913e-06   -2.4724926951740032e-05
2.237473649378764e-06   -2.389427314452913e-06   -2.4724926951740032e-05
2.237473649378764e-06   -2.389427314452913e-06   -2.4724926951740032e-05
2.237473649378764e-06   -2.389427314452913e-06   -2.4724926951740032e-05
2.858696326715559e-06   1.3009151450865328e-06   -1.0199823267088848e-05
2.858696326715559e-06   1.3009151450865328e-06   -1.0199823267088848e-05
2.858696326715559e-06   1.3009151450865328e-06   -1.0199823267088848e-05
2.858696326715559e-06   1.3009151450865328e-06   -1.0199823267088848e-05
1.3307125254821597e-05   -1.3719335943999326e-06   -2.601016223690699e-05
1.3307125254821597e-05   -1.3719335943999326e-06   -2.601016223690699e-05
1.3307125254821597e-05   -1.3719335943999326e-06   -2.601016223690699e-05
1.3307125254821597e-05   -1.3719335943999326e-06   -2.601016223690699e-05
6.968737018851458e-06   -7.195919885974022e-07   -1.5837586807105502e-05
6.968737018851458e-06   -7.195919885974022e-07   -1.5837586807105502e-05
6.968737018851458e-06   -7.195919885974022e-07   -1.5837586807105502e-05
6.968737018851458e-06   -7.195919885974022e-07   -1.5837586807105502e-05
8.4197588013049e-07   -1.7438384493579165e-07   -2.4076723664699065e-05
8.4197588013049e-07   -1.7438384493579165e-07   -2.4076723664699065e-05
8.4197588013049e-07   -1.7438384493579165e-07   -2.4076723664699065e-05
8.4197588013049e-07   -1.7438384493579165e-07   -2.4076723664699065e-05
-7.719458115548546e-06   -1.3430486347375172e-06   -3.9046979198045177e-05
-7.719458115548546e-06   -1.3430486347375172e-06   -3.9046979198045177e-05
-7.719458115548546e-06   -1.3430486347375172e-06   -3.9046979198045177e-05
-7.719458115548546e-06   -1.3430486347375172e-06   -3.9046979198045177e-05
-7.15797443606317e-06   8.138104485521346e-07   -2.4212739803576057e-05
-7.15797443606317e-06   8.138104485521346e-07   -2.4212739803576057e-05
-7.15797443606317e-06   8.138104485521346e-07   -2.4212739803576057e-05
-7.15797443606317e-06   8.138104485521346e-07   -2.4212739803576057e-05
1.4823917272439283e-06   -5.126778688147211e-07   -3.7817457085334474e-05
1.4823917272439283e-06   -5.126778688147211e-07   -3.7817457085334474e-05
1.4823917272439283e-06   -5.126778688147211e-07   -3.7817457085334474e-05
1.4823917272439283e-06   -5.126778688147211e-07   -3.7817457085334474e-05
-3.065817638202077e-06   -4.9693591045504165e-08   -3.0514898709585957e-05
-3.065817638202077e-06   -4.9693591045504165e-08   -3.0514898709585957e-05
-3.065817638202077e-06   -4.9693591045504165e-08   -3.0514898709585957e-05
-3.065817638202077e-06   -4.9693591045504165e-08   -3.0514898709585957e-05
1.4823917272439554e-06   8.138104485519177e-07   -2.341684681315579e-05
1.4823917272439554e-06   8.138104485519177e-07   -2.341684681315579e-05
1.4823917272439554e-06   8.138104485519177e-07   -2.341684681315579e-05
1.4823917272439554e-06   8.138104485519177e-07   -2.341684681315579e-05
-7.15797443606317e-06   -5.126778688147211e-07   -3.8613350075754685e-05
-7.15797443606317e-06   -5.126778688147211e-07   -3.8613350075754685e-05
-7.15797443606317e-06   -5.126778688147211e-07   -3.8613350075754685e-05
-7.15797443606317e-06   -5.126778688147211e-07   -3.8613350075754685e-05
-6.593276852765982e-06   1.7654089880510346e-06   -2.424944268415697e-05
-6.593276852765982e-06   1.7654089880510346e-06   -2.424944268415697e-05
-6.593276852765982e-06   1.7654089880510346e-06   -2.424944268415697e-05
-6.593276852765982e-06   1.7654089880510346e-06   -2.424944268415697e-05
2.237473649378737e-06   3.4605758647793076e-07   -3.811574934678761e-05
2.237473649378737e-06   3.4605758647793076e-07   -3.811574934678761e-05
2.237473649378737e-06   3.4605758647793076e-07   -3.811574934678761e-05
2.237473649378737e-06   3.4605758647793076e-07   -3.811574934678761e-05
-2.5686746758179596e-06   6.325356954027268e-07   -3.0277389003481277e-05
-2.5686746758179596e-06   6.325356954027268e-07   -3.0277389003481277e-05
-2.5686746758179596e-06   6.325356954027268e-07   -3.0277389003481277e-05
-2.5686746758179596e-06   6.325356954027268e-07   -3.0277389003481277e-05
2.237473649378737e-06   1.7654089880510346e-06   -2.3397831843212998e-05
2.237473649378737e-06   1.7654089880510346e-06   -2.3397831843212998e-05
2.237473649378737e-06   1.7654089880510346e-06   -2.3397831843212998e-05
2.237473649378737e-06   1.7654089880510346e-06   -2.3397831843212998e-05
-6.593276852765982e-06   3.4605758647793076e-07   -3.8967360187731523e-05
-6.593276852765982e-06   3.4605758647793076e-07   -3.8967360187731523e-05
-6.593276852765982e-06   3.4605758647793076e-07   -3.8967360187731523e-05
-6.593276852765982e-06   3.4605758647793076e-07   -3.8967360187731523e-05
-6.05381871228314e-06   2.852225095252136e-06   -2.4857393288519897e-05
-6.05381871228314e-06   2.852225095252136e-06   -2.4857393288519897e-05
-6.05381871228314e-06   2.852225095252136e-06   -2.4857393288519897e-05
-6.05381871228314e-06   2.852225095252136e-06   -2.4857393288519897e-05
2.858696326715559e-06   1.363193481346281e-06   -3.881816605184104e-05
2.858696326715559e-06   1.363193481346281e-06   -3.881816605184104e-05
2.858696326715559e-06   1.363193481346281e-06   -3.881816605184104e-05
2.858696326715559e-06   1.363193481346281e-06   -3.881816605184104e-05
-2.014894349132402e-06   1.3889653307842288e-06   -3.071097803509121e-05
-2.014894349132402e-06   1.3889653307842288e-06   -3.071097803509121e-05
-2.014894349132402e-06   1.3889653307842288e-06   -3.071097803509121e-05
-2.014894349132402e-06   1.3889653307842288e-06   -3.071097803509121e-05
-7.719458115548573e-06   8.207857206880657e-07   -2.9148931433205412e-05
-7.719458115548573e-06   8.207857206880657e-07   -2.9148931433205412e-05
-7.719458115548573e-06   8.207857206880657e-07   -2.9148931433205412e-05
-7.719458115548573e-06   8.207857206880657e-07   -2.9148931433205412e-05
-1.6206045437879005e-05   1.034580321504627e-06   -4.316496687659945e-05
-1.6206045437879005e-05   1.034580321504627e-06   -4.316496687659945e-05
-1.6206045437879005e-05   1.034580321504627e-06   -4.316496687659945e-05
-1.6206045437879005e-05   1.034580321504627e-06   -4.316496687659945e-05
-1.5640634751491504e-05   1.8424087951560923e-06   -2.862631650877006e-05
-1.5640634751491504e-05   1.8424087951560923e-06   -2.862631650877006e-05
-1.5640634751491504e-05   1.8424087951560923e-06   -2.862631650877006e-05
-1.5640634751491504e-05   1.8424087951560923e-06   -2.862631650877006e-05
-7.1579744360631835e-06   1.913357737019783e-06   -4.2806653066268865e-05
-7.1579744360631835e-06   1.913357737019783e-06   -4.2806653066268865e-05
-7.1579744360631835e-06   1.913357737019783e-06   -4.2806653066268865e-05
-7.1579744360631835e-06   1.913357737019783e-06   -4.2806653066268865e-05
-1.1613405946461896e-05   1.581997230901003e-06   -3.518211757859977e-05
-1.1613405946461896e-05   1.581997230901003e-06   -3.518211757859977e-05
-1.1613405946461896e-05   1.581997230901003e-06   -3.518211757859977e-05
-1.1613405946461896e-05   1.581997230901003e-06   -3.518211757859977e-05
-7.1579744360631835e-06   1.8424087951560923e-06   -2.8668885873888383e-05
-7.1579744360631835e-06   1.8424087951560923e-06   -2.8668885873888383e-05
-7.1579744360631835e-06   1.8424087951560923e-06   -2.8668885873888383e-05
-7.1579744360631835e-06   1.8424087951560923e-06   -2.8668885873888383e-05
-1.5640634751491504e-05   1.913357737019783e-06   -4.276408370115076e-05
-1.5640634751491504e-05   1.913357737019783e-06   -4.276408370115076e-05
-1.5640634751491504e-05   1.913357737019783e-06   -4.276408370115076e-05
-1.5640634751491504e-05   1.913357737019783e-06   -4.276408370115076e-05
-1.5066049747188256e-05   2.8864519183331716e-06   -2.8700439716056745e-05
-1.5066049747188256e-05   2.8864519183331716e-06   -2.8700439716056745e-05
-1.5066049747188256e-05   2.8864519183331716e-06   -2.8700439716056745e-05
-1.5066049747188256e-05   2.8864519183331716e-06   -2.8700439716056745e-05
-6.593276852765996e-06   2.8436366780848054e-06   -4.2796038729278304e-05
-6.593276852765996e-06   2.8436366780848054e-06   -4.2796038729278304e-05
-6.593276852765996e-06   2.8436366780848054e-06   -4.2796038729278304e-05
-6.593276852765996e-06   2.8436366780848054e-06   -4.2796038729278304e-05
-1.1115992749914277e-05   2.3491928724049104e-06   -3.496151261729049e-05
-1.1115992749914277e-05   2.3491928724049104e-06   -3.496151261729049e-05
-1.1115992749914277e-05   2.3491928724049104e-06   -3.496151261729049e-05
-1.1115992749914277e-05   2.3491928724049104e-06   -3.496151261729049e-05
-6.593276852765996e-06   2.8864519183331716e-06   -2.867475057190781e-05
-6.593276852765996e-06   2.8864519183331716e-06   -2.867475057190781e-05
-6.593276852765996e-06   2.8864519183331716e-06   -2.867475057190781e-05
-6.593276852765996e-06   2.8864519183331716e-06   -2.867475057190781e-05
-1.5066049747188229e-05   2.8436366780848054e-06   -4.28217278734274e-05
-1.5066049747188229e-05   2.8436366780848054e-06   -4.28217278734274e-05
-1.5066049747188229e-05   2.8436366780848054e-06   -4.28217278734274e-05
-1.5066049747188229e-05   2.8436366780848054e-06   -4.28217278734274e-05
-1.4518165826842677e-05   3.9449627535484075e-06   -2.9345384336795744e-05
-1.4518165826842677e-05   3.9449627535484075e-06   -2.9345384336795744e-05
-1.4518165826842677e-05   3.9449627535484075e-06   -2.9345384336795744e-05
-1.4518165826842677e-05   3.9449627535484075e-06   -2.9345384336795744e-05
-6.0538187122831534e-06   3.790006727452189e-06   -4.3359655912070754e-05
-6.0538187122831534e-06   3.790006727452189e-06   -4.3359655912070754e-05
-6.0538187122831534e-06   3.790006727452189e-06   -4.3359655912070754e-05
-6.0538187122831534e-06   3.790006727452189e-06   -4.3359655912070754e-05
-1.065335602094468e-05   3.1280533128120926e-06   -3.529658834885123e-05
-1.065335602094468e-05   3.1280533128120926e-06   -3.529658834885123e-05
-1.065335602094468e-05   3.1280533128120926e-06   -3.529658834885123e-05
-1.065335602094468e-05   3.1280533128120926e-06   -3.529658834885123e-05
-1.6206045437879032e-05   1.8237779873221064e-06   -2.4504283859077365e-05
-1.6206045437879032e-05   1.8237779873221064e-06   -2.4504283859077365e-05
-1.6206045437879032e-05   1.8237779873221064e-06   -2.4504283859077365e-05
-1.6206045437879032e-05   1.8237779873221064e-06   -2.4504283859077365e-05
-2.4593633120535497e-05   3.34286222557819e-06   -3.7572146120551245e-05
-2.4593633120535497e-05   3.34286222557819e-06   -3.7572146120551245e-05
-2.4593633120535497e-05   3.34286222557819e-06   -3.7572146120551245e-05
-2.4593633120535497e-05   3.34286222557819e-06   -3.7572146120551245e-05
-2.394743652485929e-05   2.8489782572535885e-06   -2.3076166490780168e-05
-2.394743652485929e-05   2.8489782572535885e-06   -2.3076166490780168e-05
-2.394743652485929e-05   2.8489782572535885e-06   -2.3076166490780168e-05
-2.394743652485929e-05   2.8489782572535885e-06   -2.3076166490780168e-05
-1.5640634751491504e-05   4.280890016753825e-06   -3.777998316875996e-05
-1.5640634751491504e-05   4.280890016753825e-06   -3.777998316875996e-05
-1.5640634751491504e-05   4.280890016753825e-06   -3.777998316875996e-05
-1.5640634751491504e-05   4.280890016753825e-06   -3.777998316875996e-05
-1.9957710849715407e-05   3.195836674608609e-06   -2.9933824333099556e-05
-1.9957710849715407e-05   3.195836674608609e-06   -2.9933824333099556e-05
-1.9957710849715407e-05   3.195836674608609e-06   -2.9933824333099556e-05
-1.9957710849715407e-05   3.195836674608609e-06   -2.9933824333099556e-05
-1.564063475149153e-05   2.8489782572535885e-06   -2.393531354648033e-05
-1.564063475149153e-05   2.8489782572535885e-06   -2.393531354648033e-05
-1.564063475149153e-05   2.8489782572535885e-06   -2.393531354648033e-05
-1.564063475149153e-05   2.8489782572535885e-06   -2.393531354648033e-05
-2.3947436524859336e-05   4.280890016753825e-06   -3.692083611305994e-05
-2.3947436524859336e-05   4.280890016753825e-06   -3.692083611305994e-05
-2.3947436524859336e-05   4.280890016753825e-06   -3.692083611305994e-05
-2.3947436524859336e-05   4.280890016753825e-06   -3.692083611305994e-05
-2.3173295496756658e-05   3.794587577151537e-06   -2.2861700229139968e-05
-2.3173295496756658e-05   3.794587577151537e-06   -2.2861700229139968e-05
-2.3173295496756658e-05   3.794587577151537e-06   -2.2861700229139968e-05
-2.3173295496756658e-05   3.794587577151537e-06   -2.2861700229139968e-05
-1.5066049747188256e-05   5.1257005713358905e-06   -3.717244427493129e-05
-1.5066049747188256e-05   5.1257005713358905e-06   -3.717244427493129e-05
-1.5066049747188256e-05   5.1257005713358905e-06   -3.717244427493129e-05
-1.5066049747188256e-05   5.1257005713358905e-06   -3.717244427493129e-05
-1.9306225163977745e-05   3.936627459023064e-06   -2.9392041379561716e-05
-1.9306225163977745e-05   3.936627459023064e-06   -2.9392041379561716e-05
-1.9306225163977745e-05   3.936627459023064e-06   -2.9392041379561716e-05
-1.9306225163977745e-05   3.936627459023064e-06   -2.9392041379561716e-05
-1.5066049747188246e-05   3.794587577151537e-06   -2.3660368025650428e-05
-1.5066049747188246e-05   3.794587577151537e-06   -2.3660368025650428e-05
-1.5066049747188246e-05   3.794587577151537e-06   -2.3660368025650428e-05
-1.5066049747188246e-05   3.794587577151537e-06   -2.3660368025650428e-05
-2.3173295496756658e-05   5.1257005713358905e-06   -3.637377647842076e-05
-2.3173295496756658e-05   5.1257005713358905e-06   -3.637377647842076e-05
-2.3173295496756658e-05   5.1257005713358905e-06   -3.637377647842076e-05
-2.3173295496756658e-05   5.1257005713358905e-06   -3.637377647842076e-05
-2.252845274100678e-05   4.854083142124361e-06   -2.3494403757555048e-05
-2.252845274100678e-05   4.854083142124361e-06   -2.3494403757555048e-05
-2.252845274100678e-05   4.854083142124361e-06   -2.3494403757555048e-05
-2.252845274100678e-05   4.854083142124361e-06   -2.3494403757555048e-05
-1.4518165826842677e-05   6.070644952247588e-06   -3.757481903390247e-05
-1.4518165826842677e-05   6.070644952247588e-06   -3.757481903390247e-05
-1.4518165826842677e-05   6.070644952247588e-06   -3.757481903390247e-05
-1.4518165826842677e-05   6.070644952247588e-06   -3.757481903390247e-05
-1.8870594384409686e-05   4.6663698616952656e-06   -2.9478206383626e-05
-1.8870594384409686e-05   4.6663698616952656e-06   -2.9478206383626e-05
-1.8870594384409686e-05   4.6663698616952656e-06   -2.9478206383626e-05
-1.8870594384409686e-05   4.6663698616952656e-06   -2.9478206383626e-05
-2.4593633120535497e-05   3.065686609040252e-06   -1.2673430987584751e-05
-2.4593633120535497e-05   3.065686609040252e-06   -1.2673430987584751e-05
-2.4593633120535497e-05   3.065686609040252e-06   -1.2673430987584751e-05
-2.4593633120535497e-05   3.065686609040252e-06   -1.2673430987584751e-05
-3.415512998960777e-05   5.747579758409206e-06   -2.7000123213083947e-05
-3.415512998960777e-05   5.747579758409206e-06   -2.7000123213083947e-05
-3.415512998960777e-05   5.747579758409206e-06   -2.7000123213083947e-05
-3.415512998960777e-05   5.747579758409206e-06   -2.7000123213083947e-05
-3.237649890496102e-05   3.995341493062254e-06   -7.960276428778737e-06
-3.237649890496102e-05   3.995341493062254e-06   -7.960276428778737e-06
-3.237649890496102e-05   3.995341493062254e-06   -7.960276428778737e-06
-3.237649890496102e-05   3.995341493062254e-06   -7.960276428778737e-06
-2.394743652485929e-05   6.72167262039244e-06   -2.364451240534631e-05
-2.394743652485929e-05   6.72167262039244e-06   -2.364451240534631e-05
-2.394743652485929e-05   6.72167262039244e-06   -2.364451240534631e-05
-2.394743652485929e-05   6.72167262039244e-06   -2.364451240534631e-05
-2.7597829163975263e-05   4.9935960479089575e-06   -1.652367872999642e-05
-2.7597829163975263e-05   4.9935960479089575e-06   -1.652367872999642e-05
-2.7597829163975263e-05   4.9935960479089575e-06   -1.652367872999642e-05
-2.7597829163975263e-05   4.9935960479089575e-06   -1.652367872999642e-05
-2.3947436524859316e-05   3.995341493062254e-06   -9.596075105176697e-06
-2.3947436524859316e-05   3.995341493062254e-06   -9.596075105176697e-06
-2.3947436524859316e-05   3.995341493062254e-06   -9.596075105176697e-06
-2.3947436524859316e-05   3.995341493062254e-06   -9.596075105176697e-06
-3.237649890496091e-05   6.72167262039244e-06   -2.2008713728948132e-05
-3.237649890496091e-05   6.72167262039244e-06   -2.2008713728948132e-05
-3.237649890496091e-05   6.72167262039244e-06   -2.2008713728948132e-05
-3.237649890496091e-05   6.72167262039244e-06   -2.2008713728948132e-05
-3.0906463408449206e-05   4.4209840627776505e-06   -6.530205930675432e-06
-3.0906463408449206e-05   4.4209840627776505e-06   -6.530205930675432e-06
-3.0906463408449206e-05   4.4209840627776505e-06   -6.530205930675432e-06
-3.0906463408449206e-05   4.4209840627776505e-06   -6.530205930675432e-06
-2.3173295496756624e-05   7.070773734920615e-06   -2.1008692920115532e-05
-2.3173295496756624e-05   7.070773734920615e-06   -2.1008692920115532e-05
-2.3173295496756624e-05   7.070773734920615e-06   -2.1008692920115532e-05
-2.3173295496756624e-05   7.070773734920615e-06   -2.1008692920115532e-05
-2.69477512736353e-05   5.431946276062034e-06   -1.3734636816669277e-05
-2.69477512736353e-05   5.431946276062034e-06   -1.3734636816669277e-05
-2.69477512736353e-05   5.431946276062034e-06   -1.3734636816669277e-05
-2.69477512736353e-05   5.431946276062034e-06   -1.3734636816669277e-05
-2.3173295496756658e-05   4.420984062777867e-06   -8.120079733960994e-06
-2.3173295496756658e-05   4.420984062777867e-06   -8.120079733960994e-06
-2.3173295496756658e-05   4.420984062777867e-06   -8.120079733960994e-06
-2.3173295496756658e-05   4.420984062777867e-06   -8.120079733960994e-06
-3.090646340844915e-05   7.070773734920615e-06   -1.94188191168297e-05
-3.090646340844915e-05   7.070773734920615e-06   -1.94188191168297e-05
-3.090646340844915e-05   7.070773734920615e-06   -1.94188191168297e-05
-3.090646340844915e-05   7.070773734920615e-06   -1.94188191168297e-05
-2.916742135930197e-05   5.079934322245721e-06   -5.032185550532921e-06
-2.916742135930197e-05   5.079934322245721e-06   -5.032185550532921e-06
-2.916742135930197e-05   5.079934322245721e-06   -5.032185550532921e-06
-2.916742135930197e-05   5.079934322245721e-06   -5.032185550532921e-06
-2.252845274100678e-05   7.512862040054023e-06   -1.7556889878376735e-05
-2.252845274100678e-05   7.512862040054023e-06   -1.7556889878376735e-05
-2.252845274100678e-05   7.512862040054023e-06   -1.7556889878376735e-05
-2.252845274100678e-05   7.512862040054023e-06   -1.7556889878376735e-05
-2.5565449243993958e-05   5.643401056380868e-06   -1.1373552449860992e-05
-2.5565449243993958e-05   5.643401056380868e-06   -1.1373552449860992e-05
-2.5565449243993958e-05   5.643401056380868e-06   -1.1373552449860992e-05
-2.5565449243993958e-05   5.643401056380868e-06   -1.1373552449860992e-05
2.591626663910648e-05   -3.3987595462981954e-06   -1.7680057959042032e-07
2.591626663910648e-05   -3.3987595462981954e-06   -1.7680057959042032e-07
2.591626663910648e-05   -3.3987595462981954e-06   -1.7680057959042032e-07
2.591626663910648e-05   -3.3987595462981954e-06   -1.7680057959042032e-07
1.1041770778850296e-05   -6.128420260147205e-06   -2.6605423441659957e-05
1.1041770778850296e-05   -6.128420260147205e-06   -2.6605423441659957e-05
1.1041770778850296e-05   -6.128420260147205e-06   -2.6605423441659957e-05
1.1041770778850296e-05   -6.128420260147205e-06   -2.6605423441659957e-05
1.1822753827942677e-05   -2.7933599569412732e-06   -2.9050428434237822e-06
1.1822753827942677e-05   -2.7933599569412732e-06   -2.9050428434237822e-06
1.1822753827942677e-05   -2.7933599569412732e-06   -2.9050428434237822e-06
1.1822753827942677e-05   -2.7933599569412732e-06   -2.9050428434237822e-06
2.7874234852454485e-05   -5.699742989507227e-06   -2.7913681398070687e-05
2.7874234852454485e-05   -5.699742989507227e-06   -2.7913681398070687e-05
2.7874234852454485e-05   -5.699742989507227e-06   -2.7913681398070687e-05
2.7874234852454485e-05   -5.699742989507227e-06   -2.7913681398070687e-05
1.839077952872776e-05   -4.03978745815636e-06   -1.3103895844003295e-05
1.839077952872776e-05   -4.03978745815636e-06   -1.3103895844003295e-05
1.839077952872776e-05   -4.03978745815636e-06   -1.3103895844003295e-05
1.839077952872776e-05   -4.03978745815636e-06   -1.3103895844003295e-05
2.787423485245454e-05   -2.7933599569412732e-06   -1.1612130238842968e-06
2.787423485245454e-05   -2.7933599569412732e-06   -1.1612130238842968e-06
2.787423485245454e-05   -2.7933599569412732e-06   -1.1612130238842968e-06
2.787423485245454e-05   -2.7933599569412732e-06   -1.1612130238842968e-06
1.1822753827942704e-05   -5.699742989507227e-06   -2.9657511217610227e-05
1.1822753827942704e-05   -5.699742989507227e-06   -2.9657511217610227e-05
1.1822753827942704e-05   -5.699742989507227e-06   -2.9657511217610227e-05
1.1822753827942704e-05   -5.699742989507227e-06   -2.9657511217610227e-05
1.2687990675932126e-05   -2.389427314452913e-06   -4.101632543335697e-06
1.2687990675932126e-05   -2.389427314452913e-06   -4.101632543335697e-06
1.2687990675932126e-05   -2.389427314452913e-06   -4.101632543335697e-06
1.2687990675932126e-05   -2.389427314452913e-06   -4.101632543335697e-06
2.9518734097551597e-05   -5.331004710294133e-06   -3.0387925141863662e-05
2.9518734097551597e-05   -5.331004710294133e-06   -3.0387925141863662e-05
2.9518734097551597e-05   -5.331004710294133e-06   -3.0387925141863662e-05
2.9518734097551597e-05   -5.331004710294133e-06   -3.0387925141863662e-05
1.9861313025164293e-05   -3.875632849048311e-06   -1.5165446471298715e-05
1.9861313025164293e-05   -3.875632849048311e-06   -1.5165446471298715e-05
1.9861313025164293e-05   -3.875632849048311e-06   -1.5165446471298715e-05
1.9861313025164293e-05   -3.875632849048311e-06   -1.5165446471298715e-05
2.9518734097551706e-05   -2.389427314452913e-06   -2.3366861058311383e-06
2.9518734097551706e-05   -2.389427314452913e-06   -2.3366861058311383e-06
2.9518734097551706e-05   -2.389427314452913e-06   -2.3366861058311383e-06
2.9518734097551706e-05   -2.389427314452913e-06   -2.3366861058311383e-06
1.26879906759321e-05   -5.331004710293699e-06   -3.2152871579368384e-05
1.26879906759321e-05   -5.331004710293699e-06   -3.2152871579368384e-05
1.26879906759321e-05   -5.331004710293699e-06   -3.2152871579368384e-05
1.26879906759321e-05   -5.331004710293699e-06   -3.2152871579368384e-05
1.340295999637946e-05   -1.3719335943999326e-06   -6.862260816198123e-06
1.340295999637946e-05   -1.3719335943999326e-06   -6.862260816198123e-06
1.340295999637946e-05   -1.3719335943999326e-06   -6.862260816198123e-06
1.340295999637946e-05   -1.3719335943999326e-06   -6.862260816198123e-06
3.142822483666308e-05   -4.165272161028074e-06   -3.522836574336072e-05
3.142822483666308e-05   -4.165272161028074e-06   -3.522836574336072e-05
3.142822483666308e-05   -4.165272161028074e-06   -3.522836574336072e-05
3.142822483666308e-05   -4.165272161028074e-06   -3.522836574336072e-05
2.0657284613716806e-05   -3.4198748429313357e-06   -1.772403709597597e-05
2.0657284613716806e-05   -3.4198748429313357e-06   -1.772403709597597e-05
2.0657284613716806e-05   -3.4198748429313357e-06   -1.772403709597597e-05
2.0657284613716806e-05   -3.4198748429313357e-06   -1.772403709597597e-05
1.1041770778850323e-05   -1.3430486347375172e-06   -1.801482512728118e-05
1.1041770778850323e-05   -1.3430486347375172e-06   -1.801482512728118e-05
1.1041770778850323e-05   -1.3430486347375172e-06   -1.801482512728118e-05
1.1041770778850323e-05   -1.3430486347375172e-06   -1.801482512728118e-05
-4.700143308478331e-06   -2.86828102235865e-06   -4.516648803873499e-05
-4.700143308478331e-06   -2.86828102235865e-06   -4.516648803873499e-05
-4.700143308478331e-06   -2.86828102235865e-06   -4.516648803873499e-05
-4.700143308478331e-06   -2.86828102235865e-06   -4.516648803873499e-05
-3.973670748892583e-06   -5.126778688147211e-07   -1.838956948761912e-05
-3.973670748892583e-06   -5.126778688147211e-07   -1.838956948761912e-05
-3.973670748892583e-06   -5.126778688147211e-07   -1.838956948761912e-05
-3.973670748892583e-06   -5.126778688147211e-07   -1.838956948761912e-05
1.1822753827942704e-05   -2.272321303209944e-06   -4.366115772170751e-05
1.1822753827942704e-05   -2.272321303209944e-06   -4.366115772170751e-05
1.1822753827942704e-05   -2.272321303209944e-06   -4.366115772170751e-05
1.1822753827942704e-05   -2.272321303209944e-06   -4.366115772170751e-05
3.5867655709290956e-06   -1.386582318586068e-06   -3.0465954017458918e-05
3.5867655709290956e-06   -1.386582318586068e-06   -3.0465954017458918e-05
3.5867655709290956e-06   -1.386582318586068e-06   -3.0465954017458918e-05
3.5867655709290956e-06   -1.386582318586068e-06   -3.0465954017458918e-05
1.1822753827942677e-05   -5.126778688147211e-07   -1.7333783426981943e-05
1.1822753827942677e-05   -5.126778688147211e-07   -1.7333783426981943e-05
1.1822753827942677e-05   -5.126778688147211e-07   -1.7333783426981943e-05
1.1822753827942677e-05   -5.126778688147211e-07   -1.7333783426981943e-05
-3.973670748892569e-06   -2.272321303209944e-06   -4.471694378234447e-05
-3.973670748892569e-06   -2.272321303209944e-06   -4.471694378234447e-05
-3.973670748892569e-06   -2.272321303209944e-06   -4.471694378234447e-05
-3.973670748892569e-06   -2.272321303209944e-06   -4.471694378234447e-05
-3.2800456069832193e-06   3.4605758647793076e-07   -1.862642533936626e-05
-3.2800456069832193e-06   3.4605758647793076e-07   -1.862642533936626e-05
-3.2800456069832193e-06   3.4605758647793076e-07   -1.862642533936626e-05
-3.2800456069832193e-06   3.4605758647793076e-07   -1.862642533936626e-05
1.26879906759321e-05   -1.5438930818273584e-06   -4.410584874324199e-05
1.26879906759321e-05   -1.5438930818273584e-06   -4.410584874324199e-05
1.26879906759321e-05   -1.5438930818273584e-06   -4.410584874324199e-05
1.26879906759321e-05   -1.5438930818273584e-06   -4.410584874324199e-05
4.162929828004006e-06   -8.593331723893895e-07   -3.0308149942357408e-05
4.162929828004006e-06   -8.593331723893895e-07   -3.0308149942357408e-05
4.162929828004006e-06   -8.593331723893895e-07   -3.0308149942357408e-05
4.162929828004006e-06   -8.593331723893895e-07   -3.0308149942357408e-05
1.2687990675932126e-05   3.4605758647793076e-07   -1.7492454938383218e-05
1.2687990675932126e-05   3.4605758647793076e-07   -1.7492454938383218e-05
1.2687990675932126e-05   3.4605758647793076e-07   -1.7492454938383218e-05
1.2687990675932126e-05   3.4605758647793076e-07   -1.7492454938383218e-05
-3.2800456069832193e-06   -1.5438930818273584e-06   -4.523981914422519e-05
-3.2800456069832193e-06   -1.5438930818273584e-06   -4.523981914422519e-05
-3.2800456069832193e-06   -1.5438930818273584e-06   -4.523981914422519e-05
-3.2800456069832193e-06   -1.5438930818273584e-06   -4.523981914422519e-05
-2.628583990839752e-06   1.363193481346281e-06   -1.926081889008454e-05
-2.628583990839752e-06   1.363193481346281e-06   -1.926081889008454e-05
-2.628583990839752e-06   1.363193481346281e-06   -1.926081889008454e-05
-2.628583990839752e-06   1.363193481346281e-06   -1.926081889008454e-05
1.340295999637946e-05   -6.272456897272495e-07   -4.47857953661392e-05
1.340295999637946e-05   -6.272456897272495e-07   -4.47857953661392e-05
1.340295999637946e-05   -6.272456897272495e-07   -4.47857953661392e-05
1.340295999637946e-05   -6.272456897272495e-07   -4.47857953661392e-05
4.882099256438983e-06   -2.0899974220896234e-07   -3.08353083680834e-05
4.882099256438983e-06   -2.0899974220896234e-07   -3.08353083680834e-05
4.882099256438983e-06   -2.0899974220896234e-07   -3.08353083680834e-05
4.882099256438983e-06   -2.0899974220896234e-07   -3.08353083680834e-05
-4.7001433084783035e-06   1.034580321504627e-06   -2.3176228998898372e-05
-4.7001433084783035e-06   1.034580321504627e-06   -2.3176228998898372e-05
-4.7001433084783035e-06   1.034580321504627e-06   -2.3176228998898372e-05
-4.7001433084783035e-06   1.034580321504627e-06   -2.3176228998898372e-05
-2.016476928073504e-05   5.254300980907407e-07   -4.925609575337443e-05
-2.016476928073504e-05   5.254300980907407e-07   -4.925609575337443e-05
-2.016476928073504e-05   5.254300980907407e-07   -4.925609575337443e-05
-2.016476928073504e-05   5.254300980907407e-07   -4.925609575337443e-05
-1.938285329946786e-05   1.913357737019783e-06   -2.301393074127453e-05
-1.938285329946786e-05   1.913357737019783e-06   -2.301393074127453e-05
-1.938285329946786e-05   1.913357737019783e-06   -2.301393074127453e-05
-1.938285329946786e-05   1.913357737019783e-06   -2.301393074127453e-05
-3.973670748892569e-06   1.1949272984510678e-06   -4.826484339575898e-05
-3.973670748892569e-06   1.1949272984510678e-06   -4.826484339575898e-05
-3.973670748892569e-06   1.1949272984510678e-06   -4.826484339575898e-05
-3.973670748892569e-06   1.1949272984510678e-06   -4.826484339575898e-05
-1.1972894313463877e-05   1.4186509369785733e-06   -3.506703830458998e-05
-1.1972894313463877e-05   1.4186509369785733e-06   -3.506703830458998e-05
-1.1972894313463877e-05   1.4186509369785733e-06   -3.506703830458998e-05
-1.1972894313463877e-05   1.4186509369785733e-06   -3.506703830458998e-05
-3.973670748892583e-06   1.913357737019783e-06   -2.2582872478133518e-05
-3.973670748892583e-06   1.913357737019783e-06   -2.2582872478133518e-05
-3.973670748892583e-06   1.913357737019783e-06   -2.2582872478133518e-05
-3.973670748892583e-06   1.913357737019783e-06   -2.2582872478133518e-05
-1.938285329946786e-05   1.1949272984510678e-06   -4.869590165890018e-05
-1.938285329946786e-05   1.1949272984510678e-06   -4.869590165890018e-05
-1.938285329946786e-05   1.1949272984510678e-06   -4.869590165890018e-05
-1.938285329946786e-05   1.1949272984510678e-06   -4.869590165890018e-05
-1.8628634386820363e-05   2.8436366780848054e-06   -2.2979281290556397e-05
-1.8628634386820363e-05   2.8436366780848054e-06   -2.2979281290556397e-05
-1.8628634386820363e-05   2.8436366780848054e-06   -2.2979281290556397e-05
-1.8628634386820363e-05   2.8436366780848054e-06   -2.2979281290556397e-05
-3.2800456069832193e-06   1.9700076620125274e-06   -4.803608518064167e-05
-3.2800456069832193e-06   1.9700076620125274e-06   -4.803608518064167e-05
-3.2800456069832193e-06   1.9700076620125274e-06   -4.803608518064167e-05
-3.2800456069832193e-06   1.9700076620125274e-06   -4.803608518064167e-05
-1.130018951564198e-05   2.0454813854930975e-06   -3.471446290029831e-05
-1.130018951564198e-05   2.0454813854930975e-06   -3.471446290029831e-05
-1.130018951564198e-05   2.0454813854930975e-06   -3.471446290029831e-05
-1.130018951564198e-05   2.0454813854930975e-06   -3.471446290029831e-05
-3.2800456069832193e-06   2.8436366780848054e-06   -2.2455103880913204e-05
-3.2800456069832193e-06   2.8436366780848054e-06   -2.2455103880913204e-05
-3.2800456069832193e-06   2.8436366780848054e-06   -2.2455103880913204e-05
-3.2800456069832193e-06   2.8436366780848054e-06   -2.2455103880913204e-05
-1.8628634386820363e-05   1.9700076620125274e-06   -4.856026259028492e-05
-1.8628634386820363e-05   1.9700076620125274e-06   -4.856026259028492e-05
-1.8628634386820363e-05   1.9700076620125274e-06   -4.856026259028492e-05
-1.8628634386820363e-05   1.9700076620125274e-06   -4.856026259028492e-05
-1.79317035379773e-05   3.790006727452189e-06   -2.3520301252639552e-05
-1.79317035379773e-05   3.790006727452189e-06   -2.3520301252639552e-05
-1.79317035379773e-05   3.790006727452189e-06   -2.3520301252639552e-05
-1.79317035379773e-05   3.790006727452189e-06   -2.3520301252639552e-05
-2.628583990839752e-06   2.7709876096711564e-06   -4.8414089027200096e-05
-2.628583990839752e-06   2.7709876096711564e-06   -4.8414089027200096e-05
-2.628583990839752e-06   2.7709876096711564e-06   -4.8414089027200096e-05
-2.628583990839752e-06   2.7709876096711564e-06   -4.8414089027200096e-05
-1.0699296363689239e-05   2.688662201909449e-06   -3.4913506494461304e-05
-1.0699296363689239e-05   2.688662201909449e-06   -3.4913506494461304e-05
-1.0699296363689239e-05   2.688662201909449e-06   -3.4913506494461304e-05
-1.0699296363689239e-05   2.688662201909449e-06   -3.4913506494461304e-05
-2.016476928073508e-05   3.34286222557819e-06   -1.880034891985202e-05
-2.016476928073508e-05   3.34286222557819e-06   -1.880034891985202e-05
-2.016476928073508e-05   3.34286222557819e-06   -1.880034891985202e-05
-2.016476928073508e-05   3.34286222557819e-06   -1.880034891985202e-05
-3.534493363110013e-05   4.040641275962313e-06   -4.368195540689667e-05
-3.534493363110013e-05   4.040641275962313e-06   -4.368195540689667e-05
-3.534493363110013e-05   4.040641275962313e-06   -4.368195540689667e-05
-3.534493363110013e-05   4.040641275962313e-06   -4.368195540689667e-05
-3.440235258520608e-05   4.280890016753825e-06   -1.766402571498865e-05
-3.440235258520608e-05   4.280890016753825e-06   -1.766402571498865e-05
-3.440235258520608e-05   4.280890016753825e-06   -1.766402571498865e-05
-3.440235258520608e-05   4.280890016753825e-06   -1.766402571498865e-05
-1.9382853299467894e-05   4.8905641732463305e-06   -4.306232901844765e-05
-1.9382853299467894e-05   4.8905641732463305e-06   -4.306232901844765e-05
-1.9382853299467894e-05   4.8905641732463305e-06   -4.306232901844765e-05
-1.9382853299467894e-05   4.8905641732463305e-06   -4.306232901844765e-05
-2.7124137846672536e-05   4.315970218835355e-06   -2.981543173379345e-05
-2.7124137846672536e-05   4.315970218835355e-06   -2.981543173379345e-05
-2.7124137846672536e-05   4.315970218835355e-06   -2.981543173379345e-05
-2.7124137846672536e-05   4.315970218835355e-06   -2.981543173379345e-05
-1.9382853299467894e-05   4.280890016753825e-06   -1.802983020888398e-05
-1.9382853299467894e-05   4.280890016753825e-06   -1.802983020888398e-05
-1.9382853299467894e-05   4.280890016753825e-06   -1.802983020888398e-05
-1.9382853299467894e-05   4.280890016753825e-06   -1.802983020888398e-05
-3.440235258520614e-05   4.8905641732463305e-06   -4.269652452455232e-05
-3.440235258520614e-05   4.8905641732463305e-06   -4.269652452455232e-05
-3.440235258520614e-05   4.8905641732463305e-06   -4.269652452455232e-05
-3.440235258520614e-05   4.8905641732463305e-06   -4.269652452455232e-05
-3.3359061017508094e-05   5.1257005713358905e-06   -1.7031931981227903e-05
-3.3359061017508094e-05   5.1257005713358905e-06   -1.7031931981227903e-05
-3.3359061017508094e-05   5.1257005713358905e-06   -1.7031931981227903e-05
-3.3359061017508094e-05   5.1257005713358905e-06   -1.7031931981227903e-05
-1.8628634386820397e-05   5.622476756056774e-06   -4.188070874320654e-05
-1.8628634386820397e-05   5.622476756056774e-06   -4.188070874320654e-05
-1.8628634386820397e-05   5.622476756056774e-06   -4.188070874320654e-05
-1.8628634386820397e-05   5.622476756056774e-06   -4.188070874320654e-05
-2.6170439186441943e-05   4.97788278363046e-06   -2.892427769371497e-05
-2.6170439186441943e-05   4.97788278363046e-06   -2.892427769371497e-05
-2.6170439186441943e-05   4.97788278363046e-06   -2.892427769371497e-05
-2.6170439186441943e-05   4.97788278363046e-06   -2.892427769371497e-05
-1.8628634386820377e-05   5.1257005713358905e-06   -1.7329997692060433e-05
-1.8628634386820377e-05   5.1257005713358905e-06   -1.7329997692060433e-05
-1.8628634386820377e-05   5.1257005713358905e-06   -1.7329997692060433e-05
-1.8628634386820377e-05   5.1257005713358905e-06   -1.7329997692060433e-05
-3.3359061017508094e-05   5.622476756056774e-06   -4.158264303237417e-05
-3.3359061017508094e-05   5.622476756056774e-06   -4.158264303237417e-05
-3.3359061017508094e-05   5.622476756056774e-06   -4.158264303237417e-05
-3.3359061017508094e-05   5.622476756056774e-06   -4.158264303237417e-05
-3.247755556031109e-05   6.070644952247588e-06   -1.7425696455526662e-05
-3.247755556031109e-05   6.070644952247588e-06   -1.7425696455526662e-05
-3.247755556031109e-05   6.070644952247588e-06   -1.7425696455526662e-05
-3.247755556031109e-05   6.070644952247588e-06   -1.7425696455526662e-05
-1.7931703537977335e-05   6.4319687910589785e-06   -4.188557746270317e-05
-1.7931703537977335e-05   6.4319687910589785e-06   -4.188557746270317e-05
-1.7931703537977335e-05   6.4319687910589785e-06   -4.188557746270317e-05
-1.7931703537977335e-05   6.4319687910589785e-06   -4.188557746270317e-05
-2.557795869617575e-05   5.587489688374525e-06   -2.8635131404095232e-05
-2.557795869617575e-05   5.587489688374525e-06   -2.8635131404095232e-05
-2.557795869617575e-05   5.587489688374525e-06   -2.8635131404095232e-05
-2.557795869617575e-05   5.587489688374525e-06   -2.8635131404095232e-05
-3.534493363110013e-05   5.747579758409206e-06   -9.41879447177588e-06
-3.534493363110013e-05   5.747579758409206e-06   -9.41879447177588e-06
-3.534493363110013e-05   5.747579758409206e-06   -9.41879447177588e-06
-3.534493363110013e-05   5.747579758409206e-06   -9.41879447177588e-06
-5.133721330284132e-05   7.93864582708764e-06   -3.4757954283470664e-05
-5.133721330284132e-05   7.93864582708764e-06   -3.4757954283470664e-05
-5.133721330284132e-05   7.93864582708764e-06   -3.4757954283470664e-05
-5.133721330284132e-05   7.93864582708764e-06   -3.4757954283470664e-05
-4.9170237552185325e-05   6.72167262039244e-06   -2.9799299948990833e-06
-4.9170237552185325e-05   6.72167262039244e-06   -2.9799299948990833e-06
-4.9170237552185325e-05   6.72167262039244e-06   -2.9799299948990833e-06
-4.9170237552185325e-05   6.72167262039244e-06   -2.9799299948990833e-06
-3.440235258520608e-05   9.067959307686212e-06   -2.9000843618907367e-05
-3.440235258520608e-05   9.067959307686212e-06   -2.9000843618907367e-05
-3.440235258520608e-05   9.067959307686212e-06   -2.9000843618907367e-05
-3.440235258520608e-05   9.067959307686212e-06   -2.9000843618907367e-05
-4.0804131498384336e-05   7.562974105524995e-06   -1.742822097564685e-05
-4.0804131498384336e-05   7.562974105524995e-06   -1.742822097564685e-05
-4.0804131498384336e-05   7.562974105524995e-06   -1.742822097564685e-05
-4.0804131498384336e-05   7.562974105524995e-06   -1.742822097564685e-05
-3.440235258520611e-05   6.72167262039244e-06   -4.387702007275238e-06
-3.440235258520611e-05   6.72167262039244e-06   -4.387702007275238e-06
-3.440235258520611e-05   6.72167262039244e-06   -4.387702007275238e-06
-3.440235258520611e-05   6.72167262039244e-06   -4.387702007275238e-06
-4.9170237552185244e-05   9.067959307685995e-06   -2.759307160653127e-05
-4.9170237552185244e-05   9.067959307685995e-06   -2.759307160653127e-05
-4.9170237552185244e-05   9.067959307685995e-06   -2.759307160653127e-05
-4.9170237552185244e-05   9.067959307685995e-06   -2.759307160653127e-05
-4.738709190884414e-05   7.070773734920615e-06   -2.902369929805911e-07
-4.738709190884414e-05   7.070773734920615e-06   -2.902369929805911e-07
-4.738709190884414e-05   7.070773734920615e-06   -2.902369929805911e-07
-4.738709190884414e-05   7.070773734920615e-06   -2.902369929805911e-07
-3.3359061017508094e-05   9.365126118157695e-06   -2.5046899908482897e-05
-3.3359061017508094e-05   9.365126118157695e-06   -2.5046899908482897e-05
-3.3359061017508094e-05   9.365126118157695e-06   -2.5046899908482897e-05
-3.3359061017508094e-05   9.365126118157695e-06   -2.5046899908482897e-05
-4.006757631980162e-05   8.013149780614418e-06   -1.3054855268800633e-05
-4.006757631980162e-05   8.013149780614418e-06   -1.3054855268800633e-05
-4.006757631980162e-05   8.013149780614418e-06   -1.3054855268800633e-05
-4.006757631980162e-05   8.013149780614418e-06   -1.3054855268800633e-05
-3.3359061017508094e-05   7.070773734920615e-06   -1.6668484229228394e-06
-3.3359061017508094e-05   7.070773734920615e-06   -1.6668484229228394e-06
-3.3359061017508094e-05   7.070773734920615e-06   -1.6668484229228394e-06
-3.3359061017508094e-05   7.070773734920615e-06   -1.6668484229228394e-06
-4.738709190884399e-05   9.365126118157478e-06   -2.3670288478540693e-05
-4.738709190884399e-05   9.365126118157478e-06   -2.3670288478540693e-05
-4.738709190884399e-05   9.365126118157478e-06   -2.3670288478540693e-05
-4.738709190884399e-05   9.365126118157478e-06   -2.3670288478540693e-05
-4.546286701325094e-05   7.512862040054023e-06   3.1268516147996183e-06
-4.546286701325094e-05   7.512862040054023e-06   3.1268516147996183e-06
-4.546286701325094e-05   7.512862040054023e-06   3.1268516147996183e-06
-4.546286701325094e-05   7.512862040054023e-06   3.1268516147996183e-06
-3.247755556031109e-05   9.620455374844935e-06   -1.9779890140974427e-05
-3.247755556031109e-05   9.620455374844935e-06   -1.9779890140974427e-05
-3.247755556031109e-05   9.620455374844935e-06   -1.9779890140974427e-05
-3.247755556031109e-05   9.620455374844935e-06   -1.9779890140974427e-05
-3.825895518464549e-05   8.08654338910501e-06   -9.223876908973755e-06
-3.825895518464549e-05   8.08654338910501e-06   -9.223876908973755e-06
-3.825895518464549e-05   8.08654338910501e-06   -9.223876908973755e-06
-3.825895518464549e-05   8.08654338910501e-06   -9.223876908973755e-06
4.395689336862438e-05   -6.128420260146771e-06   8.731986660729784e-06
4.395689336862438e-05   -6.128420260146771e-06   8.731986660729784e-06
4.395689336862438e-05   -6.128420260146771e-06   8.731986660729784e-06
4.395689336862438e-05   -6.128420260146771e-06   8.731986660729784e-06
2.117962849044008e-05   -9.071795085088298e-06   -3.0996146364542054e-05
2.117962849044008e-05   -9.071795085088298e-06   -3.0996146364542054e-05
2.117962849044008e-05   -9.071795085088298e-06   -3.0996146364542054e-05
2.117962849044008e-05   -9.071795085088298e-06   -3.0996146364542054e-05
2.2045051234049335e-05   -5.6997429895076605e-06   4.219998207976314e-06
2.2045051234049335e-05   -5.6997429895076605e-06   4.219998207976314e-06
2.2045051234049335e-05   -5.6997429895076605e-06   4.219998207976314e-06
2.2045051234049335e-05   -5.6997429895076605e-06   4.219998207976314e-06
4.596753195126391e-05   -8.860241586341067e-06   -3.375450382928102e-05
4.596753195126391e-05   -8.860241586341067e-06   -3.375450382928102e-05
4.596753195126391e-05   -8.860241586341067e-06   -3.375450382928102e-05
4.596753195126391e-05   -8.860241586341067e-06   -3.375450382928102e-05
3.1933749014412174e-05   -6.709562871775373e-06   -1.1655272829934164e-05
3.1933749014412174e-05   -6.709562871775373e-06   -1.1655272829934164e-05
3.1933749014412174e-05   -6.709562871775373e-06   -1.1655272829934164e-05
3.1933749014412174e-05   -6.709562871775373e-06   -1.1655272829934164e-05
4.5967531951263965e-05   -5.6997429895076605e-06   6.116297366076445e-06
4.5967531951263965e-05   -5.6997429895076605e-06   6.116297366076445e-06
4.5967531951263965e-05   -5.6997429895076605e-06   6.116297366076445e-06
4.5967531951263965e-05   -5.6997429895076605e-06   6.116297366076445e-06
2.204505123404928e-05   -8.860241586341067e-06   -3.565080298738126e-05
2.204505123404928e-05   -8.860241586341067e-06   -3.565080298738126e-05
2.204505123404928e-05   -8.860241586341067e-06   -3.565080298738126e-05
2.204505123404928e-05   -8.860241586341067e-06   -3.565080298738126e-05
2.2906000180779193e-05   -5.331004710293699e-06   2.011838753707444e-06
2.2906000180779193e-05   -5.331004710293699e-06   2.011838753707444e-06
2.2906000180779193e-05   -5.331004710293699e-06   2.011838753707444e-06
2.2906000180779193e-05   -5.331004710293699e-06   2.011838753707444e-06
4.751062187337811e-05   -8.552536445149798e-06   -3.706294502637712e-05
4.751062187337811e-05   -8.552536445149798e-06   -3.706294502637712e-05
4.751062187337811e-05   -8.552536445149798e-06   -3.706294502637712e-05
4.751062187337811e-05   -8.552536445149798e-06   -3.706294502637712e-05
3.362733512843872e-05   -6.687336755811183e-06   -1.5043253598414578e-05
3.362733512843872e-05   -6.687336755811183e-06   -1.5043253598414578e-05
3.362733512843872e-05   -6.687336755811183e-06   -1.5043253598414578e-05
3.362733512843872e-05   -6.687336755811183e-06   -1.5043253598414578e-05
4.751062187337811e-05   -5.331004710293699e-06   3.944757794620973e-06
4.751062187337811e-05   -5.331004710293699e-06   3.944757794620973e-06
4.751062187337811e-05   -5.331004710293699e-06   3.944757794620973e-06
4.751062187337811e-05   -5.331004710293699e-06   3.944757794620973e-06
2.2906000180779193e-05   -8.552536445149798e-06   -3.89958640672907e-05
2.2906000180779193e-05   -8.552536445149798e-06   -3.89958640672907e-05
2.2906000180779193e-05   -8.552536445149798e-06   -3.89958640672907e-05
2.2906000180779193e-05   -8.552536445149798e-06   -3.89958640672907e-05
2.3490502381868914e-05   -4.165272161028074e-06   -2.434674926360186e-06
2.3490502381868914e-05   -4.165272161028074e-06   -2.434674926360186e-06
2.3490502381868914e-05   -4.165272161028074e-06   -2.434674926360186e-06
2.3490502381868914e-05   -4.165272161028074e-06   -2.434674926360186e-06
4.9142423413353e-05   -7.3527140475667e-06   -4.32754115135774e-05
4.9142423413353e-05   -7.3527140475667e-06   -4.32754115135774e-05
4.9142423413353e-05   -7.3527140475667e-06   -4.32754115135774e-05
4.9142423413353e-05   -7.3527140475667e-06   -4.32754115135774e-05
3.409973898504277e-05   -6.173156973755117e-06   -1.8912005044014303e-05
3.409973898504277e-05   -6.173156973755117e-06   -1.8912005044014303e-05
3.409973898504277e-05   -6.173156973755117e-06   -1.8912005044014303e-05
3.409973898504277e-05   -6.173156973755117e-06   -1.8912005044014303e-05
2.1179628490440133e-05   -2.8682810223590836e-06   -1.0679963398737289e-05
2.1179628490440133e-05   -2.8682810223590836e-06   -1.0679963398737289e-05
2.1179628490440133e-05   -2.8682810223590836e-06   -1.0679963398737289e-05
2.1179628490440133e-05   -2.8682810223590836e-06   -1.0679963398737289e-05
-1.2882878173332314e-06   -5.8752058256076635e-06   -4.993064546030912e-05
-1.2882878173332314e-06   -5.8752058256076635e-06   -4.993064546030912e-05
-1.2882878173332314e-06   -5.8752058256076635e-06   -4.993064546030912e-05
-1.2882878173332314e-06   -5.8752058256076635e-06   -4.993064546030912e-05
-4.000764512371557e-07   -2.272321303209944e-06   -1.1776309233876804e-05
-4.000764512371557e-07   -2.272321303209944e-06   -1.1776309233876804e-05
-4.000764512371557e-07   -2.272321303209944e-06   -1.1776309233876804e-05
-4.000764512371557e-07   -2.272321303209944e-06   -1.1776309233876804e-05
2.2045051234049335e-05   -5.5934228661365555e-06   -4.7192194438264905e-05
2.2045051234049335e-05   -5.5934228661365555e-06   -4.7192194438264905e-05
2.2045051234049335e-05   -5.5934228661365555e-06   -4.7192194438264905e-05
2.2045051234049335e-05   -5.5934228661365555e-06   -4.7192194438264905e-05
1.0415236330798397e-05   -3.55464577872543e-06   -2.9032435851960008e-05
1.0415236330798397e-05   -3.55464577872543e-06   -2.9032435851960008e-05
1.0415236330798397e-05   -3.55464577872543e-06   -2.9032435851960008e-05
1.0415236330798397e-05   -3.55464577872543e-06   -2.9032435851960008e-05
2.2045051234049307e-05   -2.272321303209944e-06   -9.78364829612075e-06
2.2045051234049307e-05   -2.272321303209944e-06   -9.78364829612075e-06
2.2045051234049307e-05   -2.272321303209944e-06   -9.78364829612075e-06
2.2045051234049307e-05   -2.272321303209944e-06   -9.78364829612075e-06
-4.000764512371557e-07   -5.5934228661365555e-06   -4.918485537602107e-05
-4.000764512371557e-07   -5.5934228661365555e-06   -4.918485537602107e-05
-4.000764512371557e-07   -5.5934228661365555e-06   -4.918485537602107e-05
-4.000764512371557e-07   -5.5934228661365555e-06   -4.918485537602107e-05
3.8246678668010705e-07   -1.5438930818273584e-06   -1.2056311063968943e-05
3.8246678668010705e-07   -1.5438930818273584e-06   -1.2056311063968943e-05
3.8246678668010705e-07   -1.5438930818273584e-06   -1.2056311063968943e-05
3.8246678668010705e-07   -1.5438930818273584e-06   -1.2056311063968943e-05
2.2906000180779193e-05   -5.0691808381655296e-06   -4.748036073366454e-05
2.2906000180779193e-05   -5.0691808381655296e-06   -4.748036073366454e-05
2.2906000180779193e-05   -5.0691808381655296e-06   -4.748036073366454e-05
2.2906000180779193e-05   -5.0691808381655296e-06   -4.748036073366454e-05
1.1019528874848942e-05   -3.2624646781813198e-06   -2.8753604919770702e-05
1.1019528874848942e-05   -3.2624646781813198e-06   -2.8753604919770702e-05
1.1019528874848942e-05   -3.2624646781813198e-06   -2.8753604919770702e-05
1.1019528874848942e-05   -3.2624646781813198e-06   -2.8753604919770702e-05
2.2906000180779193e-05   -1.5438930818273584e-06   -9.941138410166214e-06
2.2906000180779193e-05   -1.5438930818273584e-06   -9.941138410166214e-06
2.2906000180779193e-05   -1.5438930818273584e-06   -9.941138410166214e-06
2.2906000180779193e-05   -1.5438930818273584e-06   -9.941138410166214e-06
3.824667866801206e-07   -5.0691808381655296e-06   -4.959553338746759e-05
3.824667866801206e-07   -5.0691808381655296e-06   -4.959553338746759e-05
3.824667866801206e-07   -5.0691808381655296e-06   -4.959553338746759e-05
3.824667866801206e-07   -5.0691808381655296e-06   -4.959553338746759e-05
9.395193244980768e-07   -6.272456897276832e-07   -1.2533718309044525e-05
9.395193244980768e-07   -6.272456897276832e-07   -1.2533718309044525e-05
9.395193244980768e-07   -6.272456897276832e-07   -1.2533718309044525e-05
9.395193244980768e-07   -6.272456897276832e-07   -1.2533718309044525e-05
2.349050238186897e-05   -4.323273856198656e-06   -4.7901073171446916e-05
2.349050238186897e-05   -4.323273856198656e-06   -4.7901073171446916e-05
2.349050238186897e-05   -4.323273856198656e-06   -4.7901073171446916e-05
2.349050238186897e-05   -4.323273856198656e-06   -4.7901073171446916e-05
1.1743401814379484e-05   -2.7478361396791884e-06   -2.9267834855543017e-05
1.1743401814379484e-05   -2.7478361396791884e-06   -2.9267834855543017e-05
1.1743401814379484e-05   -2.7478361396791884e-06   -2.9267834855543017e-05
1.1743401814379484e-05   -2.7478361396791884e-06   -2.9267834855543017e-05
-1.2882878173332314e-06   5.254300980911744e-07   -1.6268235861278046e-05
-1.2882878173332314e-06   5.254300980911744e-07   -1.6268235861278046e-05
-1.2882878173332314e-06   5.254300980911744e-07   -1.6268235861278046e-05
-1.2882878173332314e-06   5.254300980911744e-07   -1.6268235861278046e-05
-2.3424319225730415e-05   -3.0794149736990822e-06   -5.5324528585014125e-05
-2.3424319225730415e-05   -3.0794149736990822e-06   -5.5324528585014125e-05
-2.3424319225730415e-05   -3.0794149736990822e-06   -5.5324528585014125e-05
-2.3424319225730415e-05   -3.0794149736990822e-06   -5.5324528585014125e-05
-2.235858165533821e-05   1.1949272984510678e-06   -1.768951178442472e-05
-2.235858165533821e-05   1.1949272984510678e-06   -1.768951178442472e-05
-2.235858165533821e-05   1.1949272984510678e-06   -1.768951178442472e-05
-2.235858165533821e-05   1.1949272984510678e-06   -1.768951178442472e-05
-4.000764512371557e-07   -2.7472442634384614e-06   -5.1921717520793127e-05
-4.000764512371557e-07   -2.7472442634384614e-06   -5.1921717520793127e-05
-4.000764512371557e-07   -2.7472442634384614e-06   -5.1921717520793127e-05
-4.000764512371557e-07   -2.7472442634384614e-06   -5.1921717520793127e-05
-1.1727109034985774e-05   -5.917892969900529e-07   -3.433660286108087e-05
-1.1727109034985774e-05   -5.917892969900529e-07   -3.433660286108087e-05
-1.1727109034985774e-05   -5.917892969900529e-07   -3.433660286108087e-05
-1.1727109034985774e-05   -5.917892969900529e-07   -3.433660286108087e-05
-4.000764512371557e-07   1.1949272984510678e-06   -1.5324208847291394e-05
-4.000764512371557e-07   1.1949272984510678e-06   -1.5324208847291394e-05
-4.000764512371557e-07   1.1949272984510678e-06   -1.5324208847291394e-05
-4.000764512371557e-07   1.1949272984510678e-06   -1.5324208847291394e-05
-2.235858165533821e-05   -2.7472442634384614e-06   -5.428702045792667e-05
-2.235858165533821e-05   -2.7472442634384614e-06   -5.428702045792667e-05
-2.235858165533821e-05   -2.7472442634384614e-06   -5.428702045792667e-05
-2.235858165533821e-05   -2.7472442634384614e-06   -5.428702045792667e-05
-2.138082804122907e-05   1.9700076620125274e-06   -1.737298625093301e-05
-2.138082804122907e-05   1.9700076620125274e-06   -1.737298625093301e-05
-2.138082804122907e-05   1.9700076620125274e-06   -1.737298625093301e-05
-2.138082804122907e-05   1.9700076620125274e-06   -1.737298625093301e-05
3.824667866801206e-07   -2.230674255566511e-06   -5.112473514690068e-05
3.824667866801206e-07   -2.230674255566511e-06   -5.112473514690068e-05
3.824667866801206e-07   -2.230674255566511e-06   -5.112473514690068e-05
3.824667866801206e-07   -2.230674255566511e-06   -5.112473514690068e-05
-1.0859192308649554e-05   -2.1168018275773484e-07   -3.360003309837024e-05
-1.0859192308649554e-05   -2.1168018275773484e-07   -3.360003309837024e-05
-1.0859192308649554e-05   -2.1168018275773484e-07   -3.360003309837024e-05
-1.0859192308649554e-05   -2.1168018275773484e-07   -3.360003309837024e-05
3.824667866801206e-07   1.9700076620125274e-06   -1.4852577100385369e-05
3.824667866801206e-07   1.9700076620125274e-06   -1.4852577100385369e-05
3.824667866801206e-07   1.9700076620125274e-06   -1.4852577100385369e-05
3.824667866801206e-07   1.9700076620125274e-06   -1.4852577100385369e-05
-2.13808280412291e-05   -2.230674255566511e-06   -5.364514429744851e-05
-2.13808280412291e-05   -2.230674255566511e-06   -5.364514429744851e-05
-2.13808280412291e-05   -2.230674255566511e-06   -5.364514429744851e-05
-2.13808280412291e-05   -2.230674255566511e-06   -5.364514429744851e-05
-2.0721618729632444e-05   2.7709876096707227e-06   -1.767478459474797e-05
-2.0721618729632444e-05   2.7709876096707227e-06   -1.767478459474797e-05
-2.0721618729632444e-05   2.7709876096707227e-06   -1.767478459474797e-05
-2.0721618729632444e-05   2.7709876096707227e-06   -1.767478459474797e-05
9.395193244980633e-07   -1.7407392691403366e-06   -5.10696452243453e-05
9.395193244980633e-07   -1.7407392691403366e-06   -5.10696452243453e-05
9.395193244980633e-07   -1.7407392691403366e-06   -5.10696452243453e-05
9.395193244980633e-07   -1.7407392691403366e-06   -5.10696452243453e-05
-1.0240263146335343e-05   2.1501132070351342e-07   -3.3610124793529783e-05
-1.0240263146335343e-05   2.1501132070351342e-07   -3.3610124793529783e-05
-1.0240263146335343e-05   2.1501132070351342e-07   -3.3610124793529783e-05
-1.0240263146335343e-05   2.1501132070351342e-07   -3.3610124793529783e-05
-2.342431922573038e-05   4.040641275961879e-06   -1.3275669988104585e-05
-2.342431922573038e-05   4.040641275961879e-06   -1.3275669988104585e-05
-2.342431922573038e-05   4.040641275961879e-06   -1.3275669988104585e-05
-2.342431922573038e-05   4.040641275961879e-06   -1.3275669988104585e-05
-4.586974048719436e-05   7.937043235129414e-07   -5.26328675953475e-05
-4.586974048719436e-05   7.937043235129414e-07   -5.26328675953475e-05
-4.586974048719436e-05   7.937043235129414e-07   -5.26328675953475e-05
-4.586974048719436e-05   7.937043235129414e-07   -5.26328675953475e-05
-4.435248296329602e-05   4.8905641732463305e-06   -1.4145965931200606e-05
-4.435248296329602e-05   4.8905641732463305e-06   -1.4145965931200606e-05
-4.435248296329602e-05   4.8905641732463305e-06   -1.4145965931200606e-05
-4.435248296329602e-05   4.8905641732463305e-06   -1.4145965931200606e-05
-2.235858165533817e-05   1.4071861945325927e-06   -4.8712441323902136e-05
-2.235858165533817e-05   1.4071861945325927e-06   -4.8712441323902136e-05
-2.235858165533817e-05   1.4071861945325927e-06   -4.8712441323902136e-05
-2.235858165533817e-05   1.4071861945325927e-06   -4.8712441323902136e-05
-3.3648645475901726e-05   3.0743682758811904e-06   -3.0895977538438727e-05
-3.3648645475901726e-05   3.0743682758811904e-06   -3.0895977538438727e-05
-3.3648645475901726e-05   3.0743682758811904e-06   -3.0895977538438727e-05
-3.3648645475901726e-05   3.0743682758811904e-06   -3.0895977538438727e-05
-2.235858165533817e-05   4.8905641732463305e-06   -1.2055939143972407e-05
-2.235858165533817e-05   4.8905641732463305e-06   -1.2055939143972407e-05
-2.235858165533817e-05   4.8905641732463305e-06   -1.2055939143972407e-05
-2.235858165533817e-05   4.8905641732463305e-06   -1.2055939143972407e-05
-4.4352482963296104e-05   1.4071861945325927e-06   -5.080246811113012e-05
-4.4352482963296104e-05   1.4071861945325927e-06   -5.080246811113012e-05
-4.4352482963296104e-05   1.4071861945325927e-06   -5.080246811113012e-05
-4.4352482963296104e-05   1.4071861945325927e-06   -5.080246811113012e-05
-4.288550594128554e-05   5.622476756056774e-06   -1.2883803001061036e-05
-4.288550594128554e-05   5.622476756056774e-06   -1.2883803001061036e-05
-4.288550594128554e-05   5.622476756056774e-06   -1.2883803001061036e-05
-4.288550594128554e-05   5.622476756056774e-06   -1.2883803001061036e-05
-2.13808280412291e-05   1.971859094045819e-06   -4.6534562237282026e-05
-2.13808280412291e-05   1.971859094045819e-06   -4.6534562237282026e-05
-2.13808280412291e-05   1.971859094045819e-06   -4.6534562237282026e-05
-2.13808280412291e-05   1.971859094045819e-06   -4.6534562237282026e-05
-3.227698949874053e-05   3.608149751601307e-06   -2.9356067535962847e-05
-3.227698949874053e-05   3.608149751601307e-06   -2.9356067535962847e-05
-3.227698949874053e-05   3.608149751601307e-06   -2.9356067535962847e-05
-3.227698949874053e-05   3.608149751601307e-06   -2.9356067535962847e-05
-2.1380828041229044e-05   5.622476756056774e-06   -1.0693432403854246e-05
-2.1380828041229044e-05   5.622476756056774e-06   -1.0693432403854246e-05
-2.1380828041229044e-05   5.622476756056774e-06   -1.0693432403854246e-05
-2.1380828041229044e-05   5.622476756056774e-06   -1.0693432403854246e-05
-4.2885505941285605e-05   1.971859094045819e-06   -4.872493283448846e-05
-4.2885505941285605e-05   1.971859094045819e-06   -4.872493283448846e-05
-4.2885505941285605e-05   1.971859094045819e-06   -4.872493283448846e-05
-4.2885505941285605e-05   1.971859094045819e-06   -4.872493283448846e-05
-4.177306902496223e-05   6.431968791059412e-06   -1.2924432671841376e-05
-4.177306902496223e-05   6.431968791059412e-06   -1.2924432671841376e-05
-4.177306902496223e-05   6.431968791059412e-06   -1.2924432671841376e-05
-4.177306902496223e-05   6.431968791059412e-06   -1.2924432671841376e-05
-2.0721618729632477e-05   2.449350270627461e-06   -4.562061205179878e-05
-2.0721618729632477e-05   2.449350270627461e-06   -4.562061205179878e-05
-2.0721618729632477e-05   2.449350270627461e-06   -4.562061205179878e-05
-2.0721618729632477e-05   2.449350270627461e-06   -4.562061205179878e-05
-3.150952495152867e-05   3.980768156993525e-06   -2.855961908045763e-05
-3.150952495152867e-05   3.980768156993525e-06   -2.855961908045763e-05
-3.150952495152867e-05   3.980768156993525e-06   -2.855961908045763e-05
-3.150952495152867e-05   3.980768156993525e-06   -2.855961908045763e-05
-4.586974048719436e-05   7.938645827087858e-06   -7.614470677355569e-06
-4.586974048719436e-05   7.938645827087858e-06   -7.614470677355569e-06
-4.586974048719436e-05   7.938645827087858e-06   -7.614470677355569e-06
-4.586974048719436e-05   7.938645827087858e-06   -7.614470677355569e-06
-6.932262488099509e-05   7.4970609346158325e-06   -4.69675622691739e-05
-6.932262488099509e-05   7.4970609346158325e-06   -4.69675622691739e-05
-6.932262488099509e-05   7.4970609346158325e-06   -4.69675622691739e-05
-6.932262488099509e-05   7.4970609346158325e-06   -4.69675622691739e-05
-6.63274157033999e-05   9.067959307686212e-06   -1.9859764108535669e-07
-6.63274157033999e-05   9.067959307686212e-06   -1.9859764108535669e-07
-6.63274157033999e-05   9.067959307686212e-06   -1.9859764108535669e-07
-6.63274157033999e-05   9.067959307686212e-06   -1.9859764108535669e-07
-4.435248296329595e-05   9.487438281802641e-06   -3.7075172925728804e-05
-4.435248296329595e-05   9.487438281802641e-06   -3.7075172925728804e-05
-4.435248296329595e-05   9.487438281802641e-06   -3.7075172925728804e-05
-4.435248296329595e-05   9.487438281802641e-06   -3.7075172925728804e-05
-5.403292664965775e-05   8.945276081947454e-06   -2.0615802795212446e-05
-5.403292664965775e-05   8.945276081947454e-06   -2.0615802795212446e-05
-5.403292664965775e-05   8.945276081947454e-06   -2.0615802795212446e-05
-5.403292664965775e-05   8.945276081947454e-06   -2.0615802795212446e-05
-4.435248296329606e-05   9.067959307686212e-06   -4.5028502555517075e-07
-4.435248296329606e-05   9.067959307686212e-06   -4.5028502555517075e-07
-4.435248296329606e-05   9.067959307686212e-06   -4.5028502555517075e-07
-4.435248296329606e-05   9.067959307686212e-06   -4.5028502555517075e-07
-6.63274157033999e-05   9.487438281802641e-06   -3.682348554125874e-05
-6.63274157033999e-05   9.487438281802641e-06   -3.682348554125874e-05
-6.63274157033999e-05   9.487438281802641e-06   -3.682348554125874e-05
-6.63274157033999e-05   9.487438281802641e-06   -3.682348554125874e-05
-6.384351773445847e-05   9.365126118157478e-06   3.993807506040645e-06
-6.384351773445847e-05   9.365126118157478e-06   3.993807506040645e-06
-6.384351773445847e-05   9.365126118157478e-06   3.993807506040645e-06
-6.384351773445847e-05   9.365126118157478e-06   3.993807506040645e-06
-4.288550594128554e-05   9.934905090175188e-06   -3.127807953245802e-05
-4.288550594128554e-05   9.934905090175188e-06   -3.127807953245802e-05
-4.288550594128554e-05   9.934905090175188e-06   -3.127807953245802e-05
-4.288550594128554e-05   9.934905090175188e-06   -3.127807953245802e-05
-5.290092738383209e-05   9.594750475237432e-06   -1.438161769258409e-05
-5.290092738383209e-05   9.594750475237432e-06   -1.438161769258409e-05
-5.290092738383209e-05   9.594750475237432e-06   -1.438161769258409e-05
-5.290092738383209e-05   9.594750475237432e-06   -1.438161769258409e-05
-4.2885505941285605e-05   9.365126118157695e-06   3.6519401228301933e-06
-4.2885505941285605e-05   9.365126118157695e-06   3.6519401228301933e-06
-4.2885505941285605e-05   9.365126118157695e-06   3.6519401228301933e-06
-4.2885505941285605e-05   9.365126118157695e-06   3.6519401228301933e-06
-6.384351773445836e-05   9.934905090174754e-06   -3.0936212149247676e-05
-6.384351773445836e-05   9.934905090174754e-06   -3.0936212149247676e-05
-6.384351773445836e-05   9.934905090174754e-06   -3.0936212149247676e-05
-6.384351773445836e-05   9.934905090174754e-06   -3.0936212149247676e-05
-6.124538847557454e-05   9.620455374844935e-06   9.613632315522104e-06
-6.124538847557454e-05   9.620455374844935e-06   9.613632315522104e-06
-6.124538847557454e-05   9.620455374844935e-06   9.613632315522104e-06
-6.124538847557454e-05   9.620455374844935e-06   9.613632315522104e-06
-4.177306902496223e-05   1.070240865638089e-05   -2.3489405404420325e-05
-4.177306902496223e-05   1.070240865638089e-05   -2.3489405404420325e-05
-4.177306902496223e-05   1.070240865638089e-05   -2.3489405404420325e-05
-4.177306902496223e-05   1.070240865638089e-05   -2.3489405404420325e-05
-5.039207865849797e-05   9.812621601709877e-06   -8.590517115725292e-06
-5.039207865849797e-05   9.812621601709877e-06   -8.590517115725292e-06
-5.039207865849797e-05   9.812621601709877e-06   -8.590517115725292e-06
-5.039207865849797e-05   9.812621601709877e-06   -8.590517115725292e-06
6.041174937770208e-05   -9.071795085088298e-06   2.062297135374796e-05
6.041174937770208e-05   -9.071795085088298e-06   2.062297135374796e-05
6.041174937770208e-05   -9.071795085088298e-06   2.062297135374796e-05
6.041174937770208e-05   -9.071795085088298e-06   2.062297135374796e-05
3.0362563615769512e-05   -1.1470736483213794e-05   -3.0898369755014924e-05
3.0362563615769512e-05   -1.1470736483213794e-05   -3.0898369755014924e-05
3.0362563615769512e-05   -1.1470736483213794e-05   -3.0898369755014924e-05
3.0362563615769512e-05   -1.1470736483213794e-05   -3.0898369755014924e-05
3.1103085208895404e-05   -8.860241586341067e-06   1.479623603214855e-05
3.1103085208895404e-05   -8.860241586341067e-06   1.479623603214855e-05
3.1103085208895404e-05   -8.860241586341067e-06   1.479623603214855e-05
3.1103085208895404e-05   -8.860241586341067e-06   1.479623603214855e-05
6.191541990937193e-05   -1.1757702848427722e-05   -3.4819178378060756e-05
6.191541990937193e-05   -1.1757702848427722e-05   -3.4819178378060756e-05
6.191541990937193e-05   -1.1757702848427722e-05   -3.4819178378060756e-05
6.191541990937193e-05   -1.1757702848427722e-05   -3.4819178378060756e-05
4.411758608685892e-05   -9.266544419159455e-06   -6.6508170647665114e-06
4.411758608685892e-05   -9.266544419159455e-06   -6.6508170647665114e-06
4.411758608685892e-05   -9.266544419159455e-06   -6.6508170647665114e-06
4.411758608685892e-05   -9.266544419159455e-06   -6.6508170647665114e-06
6.191541990937193e-05   -8.860241586341067e-06   1.653471278940011e-05
6.191541990937193e-05   -8.860241586341067e-06   1.653471278940011e-05
6.191541990937193e-05   -8.860241586341067e-06   1.653471278940011e-05
6.191541990937193e-05   -8.860241586341067e-06   1.653471278940011e-05
3.1103085208895404e-05   -1.1757702848427722e-05   -3.6557655135312315e-05
3.1103085208895404e-05   -1.1757702848427722e-05   -3.6557655135312315e-05
3.1103085208895404e-05   -1.1757702848427722e-05   -3.6557655135312315e-05
3.1103085208895404e-05   -1.1757702848427722e-05   -3.6557655135312315e-05
3.1728977474176055e-05   -8.552536445149798e-06   1.1676674150825619e-05
3.1728977474176055e-05   -8.552536445149798e-06   1.1676674150825619e-05
3.1728977474176055e-05   -8.552536445149798e-06   1.1676674150825619e-05
3.1728977474176055e-05   -8.552536445149798e-06   1.1676674150825619e-05
6.285238762731356e-05   -1.1650926263788528e-05   -3.833664221322052e-05
6.285238762731356e-05   -1.1650926263788528e-05   -3.833664221322052e-05
6.285238762731356e-05   -1.1650926263788528e-05   -3.833664221322052e-05
6.285238762731356e-05   -1.1650926263788528e-05   -3.833664221322052e-05
4.567169726649899e-05   -9.558917255460611e-06   -1.0957363683526352e-05
4.567169726649899e-05   -9.558917255460611e-06   -1.0957363683526352e-05
4.567169726649899e-05   -9.558917255460611e-06   -1.0957363683526352e-05
4.567169726649899e-05   -9.558917255460611e-06   -1.0957363683526352e-05
6.285238762731356e-05   -8.552536445149798e-06   1.353570804200877e-05
6.285238762731356e-05   -8.552536445149798e-06   1.353570804200877e-05
6.285238762731356e-05   -8.552536445149798e-06   1.353570804200877e-05
6.285238762731356e-05   -8.552536445149798e-06   1.353570804200877e-05
3.1728977474176055e-05   -1.1650926263788528e-05   -4.0195676104403614e-05
3.1728977474176055e-05   -1.1650926263788528e-05   -4.0195676104403614e-05
3.1728977474176055e-05   -1.1650926263788528e-05   -4.0195676104403614e-05
3.1728977474176055e-05   -1.1650926263788528e-05   -4.0195676104403614e-05
3.23826960785923e-05   -7.3527140475667e-06   5.6251406106999375e-06
3.23826960785923e-05   -7.3527140475667e-06   5.6251406106999375e-06
3.23826960785923e-05   -7.3527140475667e-06   5.6251406106999375e-06
3.23826960785923e-05   -7.3527140475667e-06   5.6251406106999375e-06
6.377499424308362e-05   -1.1002023218457078e-05   -4.450577082758486e-05
6.377499424308362e-05   -1.1002023218457078e-05   -4.450577082758486e-05
6.377499424308362e-05   -1.1002023218457078e-05   -4.450577082758486e-05
6.377499424308362e-05   -1.1002023218457078e-05   -4.450577082758486e-05
4.5693069040929506e-05   -9.199006961273237e-06   -1.545103857830514e-05
4.5693069040929506e-05   -9.199006961273237e-06   -1.545103857830514e-05
4.5693069040929506e-05   -9.199006961273237e-06   -1.545103857830514e-05
4.5693069040929506e-05   -9.199006961273237e-06   -1.545103857830514e-05
3.0362563615769512e-05   -5.875205825608097e-06   2.0532623010551324e-06
3.0362563615769512e-05   -5.875205825608097e-06   2.0532623010551324e-06
3.0362563615769512e-05   -5.875205825608097e-06   2.0532623010551324e-06
3.0362563615769512e-05   -5.875205825608097e-06   2.0532623010551324e-06
3.5920525310293333e-06   -1.1499465032082604e-05   -4.593881169739672e-05
3.5920525310293333e-06   -1.1499465032082604e-05   -4.593881169739672e-05
3.5920525310293333e-06   -1.1499465032082604e-05   -4.593881169739672e-05
3.5920525310293333e-06   -1.1499465032082604e-05   -4.593881169739672e-05
4.455002809994273e-06   -5.5934228661365555e-06   -2.530093176958924e-07
4.455002809994273e-06   -5.5934228661365555e-06   -2.530093176958924e-07
4.455002809994273e-06   -5.5934228661365555e-06   -2.530093176958924e-07
4.455002809994273e-06   -5.5934228661365555e-06   -2.530093176958924e-07
3.110308520889546e-05   -1.1439846031071395e-05   -4.115862608357034e-05
3.110308520889546e-05   -1.1439846031071395e-05   -4.115862608357034e-05
3.110308520889546e-05   -1.1439846031071395e-05   -4.115862608357034e-05
3.110308520889546e-05   -1.1439846031071395e-05   -4.115862608357034e-05
1.7445637835322238e-05   -7.758581312721554e-06   -2.0604972625291743e-05
1.7445637835322238e-05   -7.758581312721554e-06   -2.0604972625291743e-05
1.7445637835322238e-05   -7.758581312721554e-06   -2.0604972625291743e-05
1.7445637835322238e-05   -7.758581312721554e-06   -2.0604972625291743e-05
3.110308520889538e-05   -5.5934228661365555e-06   3.2548445812650116e-06
3.110308520889538e-05   -5.5934228661365555e-06   3.2548445812650116e-06
3.110308520889538e-05   -5.5934228661365555e-06   3.2548445812650116e-06
3.110308520889538e-05   -5.5934228661365555e-06   3.2548445812650116e-06
4.455002809994273e-06   -1.1439846031070962e-05   -4.4666479982531215e-05
4.455002809994273e-06   -1.1439846031070962e-05   -4.4666479982531215e-05
4.455002809994273e-06   -1.1439846031070962e-05   -4.4666479982531215e-05
4.455002809994273e-06   -1.1439846031070962e-05   -4.4666479982531215e-05
5.233942023866094e-06   -5.069180838165096e-06   -5.375801409614189e-07
5.233942023866094e-06   -5.069180838165096e-06   -5.375801409614189e-07
5.233942023866094e-06   -5.069180838165096e-06   -5.375801409614189e-07
5.233942023866094e-06   -5.069180838165096e-06   -5.375801409614189e-07
3.1728977474176055e-05   -1.1285443547187027e-05   -4.0966214932731634e-05
3.1728977474176055e-05   -1.1285443547187027e-05   -4.0966214932731634e-05
3.1728977474176055e-05   -1.1285443547187027e-05   -4.0966214932731634e-05
3.1728977474176055e-05   -1.1285443547187027e-05   -4.0966214932731634e-05
1.7935080626458706e-05   -7.843230815334293e-06   -2.0041714492314102e-05
1.7935080626458706e-05   -7.843230815334293e-06   -2.0041714492314102e-05
1.7935080626458706e-05   -7.843230815334293e-06   -2.0041714492314102e-05
1.7935080626458706e-05   -7.843230815334293e-06   -2.0041714492314102e-05
3.1728977474176055e-05   -5.0691808381655296e-06   3.1921774844517834e-06
3.1728977474176055e-05   -5.0691808381655296e-06   3.1921774844517834e-06
3.1728977474176055e-05   -5.0691808381655296e-06   3.1921774844517834e-06
3.1728977474176055e-05   -5.0691808381655296e-06   3.1921774844517834e-06
5.233942023866081e-06   -1.1285443547187027e-05   -4.469597255814467e-05
5.233942023866081e-06   -1.1285443547187027e-05   -4.469597255814467e-05
5.233942023866081e-06   -1.1285443547187027e-05   -4.469597255814467e-05
5.233942023866081e-06   -1.1285443547187027e-05   -4.469597255814467e-05
6.396594457848287e-06   -4.3232738561982224e-06   -1.0806028769537457e-06
6.396594457848287e-06   -4.3232738561982224e-06   -1.0806028769537457e-06
6.396594457848287e-06   -4.3232738561982224e-06   -1.0806028769537457e-06
6.396594457848287e-06   -4.3232738561982224e-06   -1.0806028769537457e-06
3.238269607859227e-05   -1.0977518792377235e-05   -4.039822528315289e-05
3.238269607859227e-05   -1.0977518792377235e-05   -4.039822528315289e-05
3.238269607859227e-05   -1.0977518792377235e-05   -4.039822528315289e-05
3.238269607859227e-05   -1.0977518792377235e-05   -4.039822528315289e-05
1.8869703196117165e-05   -7.720536620866789e-06   -1.9830759781934177e-05
1.8869703196117165e-05   -7.720536620866789e-06   -1.9830759781934177e-05
1.8869703196117165e-05   -7.720536620866789e-06   -1.9830759781934177e-05
1.8869703196117165e-05   -7.720536620866789e-06   -1.9830759781934177e-05
3.5920525310293333e-06   -3.079414973699516e-06   -4.552269304460574e-06
3.5920525310293333e-06   -3.079414973699516e-06   -4.552269304460574e-06
3.5920525310293333e-06   -3.079414973699516e-06   -4.552269304460574e-06
3.5920525310293333e-06   -3.079414973699516e-06   -4.552269304460574e-06
-2.290121810804793e-05   -1.3863734447366882e-05   -5.517831205378984e-05
-2.290121810804793e-05   -1.3863734447366882e-05   -5.517831205378984e-05
-2.290121810804793e-05   -1.3863734447366882e-05   -5.517831205378984e-05
-2.290121810804793e-05   -1.3863734447366882e-05   -5.517831205378984e-05
-2.155689298857479e-05   -2.7472442634384614e-06   -9.843189624529885e-06
-2.155689298857479e-05   -2.7472442634384614e-06   -9.843189624529885e-06
-2.155689298857479e-05   -2.7472442634384614e-06   -9.843189624529885e-06
-2.155689298857479e-05   -2.7472442634384614e-06   -9.843189624529885e-06
4.455002809994273e-06   -1.4169441200208386e-05   -4.634303112674949e-05
4.455002809994273e-06   -1.4169441200208386e-05   -4.634303112674949e-05
4.455002809994273e-06   -1.4169441200208386e-05   -4.634303112674949e-05
4.455002809994273e-06   -1.4169441200208386e-05   -4.634303112674949e-05
-8.797331425274734e-06   -7.836565450565491e-06   -2.805553285108696e-05
-8.797331425274734e-06   -7.836565450565491e-06   -2.805553285108696e-05
-8.797331425274734e-06   -7.836565450565491e-06   -2.805553285108696e-05
-8.797331425274734e-06   -7.836565450565491e-06   -2.805553285108696e-05
4.455002809994273e-06   -2.7472442634384614e-06   -2.9898714624676265e-06
4.455002809994273e-06   -2.7472442634384614e-06   -2.9898714624676265e-06
4.455002809994273e-06   -2.7472442634384614e-06   -2.9898714624676265e-06
4.455002809994273e-06   -2.7472442634384614e-06   -2.9898714624676265e-06
-2.155689298857483e-05   -1.4169441200208386e-05   -5.319634928881178e-05
-2.155689298857483e-05   -1.4169441200208386e-05   -5.319634928881178e-05
-2.155689298857483e-05   -1.4169441200208386e-05   -5.319634928881178e-05
-2.155689298857483e-05   -1.4169441200208386e-05   -5.319634928881178e-05
-2.0398326027259935e-05   -2.230674255566511e-06   -9.189622641842324e-06
-2.0398326027259935e-05   -2.230674255566511e-06   -9.189622641842324e-06
-2.0398326027259935e-05   -2.230674255566511e-06   -9.189622641842324e-06
-2.0398326027259935e-05   -2.230674255566511e-06   -9.189622641842324e-06
5.233942023866081e-06   -1.4102075491312198e-05   -4.478722865227148e-05
5.233942023866081e-06   -1.4102075491312198e-05   -4.478722865227148e-05
5.233942023866081e-06   -1.4102075491312198e-05   -4.478722865227148e-05
5.233942023866081e-06   -1.4102075491312198e-05   -4.478722865227148e-05
-7.842796482953353e-06   -8.01337725809051e-06   -2.664588341417184e-05
-7.842796482953353e-06   -8.01337725809051e-06   -2.664588341417184e-05
-7.842796482953353e-06   -8.01337725809051e-06   -2.664588341417184e-05
-7.842796482953353e-06   -8.01337725809051e-06   -2.664588341417184e-05
5.233942023866081e-06   -2.230674255566511e-06   -2.0667819003946947e-06
5.233942023866081e-06   -2.230674255566511e-06   -2.0667819003946947e-06
5.233942023866081e-06   -2.230674255566511e-06   -2.0667819003946947e-06
5.233942023866081e-06   -2.230674255566511e-06   -2.0667819003946947e-06
-2.0398326027260002e-05   -1.4102075491312198e-05   -5.191006939371913e-05
-2.0398326027260002e-05   -1.4102075491312198e-05   -5.191006939371913e-05
-2.0398326027260002e-05   -1.4102075491312198e-05   -5.191006939371913e-05
-2.0398326027260002e-05   -1.4102075491312198e-05   -5.191006939371913e-05
-1.839929025864268e-05   -1.7407392691403366e-06   -9.150905805685753e-06
-1.839929025864268e-05   -1.7407392691403366e-06   -9.150905805685753e-06
-1.839929025864268e-05   -1.7407392691403366e-06   -9.150905805685753e-06
-1.839929025864268e-05   -1.7407392691403366e-06   -9.150905805685753e-06
6.3965944578483005e-06   -1.3606318895333959e-05   -4.335803255745479e-05
6.3965944578483005e-06   -1.3606318895333959e-05   -4.335803255745479e-05
6.3965944578483005e-06   -1.3606318895333959e-05   -4.335803255745479e-05
6.3965944578483005e-06   -1.3606318895333959e-05   -4.335803255745479e-05
-6.602282905358159e-06   -7.834674494624182e-06   -2.515622359253644e-05
-6.602282905358159e-06   -7.834674494624182e-06   -2.515622359253644e-05
-6.602282905358159e-06   -7.834674494624182e-06   -2.515622359253644e-05
-6.602282905358159e-06   -7.834674494624182e-06   -2.515622359253644e-05
-2.2901218108047875e-05   7.937043235129414e-07   -6.383037827524963e-06
-2.2901218108047875e-05   7.937043235129414e-07   -6.383037827524963e-06
-2.2901218108047875e-05   7.937043235129414e-07   -6.383037827524963e-06
-2.2901218108047875e-05   7.937043235129414e-07   -6.383037827524963e-06
-5.2455619604142175e-05   -1.72775345058003e-05   -6.648311695193619e-05
-5.2455619604142175e-05   -1.72775345058003e-05   -6.648311695193619e-05
-5.2455619604142175e-05   -1.72775345058003e-05   -6.648311695193619e-05
-5.2455619604142175e-05   -1.72775345058003e-05   -6.648311695193619e-05
-5.084947402182772e-05   1.407186194532159e-06   -1.6690250165048593e-05
-5.084947402182772e-05   1.407186194532159e-06   -1.6690250165048593e-05
-5.084947402182772e-05   1.407186194532159e-06   -1.6690250165048593e-05
-5.084947402182772e-05   1.407186194532159e-06   -1.6690250165048593e-05
-2.155689298857479e-05   -1.92955465963731e-05   -5.308957887925999e-05
-2.155689298857479e-05   -1.92955465963731e-05   -5.308957887925999e-05
-2.155689298857479e-05   -1.92955465963731e-05   -5.308957887925999e-05
-2.155689298857479e-05   -1.92955465963731e-05   -5.308957887925999e-05
-3.640983046957326e-05   -8.781997231593116e-06   -3.464281269646404e-05
-3.640983046957326e-05   -8.781997231593116e-06   -3.464281269646404e-05
-3.640983046957326e-05   -8.781997231593116e-06   -3.464281269646404e-05
-3.640983046957326e-05   -8.781997231593116e-06   -3.464281269646404e-05
-2.155689298857479e-05   1.4071861945325927e-06   -4.268610490505351e-06
-2.155689298857479e-05   1.4071861945325927e-06   -4.268610490505351e-06
-2.155689298857479e-05   1.4071861945325927e-06   -4.268610490505351e-06
-2.155689298857479e-05   1.4071861945325927e-06   -4.268610490505351e-06
-5.084947402182772e-05   -1.92955465963731e-05   -6.551121855380361e-05
-5.084947402182772e-05   -1.92955465963731e-05   -6.551121855380361e-05
-5.084947402182772e-05   -1.92955465963731e-05   -6.551121855380361e-05
-5.084947402182772e-05   -1.92955465963731e-05   -6.551121855380361e-05
-4.930991289402405e-05   1.971859094046253e-06   -1.4903425506138275e-05
-4.930991289402405e-05   1.971859094046253e-06   -1.4903425506138275e-05
-4.930991289402405e-05   1.971859094046253e-06   -1.4903425506138275e-05
-4.930991289402405e-05   1.971859094046253e-06   -1.4903425506138275e-05
-2.039832602725996e-05   -1.940211578005781e-05   -5.026501869294947e-05
-2.039832602725996e-05   -1.940211578005781e-05   -5.026501869294947e-05
-2.039832602725996e-05   -1.940211578005781e-05   -5.026501869294947e-05
-2.039832602725996e-05   -1.940211578005781e-05   -5.026501869294947e-05
-3.48437369377774e-05   -8.810784322966104e-06   -3.254413271634206e-05
-3.48437369377774e-05   -8.810784322966104e-06   -3.254413271634206e-05
-3.48437369377774e-05   -8.810784322966104e-06   -3.254413271634206e-05
-3.48437369377774e-05   -8.810784322966104e-06   -3.254413271634206e-05
-2.0398326027259948e-05   1.971859094046253e-06   -2.0790405816757066e-06
-2.0398326027259948e-05   1.971859094046253e-06   -2.0790405816757066e-06
-2.0398326027259948e-05   1.971859094046253e-06   -2.0790405816757066e-06
-2.0398326027259948e-05   1.971859094046253e-06   -2.0790405816757066e-06
-4.9309912894024126e-05   -1.940211578005781e-05   -6.308940361741174e-05
-4.9309912894024126e-05   -1.940211578005781e-05   -6.308940361741174e-05
-4.9309912894024126e-05   -1.940211578005781e-05   -6.308940361741174e-05
-4.9309912894024126e-05   -1.940211578005781e-05   -6.308940361741174e-05
-4.678588927339179e-05   2.449350270627461e-06   -1.3084503431483362e-05
-4.678588927339179e-05   2.449350270627461e-06   -1.3084503431483362e-05
-4.678588927339179e-05   2.449350270627461e-06   -1.3084503431483362e-05
-4.678588927339179e-05   2.449350270627461e-06   -1.3084503431483362e-05
-1.8399290258642762e-05   -1.7700094605424023e-05   -4.830583486376737e-05
-1.8399290258642762e-05   -1.7700094605424023e-05   -4.830583486376737e-05
-1.8399290258642762e-05   -1.7700094605424023e-05   -4.830583486376737e-05
-1.8399290258642762e-05   -1.7700094605424023e-05   -4.830583486376737e-05
-3.329807026639553e-05   -7.7773848700868e-06   -2.942816069204774e-05
-3.329807026639553e-05   -7.7773848700868e-06   -2.942816069204774e-05
-3.329807026639553e-05   -7.7773848700868e-06   -2.942816069204774e-05
-3.329807026639553e-05   -7.7773848700868e-06   -2.942816069204774e-05
-5.2455619604142175e-05   7.497060934615399e-06   -1.129552486345579e-05
-5.2455619604142175e-05   7.497060934615399e-06   -1.129552486345579e-05
-5.2455619604142175e-05   7.497060934615399e-06   -1.129552486345579e-05
-5.2455619604142175e-05   7.497060934615399e-06   -1.129552486345579e-05
-9.029298712847096e-05   0.0   -7.885604063144003e-05
-9.029298712847096e-05   0.0   -7.885604063144003e-05
-9.029298712847096e-05   0.0   -7.885604063144003e-05
-9.029298712847096e-05   0.0   -7.885604063144003e-05
-8.794359616897277e-05   9.487438281802641e-06   -8.655417948728785e-06
-8.794359616897277e-05   9.487438281802641e-06   -8.655417948728785e-06
-8.794359616897277e-05   9.487438281802641e-06   -8.655417948728785e-06
-8.794359616897277e-05   9.487438281802641e-06   -8.655417948728785e-06
-5.0849474021827636e-05   0.0   -6.478649189155575e-05
-5.0849474021827636e-05   0.0   -6.478649189155575e-05
-5.0849474021827636e-05   0.0   -6.478649189155575e-05
-5.0849474021827636e-05   0.0   -6.478649189155575e-05
-6.739498061406957e-05   2.9017073913486548e-06   -3.8951672005961796e-05
-6.739498061406957e-05   2.9017073913486548e-06   -3.8951672005961796e-05
-6.739498061406957e-05   2.9017073913486548e-06   -3.8951672005961796e-05
-6.739498061406957e-05   2.9017073913486548e-06   -3.8951672005961796e-05
-5.084947402182768e-05   9.487438281803075e-06   -2.962954979647244e-06
-5.084947402182768e-05   9.487438281803075e-06   -2.962954979647244e-06
-5.084947402182768e-05   9.487438281803075e-06   -2.962954979647244e-06
-5.084947402182768e-05   9.487438281803075e-06   -2.962954979647244e-06
-8.794359616897262e-05   0.0   -7.047895486063708e-05
-8.794359616897262e-05   0.0   -7.047895486063708e-05
-8.794359616897262e-05   0.0   -7.047895486063708e-05
-8.794359616897262e-05   0.0   -7.047895486063708e-05
-8.595566646248019e-05   9.934905090174754e-06   -3.4175152582127492e-06
-8.595566646248019e-05   9.934905090174754e-06   -3.4175152582127492e-06
-8.595566646248019e-05   9.934905090174754e-06   -3.4175152582127492e-06
-8.595566646248019e-05   9.934905090174754e-06   -3.4175152582127492e-06
-4.9309912894024126e-05   0.0   -5.853282815153479e-05
-4.9309912894024126e-05   0.0   -5.853282815153479e-05
-4.9309912894024126e-05   0.0   -5.853282815153479e-05
-4.9309912894024126e-05   0.0   -5.853282815153479e-05
-6.669703680364318e-05   4.5947785690986405e-06   -3.2311155443628167e-05
-6.669703680364318e-05   4.5947785690986405e-06   -3.2311155443628167e-05
-6.669703680364318e-05   4.5947785690986405e-06   -3.2311155443628167e-05
-6.669703680364318e-05   4.5947785690986405e-06   -3.2311155443628167e-05
-4.9309912894024126e-05   9.934905090175188e-06   2.5434277958922766e-06
-4.9309912894024126e-05   9.934905090175188e-06   2.5434277958922766e-06
-4.9309912894024126e-05   9.934905090175188e-06   2.5434277958922766e-06
-4.9309912894024126e-05   9.934905090175188e-06   2.5434277958922766e-06
-8.595566646248004e-05   0.0   -6.449377120563938e-05
-8.595566646248004e-05   0.0   -6.449377120563938e-05
-8.595566646248004e-05   0.0   -6.449377120563938e-05
-8.595566646248004e-05   0.0   -6.449377120563938e-05
-8.198887033697048e-05   1.070240865638089e-05   5.01482913432545e-06
-8.198887033697048e-05   1.070240865638089e-05   5.01482913432545e-06
-8.198887033697048e-05   1.070240865638089e-05   5.01482913432545e-06
-8.198887033697048e-05   1.070240865638089e-05   5.01482913432545e-06
-4.678588927339187e-05   0.0   -4.723536077781037e-05
-4.678588927339187e-05   0.0   -4.723536077781037e-05
-4.678588927339187e-05   0.0   -4.723536077781037e-05
-4.678588927339187e-05   0.0   -4.723536077781037e-05
-6.323317689428489e-05   5.6664504297157525e-06   -2.3223085000817966e-05
-6.323317689428489e-05   5.6664504297157525e-06   -2.3223085000817966e-05
-6.323317689428489e-05   5.6664504297157525e-06   -2.3223085000817966e-05
-6.323317689428489e-05   5.6664504297157525e-06   -2.3223085000817966e-05
6.683553834737874e-05   -1.1470736483213794e-05   3.988478825486135e-05
6.683553834737874e-05   -1.1470736483213794e-05   3.988478825486135e-05
6.683553834737874e-05   -1.1470736483213794e-05   3.988478825486135e-05
6.683553834737874e-05   -1.1470736483213794e-05   3.988478825486135e-05
3.467000212931164e-05   -8.844241742989381e-06   -1.2148541931116105e-05
3.467000212931164e-05   -8.844241742989381e-06   -1.2148541931116105e-05
3.467000212931164e-05   -8.844241742989381e-06   -1.2148541931116105e-05
3.467000212931164e-05   -8.844241742989381e-06   -1.2148541931116105e-05
3.379912690330405e-05   -1.1757702848427722e-05   3.52196789270775e-05
3.379912690330405e-05   -1.1757702848427722e-05   3.52196789270775e-05
3.379912690330405e-05   -1.1757702848427722e-05   3.52196789270775e-05
3.379912690330405e-05   -1.1757702848427722e-05   3.52196789270775e-05
6.612256385945514e-05   -9.722959052935794e-06   -1.9873562277135663e-05
6.612256385945514e-05   -9.722959052935794e-06   -1.9873562277135663e-05
6.612256385945514e-05   -9.722959052935794e-06   -1.9873562277135663e-05
6.612256385945514e-05   -9.722959052935794e-06   -1.9873562277135663e-05
4.8295926949629593e-05   -9.88679500644107e-06   9.935800811343106e-06
4.8295926949629593e-05   -9.88679500644107e-06   9.935800811343106e-06
4.8295926949629593e-05   -9.88679500644107e-06   9.935800811343106e-06
4.8295926949629593e-05   -9.88679500644107e-06   9.935800811343106e-06
6.612256385945514e-05   -1.1757702848427722e-05   3.399883264978282e-05
6.612256385945514e-05   -1.1757702848427722e-05   3.399883264978282e-05
6.612256385945514e-05   -1.1757702848427722e-05   3.399883264978282e-05
6.612256385945514e-05   -1.1757702848427722e-05   3.399883264978282e-05
3.379912690330405e-05   -9.722959052935794e-06   -1.8652715999840875e-05
3.379912690330405e-05   -9.722959052935794e-06   -1.8652715999840875e-05
3.379912690330405e-05   -9.722959052935794e-06   -1.8652715999840875e-05
3.379912690330405e-05   -9.722959052935794e-06   -1.8652715999840875e-05
3.3011184997203266e-05   -1.1650926263788528e-05   3.161830123445315e-05
3.3011184997203266e-05   -1.1650926263788528e-05   3.161830123445315e-05
3.3011184997203266e-05   -1.1650926263788528e-05   3.161830123445315e-05
3.3011184997203266e-05   -1.1650926263788528e-05   3.161830123445315e-05
6.529749956868757e-05   -9.803408744587724e-06   -2.3300733562874423e-05
6.529749956868757e-05   -9.803408744587724e-06   -2.3300733562874423e-05
6.529749956868757e-05   -9.803408744587724e-06   -2.3300733562874423e-05
6.529749956868757e-05   -9.803408744587724e-06   -2.3300733562874423e-05
4.826083527672371e-05   -1.0060204203311482e-05   5.2477841989663964e-06
4.826083527672371e-05   -1.0060204203311482e-05   5.2477841989663964e-06
4.826083527672371e-05   -1.0060204203311482e-05   5.2477841989663964e-06
4.826083527672371e-05   -1.0060204203311482e-05   5.2477841989663964e-06
6.52974995686877e-05   -1.1650926263788528e-05   3.0509790722932622e-05
6.52974995686877e-05   -1.1650926263788528e-05   3.0509790722932622e-05
6.52974995686877e-05   -1.1650926263788528e-05   3.0509790722932622e-05
6.52974995686877e-05   -1.1650926263788528e-05   3.0509790722932622e-05
3.3011184997203266e-05   -9.803408744587724e-06   -2.219222305135395e-05
3.3011184997203266e-05   -9.803408744587724e-06   -2.219222305135395e-05
3.3011184997203266e-05   -9.803408744587724e-06   -2.219222305135395e-05
3.3011184997203266e-05   -9.803408744587724e-06   -2.219222305135395e-05
3.204980596438847e-05   -1.1002023218457078e-05   2.575916537188739e-05
3.204980596438847e-05   -1.1002023218457078e-05   2.575916537188739e-05
3.204980596438847e-05   -1.1002023218457078e-05   2.575916537188739e-05
3.204980596438847e-05   -1.1002023218457078e-05   2.575916537188739e-05
6.400472459622556e-05   -9.597468120368068e-06   -2.8341765406694438e-05
6.400472459622556e-05   -9.597468120368068e-06   -2.8341765406694438e-05
6.400472459622556e-05   -9.597468120368068e-06   -2.8341765406694438e-05
6.400472459622556e-05   -9.597468120368068e-06   -2.8341765406694438e-05
4.661473594883769e-05   -9.566115817826164e-06   6.227376240935684e-07
4.661473594883769e-05   -9.566115817826164e-06   6.227376240935684e-07
4.661473594883769e-05   -9.566115817826164e-06   6.227376240935684e-07
4.661473594883769e-05   -9.566115817826164e-06   6.227376240935684e-07
3.467000212931164e-05   -1.1499465032082604e-05   2.9794798680498778e-05
3.467000212931164e-05   -1.1499465032082604e-05   2.9794798680498778e-05
3.467000212931164e-05   -1.1499465032082604e-05   2.9794798680498778e-05
3.467000212931164e-05   -1.1499465032082604e-05   2.9794798680498778e-05
7.366240015466429e-06   -5.462694486062757e-06   -1.2089409181631136e-05
7.366240015466429e-06   -5.462694486062757e-06   -1.2089409181631136e-05
7.366240015466429e-06   -5.462694486062757e-06   -1.2089409181631136e-05
7.366240015466429e-06   -5.462694486062757e-06   -1.2089409181631136e-05
5.987991559773236e-06   -1.1439846031070962e-05   3.400649055196499e-05
5.987991559773236e-06   -1.1439846031070962e-05   3.400649055196499e-05
5.987991559773236e-06   -1.1439846031070962e-05   3.400649055196499e-05
5.987991559773236e-06   -1.1439846031070962e-05   3.400649055196499e-05
3.379912690330405e-05   -5.793541742495512e-06   -1.573318426039837e-05
3.379912690330405e-05   -5.793541742495512e-06   -1.573318426039837e-05
3.379912690330405e-05   -5.793541742495512e-06   -1.573318426039837e-05
3.379912690330405e-05   -5.793541742495512e-06   -1.573318426039837e-05
2.0427065809902307e-05   -8.23232609802136e-06   8.016854841920028e-06
2.0427065809902307e-05   -8.23232609802136e-06   8.016854841920028e-06
2.0427065809902307e-05   -8.23232609802136e-06   8.016854841920028e-06
2.0427065809902307e-05   -8.23232609802136e-06   8.016854841920028e-06
3.3799126903304074e-05   -1.1439846031071395e-05   3.061870797881972e-05
3.3799126903304074e-05   -1.1439846031071395e-05   3.061870797881972e-05
3.3799126903304074e-05   -1.1439846031071395e-05   3.061870797881972e-05
3.3799126903304074e-05   -1.1439846031071395e-05   3.061870797881972e-05
5.987991559773236e-06   -5.793541742495512e-06   -1.2345401687252882e-05
5.987991559773236e-06   -5.793541742495512e-06   -1.2345401687252882e-05
5.987991559773236e-06   -5.793541742495512e-06   -1.2345401687252882e-05
5.987991559773236e-06   -5.793541742495512e-06   -1.2345401687252882e-05
5.004940107591297e-06   -1.1285443547187027e-05   3.405496845703326e-05
5.004940107591297e-06   -1.1285443547187027e-05   3.405496845703326e-05
5.004940107591297e-06   -1.1285443547187027e-05   3.405496845703326e-05
5.004940107591297e-06   -1.1285443547187027e-05   3.405496845703326e-05
3.3011184997203266e-05   -5.940100129006934e-06   -1.5829312409894965e-05
3.3011184997203266e-05   -5.940100129006934e-06   -1.5829312409894965e-05
3.3011184997203266e-05   -5.940100129006934e-06   -1.5829312409894965e-05
3.3011184997203266e-05   -5.940100129006934e-06   -1.5829312409894965e-05
1.9245123989821187e-05   -8.063234624988268e-06   8.388003299998202e-06
1.9245123989821187e-05   -8.063234624988268e-06   8.388003299998202e-06
1.9245123989821187e-05   -8.063234624988268e-06   8.388003299998202e-06
1.9245123989821187e-05   -8.063234624988268e-06   8.388003299998202e-06
3.301118499720332e-05   -1.1285443547187461e-05   3.0847762406125074e-05
3.301118499720332e-05   -1.1285443547187461e-05   3.0847762406125074e-05
3.301118499720332e-05   -1.1285443547187461e-05   3.0847762406125074e-05
3.301118499720332e-05   -1.1285443547187461e-05   3.0847762406125074e-05
5.004940107591297e-06   -5.940100129006934e-06   -1.2622106358986616e-05
5.004940107591297e-06   -5.940100129006934e-06   -1.2622106358986616e-05
5.004940107591297e-06   -5.940100129006934e-06   -1.2622106358986616e-05
5.004940107591297e-06   -5.940100129006934e-06   -1.2622106358986616e-05
3.911475538174861e-06   -1.0977518792377235e-05   3.515970880463705e-05
3.911475538174861e-06   -1.0977518792377235e-05   3.515970880463705e-05
3.911475538174861e-06   -1.0977518792377235e-05   3.515970880463705e-05
3.911475538174861e-06   -1.0977518792377235e-05   3.515970880463705e-05
3.204980596438841e-05   -5.805164816072034e-06   -1.4840920958169196e-05
3.204980596438841e-05   -5.805164816072034e-06   -1.4840920958169196e-05
3.204980596438841e-05   -5.805164816072034e-06   -1.4840920958169196e-05
3.204980596438841e-05   -5.805164816072034e-06   -1.4840920958169196e-05
1.8522714412577046e-05   -7.708704017933728e-06   8.846355149300122e-06
1.8522714412577046e-05   -7.708704017933728e-06   8.846355149300122e-06
1.8522714412577046e-05   -7.708704017933728e-06   8.846355149300122e-06
1.8522714412577046e-05   -7.708704017933728e-06   8.846355149300122e-06
7.366240015466442e-06   -1.3863734447366882e-05   3.0647952335918424e-05
7.366240015466442e-06   -1.3863734447366882e-05   3.0647952335918424e-05
7.366240015466442e-06   -1.3863734447366882e-05   3.0647952335918424e-05
7.366240015466442e-06   -1.3863734447366882e-05   3.0647952335918424e-05
-1.8863803735736073e-05   -2.287965940009958e-06   -6.123326145004906e-06
-1.8863803735736073e-05   -2.287965940009958e-06   -6.123326145004906e-06
-1.8863803735736073e-05   -2.287965940009958e-06   -6.123326145004906e-06
-1.8863803735736073e-05   -2.287965940009958e-06   -6.123326145004906e-06
-2.1007674111604154e-05   -1.4169441200208386e-05   3.938219746157999e-05
-2.1007674111604154e-05   -1.4169441200208386e-05   3.938219746157999e-05
-2.1007674111604154e-05   -1.4169441200208386e-05   3.938219746157999e-05
-2.1007674111604154e-05   -1.4169441200208386e-05   3.938219746157999e-05
5.987991559773236e-06   -2.4156777771533813e-06   -1.2662836711215783e-05
5.987991559773236e-06   -2.4156777771533813e-06   -1.2662836711215783e-05
5.987991559773236e-06   -2.4156777771533813e-06   -1.2662836711215783e-05
5.987991559773236e-06   -2.4156777771533813e-06   -1.2662836711215783e-05
-6.394940824316782e-06   -7.920761951714199e-06   1.1278434433671203e-05
-6.394940824316782e-06   -7.920761951714199e-06   1.1278434433671203e-05
-6.394940824316782e-06   -7.920761951714199e-06   1.1278434433671203e-05
-6.394940824316782e-06   -7.920761951714199e-06   1.1278434433671203e-05
5.987991559773236e-06   -1.4169441200208386e-05   3.2329939407746465e-05
5.987991559773236e-06   -1.4169441200208386e-05   3.2329939407746465e-05
5.987991559773236e-06   -1.4169441200208386e-05   3.2329939407746465e-05
5.987991559773236e-06   -1.4169441200208386e-05   3.2329939407746465e-05
-2.1007674111604127e-05   -2.4156777771529477e-06   -5.610578657382287e-06
-2.1007674111604127e-05   -2.4156777771529477e-06   -5.610578657382287e-06
-2.1007674111604127e-05   -2.4156777771529477e-06   -5.610578657382287e-06
-2.1007674111604127e-05   -2.4156777771529477e-06   -5.610578657382287e-06
-2.2318369574939525e-05   -1.4102075491312198e-05   4.088160654958182e-05
-2.2318369574939525e-05   -1.4102075491312198e-05   4.088160654958182e-05
-2.2318369574939525e-05   -1.4102075491312198e-05   4.088160654958182e-05
-2.2318369574939525e-05   -1.4102075491312198e-05   4.088160654958182e-05
5.004940107591297e-06   -2.572251846853866e-06   -1.1575137107978288e-05
5.004940107591297e-06   -2.572251846853866e-06   -1.1575137107978288e-05
5.004940107591297e-06   -2.572251846853866e-06   -1.1575137107978288e-05
5.004940107591297e-06   -2.572251846853866e-06   -1.1575137107978288e-05
-7.846510008182143e-06   -7.894588503678558e-06   1.303734841240562e-05
-7.846510008182143e-06   -7.894588503678558e-06   1.303734841240562e-05
-7.846510008182143e-06   -7.894588503678558e-06   1.303734841240562e-05
-7.846510008182143e-06   -7.894588503678558e-06   1.303734841240562e-05
5.00494010759127e-06   -1.4102075491312198e-05   3.396371236290643e-05
5.00494010759127e-06   -1.4102075491312198e-05   3.396371236290643e-05
5.00494010759127e-06   -1.4102075491312198e-05   3.396371236290643e-05
5.00494010759127e-06   -1.4102075491312198e-05   3.396371236290643e-05
-2.2318369574939484e-05   -2.572251846853866e-06   -4.657242921303007e-06
-2.2318369574939484e-05   -2.572251846853866e-06   -4.657242921303007e-06
-2.2318369574939484e-05   -2.572251846853866e-06   -4.657242921303007e-06
-2.2318369574939484e-05   -2.572251846853866e-06   -4.657242921303007e-06
-2.3859516857604814e-05   -1.3606318895333959e-05   4.282246878397613e-05
-2.3859516857604814e-05   -1.3606318895333959e-05   4.282246878397613e-05
-2.3859516857604814e-05   -1.3606318895333959e-05   4.282246878397613e-05
-2.3859516857604814e-05   -1.3606318895333959e-05   4.282246878397613e-05
3.911475538174861e-06   -2.556285075444066e-06   -1.0092538834256983e-05
3.911475538174861e-06   -2.556285075444066e-06   -1.0092538834256983e-05
3.911475538174861e-06   -2.556285075444066e-06   -1.0092538834256983e-05
3.911475538174861e-06   -2.556285075444066e-06   -1.0092538834256983e-05
-9.02870549565906e-06   -7.579074840619558e-06   1.4488103414571395e-05
-9.02870549565906e-06   -7.579074840619558e-06   1.4488103414571395e-05
-9.02870549565906e-06   -7.579074840619558e-06   1.4488103414571395e-05
-9.02870549565906e-06   -7.579074840619558e-06   1.4488103414571395e-05
-1.88638037357361e-05   -1.72775345058003e-05   3.713135183977382e-05
-1.88638037357361e-05   -1.72775345058003e-05   3.713135183977382e-05
-1.88638037357361e-05   -1.72775345058003e-05   3.713135183977382e-05
-1.88638037357361e-05   -1.72775345058003e-05   3.713135183977382e-05
-4.872250376500832e-05   2.486446213333972e-06   -7.747597775325989e-07
-4.872250376500832e-05   2.486446213333972e-06   -7.747597775325989e-07
-4.872250376500832e-05   2.486446213333972e-06   -7.747597775325989e-07
-4.872250376500832e-05   2.486446213333972e-06   -7.747597775325989e-07
-5.130006784543973e-05   -1.92955465963731e-05   5.2470510145619315e-05
-5.130006784543973e-05   -1.92955465963731e-05   5.2470510145619315e-05
-5.130006784543973e-05   -1.92955465963731e-05   5.2470510145619315e-05
-5.130006784543973e-05   -1.92955465963731e-05   5.2470510145619315e-05
-2.1007674111604127e-05   2.3403571944402395e-06   -1.0998355018594457e-05
-2.1007674111604127e-05   2.3403571944402395e-06   -1.0998355018594457e-05
-2.1007674111604127e-05   2.3403571944402395e-06   -1.0998355018594457e-05
-2.1007674111604127e-05   2.3403571944402395e-06   -1.0998355018594457e-05
-3.448550996380273e-05   -7.160647037285708e-06   1.7165307274105007e-05
-3.448550996380273e-05   -7.160647037285708e-06   1.7165307274105007e-05
-3.448550996380273e-05   -7.160647037285708e-06   1.7165307274105007e-05
-3.448550996380273e-05   -7.160647037285708e-06   1.7165307274105007e-05
-2.1007674111604154e-05   -1.92955465963731e-05   3.94889678711314e-05
-2.1007674111604154e-05   -1.92955465963731e-05   3.94889678711314e-05
-2.1007674111604154e-05   -1.92955465963731e-05   3.94889678711314e-05
-2.1007674111604154e-05   -1.92955465963731e-05   3.94889678711314e-05
-5.130006784543973e-05   2.3403571944402395e-06   1.9831872558931894e-06
-5.130006784543973e-05   2.3403571944402395e-06   1.9831872558931894e-06
-5.130006784543973e-05   2.3403571944402395e-06   1.9831872558931894e-06
-5.130006784543973e-05   2.3403571944402395e-06   1.9831872558931894e-06
-5.287086127879614e-05   -1.940211578005781e-05   5.540958102039279e-05
-5.287086127879614e-05   -1.940211578005781e-05   5.540958102039279e-05
-5.287086127879614e-05   -1.940211578005781e-05   5.540958102039279e-05
-5.287086127879614e-05   -1.940211578005781e-05   5.540958102039279e-05
-2.2318369574939484e-05   2.0694238366783697e-06   -8.394162256076496e-06
-2.2318369574939484e-05   2.0694238366783697e-06   -8.394162256076496e-06
-2.2318369574939484e-05   2.0694238366783697e-06   -8.394162256076496e-06
-2.2318369574939484e-05   2.0694238366783697e-06   -8.394162256076496e-06
-3.615910460843369e-05   -8.24877324929335e-06   2.0864647717996746e-05
-3.615910460843369e-05   -8.24877324929335e-06   2.0864647717996746e-05
-3.615910460843369e-05   -8.24877324929335e-06   2.0864647717996746e-05
-3.615910460843369e-05   -8.24877324929335e-06   2.0864647717996746e-05
-2.231836957493947e-05   -1.940211578005781e-05   4.252665725035113e-05
-2.231836957493947e-05   -1.940211578005781e-05   4.252665725035113e-05
-2.231836957493947e-05   -1.940211578005781e-05   4.252665725035113e-05
-2.231836957493947e-05   -1.940211578005781e-05   4.252665725035113e-05
-5.2870861278796045e-05   2.0694238366783697e-06   4.488761513964925e-06
-5.2870861278796045e-05   2.0694238366783697e-06   4.488761513964925e-06
-5.2870861278796045e-05   2.0694238366783697e-06   4.488761513964925e-06
-5.2870861278796045e-05   2.0694238366783697e-06   4.488761513964925e-06
-5.4563620511184006e-05   -1.7700094605424023e-05   5.667154355958265e-05
-5.4563620511184006e-05   -1.7700094605424023e-05   5.667154355958265e-05
-5.4563620511184006e-05   -1.7700094605424023e-05   5.667154355958265e-05
-5.4563620511184006e-05   -1.7700094605424023e-05   5.667154355958265e-05
-2.3859516857604746e-05   1.7624542382474809e-06   -6.179491835919007e-06
-2.3859516857604746e-05   1.7624542382474809e-06   -6.179491835919007e-06
-2.3859516857604746e-05   1.7624542382474809e-06   -6.179491835919007e-06
-2.3859516857604746e-05   1.7624542382474809e-06   -6.179491835919007e-06
-3.788446373312382e-05   -8.309620240430811e-06   2.323866431048723e-05
-3.788446373312382e-05   -8.309620240430811e-06   2.323866431048723e-05
-3.788446373312382e-05   -8.309620240430811e-06   2.323866431048723e-05
-3.788446373312382e-05   -8.309620240430811e-06   2.323866431048723e-05
-4.8722503765008155e-05   0.0   4.1115053152519484e-05
-4.8722503765008155e-05   0.0   4.1115053152519484e-05
-4.8722503765008155e-05   0.0   4.1115053152519484e-05
-4.8722503765008155e-05   0.0   4.1115053152519484e-05
-8.578031096220711e-05   1.1251042025116342e-05   -1.3897333627742314e-05
-8.578031096220711e-05   1.1251042025116342e-05   -1.3897333627742314e-05
-8.578031096220711e-05   1.1251042025116342e-05   -1.3897333627742314e-05
-8.578031096220711e-05   1.1251042025116342e-05   -1.3897333627742314e-05
-8.933258425708795e-05   0.0   5.971245865296561e-05
-8.933258425708795e-05   0.0   5.971245865296561e-05
-8.933258425708795e-05   0.0   5.971245865296561e-05
-8.933258425708795e-05   0.0   5.971245865296561e-05
-5.130006784543965e-05   1.0862036408498116e-05   -1.0192290544880649e-05
-5.130006784543965e-05   1.0862036408498116e-05   -1.0192290544880649e-05
-5.130006784543965e-05   1.0862036408498116e-05   -1.0192290544880649e-05
-5.130006784543965e-05   1.0862036408498116e-05   -1.0192290544880649e-05
-6.585129404996834e-05   6.6749213584833475e-06   1.65720221593429e-05
-6.585129404996834e-05   6.6749213584833475e-06   1.65720221593429e-05
-6.585129404996834e-05   6.6749213584833475e-06   1.65720221593429e-05
-6.585129404996834e-05   6.6749213584833475e-06   1.65720221593429e-05
-5.130006784543961e-05   0.0   5.319523680786674e-05
-5.130006784543961e-05   0.0   5.319523680786674e-05
-5.130006784543961e-05   0.0   5.319523680786674e-05
-5.130006784543961e-05   0.0   5.319523680786674e-05
-8.933258425708811e-05   1.0862036408498116e-05   -3.6750686997816164e-06
-8.933258425708811e-05   1.0862036408498116e-05   -3.6750686997816164e-06
-8.933258425708811e-05   1.0862036408498116e-05   -3.6750686997816164e-06
-8.933258425708811e-05   1.0862036408498116e-05   -3.6750686997816164e-06
-9.11213206462587e-05   0.0   6.631690893104769e-05
-9.11213206462587e-05   0.0   6.631690893104769e-05
-9.11213206462587e-05   0.0   6.631690893104769e-05
-9.11213206462587e-05   0.0   6.631690893104769e-05
-5.2870861278796045e-05   1.0584587407963964e-05   -3.7846091261684804e-06
-5.2870861278796045e-05   1.0584587407963964e-05   -3.7846091261684804e-06
-5.2870861278796045e-05   1.0584587407963964e-05   -3.7846091261684804e-06
-5.2870861278796045e-05   1.0584587407963964e-05   -3.7846091261684804e-06
-6.928097651799399e-05   5.574399747497634e-06   2.657169553544204e-05
-6.928097651799399e-05   5.574399747497634e-06   2.657169553544204e-05
-6.928097651799399e-05   5.574399747497634e-06   2.657169553544204e-05
-6.928097651799399e-05   5.574399747497634e-06   2.657169553544204e-05
-5.2870861278796045e-05   0.0   5.9966156486269745e-05
-5.2870861278796045e-05   0.0   5.9966156486269745e-05
-5.2870861278796045e-05   0.0   5.9966156486269745e-05
-5.2870861278796045e-05   0.0   5.9966156486269745e-05
-9.112132064625903e-05   1.0584587407963964e-05   2.566143318610088e-06
-9.112132064625903e-05   1.0584587407963964e-05   2.566143318610088e-06
-9.112132064625903e-05   1.0584587407963964e-05   2.566143318610088e-06
-9.112132064625903e-05   1.0584587407963964e-05   2.566143318610088e-06
-9.3112032855612e-05   0.0   7.512322361059409e-05
-9.3112032855612e-05   0.0   7.512322361059409e-05
-9.3112032855612e-05   0.0   7.512322361059409e-05
-9.3112032855612e-05   0.0   7.512322361059409e-05
-5.4563620511184006e-05   8.819231732373062e-06   5.584330663790124e-06
-5.4563620511184006e-05   8.819231732373062e-06   5.584330663790124e-06
-5.4563620511184006e-05   8.819231732373062e-06   5.584330663790124e-06
-5.4563620511184006e-05   8.819231732373062e-06   5.584330663790124e-06
-6.9853846093553e-05   3.9153310101287635e-06   3.4010380401085206e-05
-6.9853846093553e-05   3.9153310101287635e-06   3.4010380401085206e-05
-6.9853846093553e-05   3.9153310101287635e-06   3.4010380401085206e-05
-6.9853846093553e-05   3.9153310101287635e-06   3.4010380401085206e-05
5.880777609573535e-05   -8.844241742989815e-06   4.173141184967604e-05
5.880777609573535e-05   -8.844241742989815e-06   4.173141184967604e-05
5.880777609573535e-05   -8.844241742989815e-06   4.173141184967604e-05
5.880777609573535e-05   -8.844241742989815e-06   4.173141184967604e-05
2.973789710156216e-05   -6.674564033697702e-06   -5.416579848371199e-06
2.973789710156216e-05   -6.674564033697702e-06   -5.416579848371199e-06
2.973789710156216e-05   -6.674564033697702e-06   -5.416579848371199e-06
2.973789710156216e-05   -6.674564033697702e-06   -5.416579848371199e-06
2.8954423656159573e-05   -9.722959052935794e-06   3.642186465912774e-05
2.8954423656159573e-05   -9.722959052935794e-06   3.642186465912774e-05
2.8954423656159573e-05   -9.722959052935794e-06   3.642186465912774e-05
2.8954423656159573e-05   -9.722959052935794e-06   3.642186465912774e-05
5.7409564444114765e-05   -7.563718908476513e-06   -1.229891407413968e-05
5.7409564444114765e-05   -7.563718908476513e-06   -1.229891407413968e-05
5.7409564444114765e-05   -7.563718908476513e-06   -1.229891407413968e-05
5.7409564444114765e-05   -7.563718908476513e-06   -1.229891407413968e-05
4.178074383119369e-05   -7.873900710214134e-06   1.3935229361771513e-05
4.178074383119369e-05   -7.873900710214134e-06   1.3935229361771513e-05
4.178074383119369e-05   -7.873900710214134e-06   1.3935229361771513e-05
4.178074383119369e-05   -7.873900710214134e-06   1.3935229361771513e-05
5.740956444411466e-05   -9.722959052935794e-06   3.512632057245217e-05
5.740956444411466e-05   -9.722959052935794e-06   3.512632057245217e-05
5.740956444411466e-05   -9.722959052935794e-06   3.512632057245217e-05
5.740956444411466e-05   -9.722959052935794e-06   3.512632057245217e-05
2.8954423656159627e-05   -7.563718908476513e-06   -1.1003369987464158e-05
2.8954423656159627e-05   -7.563718908476513e-06   -1.1003369987464158e-05
2.8954423656159627e-05   -7.563718908476513e-06   -1.1003369987464158e-05
2.8954423656159627e-05   -7.563718908476513e-06   -1.1003369987464158e-05
2.794489604401625e-05   -9.803408744587724e-06   3.268959667267679e-05
2.794489604401625e-05   -9.803408744587724e-06   3.268959667267679e-05
2.794489604401625e-05   -9.803408744587724e-06   3.268959667267679e-05
2.794489604401625e-05   -9.803408744587724e-06   3.268959667267679e-05
5.599519254975322e-05   -7.69561901831084e-06   -1.53255713393176e-05
5.599519254975322e-05   -7.69561901831084e-06   -1.53255713393176e-05
5.599519254975322e-05   -7.69561901831084e-06   -1.53255713393176e-05
5.599519254975322e-05   -7.69561901831084e-06   -1.53255713393176e-05
4.138975228479334e-05   -8.21745948392967e-06   9.32993338165352e-06
4.138975228479334e-05   -8.21745948392967e-06   9.32993338165352e-06
4.138975228479334e-05   -8.21745948392967e-06   9.32993338165352e-06
4.138975228479334e-05   -8.21745948392967e-06   9.32993338165352e-06
5.599519254975322e-05   -9.803408744587724e-06   3.1424922836910786e-05
5.599519254975322e-05   -9.803408744587724e-06   3.1424922836910786e-05
5.599519254975322e-05   -9.803408744587724e-06   3.1424922836910786e-05
5.599519254975322e-05   -9.803408744587724e-06   3.1424922836910786e-05
2.794489604401625e-05   -7.69561901831084e-06   -1.406089750355128e-05
2.794489604401625e-05   -7.69561901831084e-06   -1.406089750355128e-05
2.794489604401625e-05   -7.69561901831084e-06   -1.406089750355128e-05
2.794489604401625e-05   -7.69561901831084e-06   -1.406089750355128e-05
2.688562359494189e-05   -9.597468120368068e-06   2.715237387952837e-05
2.688562359494189e-05   -9.597468120368068e-06   2.715237387952837e-05
2.688562359494189e-05   -9.597468120368068e-06   2.715237387952837e-05
2.688562359494189e-05   -9.597468120368068e-06   2.715237387952837e-05
5.422461945309806e-05   -7.645769558540724e-06   -1.958363835449496e-05
5.422461945309806e-05   -7.645769558540724e-06   -1.958363835449496e-05
5.422461945309806e-05   -7.645769558540724e-06   -1.958363835449496e-05
5.422461945309806e-05   -7.645769558540724e-06   -1.958363835449496e-05
3.9547189224470924e-05   -8.001954652860771e-06   5.092456416476172e-06
3.9547189224470924e-05   -8.001954652860771e-06   5.092456416476172e-06
3.9547189224470924e-05   -8.001954652860771e-06   5.092456416476172e-06
3.9547189224470924e-05   -8.001954652860771e-06   5.092456416476172e-06
2.973789710156223e-05   -5.462694486062757e-06   3.947028889712389e-05
2.973789710156223e-05   -5.462694486062757e-06   3.947028889712389e-05
2.973789710156223e-05   -5.462694486062757e-06   3.947028889712389e-05
2.973789710156223e-05   -5.462694486062757e-06   3.947028889712389e-05
3.2490479357917247e-06   -2.3535985435442323e-06   -2.8123354803158765e-06
3.2490479357917247e-06   -2.3535985435442323e-06   -2.8123354803158765e-06
3.2490479357917247e-06   -2.3535985435442323e-06   -2.8123354803158765e-06
3.2490479357917247e-06   -2.3535985435442323e-06   -2.8123354803158765e-06
2.470624247112669e-06   -5.793541742495512e-06   4.111883852383927e-05
2.470624247112669e-06   -5.793541742495512e-06   4.111883852383927e-05
2.470624247112669e-06   -5.793541742495512e-06   4.111883852383927e-05
2.470624247112669e-06   -5.793541742495512e-06   4.111883852383927e-05
2.8954423656159627e-05   -2.8311382003799734e-06   -4.798269283174647e-06
2.8954423656159627e-05   -2.8311382003799734e-06   -4.798269283174647e-06
2.8954423656159627e-05   -2.8311382003799734e-06   -4.798269283174647e-06
2.8954423656159627e-05   -2.8311382003799734e-06   -4.798269283174647e-06
1.594864302485445e-05   -3.822055510119184e-06   1.747258215484401e-05
1.594864302485445e-05   -3.822055510119184e-06   1.747258215484401e-05
1.594864302485445e-05   -3.822055510119184e-06   1.747258215484401e-05
1.594864302485445e-05   -3.822055510119184e-06   1.747258215484401e-05
2.89544236561596e-05   -5.793541742495512e-06   3.934139639857025e-05
2.89544236561596e-05   -5.793541742495512e-06   3.934139639857025e-05
2.89544236561596e-05   -5.793541742495512e-06   3.934139639857025e-05
2.89544236561596e-05   -5.793541742495512e-06   3.934139639857025e-05
2.470624247112669e-06   -2.8311382003799734e-06   -3.0208271579053834e-06
2.470624247112669e-06   -2.8311382003799734e-06   -3.0208271579053834e-06
2.470624247112669e-06   -2.8311382003799734e-06   -3.0208271579053834e-06
2.470624247112669e-06   -2.8311382003799734e-06   -3.0208271579053834e-06
1.4770846001197423e-06   -5.940100129006934e-06   4.073022171494642e-05
1.4770846001197423e-06   -5.940100129006934e-06   4.073022171494642e-05
1.4770846001197423e-06   -5.940100129006934e-06   4.073022171494642e-05
1.4770846001197423e-06   -5.940100129006934e-06   4.073022171494642e-05
2.794489604401625e-05   -3.1439094609897467e-06   -5.060511759025059e-06
2.794489604401625e-05   -3.1439094609897467e-06   -5.060511759025059e-06
2.794489604401625e-05   -3.1439094609897467e-06   -5.060511759025059e-06
2.794489604401625e-05   -3.1439094609897467e-06   -5.060511759025059e-06
1.4961289839472628e-05   -4.002621259139964e-06   1.709405899410555e-05
1.4961289839472628e-05   -4.002621259139964e-06   1.709405899410555e-05
1.4961289839472628e-05   -4.002621259139964e-06   1.709405899410555e-05
1.4961289839472628e-05   -4.002621259139964e-06   1.709405899410555e-05
2.794489604401621e-05   -5.940100129006934e-06   3.905250731413572e-05
2.794489604401621e-05   -5.940100129006934e-06   3.905250731413572e-05
2.794489604401621e-05   -5.940100129006934e-06   3.905250731413572e-05
2.794489604401621e-05   -5.940100129006934e-06   3.905250731413572e-05
1.4770846001197423e-06   -3.1439094609897467e-06   -3.3827973582145187e-06
1.4770846001197423e-06   -3.1439094609897467e-06   -3.3827973582145187e-06
1.4770846001197423e-06   -3.1439094609897467e-06   -3.3827973582145187e-06
1.4770846001197423e-06   -3.1439094609897467e-06   -3.3827973582145187e-06
3.7955058771779705e-07   -5.805164816071601e-06   4.1327165965814516e-05
3.7955058771779705e-07   -5.805164816071601e-06   4.1327165965814516e-05
3.7955058771779705e-07   -5.805164816071601e-06   4.1327165965814516e-05
3.7955058771779705e-07   -5.805164816071601e-06   4.1327165965814516e-05
2.688562359494185e-05   -3.2773636550477957e-06   -4.3663030761732265e-06
2.688562359494185e-05   -3.2773636550477957e-06   -4.3663030761732265e-06
2.688562359494185e-05   -3.2773636550477957e-06   -4.3663030761732265e-06
2.688562359494185e-05   -3.2773636550477957e-06   -4.3663030761732265e-06
1.4157564692454188e-05   -3.964142975548032e-06   1.7259196020273952e-05
1.4157564692454188e-05   -3.964142975548032e-06   1.7259196020273952e-05
1.4157564692454188e-05   -3.964142975548032e-06   1.7259196020273952e-05
1.4157564692454188e-05   -3.964142975548032e-06   1.7259196020273952e-05
3.249047935791711e-06   -2.287965940009958e-06   4.0356368394847035e-05
3.249047935791711e-06   -2.287965940009958e-06   4.0356368394847035e-05
3.249047935791711e-06   -2.287965940009958e-06   4.0356368394847035e-05
3.249047935791711e-06   -2.287965940009958e-06   4.0356368394847035e-05
-2.2413944960848493e-05   2.0949943215892684e-06   2.1448972407260916e-07
-2.2413944960848493e-05   2.0949943215892684e-06   2.1448972407260916e-07
-2.2413944960848493e-05   2.0949943215892684e-06   2.1448972407260916e-07
-2.2413944960848493e-05   2.0949943215892684e-06   2.1448972407260916e-07
-2.329106310815121e-05   -2.4156777771529477e-06   4.328882756706614e-05
-2.329106310815121e-05   -2.4156777771529477e-06   4.328882756706614e-05
-2.329106310815121e-05   -2.4156777771529477e-06   4.328882756706614e-05
-2.329106310815121e-05   -2.4156777771529477e-06   4.328882756706614e-05
2.470624247112669e-06   1.7300290014957836e-06   -2.1347420922296432e-06
2.470624247112669e-06   1.7300290014957836e-06   -2.1347420922296432e-06
2.470624247112669e-06   1.7300290014957836e-06   -2.1347420922296432e-06
2.470624247112669e-06   1.7300290014957836e-06   -2.1347420922296432e-06
-9.978042322515086e-06   -2.7453836356182426e-08   1.9667525226527973e-05
-9.978042322515086e-06   -2.7453836356182426e-08   1.9667525226527973e-05
-9.978042322515086e-06   -2.7453836356182426e-08   1.9667525226527973e-05
-9.978042322515086e-06   -2.7453836356182426e-08   1.9667525226527973e-05
2.4706242471126826e-06   -2.4156777771529477e-06   4.080140349987677e-05
2.4706242471126826e-06   -2.4156777771529477e-06   4.080140349987677e-05
2.4706242471126826e-06   -2.4156777771529477e-06   4.080140349987677e-05
2.4706242471126826e-06   -2.4156777771529477e-06   4.080140349987677e-05
-2.329106310815121e-05   1.7300290014962173e-06   3.5268197495969857e-07
-2.329106310815121e-05   1.7300290014962173e-06   3.5268197495969857e-07
-2.329106310815121e-05   1.7300290014962173e-06   3.5268197495969857e-07
-2.329106310815121e-05   1.7300290014962173e-06   3.5268197495969857e-07
-2.4466636793350993e-05   -2.572251846853866e-06   4.4154717530672924e-05
-2.4466636793350993e-05   -2.572251846853866e-06   4.4154717530672924e-05
-2.4466636793350993e-05   -2.572251846853866e-06   4.4154717530672924e-05
-2.4466636793350993e-05   -2.572251846853866e-06   4.4154717530672924e-05
1.4770846001197423e-06   1.390292427676243e-06   -1.462344689829502e-06
1.4770846001197423e-06   1.390292427676243e-06   -1.462344689829502e-06
1.4770846001197423e-06   1.390292427676243e-06   -1.462344689829502e-06
1.4770846001197423e-06   1.390292427676243e-06   -1.462344689829502e-06
-1.084314927929487e-05   -1.2969476918507986e-07   1.9983370760644843e-05
-1.084314927929487e-05   -1.2969476918507986e-07   1.9983370760644843e-05
-1.084314927929487e-05   -1.2969476918507986e-07   1.9983370760644843e-05
-1.084314927929487e-05   -1.2969476918507986e-07   1.9983370760644843e-05
1.4770846001197423e-06   -2.572251846853866e-06   4.1777190965955075e-05
1.4770846001197423e-06   -2.572251846853866e-06   4.1777190965955075e-05
1.4770846001197423e-06   -2.572251846853866e-06   4.1777190965955075e-05
1.4770846001197423e-06   -2.572251846853866e-06   4.1777190965955075e-05
-2.4466636793350952e-05   1.390292427676243e-06   9.151818748884006e-07
-2.4466636793350952e-05   1.390292427676243e-06   9.151818748884006e-07
-2.4466636793350952e-05   1.390292427676243e-06   9.151818748884006e-07
-2.4466636793350952e-05   1.390292427676243e-06   9.151818748884006e-07
-2.5719117247861934e-05   -2.556285075444066e-06   4.5193335905734664e-05
-2.5719117247861934e-05   -2.556285075444066e-06   4.5193335905734664e-05
-2.5719117247861934e-05   -2.556285075444066e-06   4.5193335905734664e-05
-2.5719117247861934e-05   -2.556285075444066e-06   4.5193335905734664e-05
3.795505877178106e-07   1.1457152608741056e-06   -5.256440220225594e-07
3.795505877178106e-07   1.1457152608741056e-06   -5.256440220225594e-07
3.795505877178106e-07   1.1457152608741056e-06   -5.256440220225594e-07
3.795505877178106e-07   1.1457152608741056e-06   -5.256440220225594e-07
-1.1946274801147824e-05   -2.028741300074549e-07   2.0826551927283004e-05
-1.1946274801147824e-05   -2.028741300074549e-07   2.0826551927283004e-05
-1.1946274801147824e-05   -2.028741300074549e-07   2.0826551927283004e-05
-1.1946274801147824e-05   -2.028741300074549e-07   2.0826551927283004e-05
-2.241394496084844e-05   2.486446213333972e-06   3.647632248779788e-05
-2.241394496084844e-05   2.486446213333972e-06   3.647632248779788e-05
-2.241394496084844e-05   2.486446213333972e-06   3.647632248779788e-05
-2.241394496084844e-05   2.486446213333972e-06   3.647632248779788e-05
-4.7559136110445854e-05   6.820569676459047e-06   -2.8318553503227026e-06
-4.7559136110445854e-05   6.820569676459047e-06   -2.8318553503227026e-06
-4.7559136110445854e-05   6.820569676459047e-06   -2.8318553503227026e-06
-4.7559136110445854e-05   6.820569676459047e-06   -2.8318553503227026e-06
-4.8835873678479636e-05   2.3403571944398058e-06   4.0369827415876e-05
-4.8835873678479636e-05   2.3403571944398058e-06   4.0369827415876e-05
-4.8835873678479636e-05   2.3403571944398058e-06   4.0369827415876e-05
-4.8835873678479636e-05   2.3403571944398058e-06   4.0369827415876e-05
-2.3291063108151142e-05   6.454984211143062e-06   -4.673633078026675e-06
-2.3291063108151142e-05   6.454984211143062e-06   -4.673633078026675e-06
-2.3291063108151142e-05   6.454984211143062e-06   -4.673633078026675e-06
-2.3291063108151142e-05   6.454984211143062e-06   -4.673633078026675e-06
-3.524533034516051e-05   4.6036031036648245e-06   1.6360974314809482e-05
-3.524533034516051e-05   4.6036031036648245e-06   1.6360974314809482e-05
-3.524533034516051e-05   4.6036031036648245e-06   1.6360974314809482e-05
-3.524533034516051e-05   4.6036031036648245e-06   1.6360974314809482e-05
-2.329106310815117e-05   2.3403571944398058e-06   3.790105120585392e-05
-2.329106310815117e-05   2.3403571944398058e-06   3.790105120585392e-05
-2.329106310815117e-05   2.3403571944398058e-06   3.790105120585392e-05
-2.329106310815117e-05   2.3403571944398058e-06   3.790105120585392e-05
-4.8835873678479554e-05   6.4549842111434955e-06   -2.204856868004727e-06
-4.8835873678479554e-05   6.4549842111434955e-06   -2.204856868004727e-06
-4.8835873678479554e-05   6.4549842111434955e-06   -2.204856868004727e-06
-4.8835873678479554e-05   6.4549842111434955e-06   -2.204856868004727e-06
-5.040077074374249e-05   2.0694238366783697e-06   4.284610385341071e-05
-5.040077074374249e-05   2.0694238366783697e-06   4.284610385341071e-05
-5.040077074374249e-05   2.0694238366783697e-06   4.284610385341071e-05
-5.040077074374249e-05   2.0694238366783697e-06   4.284610385341071e-05
-2.4466636793350952e-05   6.1165999325298905e-06   -2.8057583880864454e-06
-2.4466636793350952e-05   6.1165999325298905e-06   -2.8057583880864454e-06
-2.4466636793350952e-05   6.1165999325298905e-06   -2.8057583880864454e-06
-2.4466636793350952e-05   6.1165999325298905e-06   -2.8057583880864454e-06
-3.619580282419097e-05   4.519895216978809e-06   1.7700874492644473e-05
-3.619580282419097e-05   4.519895216978809e-06   1.7700874492644473e-05
-3.619580282419097e-05   4.519895216978809e-06   1.7700874492644473e-05
-3.619580282419097e-05   4.519895216978809e-06   1.7700874492644473e-05
-2.4466636793350912e-05   2.0694238366783697e-06   4.0417798195899624e-05
-2.4466636793350912e-05   2.0694238366783697e-06   4.0417798195899624e-05
-2.4466636793350912e-05   2.0694238366783697e-06   4.0417798195899624e-05
-2.4466636793350912e-05   2.0694238366783697e-06   4.0417798195899624e-05
-5.040077074374249e-05   6.1165999325298905e-06   -3.774527305752239e-07
-5.040077074374249e-05   6.1165999325298905e-06   -3.774527305752239e-07
-5.040077074374249e-05   6.1165999325298905e-06   -3.774527305752239e-07
-5.040077074374249e-05   6.1165999325298905e-06   -3.774527305752239e-07
-5.205628228214306e-05   1.7624542382474809e-06   4.481572740832381e-05
-5.205628228214306e-05   1.7624542382474809e-06   4.481572740832381e-05
-5.205628228214306e-05   1.7624542382474809e-06   4.481572740832381e-05
-5.205628228214306e-05   1.7624542382474809e-06   4.481572740832381e-05
-2.571911724786184e-05   5.661395565222625e-06   -1.4189124449962335e-06
-2.571911724786184e-05   5.661395565222625e-06   -1.4189124449962335e-06
-2.571911724786184e-05   5.661395565222625e-06   -1.4189124449962335e-06
-2.571911724786184e-05   5.661395565222625e-06   -1.4189124449962335e-06
-3.778073420267042e-05   4.245531894827171e-06   1.953330068192301e-05
-3.778073420267042e-05   4.245531894827171e-06   1.953330068192301e-05
-3.778073420267042e-05   4.245531894827171e-06   1.953330068192301e-05
-3.778073420267042e-05   4.245531894827171e-06   1.953330068192301e-05
-4.7559136110445854e-05   1.1251042025116342e-05   1.9203597500393752e-05
-4.7559136110445854e-05   1.1251042025116342e-05   1.9203597500393752e-05
-4.7559136110445854e-05   1.1251042025116342e-05   1.9203597500393752e-05
-4.7559136110445854e-05   1.1251042025116342e-05   1.9203597500393752e-05
-7.164571026554523e-05   1.1092470126815388e-05   -2.1035835897085685e-05
-7.164571026554523e-05   1.1092470126815388e-05   -2.1035835897085685e-05
-7.164571026554523e-05   1.1092470126815388e-05   -2.1035835897085685e-05
-7.164571026554523e-05   1.1092470126815388e-05   -2.1035835897085685e-05
-7.393801664949202e-05   1.086203640849855e-05   2.8461111112021518e-05
-7.393801664949202e-05   1.086203640849855e-05   2.8461111112021518e-05
-7.393801664949202e-05   1.086203640849855e-05   2.8461111112021518e-05
-7.393801664949202e-05   1.086203640849855e-05   2.8461111112021518e-05
-4.8835873678479554e-05   1.1306638903364231e-05   -1.364255533658576e-05
-4.8835873678479554e-05   1.1306638903364231e-05   -1.364255533658576e-05
-4.8835873678479554e-05   1.1306638903364231e-05   -1.364255533658576e-05
-4.8835873678479554e-05   1.1306638903364231e-05   -1.364255533658576e-05
-5.805968102611393e-05   1.1301980132455251e-05   1.7332521720170649e-06
-5.805968102611393e-05   1.1301980132455251e-05   1.7332521720170649e-06
-5.805968102611393e-05   1.1301980132455251e-05   1.7332521720170649e-06
-5.805968102611393e-05   1.1301980132455251e-05   1.7332521720170649e-06
-4.88358736784795e-05   1.086203640849855e-05   2.8194349615101892e-05
-4.88358736784795e-05   1.086203640849855e-05   2.8194349615101892e-05
-4.88358736784795e-05   1.086203640849855e-05   2.8194349615101892e-05
-4.88358736784795e-05   1.086203640849855e-05   2.8194349615101892e-05
-7.393801664949202e-05   1.1306638903364231e-05   -1.3375793839666026e-05
-7.393801664949202e-05   1.1306638903364231e-05   -1.3375793839666026e-05
-7.393801664949202e-05   1.1306638903364231e-05   -1.3375793839666026e-05
-7.393801664949202e-05   1.1306638903364231e-05   -1.3375793839666026e-05
-7.618593732108947e-05   1.0584587407963964e-05   3.495736211399044e-05
-7.618593732108947e-05   1.0584587407963964e-05   3.495736211399044e-05
-7.618593732108947e-05   1.0584587407963964e-05   3.495736211399044e-05
-7.618593732108947e-05   1.0584587407963964e-05   3.495736211399044e-05
-5.040077074374238e-05   1.1225635575819529e-05   -8.402544415634771e-06
-5.040077074374238e-05   1.1225635575819529e-05   -8.402544415634771e-06
-5.040077074374238e-05   1.1225635575819529e-05   -8.402544415634771e-06
-5.040077074374238e-05   1.1225635575819529e-05   -8.402544415634771e-06
-6.069015924983645e-05   1.130152718522735e-05   8.700901462211459e-06
-6.069015924983645e-05   1.130152718522735e-05   8.700901462211459e-06
-6.069015924983645e-05   1.130152718522735e-05   8.700901462211459e-06
-6.069015924983645e-05   1.130152718522735e-05   8.700901462211459e-06
-5.040077074374238e-05   1.0584587407963964e-05   3.457273321327706e-05
-5.040077074374238e-05   1.0584587407963964e-05   3.457273321327706e-05
-5.040077074374238e-05   1.0584587407963964e-05   3.457273321327706e-05
-5.040077074374238e-05   1.0584587407963964e-05   3.457273321327706e-05
-7.618593732108947e-05   1.1225635575819962e-05   -8.017915514921389e-06
-7.618593732108947e-05   1.1225635575819962e-05   -8.017915514921389e-06
-7.618593732108947e-05   1.1225635575819962e-05   -8.017915514921389e-06
-7.618593732108947e-05   1.1225635575819962e-05   -8.017915514921389e-06
-7.88372606930704e-05   8.819231732372628e-06   4.58116860329455e-05
-7.88372606930704e-05   8.819231732372628e-06   4.58116860329455e-05
-7.88372606930704e-05   8.819231732372628e-06   4.58116860329455e-05
-7.88372606930704e-05   8.819231732372628e-06   4.58116860329455e-05
-5.2056282282142896e-05   1.0335340784232636e-05   2.670565836172161e-07
-5.2056282282142896e-05   1.0335340784232636e-05   2.670565836172161e-07
-5.2056282282142896e-05   1.0335340784232636e-05   2.670565836172161e-07
-5.2056282282142896e-05   1.0335340784232636e-05   2.670565836172161e-07
-6.163039123323806e-05   1.0765968905536352e-05   1.596552796266084e-05
-6.163039123323806e-05   1.0765968905536352e-05   1.596552796266084e-05
-6.163039123323806e-05   1.0765968905536352e-05   1.596552796266084e-05
-6.163039123323806e-05   1.0765968905536352e-05   1.596552796266084e-05
4.7718871348003604e-05   -6.674564033697702e-06   3.680241260413863e-05
4.7718871348003604e-05   -6.674564033697702e-06   3.680241260413863e-05
4.7718871348003604e-05   -6.674564033697702e-06   3.680241260413863e-05
4.7718871348003604e-05   -6.674564033697702e-06   3.680241260413863e-05
2.3621549765353172e-05   -4.8968307271852855e-06   -2.2931500497044323e-06
2.3621549765353172e-05   -4.8968307271852855e-06   -2.2931500497044323e-06
2.3621549765353172e-05   -4.8968307271852855e-06   -2.2931500497044323e-06
2.3621549765353172e-05   -4.8968307271852855e-06   -2.2931500497044323e-06
2.2718983719379387e-05   -7.563718908476513e-06   3.2000286593461547e-05
2.2718983719379387e-05   -7.563718908476513e-06   3.2000286593461547e-05
2.2718983719379387e-05   -7.563718908476513e-06   3.2000286593461547e-05
2.2718983719379387e-05   -7.563718908476513e-06   3.2000286593461547e-05
4.605912887128113e-05   -5.680695510079745e-06   -8.029769365412464e-06
4.605912887128113e-05   -5.680695510079745e-06   -8.029769365412464e-06
4.605912887128113e-05   -5.680695510079745e-06   -8.029769365412464e-06
4.605912887128113e-05   -5.680695510079745e-06   -8.029769365412464e-06
3.34259405920467e-05   -6.140393864304851e-06   1.3301363445846403e-05
3.34259405920467e-05   -6.140393864304851e-06   1.3301363445846403e-05
3.34259405920467e-05   -6.140393864304851e-06   1.3301363445846403e-05
3.34259405920467e-05   -6.140393864304851e-06   1.3301363445846403e-05
4.605912887128105e-05   -7.563718908476513e-06   3.087047255442344e-05
4.605912887128105e-05   -7.563718908476513e-06   3.087047255442344e-05
4.605912887128105e-05   -7.563718908476513e-06   3.087047255442344e-05
4.605912887128105e-05   -7.563718908476513e-06   3.087047255442344e-05
2.271898371937947e-05   -5.680695510079745e-06   -6.899955326374529e-06
2.271898371937947e-05   -5.680695510079745e-06   -6.899955326374529e-06
2.271898371937947e-05   -5.680695510079745e-06   -6.899955326374529e-06
2.271898371937947e-05   -5.680695510079745e-06   -6.899955326374529e-06
2.1715956420701424e-05   -7.69561901831084e-06   2.867611550054234e-05
2.1715956420701424e-05   -7.69561901831084e-06   2.867611550054234e-05
2.1715956420701424e-05   -7.69561901831084e-06   2.867611550054234e-05
2.1715956420701424e-05   -7.69561901831084e-06   2.867611550054234e-05
4.4555962320958633e-05   -5.83799966242908e-06   -1.0505132613415161e-05
4.4555962320958633e-05   -5.83799966242908e-06   -1.0505132613415161e-05
4.4555962320958633e-05   -5.83799966242908e-06   -1.0505132613415161e-05
4.4555962320958633e-05   -5.83799966242908e-06   -1.0505132613415161e-05
3.280248682782822e-05   -6.4442559022863215e-06   9.447746952382968e-06
3.280248682782822e-05   -6.4442559022863215e-06   9.447746952382968e-06
3.280248682782822e-05   -6.4442559022863215e-06   9.447746952382968e-06
3.280248682782822e-05   -6.4442559022863215e-06   9.447746952382968e-06
4.4555962320958484e-05   -7.695619018310406e-06   2.7561543887013283e-05
4.4555962320958484e-05   -7.695619018310406e-06   2.7561543887013283e-05
4.4555962320958484e-05   -7.695619018310406e-06   2.7561543887013283e-05
4.4555962320958484e-05   -7.695619018310406e-06   2.7561543887013283e-05
2.1715956420701464e-05   -5.83799966242908e-06   -9.390560999886265e-06
2.1715956420701464e-05   -5.83799966242908e-06   -9.390560999886265e-06
2.1715956420701464e-05   -5.83799966242908e-06   -9.390560999886265e-06
2.1715956420701464e-05   -5.83799966242908e-06   -9.390560999886265e-06
2.0751147357416347e-05   -7.645769558540724e-06   2.4039154894483312e-05
2.0751147357416347e-05   -7.645769558540724e-06   2.4039154894483312e-05
2.0751147357416347e-05   -7.645769558540724e-06   2.4039154894483312e-05
2.0751147357416347e-05   -7.645769558540724e-06   2.4039154894483312e-05
4.285329615108333e-05   -5.900713913882961e-06   -1.384479314842268e-05
4.285329615108333e-05   -5.900713913882961e-06   -1.384479314842268e-05
4.285329615108333e-05   -5.900713913882961e-06   -1.384479314842268e-05
4.285329615108333e-05   -5.900713913882961e-06   -1.384479314842268e-05
3.111598631510119e-05   -6.3349947708487946e-06   5.97795842572778e-06
3.111598631510119e-05   -6.3349947708487946e-06   5.97795842572778e-06
3.111598631510119e-05   -6.3349947708487946e-06   5.97795842572778e-06
3.111598631510119e-05   -6.3349947708487946e-06   5.97795842572778e-06
2.3621549765353172e-05   -2.3535985435442323e-06   3.860783939059042e-05
2.3621549765353172e-05   -2.3535985435442323e-06   3.860783939059042e-05
2.3621549765353172e-05   -2.3535985435442323e-06   3.860783939059042e-05
2.3621549765353172e-05   -2.3535985435442323e-06   3.860783939059042e-05
1.0023862111724195e-06   -9.369554096281402e-07   1.7592193473055587e-06
1.0023862111724195e-06   -9.369554096281402e-07   1.7592193473055587e-06
1.0023862111724195e-06   -9.369554096281402e-07   1.7592193473055587e-06
1.0023862111724195e-06   -9.369554096281402e-07   1.7592193473055587e-06
1.3583894744619279e-07   -2.831138200380407e-06   3.90085303668547e-05
1.3583894744619279e-07   -2.831138200380407e-06   3.90085303668547e-05
1.3583894744619279e-07   -2.831138200380407e-06   3.90085303668547e-05
1.3583894744619279e-07   -2.831138200380407e-06   3.90085303668547e-05
2.271898371937947e-05   -1.492566418540616e-06   5.668126778622689e-07
2.271898371937947e-05   -1.492566418540616e-06   5.668126778622689e-07
2.271898371937947e-05   -1.492566418540616e-06   5.668126778622689e-07
2.271898371937947e-05   -1.492566418540616e-06   5.668126778622689e-07
1.1725601585278477e-05   -1.8332015275165925e-06   1.9093497300082707e-05
1.1725601585278477e-05   -1.8332015275165925e-06   1.9093497300082707e-05
1.1725601585278477e-05   -1.8332015275165925e-06   1.9093497300082707e-05
1.1725601585278477e-05   -1.8332015275165925e-06   1.9093497300082707e-05
2.271898371937944e-05   -2.8311382003799734e-06   3.820538729775087e-05
2.271898371937944e-05   -2.8311382003799734e-06   3.820538729775087e-05
2.271898371937944e-05   -2.8311382003799734e-06   3.820538729775087e-05
2.271898371937944e-05   -2.8311382003799734e-06   3.820538729775087e-05
1.3583894744619279e-07   -1.492566418540616e-06   1.3699557469661408e-06
1.3583894744619279e-07   -1.492566418540616e-06   1.3699557469661408e-06
1.3583894744619279e-07   -1.492566418540616e-06   1.3699557469661408e-06
1.3583894744619279e-07   -1.492566418540616e-06   1.3699557469661408e-06
-7.648899507983119e-07   -3.1439094609897467e-06   3.84198333654251e-05
-7.648899507983119e-07   -3.1439094609897467e-06   3.84198333654251e-05
-7.648899507983119e-07   -3.1439094609897467e-06   3.84198333654251e-05
-7.648899507983119e-07   -3.1439094609897467e-06   3.84198333654251e-05
2.1715956420701464e-05   -1.905022593729367e-06   2.0842395923585015e-07
2.1715956420701464e-05   -1.905022593729367e-06   2.0842395923585015e-07
2.1715956420701464e-05   -1.905022593729367e-06   2.0842395923585015e-07
2.1715956420701464e-05   -1.905022593729367e-06   2.0842395923585015e-07
1.073057657819873e-05   -2.124179035146133e-06   1.8648884228257686e-05
1.073057657819873e-05   -2.124179035146133e-06   1.8648884228257686e-05
1.073057657819873e-05   -2.124179035146133e-06   1.8648884228257686e-05
1.073057657819873e-05   -2.124179035146133e-06   1.8648884228257686e-05
2.1715956420701424e-05   -3.1439094609897467e-06   3.767650124506905e-05
2.1715956420701424e-05   -3.1439094609897467e-06   3.767650124506905e-05
2.1715956420701424e-05   -3.1439094609897467e-06   3.767650124506905e-05
2.1715956420701424e-05   -3.1439094609897467e-06   3.767650124506905e-05
-7.648899507983119e-07   -1.905022593729367e-06   9.517560795922839e-07
-7.648899507983119e-07   -1.905022593729367e-06   9.517560795922839e-07
-7.648899507983119e-07   -1.905022593729367e-06   9.517560795922839e-07
-7.648899507983119e-07   -1.905022593729367e-06   9.517560795922839e-07
-1.7026149144728207e-06   -3.2773636550477957e-06   3.8713856369881157e-05
-1.7026149144728207e-06   -3.2773636550477957e-06   3.8713856369881157e-05
-1.7026149144728207e-06   -3.2773636550477957e-06   3.8713856369881157e-05
-1.7026149144728207e-06   -3.2773636550477957e-06   3.8713856369881157e-05
2.0751147357416408e-05   -2.2300547647606354e-06   6.625339158931203e-07
2.0751147357416408e-05   -2.2300547647606354e-06   6.625339158931203e-07
2.0751147357416408e-05   -2.2300547647606354e-06   6.625339158931203e-07
2.0751147357416408e-05   -2.2300547647606354e-06   6.625339158931203e-07
9.982881348037636e-06   -2.2800922732393e-06   1.8639666436612475e-05
9.982881348037636e-06   -2.2800922732393e-06   1.8639666436612475e-05
9.982881348037636e-06   -2.2800922732393e-06   1.8639666436612475e-05
9.982881348037636e-06   -2.2800922732393e-06   1.8639666436612475e-05
1.002386211172406e-06   2.0949943215888348e-06   3.98548743183692e-05
1.002386211172406e-06   2.0949943215888348e-06   3.98548743183692e-05
1.002386211172406e-06   2.0949943215888348e-06   3.98548743183692e-05
1.002386211172406e-06   2.0949943215888348e-06   3.98548743183692e-05
-2.0956877707485665e-05   3.038683126269006e-06   3.822314403413574e-06
-2.0956877707485665e-05   3.038683126269006e-06   3.822314403413574e-06
-2.0956877707485665e-05   3.038683126269006e-06   3.822314403413574e-06
-2.0956877707485665e-05   3.038683126269006e-06   3.822314403413574e-06
-2.1862350127086085e-05   1.7300290014957836e-06   4.040259897660674e-05
-2.1862350127086085e-05   1.7300290014957836e-06   4.040259897660674e-05
-2.1862350127086085e-05   1.7300290014957836e-06   4.040259897660674e-05
-2.1862350127086085e-05   1.7300290014957836e-06   4.040259897660674e-05
1.3583894744619279e-07   2.5766682416228544e-06   3.2309669749768237e-06
1.3583894744619279e-07   2.5766682416228544e-06   3.2309669749768237e-06
1.3583894744619279e-07   2.5766682416228544e-06   3.2309669749768237e-06
1.3583894744619279e-07   2.5766682416228544e-06   3.2309669749768237e-06
-1.0436363923604027e-05   2.3866765590939594e-06   2.096530010291123e-05
-1.0436363923604027e-05   2.3866765590939594e-06   2.096530010291123e-05
-1.0436363923604027e-05   2.3866765590939594e-06   2.096530010291123e-05
-1.0436363923604027e-05   2.3866765590939594e-06   2.096530010291123e-05
1.3583894744619279e-07   1.7300290014957836e-06   3.989461543253041e-05
1.3583894744619279e-07   1.7300290014957836e-06   3.989461543253041e-05
1.3583894744619279e-07   1.7300290014957836e-06   3.989461543253041e-05
1.3583894744619279e-07   1.7300290014957836e-06   3.989461543253041e-05
-2.1862350127086085e-05   2.5766682416228544e-06   3.7389505190530987e-06
-2.1862350127086085e-05   2.5766682416228544e-06   3.7389505190530987e-06
-2.1862350127086085e-05   2.5766682416228544e-06   3.7389505190530987e-06
-2.1862350127086085e-05   2.5766682416228544e-06   3.7389505190530987e-06
-2.2818418049595914e-05   1.390292427676243e-06   4.0782950640102936e-05
-2.2818418049595914e-05   1.390292427676243e-06   4.0782950640102936e-05
-2.2818418049595914e-05   1.390292427676243e-06   4.0782950640102936e-05
-2.2818418049595914e-05   1.390292427676243e-06   4.0782950640102936e-05
-7.648899507983119e-07   2.1280667714977317e-06   3.584405869147371e-06
-7.648899507983119e-07   2.1280667714977317e-06   3.584405869147371e-06
-7.648899507983119e-07   2.1280667714977317e-06   3.584405869147371e-06
-7.648899507983119e-07   2.1280667714977317e-06   3.584405869147371e-06
-1.1277449576354017e-05   2.123106791116023e-06   2.1108314566635803e-05
-1.1277449576354017e-05   2.123106791116023e-06   2.1108314566635803e-05
-1.1277449576354017e-05   2.123106791116023e-06   2.1108314566635803e-05
-1.1277449576354017e-05   2.123106791116023e-06   2.1108314566635803e-05
-7.648899507983119e-07   1.390292427676243e-06   4.034028603381039e-05
-7.648899507983119e-07   1.390292427676243e-06   4.034028603381039e-05
-7.648899507983119e-07   1.390292427676243e-06   4.034028603381039e-05
-7.648899507983119e-07   1.390292427676243e-06   4.034028603381039e-05
-2.281841804959594e-05   2.1280667714977317e-06   4.027070475440351e-06
-2.281841804959594e-05   2.1280667714977317e-06   4.027070475440351e-06
-2.281841804959594e-05   2.1280667714977317e-06   4.027070475440351e-06
-2.281841804959594e-05   2.1280667714977317e-06   4.027070475440351e-06
-2.3804949962367278e-05   1.1457152608741056e-06   4.138767248239371e-05
-2.3804949962367278e-05   1.1457152608741056e-06   4.138767248239371e-05
-2.3804949962367278e-05   1.1457152608741056e-06   4.138767248239371e-05
-2.3804949962367278e-05   1.1457152608741056e-06   4.138767248239371e-05
-1.7026149144728207e-06   1.7287781858346674e-06   4.200609647593307e-06
-1.7026149144728207e-06   1.7287781858346674e-06   4.200609647593307e-06
-1.7026149144728207e-06   1.7287781858346674e-06   4.200609647593307e-06
-1.7026149144728207e-06   1.7287781858346674e-06   4.200609647593307e-06
-1.2187651654914055e-05   1.8706361579047363e-06   2.159055609842061e-05
-1.2187651654914055e-05   1.8706361579047363e-06   2.159055609842061e-05
-1.2187651654914055e-05   1.8706361579047363e-06   2.159055609842061e-05
-1.2187651654914055e-05   1.8706361579047363e-06   2.159055609842061e-05
-2.0956877707485746e-05   6.820569676459481e-06   3.477426844890677e-05
-2.0956877707485746e-05   6.820569676459481e-06   3.477426844890677e-05
-2.0956877707485746e-05   6.820569676459481e-06   3.477426844890677e-05
-2.0956877707485746e-05   6.820569676459481e-06   3.477426844890677e-05
-4.2227811032745046e-05   6.90697310630527e-06   -6.254450352845319e-07
-4.2227811032745046e-05   6.90697310630527e-06   -6.254450352845319e-07
-4.2227811032745046e-05   6.90697310630527e-06   -6.254450352845319e-07
-4.2227811032745046e-05   6.90697310630527e-06   -6.254450352845319e-07
-4.327896139125312e-05   6.454984211143062e-06   3.5382931808250386e-05
-4.327896139125312e-05   6.454984211143062e-06   3.5382931808250386e-05
-4.327896139125312e-05   6.454984211143062e-06   3.5382931808250386e-05
-4.327896139125312e-05   6.454984211143062e-06   3.5382931808250386e-05
-2.1862350127086112e-05   6.4660640188597684e-06   -3.1806818332467436e-07
-2.1862350127086112e-05   6.4660640188597684e-06   -3.1806818332467436e-07
-2.1862350127086112e-05   6.4660640188597684e-06   -3.1806818332467436e-07
-2.1862350127086112e-05   6.4660640188597684e-06   -3.1806818332467436e-07
-3.193815028523133e-05   6.645637342871189e-06   1.6367188085844304e-05
-3.193815028523133e-05   6.645637342871189e-06   1.6367188085844304e-05
-3.193815028523133e-05   6.645637342871189e-06   1.6367188085844304e-05
-3.193815028523133e-05   6.645637342871189e-06   1.6367188085844304e-05
-2.1862350127086112e-05   6.454984211143062e-06   3.537628392362023e-05
-2.1862350127086112e-05   6.454984211143062e-06   3.537628392362023e-05
-2.1862350127086112e-05   6.454984211143062e-06   3.537628392362023e-05
-2.1862350127086112e-05   6.454984211143062e-06   3.537628392362023e-05
-4.327896139125304e-05   6.466064018860202e-06   -3.1142029869452026e-07
-4.327896139125304e-05   6.466064018860202e-06   -3.1142029869452026e-07
-4.327896139125304e-05   6.466064018860202e-06   -3.1142029869452026e-07
-4.327896139125304e-05   6.466064018860202e-06   -3.1142029869452026e-07
-4.4443807320670325e-05   6.116599932530324e-06   3.702766308109158e-05
-4.4443807320670325e-05   6.116599932530324e-06   3.702766308109158e-05
-4.4443807320670325e-05   6.116599932530324e-06   3.702766308109158e-05
-4.4443807320670325e-05   6.116599932530324e-06   3.702766308109158e-05
-2.281841804959594e-05   6.059354439135259e-06   1.0196949253377585e-06
-2.281841804959594e-05   6.059354439135259e-06   1.0196949253377585e-06
-2.281841804959594e-05   6.059354439135259e-06   1.0196949253377585e-06
-2.281841804959594e-05   6.059354439135259e-06   1.0196949253377585e-06
-3.2697626312153875e-05   6.396795781606068e-06   1.7282577224118413e-05
-3.2697626312153875e-05   6.396795781606068e-06   1.7282577224118413e-05
-3.2697626312153875e-05   6.396795781606068e-06   1.7282577224118413e-05
-3.2697626312153875e-05   6.396795781606068e-06   1.7282577224118413e-05
-2.281841804959594e-05   6.1165999325298905e-06   3.7062010377128226e-05
-2.281841804959594e-05   6.1165999325298905e-06   3.7062010377128226e-05
-2.281841804959594e-05   6.1165999325298905e-06   3.7062010377128226e-05
-2.281841804959594e-05   6.1165999325298905e-06   3.7062010377128226e-05
-4.444380732067027e-05   6.059354439135259e-06   9.853476293010012e-07
-4.444380732067027e-05   6.059354439135259e-06   9.853476293010012e-07
-4.444380732067027e-05   6.059354439135259e-06   9.853476293010012e-07
-4.444380732067027e-05   6.059354439135259e-06   9.853476293010012e-07
-4.555386009562427e-05   5.661395565222625e-06   3.8213835807271316e-05
-4.555386009562427e-05   5.661395565222625e-06   3.8213835807271316e-05
-4.555386009562427e-05   5.661395565222625e-06   3.8213835807271316e-05
-4.555386009562427e-05   5.661395565222625e-06   3.8213835807271316e-05
-2.380494996236736e-05   5.562448814626711e-06   2.0250203022006844e-06
-2.380494996236736e-05   5.562448814626711e-06   2.0250203022006844e-06
-2.380494996236736e-05   5.562448814626711e-06   2.0250203022006844e-06
-2.380494996236736e-05   5.562448814626711e-06   2.0250203022006844e-06
-3.390692927947829e-05   6.073269515297335e-06   1.8555160076984723e-05
-3.390692927947829e-05   6.073269515297335e-06   1.8555160076984723e-05
-3.390692927947829e-05   6.073269515297335e-06   1.8555160076984723e-05
-3.390692927947829e-05   6.073269515297335e-06   1.8555160076984723e-05
-4.222781103274499e-05   1.1092470126815388e-05   1.6717273099031748e-05
-4.222781103274499e-05   1.1092470126815388e-05   1.6717273099031748e-05
-4.222781103274499e-05   1.1092470126815388e-05   1.6717273099031748e-05
-4.222781103274499e-05   1.1092470126815388e-05   1.6717273099031748e-05
-6.244526426350106e-05   9.947025241874297e-06   -1.766574921652621e-05
-6.244526426350106e-05   9.947025241874297e-06   -1.766574921652621e-05
-6.244526426350106e-05   9.947025241874297e-06   -1.766574921652621e-05
-6.244526426350106e-05   9.947025241874297e-06   -1.766574921652621e-05
-6.410065552705848e-05   1.1306638903364231e-05   2.319326874875797e-05
-6.410065552705848e-05   1.1306638903364231e-05   2.319326874875797e-05
-6.410065552705848e-05   1.1306638903364231e-05   2.319326874875797e-05
-6.410065552705848e-05   1.1306638903364231e-05   2.319326874875797e-05
-4.327896139125312e-05   1.0053364585178338e-05   -1.0757590220006352e-05
-4.327896139125312e-05   1.0053364585178338e-05   -1.0757590220006352e-05
-4.327896139125312e-05   1.0053364585178338e-05   -1.0757590220006352e-05
-4.327896139125312e-05   1.0053364585178338e-05   -1.0757590220006352e-05
-5.098312233400326e-05   1.0537576040143236e-05   1.7921511449315035e-06
-5.098312233400326e-05   1.0537576040143236e-05   1.7921511449315035e-06
-5.098312233400326e-05   1.0537576040143236e-05   1.7921511449315035e-06
-5.098312233400326e-05   1.0537576040143236e-05   1.7921511449315035e-06
-4.327896139125301e-05   1.1306638903364231e-05   2.3945233339669244e-05
-4.327896139125301e-05   1.1306638903364231e-05   2.3945233339669244e-05
-4.327896139125301e-05   1.1306638903364231e-05   2.3945233339669244e-05
-4.327896139125301e-05   1.1306638903364231e-05   2.3945233339669244e-05
-6.410065552705873e-05   1.0053364585178338e-05   -1.1509554810917953e-05
-6.410065552705873e-05   1.0053364585178338e-05   -1.1509554810917953e-05
-6.410065552705873e-05   1.0053364585178338e-05   -1.1509554810917953e-05
-6.410065552705873e-05   1.0053364585178338e-05   -1.1509554810917953e-05
-6.571682006935745e-05   1.1225635575819529e-05   2.8232959639698215e-05
-6.571682006935745e-05   1.1225635575819529e-05   2.8232959639698215e-05
-6.571682006935745e-05   1.1225635575819529e-05   2.8232959639698215e-05
-6.571682006935745e-05   1.1225635575819529e-05   2.8232959639698215e-05
-4.4443807320670325e-05   9.942949315263749e-06   -6.452449851780391e-06
-4.4443807320670325e-05   9.942949315263749e-06   -6.452449851780391e-06
-4.4443807320670325e-05   9.942949315263749e-06   -6.452449851780391e-06
-4.4443807320670325e-05   9.942949315263749e-06   -6.452449851780391e-06
-5.3018656283524486e-05   1.0730257915224795e-05   7.366579926333867e-06
-5.3018656283524486e-05   1.0730257915224795e-05   7.366579926333867e-06
-5.3018656283524486e-05   1.0730257915224795e-05   7.366579926333867e-06
-5.3018656283524486e-05   1.0730257915224795e-05   7.366579926333867e-06
-4.4443807320670325e-05   1.1225635575819529e-05   2.900257139603203e-05
-4.4443807320670325e-05   1.1225635575819529e-05   2.900257139603203e-05
-4.4443807320670325e-05   1.1225635575819529e-05   2.900257139603203e-05
-4.4443807320670325e-05   1.1225635575819529e-05   2.900257139603203e-05
-6.571682006935772e-05   9.942949315263749e-06   -7.222061608113989e-06
-6.571682006935772e-05   9.942949315263749e-06   -7.222061608113989e-06
-6.571682006935772e-05   9.942949315263749e-06   -7.222061608113989e-06
-6.571682006935772e-05   9.942949315263749e-06   -7.222061608113989e-06
-6.760406430906965e-05   1.0335340784232636e-05   3.6865353664920124e-05
-6.760406430906965e-05   1.0335340784232636e-05   3.6865353664920124e-05
-6.760406430906965e-05   1.0335340784232636e-05   3.6865353664920124e-05
-6.760406430906965e-05   1.0335340784232636e-05   3.6865353664920124e-05
-4.555386009562427e-05   9.176863492933035e-06   8.100996839572835e-07
-4.555386009562427e-05   9.176863492933035e-06   8.100996839572835e-07
-4.555386009562427e-05   9.176863492933035e-06   8.100996839572835e-07
-4.555386009562427e-05   9.176863492933035e-06   8.100996839572835e-07
-5.35332172464917e-05   1.0414144047494675e-05   1.336665993600044e-05
-5.35332172464917e-05   1.0414144047494675e-05   1.336665993600044e-05
-5.35332172464917e-05   1.0414144047494675e-05   1.336665993600044e-05
-5.35332172464917e-05   1.0414144047494675e-05   1.336665993600044e-05
3.6246359502883536e-05   -4.8968307271852855e-06   3.074219047839006e-05
3.6246359502883536e-05   -4.8968307271852855e-06   3.074219047839006e-05
3.6246359502883536e-05   -4.8968307271852855e-06   3.074219047839006e-05
3.6246359502883536e-05   -4.8968307271852855e-06   3.074219047839006e-05
1.7062038702387615e-05   -3.238773974746081e-06   -2.3684347097300065e-07
1.7062038702387615e-05   -3.238773974746081e-06   -2.3684347097300065e-07
1.7062038702387615e-05   -3.238773974746081e-06   -2.3684347097300065e-07
1.7062038702387615e-05   -3.238773974746081e-06   -2.3684347097300065e-07
1.6255755377314538e-05   -5.680695510079312e-06   2.7009779152757868e-05
1.6255755377314538e-05   -5.680695510079312e-06   2.7009779152757868e-05
1.6255755377314538e-05   -5.680695510079312e-06   2.7009779152757868e-05
1.6255755377314538e-05   -5.680695510079312e-06   2.7009779152757868e-05
3.4686237593147426e-05   -3.930089097102388e-06   -4.758055054750117e-06
3.4686237593147426e-05   -3.930089097102388e-06   -4.758055054750117e-06
3.4686237593147426e-05   -3.930089097102388e-06   -4.758055054750117e-06
3.4686237593147426e-05   -3.930089097102388e-06   -4.758055054750117e-06
2.483665871382865e-05   -4.470220539241508e-06   1.1981988609398005e-05
2.483665871382865e-05   -4.470220539241508e-06   1.1981988609398005e-05
2.483665871382865e-05   -4.470220539241508e-06   1.1981988609398005e-05
2.483665871382865e-05   -4.470220539241508e-06   1.1981988609398005e-05
3.4686237593147426e-05   -5.680695510079312e-06   2.5959415304971497e-05
3.4686237593147426e-05   -5.680695510079312e-06   2.5959415304971497e-05
3.4686237593147426e-05   -5.680695510079312e-06   2.5959415304971497e-05
3.4686237593147426e-05   -5.680695510079312e-06   2.5959415304971497e-05
1.6255755377314565e-05   -3.930089097102388e-06   -3.7076912069635565e-06
1.6255755377314565e-05   -3.930089097102388e-06   -3.7076912069635565e-06
1.6255755377314565e-05   -3.930089097102388e-06   -3.7076912069635565e-06
1.6255755377314565e-05   -3.930089097102388e-06   -3.7076912069635565e-06
1.5365696357975378e-05   -5.83799966242908e-06   2.4386411405579898e-05
1.5365696357975378e-05   -5.83799966242908e-06   2.4386411405579898e-05
1.5365696357975378e-05   -5.83799966242908e-06   2.4386411405579898e-05
1.5365696357975378e-05   -5.83799966242908e-06   2.4386411405579898e-05
3.331880493355759e-05   -4.114640097823861e-06   -6.569451959153409e-06
3.331880493355759e-05   -4.114640097823861e-06   -6.569451959153409e-06
3.331880493355759e-05   -4.114640097823861e-06   -6.569451959153409e-06
3.331880493355759e-05   -4.114640097823861e-06   -6.569451959153409e-06
2.41909807832206e-05   -4.750778079244244e-06   9.025271080260956e-06
2.41909807832206e-05   -4.750778079244244e-06   9.025271080260956e-06
2.41909807832206e-05   -4.750778079244244e-06   9.025271080260956e-06
2.41909807832206e-05   -4.750778079244244e-06   9.025271080260956e-06
3.331880493355753e-05   -5.83799966242908e-06   2.335239566681694e-05
3.331880493355753e-05   -5.83799966242908e-06   2.335239566681694e-05
3.331880493355753e-05   -5.83799966242908e-06   2.335239566681694e-05
3.331880493355753e-05   -5.83799966242908e-06   2.335239566681694e-05
1.53656963579754e-05   -4.114640097823861e-06   -5.5354362203901934e-06
1.53656963579754e-05   -4.114640097823861e-06   -5.5354362203901934e-06
1.53656963579754e-05   -4.114640097823861e-06   -5.5354362203901934e-06
1.53656963579754e-05   -4.114640097823861e-06   -5.5354362203901934e-06
1.454377969369209e-05   -5.900713913882961e-06   2.0832220081830072e-05
1.454377969369209e-05   -5.900713913882961e-06   2.0832220081830072e-05
1.454377969369209e-05   -5.900713913882961e-06   2.0832220081830072e-05
1.454377969369209e-05   -5.900713913882961e-06   2.0832220081830072e-05
3.179075873467392e-05   -4.286496130045947e-06   -8.881275656775318e-06
3.179075873467392e-05   -4.286496130045947e-06   -8.881275656775318e-06
3.179075873467392e-05   -4.286496130045947e-06   -8.881275656775318e-06
3.179075873467392e-05   -4.286496130045947e-06   -8.881275656775318e-06
2.2762652342833658e-05   -4.7232809678907604e-06   6.427639232332795e-06
2.2762652342833658e-05   -4.7232809678907604e-06   6.427639232332795e-06
2.2762652342833658e-05   -4.7232809678907604e-06   6.427639232332795e-06
2.2762652342833658e-05   -4.7232809678907604e-06   6.427639232332795e-06
1.7062038702387554e-05   -9.369554096281402e-07   3.493940804651335e-05
1.7062038702387554e-05   -9.369554096281402e-07   3.493940804651335e-05
1.7062038702387554e-05   -9.369554096281402e-07   3.493940804651335e-05
1.7062038702387554e-05   -9.369554096281402e-07   3.493940804651335e-05
-1.0952319758064183e-06   -1.7934603013412473e-08   5.228702733492624e-06
-1.0952319758064183e-06   -1.7934603013412473e-08   5.228702733492624e-06
-1.0952319758064183e-06   -1.7934603013412473e-08   5.228702733492624e-06
-1.0952319758064183e-06   -1.7934603013412473e-08   5.228702733492624e-06
-1.8533170525693765e-06   -1.4925664185410498e-06   3.50006693475291e-05
-1.8533170525693765e-06   -1.4925664185410498e-06   3.50006693475291e-05
-1.8533170525693765e-06   -1.4925664185410498e-06   3.50006693475291e-05
-1.8533170525693765e-06   -1.4925664185410498e-06   3.50006693475291e-05
1.6255755377314565e-05   -6.190294343164093e-07   4.294759773854714e-06
1.6255755377314565e-05   -6.190294343164093e-07   4.294759773854714e-06
1.6255755377314565e-05   -6.190294343164093e-07   4.294759773854714e-06
1.6255755377314565e-05   -6.190294343164093e-07   4.294759773854714e-06
7.469277444911659e-06   -7.884782188011946e-07   1.904055893188353e-05
7.469277444911659e-06   -7.884782188011946e-07   1.904055893188353e-05
7.469277444911659e-06   -7.884782188011946e-07   1.904055893188353e-05
7.469277444911659e-06   -7.884782188011946e-07   1.904055893188353e-05
1.6255755377314524e-05   -1.492566418540616e-06   3.447654715699449e-05
1.6255755377314524e-05   -1.492566418540616e-06   3.447654715699449e-05
1.6255755377314524e-05   -1.492566418540616e-06   3.447654715699449e-05
1.6255755377314524e-05   -1.492566418540616e-06   3.447654715699449e-05
-1.8533170525693765e-06   -6.190294343164093e-07   4.818881964389291e-06
-1.8533170525693765e-06   -6.190294343164093e-07   4.818881964389291e-06
-1.8533170525693765e-06   -6.190294343164093e-07   4.818881964389291e-06
-1.8533170525693765e-06   -6.190294343164093e-07   4.818881964389291e-06
-2.627558298700538e-06   -1.905022593729367e-06   3.4472828563571504e-05
-2.627558298700538e-06   -1.905022593729367e-06   3.4472828563571504e-05
-2.627558298700538e-06   -1.905022593729367e-06   3.4472828563571504e-05
-2.627558298700538e-06   -1.905022593729367e-06   3.4472828563571504e-05
1.53656963579754e-05   -1.0926355956133137e-06   3.996638603575714e-06
1.53656963579754e-05   -1.0926355956133137e-06   3.996638603575714e-06
1.53656963579754e-05   -1.0926355956133137e-06   3.996638603575714e-06
1.53656963579754e-05   -1.0926355956133137e-06   3.996638603575714e-06
6.618777433431921e-06   -1.1593347065555829e-06   1.8614856277714554e-05
6.618777433431921e-06   -1.1593347065555829e-06   1.8614856277714554e-05
6.618777433431921e-06   -1.1593347065555829e-06   1.8614856277714554e-05
6.618777433431921e-06   -1.1593347065555829e-06   1.8614856277714554e-05
1.5365696357975378e-05   -1.905022593729367e-06   3.3985396364702176e-05
1.5365696357975378e-05   -1.905022593729367e-06   3.3985396364702176e-05
1.5365696357975378e-05   -1.905022593729367e-06   3.3985396364702176e-05
1.5365696357975378e-05   -1.905022593729367e-06   3.3985396364702176e-05
-2.627558298700538e-06   -1.0926355956133137e-06   4.4840708024451986e-06
-2.627558298700538e-06   -1.0926355956133137e-06   4.4840708024451986e-06
-2.627558298700538e-06   -1.0926355956133137e-06   4.4840708024451986e-06
-2.627558298700538e-06   -1.0926355956133137e-06   4.4840708024451986e-06
-3.4060164822659653e-06   -2.2300547647606354e-06   3.471194191979974e-05
-3.4060164822659653e-06   -2.2300547647606354e-06   3.471194191979974e-05
-3.4060164822659653e-06   -2.2300547647606354e-06   3.471194191979974e-05
-3.4060164822659653e-06   -2.2300547647606354e-06   3.471194191979974e-05
1.4543779693692103e-05   -1.5310078306802598e-06   4.3761867994215325e-06
1.4543779693692103e-05   -1.5310078306802598e-06   4.3761867994215325e-06
1.4543779693692103e-05   -1.5310078306802598e-06   4.3761867994215325e-06
1.4543779693692103e-05   -1.5310078306802598e-06   4.3761867994215325e-06
5.969592582583311e-06   -1.433619174242163e-06   1.8608065457407217e-05
5.969592582583311e-06   -1.433619174242163e-06   1.8608065457407217e-05
5.969592582583311e-06   -1.433619174242163e-06   1.8608065457407217e-05
5.969592582583311e-06   -1.433619174242163e-06   1.8608065457407217e-05
-1.0952319758064319e-06   3.038683126269006e-06   3.698770230378288e-05
-1.0952319758064319e-06   3.038683126269006e-06   3.698770230378288e-05
-1.0952319758064319e-06   3.038683126269006e-06   3.698770230378288e-05
-1.0952319758064319e-06   3.038683126269006e-06   3.698770230378288e-05
-1.8871529407837748e-05   3.1281785165394697e-06   7.414237151226249e-06
-1.8871529407837748e-05   3.1281785165394697e-06   7.414237151226249e-06
-1.8871529407837748e-05   3.1281785165394697e-06   7.414237151226249e-06
-1.8871529407837748e-05   3.1281785165394697e-06   7.414237151226249e-06
-1.9633763403385774e-05   2.5766682416228544e-06   3.687582110263382e-05
-1.9633763403385774e-05   2.5766682416228544e-06   3.687582110263382e-05
-1.9633763403385774e-05   2.5766682416228544e-06   3.687582110263382e-05
-1.9633763403385774e-05   2.5766682416228544e-06   3.687582110263382e-05
-1.8533170525693765e-06   2.6002357867795957e-06   7.227603324179302e-06
-1.8533170525693765e-06   2.6002357867795957e-06   7.227603324179302e-06
-1.8533170525693765e-06   2.6002357867795957e-06   7.227603324179302e-06
-1.8533170525693765e-06   2.6002357867795957e-06   7.227603324179302e-06
-1.0390342233180374e-05   2.7862317485004458e-06   2.1344381048165044e-05
-1.0390342233180374e-05   2.7862317485004458e-06   2.1344381048165044e-05
-1.0390342233180374e-05   2.7862317485004458e-06   2.1344381048165044e-05
-1.0390342233180374e-05   2.7862317485004458e-06   2.1344381048165044e-05
-1.8533170525693765e-06   2.5766682416228544e-06   3.6861680575539946e-05
-1.8533170525693765e-06   2.5766682416228544e-06   3.6861680575539946e-05
-1.8533170525693765e-06   2.5766682416228544e-06   3.6861680575539946e-05
-1.8533170525693765e-06   2.5766682416228544e-06   3.6861680575539946e-05
-1.9633763403385774e-05   2.6002357867795957e-06   7.241743851273174e-06
-1.9633763403385774e-05   2.6002357867795957e-06   7.241743851273174e-06
-1.9633763403385774e-05   2.6002357867795957e-06   7.241743851273174e-06
-1.9633763403385774e-05   2.6002357867795957e-06   7.241743851273174e-06
-2.0414994860675298e-05   2.1280667714977317e-06   3.707704800152002e-05
-2.0414994860675298e-05   2.1280667714977317e-06   3.707704800152002e-05
-2.0414994860675298e-05   2.1280667714977317e-06   3.707704800152002e-05
-2.0414994860675298e-05   2.1280667714977317e-06   3.707704800152002e-05
-2.627558298700538e-06   2.0806828521530846e-06   7.4597507498354516e-06
-2.627558298700538e-06   2.0806828521530846e-06   7.4597507498354516e-06
-2.627558298700538e-06   2.0806828521530846e-06   7.4597507498354516e-06
-2.627558298700538e-06   2.0806828521530846e-06   7.4597507498354516e-06
-1.1097985494034155e-05   2.431366854355275e-06   2.1366719007404327e-05
-1.1097985494034155e-05   2.431366854355275e-06   2.1366719007404327e-05
-1.1097985494034155e-05   2.431366854355275e-06   2.1366719007404327e-05
-1.1097985494034155e-05   2.431366854355275e-06   2.1366719007404327e-05
-2.627558298700538e-06   2.1280667714977317e-06   3.710547835312681e-05
-2.627558298700538e-06   2.1280667714977317e-06   3.710547835312681e-05
-2.627558298700538e-06   2.1280667714977317e-06   3.710547835312681e-05
-2.627558298700538e-06   2.1280667714977317e-06   3.710547835312681e-05
-2.0414994860675298e-05   2.0806828521530846e-06   7.431320398228799e-06
-2.0414994860675298e-05   2.0806828521530846e-06   7.431320398228799e-06
-2.0414994860675298e-05   2.0806828521530846e-06   7.431320398228799e-06
-2.0414994860675298e-05   2.0806828521530846e-06   7.431320398228799e-06
-2.1195881594809608e-05   1.7287781858346674e-06   3.753697831755079e-05
-2.1195881594809608e-05   1.7287781858346674e-06   3.753697831755079e-05
-2.1195881594809608e-05   1.7287781858346674e-06   3.753697831755079e-05
-2.1195881594809608e-05   1.7287781858346674e-06   3.753697831755079e-05
-3.406016482265979e-06   1.5876881862076156e-06   7.971857129754361e-06
-3.406016482265979e-06   1.5876881862076156e-06   7.971857129754361e-06
-3.406016482265979e-06   1.5876881862076156e-06   7.971857129754361e-06
-3.406016482265979e-06   1.5876881862076156e-06   7.971857129754361e-06
-1.1838855119634794e-05   2.0856034847972684e-06   2.172783901288253e-05
-1.1838855119634794e-05   2.0856034847972684e-06   2.172783901288253e-05
-1.1838855119634794e-05   2.0856034847972684e-06   2.172783901288253e-05
-1.1838855119634794e-05   2.0856034847972684e-06   2.172783901288253e-05
-1.887152940783772e-05   6.90697310630527e-06   3.254179804133947e-05
-1.887152940783772e-05   6.90697310630527e-06   3.254179804133947e-05
-1.887152940783772e-05   6.90697310630527e-06   3.254179804133947e-05
-1.887152940783772e-05   6.90697310630527e-06   3.254179804133947e-05
-3.6257112026449846e-05   6.15610472300414e-06   3.1153059803383292e-06
-3.6257112026449846e-05   6.15610472300414e-06   3.1153059803383292e-06
-3.6257112026449846e-05   6.15610472300414e-06   3.1153059803383292e-06
-3.6257112026449846e-05   6.15610472300414e-06   3.1153059803383292e-06
-3.707734887347682e-05   6.4660640188597684e-06   3.2329575910600454e-05
-3.707734887347682e-05   6.4660640188597684e-06   3.2329575910600454e-05
-3.707734887347682e-05   6.4660640188597684e-06   3.2329575910600454e-05
-3.707734887347682e-05   6.4660640188597684e-06   3.2329575910600454e-05
-1.9633763403385828e-05   5.650686536099944e-06   3.7461599501048656e-06
-1.9633763403385828e-05   5.650686536099944e-06   3.7461599501048656e-06
-1.9633763403385828e-05   5.650686536099944e-06   3.7461599501048656e-06
-1.9633763403385828e-05   5.650686536099944e-06   3.7461599501048656e-06
-2.786750884597303e-05   6.212638190622108e-06   1.71318980283704e-05
-2.786750884597303e-05   6.212638190622108e-06   1.71318980283704e-05
-2.786750884597303e-05   6.212638190622108e-06   1.71318980283704e-05
-2.786750884597303e-05   6.212638190622108e-06   1.71318980283704e-05
-1.9633763403385774e-05   6.466064018860202e-06   3.281880240025648e-05
-1.9633763403385774e-05   6.466064018860202e-06   3.281880240025648e-05
-1.9633763403385774e-05   6.466064018860202e-06   3.281880240025648e-05
-1.9633763403385774e-05   6.466064018860202e-06   3.281880240025648e-05
-3.707734887347682e-05   5.650686536099944e-06   3.2569334604487868e-06
-3.707734887347682e-05   5.650686536099944e-06   3.2569334604487868e-06
-3.707734887347682e-05   5.650686536099944e-06   3.2569334604487868e-06
-3.707734887347682e-05   5.650686536099944e-06   3.2569334604487868e-06
-3.798021549539953e-05   6.059354439135259e-06   3.3541812231893935e-05
-3.798021549539953e-05   6.059354439135259e-06   3.3541812231893935e-05
-3.798021549539953e-05   6.059354439135259e-06   3.3541812231893935e-05
-3.798021549539953e-05   6.059354439135259e-06   3.3541812231893935e-05
-2.0414994860675352e-05   5.179587406595708e-06   4.794304726877272e-06
-2.0414994860675352e-05   5.179587406595708e-06   4.794304726877272e-06
-2.0414994860675352e-05   5.179587406595708e-06   4.794304726877272e-06
-2.0414994860675352e-05   5.179587406595708e-06   4.794304726877272e-06
-2.8455926041121943e-05   5.890041287944566e-06   1.7769584365479778e-05
-2.8455926041121943e-05   5.890041287944566e-06   1.7769584365479778e-05
-2.8455926041121943e-05   5.890041287944566e-06   1.7769584365479778e-05
-2.8455926041121943e-05   5.890041287944566e-06   1.7769584365479778e-05
-2.0414994860675325e-05   6.059354439135259e-06   3.4069672451417536e-05
-2.0414994860675325e-05   6.059354439135259e-06   3.4069672451417536e-05
-2.0414994860675325e-05   6.059354439135259e-06   3.4069672451417536e-05
-2.0414994860675325e-05   6.059354439135259e-06   3.4069672451417536e-05
-3.798021549539953e-05   5.179587406595708e-06   4.2664445073535085e-06
-3.798021549539953e-05   5.179587406595708e-06   4.2664445073535085e-06
-3.798021549539953e-05   5.179587406595708e-06   4.2664445073535085e-06
-3.798021549539953e-05   5.179587406595708e-06   4.2664445073535085e-06
-3.880565463376773e-05   5.562448814626711e-06   3.445257899602704e-05
-3.880565463376773e-05   5.562448814626711e-06   3.445257899602704e-05
-3.880565463376773e-05   5.562448814626711e-06   3.445257899602704e-05
-3.880565463376773e-05   5.562448814626711e-06   3.445257899602704e-05
-2.1195881594809635e-05   4.630828446034688e-06   5.661929485585408e-06
-2.1195881594809635e-05   4.630828446034688e-06   5.661929485585408e-06
-2.1195881594809635e-05   4.630828446034688e-06   5.661929485585408e-06
-2.1195881594809635e-05   4.630828446034688e-06   5.661929485585408e-06
-2.9392875385180934e-05   5.525964408388583e-06   1.8786504225460016e-05
-2.9392875385180934e-05   5.525964408388583e-06   1.8786504225460016e-05
-2.9392875385180934e-05   5.525964408388583e-06   1.8786504225460016e-05
-2.9392875385180934e-05   5.525964408388583e-06   1.8786504225460016e-05
-3.6257112026449846e-05   9.947025241874297e-06   1.573823976108138e-05
-3.6257112026449846e-05   9.947025241874297e-06   1.573823976108138e-05
-3.6257112026449846e-05   9.947025241874297e-06   1.573823976108138e-05
-3.6257112026449846e-05   9.947025241874297e-06   1.573823976108138e-05
-5.277078468151258e-05   8.486325151812633e-06   -1.2660968051393553e-05
-5.277078468151258e-05   8.486325151812633e-06   -1.2660968051393553e-05
-5.277078468151258e-05   8.486325151812633e-06   -1.2660968051393553e-05
-5.277078468151258e-05   8.486325151812633e-06   -1.2660968051393553e-05
-5.4245099518902145e-05   1.0053364585178338e-05   2.0918108562730832e-05
-5.4245099518902145e-05   1.0053364585178338e-05   2.0918108562730832e-05
-5.4245099518902145e-05   1.0053364585178338e-05   2.0918108562730832e-05
-5.4245099518902145e-05   1.0053364585178338e-05   2.0918108562730832e-05
-3.707734887347682e-05   8.44453554091568e-06   -6.729511753087304e-06
-3.707734887347682e-05   8.44453554091568e-06   -6.729511753087304e-06
-3.707734887347682e-05   8.44453554091568e-06   -6.729511753087304e-06
-3.707734887347682e-05   8.44453554091568e-06   -6.729511753087304e-06
-4.337211527930226e-05   9.0973342110846e-06   3.3700863878536203e-06
-4.337211527930226e-05   9.0973342110846e-06   3.3700863878536203e-06
-4.337211527930226e-05   9.0973342110846e-06   3.3700863878536203e-06
-4.337211527930226e-05   9.0973342110846e-06   3.3700863878536203e-06
-3.707734887347679e-05   1.0053364585178338e-05   2.1883405989288514e-05
-3.707734887347679e-05   1.0053364585178338e-05   2.1883405989288514e-05
-3.707734887347679e-05   1.0053364585178338e-05   2.1883405989288514e-05
-3.707734887347679e-05   1.0053364585178338e-05   2.1883405989288514e-05
-5.4245099518902254e-05   8.44453554091568e-06   -7.694809179644986e-06
-5.4245099518902254e-05   8.44453554091568e-06   -7.694809179644986e-06
-5.4245099518902254e-05   8.44453554091568e-06   -7.694809179644986e-06
-5.4245099518902254e-05   8.44453554091568e-06   -7.694809179644986e-06
-5.5564945729188835e-05   9.942949315263749e-06   2.5101844632339576e-05
-5.5564945729188835e-05   9.942949315263749e-06   2.5101844632339576e-05
-5.5564945729188835e-05   9.942949315263749e-06   2.5101844632339576e-05
-5.5564945729188835e-05   9.942949315263749e-06   2.5101844632339576e-05
-3.798021549539953e-05   8.272665784475868e-06   -3.2038689721700076e-06
-3.798021549539953e-05   8.272665784475868e-06   -3.2038689721700076e-06
-3.798021549539953e-05   8.272665784475868e-06   -3.2038689721700076e-06
-3.798021549539953e-05   8.272665784475868e-06   -3.2038689721700076e-06
-4.5067572160992854e-05   9.198035985153851e-06   8.05317001674699e-06
-4.5067572160992854e-05   9.198035985153851e-06   8.05317001674699e-06
-4.5067572160992854e-05   9.198035985153851e-06   8.05317001674699e-06
-4.5067572160992854e-05   9.198035985153851e-06   8.05317001674699e-06
-3.798021549539953e-05   9.942949315263749e-06   2.6104014750812435e-05
-3.798021549539953e-05   9.942949315263749e-06   2.6104014750812435e-05
-3.798021549539953e-05   9.942949315263749e-06   2.6104014750812435e-05
-3.798021549539953e-05   9.942949315263749e-06   2.6104014750812435e-05
-5.556494572918894e-05   8.272665784475868e-06   -4.206039090642812e-06
-5.556494572918894e-05   8.272665784475868e-06   -4.206039090642812e-06
-5.556494572918894e-05   8.272665784475868e-06   -4.206039090642812e-06
-5.556494572918894e-05   8.272665784475868e-06   -4.206039090642812e-06
-5.708133785416972e-05   9.176863492932601e-06   3.2299310638522457e-05
-5.708133785416972e-05   9.176863492932601e-06   3.2299310638522457e-05
-5.708133785416972e-05   9.176863492932601e-06   3.2299310638522457e-05
-5.708133785416972e-05   9.176863492932601e-06   3.2299310638522457e-05
-3.880565463376773e-05   7.514003843568174e-06   2.837554394137531e-06
-3.880565463376773e-05   7.514003843568174e-06   2.837554394137531e-06
-3.880565463376773e-05   7.514003843568174e-06   2.837554394137531e-06
-3.880565463376773e-05   7.514003843568174e-06   2.837554394137531e-06
-4.5428653838785576e-05   8.883422877193226e-06   1.3054234982326377e-05
-4.5428653838785576e-05   8.883422877193226e-06   1.3054234982326377e-05
-4.5428653838785576e-05   8.883422877193226e-06   1.3054234982326377e-05
-4.5428653838785576e-05   8.883422877193226e-06   1.3054234982326377e-05
2.4992211630166795e-05   -3.238773974746081e-06   2.503974843684844e-05
2.4992211630166795e-05   -3.238773974746081e-06   2.503974843684844e-05
2.4992211630166795e-05   -3.238773974746081e-06   2.503974843684844e-05
2.4992211630166795e-05   -3.238773974746081e-06   2.503974843684844e-05
1.0371469186798042e-05   -1.5948805292182767e-06   1.6581804318841452e-06
1.0371469186798042e-05   -1.5948805292182767e-06   1.6581804318841452e-06
1.0371469186798042e-05   -1.5948805292182767e-06   1.6581804318841452e-06
1.0371469186798042e-05   -1.5948805292182767e-06   1.6581804318841452e-06
9.722749780762389e-06   -3.930089097102388e-06   2.2510709641262528e-05
9.722749780762389e-06   -3.930089097102388e-06   2.2510709641262528e-05
9.722749780762389e-06   -3.930089097102388e-06   2.2510709641262528e-05
9.722749780762389e-06   -3.930089097102388e-06   2.2510709641262528e-05
2.361104204467664e-05   -2.213496056064539e-06   -1.6663999565505791e-06
2.361104204467664e-05   -2.213496056064539e-06   -1.6663999565505791e-06
2.361104204467664e-05   -2.213496056064539e-06   -1.6663999565505791e-06
2.361104204467664e-05   -2.213496056064539e-06   -1.6663999565505791e-06
1.632000127152574e-05   -2.8100765490815353e-06   1.0843282961178324e-05
1.632000127152574e-05   -2.8100765490815353e-06   1.0843282961178324e-05
1.632000127152574e-05   -2.8100765490815353e-06   1.0843282961178324e-05
1.632000127152574e-05   -2.8100765490815353e-06   1.0843282961178324e-05
2.3611042044676688e-05   -3.930089097102171e-06   2.1480753816640122e-05
2.3611042044676688e-05   -3.930089097102171e-06   2.1480753816640122e-05
2.3611042044676688e-05   -3.930089097102171e-06   2.1480753816640122e-05
2.3611042044676688e-05   -3.930089097102171e-06   2.1480753816640122e-05
9.722749780762355e-06   -2.213496056064539e-06   -6.364441319278887e-07
9.722749780762355e-06   -2.213496056064539e-06   -6.364441319278887e-07
9.722749780762355e-06   -2.213496056064539e-06   -6.364441319278887e-07
9.722749780762355e-06   -2.213496056064539e-06   -6.364441319278887e-07
8.994010573778234e-06   -4.114640097823861e-06   2.0632907494669717e-05
8.994010573778234e-06   -4.114640097823861e-06   2.0632907494669717e-05
8.994010573778234e-06   -4.114640097823861e-06   2.0632907494669717e-05
8.994010573778234e-06   -4.114640097823861e-06   2.0632907494669717e-05
2.2425266222069993e-05   -2.4263264120304683e-06   -2.765506797292505e-06
2.2425266222069993e-05   -2.4263264120304683e-06   -2.765506797292505e-06
2.2425266222069993e-05   -2.4263264120304683e-06   -2.765506797292505e-06
2.2425266222069993e-05   -2.4263264120304683e-06   -2.765506797292505e-06
1.570622693701203e-05   -3.0725160540612598e-06   8.820605796356316e-06
1.570622693701203e-05   -3.0725160540612598e-06   8.820605796356316e-06
1.570622693701203e-05   -3.0725160540612598e-06   8.820605796356316e-06
1.570622693701203e-05   -3.0725160540612598e-06   8.820605796356316e-06
2.2425266222070033e-05   -4.114640097823861e-06   1.9619919283193638e-05
2.2425266222070033e-05   -4.114640097823861e-06   1.9619919283193638e-05
2.2425266222070033e-05   -4.114640097823861e-06   1.9619919283193638e-05
2.2425266222070033e-05   -4.114640097823861e-06   1.9619919283193638e-05
8.994010573778217e-06   -2.4263264120304683e-06   -1.7525185858164802e-06
8.994010573778217e-06   -2.4263264120304683e-06   -1.7525185858164802e-06
8.994010573778217e-06   -2.4263264120304683e-06   -1.7525185858164802e-06
8.994010573778217e-06   -2.4263264120304683e-06   -1.7525185858164802e-06
8.34071516614362e-06   -4.286496130045947e-06   1.819361859791411e-05
8.34071516614362e-06   -4.286496130045947e-06   1.819361859791411e-05
8.34071516614362e-06   -4.286496130045947e-06   1.819361859791411e-05
8.34071516614362e-06   -4.286496130045947e-06   1.819361859791411e-05
2.1080114658859055e-05   -2.707262028897508e-06   -3.986254350634032e-06
2.1080114658859055e-05   -2.707262028897508e-06   -3.986254350634032e-06
2.1080114658859055e-05   -2.707262028897508e-06   -3.986254350634032e-06
2.1080114658859055e-05   -2.707262028897508e-06   -3.986254350634032e-06
1.4567415490615852e-05   -3.1236653419705954e-06   7.118086250948517e-06
1.4567415490615852e-05   -3.1236653419705954e-06   7.118086250948517e-06
1.4567415490615852e-05   -3.1236653419705954e-06   7.118086250948517e-06
1.4567415490615852e-05   -3.1236653419705954e-06   7.118086250948517e-06
1.0371469186798079e-05   -1.7934603013412473e-08   3.0940218224662216e-05
1.0371469186798079e-05   -1.7934603013412473e-08   3.0940218224662216e-05
1.0371469186798079e-05   -1.7934603013412473e-08   3.0940218224662216e-05
1.0371469186798079e-05   -1.7934603013412473e-08   3.0940218224662216e-05
-3.347227339563414e-06   8.169850290596758e-07   8.576675793303527e-06
-3.347227339563414e-06   8.169850290596758e-07   8.576675793303527e-06
-3.347227339563414e-06   8.169850290596758e-07   8.576675793303527e-06
-3.347227339563414e-06   8.169850290596758e-07   8.576675793303527e-06
-3.943368034109318e-06   -6.190294343164093e-07   3.0999147466840475e-05
-3.943368034109318e-06   -6.190294343164093e-07   3.0999147466840475e-05
-3.943368034109318e-06   -6.190294343164093e-07   3.0999147466840475e-05
-3.943368034109318e-06   -6.190294343164093e-07   3.0999147466840475e-05
9.722749780762355e-06   1.909486402832533e-07   7.736297597294669e-06
9.722749780762355e-06   1.909486402832533e-07   7.736297597294669e-06
9.722749780762355e-06   1.909486402832533e-07   7.736297597294669e-06
9.722749780762355e-06   1.909486402832533e-07   7.736297597294669e-06
3.1030663205019693e-06   3.891528271350066e-08   1.8860323378937715e-05
3.1030663205019693e-06   3.891528271350066e-08   1.8860323378937715e-05
3.1030663205019693e-06   3.891528271350066e-08   1.8860323378937715e-05
3.1030663205019693e-06   3.891528271350066e-08   1.8860323378937715e-05
9.722749780762382e-06   -6.190294343164093e-07   3.051316062208098e-05
9.722749780762382e-06   -6.190294343164093e-07   3.051316062208098e-05
9.722749780762382e-06   -6.190294343164093e-07   3.051316062208098e-05
9.722749780762382e-06   -6.190294343164093e-07   3.051316062208098e-05
-3.943368034109332e-06   1.909486402832533e-07   8.222284442054549e-06
-3.943368034109332e-06   1.909486402832533e-07   8.222284442054549e-06
-3.943368034109332e-06   1.909486402832533e-07   8.222284442054549e-06
-3.943368034109332e-06   1.909486402832533e-07   8.222284442054549e-06
-4.552907476708775e-06   -1.0926355956133137e-06   3.062788075545216e-05
-4.552907476708775e-06   -1.0926355956133137e-06   3.062788075545216e-05
-4.552907476708775e-06   -1.0926355956133137e-06   3.062788075545216e-05
-4.552907476708775e-06   -1.0926355956133137e-06   3.062788075545216e-05
8.994010573778217e-06   -3.211382009192e-07   7.586785567823944e-06
8.994010573778217e-06   -3.211382009192e-07   7.586785567823944e-06
8.994010573778217e-06   -3.211382009192e-07   7.586785567823944e-06
8.994010573778217e-06   -3.211382009192e-07   7.586785567823944e-06
2.447508932755719e-06   -3.785317947348644e-07   1.853205779248524e-05
2.447508932755719e-06   -3.785317947348644e-07   1.853205779248524e-05
2.447508932755719e-06   -3.785317947348644e-07   1.853205779248524e-05
2.447508932755719e-06   -3.785317947348644e-07   1.853205779248524e-05
8.994010573778251e-06   -1.0926355956133137e-06   3.0164982318635564e-05
8.994010573778251e-06   -1.0926355956133137e-06   3.0164982318635564e-05
8.994010573778251e-06   -1.0926355956133137e-06   3.0164982318635564e-05
8.994010573778251e-06   -1.0926355956133137e-06   3.0164982318635564e-05
-4.552907476708788e-06   -3.211382009192e-07   8.049684004640678e-06
-4.552907476708788e-06   -3.211382009192e-07   8.049684004640678e-06
-4.552907476708788e-06   -3.211382009192e-07   8.049684004640678e-06
-4.552907476708788e-06   -3.211382009192e-07   8.049684004640678e-06
-5.157347785727942e-06   -1.5310078306802598e-06   3.0905824877845624e-05
-5.157347785727942e-06   -1.5310078306802598e-06   3.0905824877845624e-05
-5.157347785727942e-06   -1.5310078306802598e-06   3.0905824877845624e-05
-5.157347785727942e-06   -1.5310078306802598e-06   3.0905824877845624e-05
8.340715166143585e-06   -8.255503406177835e-07   7.985778797355719e-06
8.340715166143585e-06   -8.255503406177835e-07   7.985778797355719e-06
8.340715166143585e-06   -8.255503406177835e-07   7.985778797355719e-06
8.340715166143585e-06   -8.255503406177835e-07   7.985778797355719e-06
1.9298132791126674e-06   -7.263470390478279e-07   1.8611093294798944e-05
1.9298132791126674e-06   -7.263470390478279e-07   1.8611093294798944e-05
1.9298132791126674e-06   -7.263470390478279e-07   1.8611093294798944e-05
1.9298132791126674e-06   -7.263470390478279e-07   1.8611093294798944e-05
-3.347227339563414e-06   3.1281785165394697e-06   3.357300718747746e-05
-3.347227339563414e-06   3.1281785165394697e-06   3.357300718747746e-05
-3.347227339563414e-06   3.1281785165394697e-06   3.357300718747746e-05
-3.347227339563414e-06   3.1281785165394697e-06   3.357300718747746e-05
-1.6839480268345593e-05   3.0790047849803704e-06   1.1056414733904727e-05
-1.6839480268345593e-05   3.0790047849803704e-06   1.1056414733904727e-05
-1.6839480268345593e-05   3.0790047849803704e-06   1.1056414733904727e-05
-1.6839480268345593e-05   3.0790047849803704e-06   1.1056414733904727e-05
-1.7427684155735273e-05   2.6002357867795957e-06   3.335392339433676e-05
-1.7427684155735273e-05   2.6002357867795957e-06   3.335392339433676e-05
-1.7427684155735273e-05   2.6002357867795957e-06   3.335392339433676e-05
-1.7427684155735273e-05   2.6002357867795957e-06   3.335392339433676e-05
-3.943368034109318e-06   2.5103267329565013e-06   1.0934008623920846e-05
-3.943368034109318e-06   2.5103267329565013e-06   1.0934008623920846e-05
-3.943368034109318e-06   2.5103267329565013e-06   1.0934008623920846e-05
-3.943368034109318e-06   2.5103267329565013e-06   1.0934008623920846e-05
-1.0415374750626155e-05   2.759190110090178e-06   2.15713684585026e-05
-1.0415374750626155e-05   2.759190110090178e-06   2.15713684585026e-05
-1.0415374750626155e-05   2.759190110090178e-06   2.15713684585026e-05
-1.0415374750626155e-05   2.759190110090178e-06   2.15713684585026e-05
-3.943368034109318e-06   2.6002357867795957e-06   3.3407868826630487e-05
-3.943368034109318e-06   2.6002357867795957e-06   3.3407868826630487e-05
-3.943368034109318e-06   2.6002357867795957e-06   3.3407868826630487e-05
-3.943368034109318e-06   2.6002357867795957e-06   3.3407868826630487e-05
-1.7427684155735273e-05   2.5103267329565013e-06   1.0880063191626849e-05
-1.7427684155735273e-05   2.5103267329565013e-06   1.0880063191626849e-05
-1.7427684155735273e-05   2.5103267329565013e-06   1.0880063191626849e-05
-1.7427684155735273e-05   2.5103267329565013e-06   1.0880063191626849e-05
-1.8030011248104893e-05   2.0806828521530846e-06   3.3524057925385245e-05
-1.8030011248104893e-05   2.0806828521530846e-06   3.3524057925385245e-05
-1.8030011248104893e-05   2.0806828521530846e-06   3.3524057925385245e-05
-1.8030011248104893e-05   2.0806828521530846e-06   3.3524057925385245e-05
-4.552907476708761e-06   1.9481782230579368e-06   1.1141721083849065e-05
-4.552907476708761e-06   1.9481782230579368e-06   1.1141721083849065e-05
-4.552907476708761e-06   1.9481782230579368e-06   1.1141721083849065e-05
-4.552907476708761e-06   1.9481782230579368e-06   1.1141721083849065e-05
-1.0954014284098092e-05   2.3465186878490404e-06   2.157122815062395e-05
-1.0954014284098092e-05   2.3465186878490404e-06   2.157122815062395e-05
-1.0954014284098092e-05   2.3465186878490404e-06   2.157122815062395e-05
-1.0954014284098092e-05   2.3465186878490404e-06   2.157122815062395e-05
-4.552907476708788e-06   2.0806828521530846e-06   3.360356070284255e-05
-4.552907476708788e-06   2.0806828521530846e-06   3.360356070284255e-05
-4.552907476708788e-06   2.0806828521530846e-06   3.360356070284255e-05
-4.552907476708788e-06   2.0806828521530846e-06   3.360356070284255e-05
-1.8030011248104893e-05   1.9481782230579368e-06   1.1062218306392003e-05
-1.8030011248104893e-05   1.9481782230579368e-06   1.1062218306392003e-05
-1.8030011248104893e-05   1.9481782230579368e-06   1.1062218306392003e-05
-1.8030011248104893e-05   1.9481782230579368e-06   1.1062218306392003e-05
-1.8625302908835444e-05   1.5876881862076156e-06   3.397365918700909e-05
-1.8625302908835444e-05   1.5876881862076156e-06   3.397365918700909e-05
-1.8625302908835444e-05   1.5876881862076156e-06   3.397365918700909e-05
-1.8625302908835444e-05   1.5876881862076156e-06   3.397365918700909e-05
-5.157347785727915e-06   1.4070084183384363e-06   1.1635475175885123e-05
-5.157347785727915e-06   1.4070084183384363e-06   1.1635475175885123e-05
-5.157347785727915e-06   1.4070084183384363e-06   1.1635475175885123e-05
-5.157347785727915e-06   1.4070084183384363e-06   1.1635475175885123e-05
-1.1517454640936225e-05   1.9435716119972288e-06   2.1913715351703253e-05
-1.1517454640936225e-05   1.9435716119972288e-06   2.1913715351703253e-05
-1.1517454640936225e-05   1.9435716119972288e-06   2.1913715351703253e-05
-1.1517454640936225e-05   1.9435716119972288e-06   2.1913715351703253e-05
-1.6839480268345593e-05   6.15610472300414e-06   2.9695092807634563e-05
-1.6839480268345593e-05   6.15610472300414e-06   2.9695092807634563e-05
-1.6839480268345593e-05   6.15610472300414e-06   2.9695092807634563e-05
-1.6839480268345593e-05   6.15610472300414e-06   2.9695092807634563e-05
-3.010618314584437e-05   5.279731035224503e-06   7.0580971324688425e-06
-3.010618314584437e-05   5.279731035224503e-06   7.0580971324688425e-06
-3.010618314584437e-05   5.279731035224503e-06   7.0580971324688425e-06
-3.010618314584437e-05   5.279731035224503e-06   7.0580971324688425e-06
-3.073720458969184e-05   5.650686536099944e-06   2.930252016887275e-05
-3.073720458969184e-05   5.650686536099944e-06   2.930252016887275e-05
-3.073720458969184e-05   5.650686536099944e-06   2.930252016887275e-05
-3.073720458969184e-05   5.650686536099944e-06   2.930252016887275e-05
-1.742768415573522e-05   4.724320995607486e-06   7.675805436574055e-06
-1.742768415573522e-05   4.724320995607486e-06   7.675805436574055e-06
-1.742768415573522e-05   4.724320995607486e-06   7.675805436574055e-06
-1.742768415573522e-05   4.724320995607486e-06   7.675805436574055e-06
-2.371041356007391e-05   5.359782683515791e-06   1.776574409772749e-05
-2.371041356007391e-05   5.359782683515791e-06   1.776574409772749e-05
-2.371041356007391e-05   5.359782683515791e-06   1.776574409772749e-05
-2.371041356007391e-05   5.359782683515791e-06   1.776574409772749e-05
-1.7427684155735273e-05   5.650686536099944e-06   2.9858339493168398e-05
-1.7427684155735273e-05   5.650686536099944e-06   2.9858339493168398e-05
-1.7427684155735273e-05   5.650686536099944e-06   2.9858339493168398e-05
-1.7427684155735273e-05   5.650686536099944e-06   2.9858339493168398e-05
-3.073720458969179e-05   4.724320995607486e-06   7.119986112278515e-06
-3.073720458969179e-05   4.724320995607486e-06   7.119986112278515e-06
-3.073720458969179e-05   4.724320995607486e-06   7.119986112278515e-06
-3.073720458969179e-05   4.724320995607486e-06   7.119986112278515e-06
-3.144731275346775e-05   5.179587406595708e-06   3.0305453789379773e-05
-3.144731275346775e-05   5.179587406595708e-06   3.0305453789379773e-05
-3.144731275346775e-05   5.179587406595708e-06   3.0305453789379773e-05
-3.144731275346775e-05   5.179587406595708e-06   3.0305453789379773e-05
-1.803001124810484e-05   4.210273298839006e-06   8.52487307842904e-06
-1.803001124810484e-05   4.210273298839006e-06   8.52487307842904e-06
-1.803001124810484e-05   4.210273298839006e-06   8.52487307842904e-06
-1.803001124810484e-05   4.210273298839006e-06   8.52487307842904e-06
-2.414725262864741e-05   4.981493812763506e-06   1.8257543070979284e-05
-2.414725262864741e-05   4.981493812763506e-06   1.8257543070979284e-05
-2.414725262864741e-05   4.981493812763506e-06   1.8257543070979284e-05
-2.414725262864741e-05   4.981493812763506e-06   1.8257543070979284e-05
-1.8030011248104893e-05   5.179587406595708e-06   3.088704225403345e-05
-1.8030011248104893e-05   5.179587406595708e-06   3.088704225403345e-05
-1.8030011248104893e-05   5.179587406595708e-06   3.088704225403345e-05
-1.8030011248104893e-05   5.179587406595708e-06   3.088704225403345e-05
-3.144731275346775e-05   4.210273298839006e-06   7.943284613775204e-06
-3.144731275346775e-05   4.210273298839006e-06   7.943284613775204e-06
-3.144731275346775e-05   4.210273298839006e-06   7.943284613775204e-06
-3.144731275346775e-05   4.210273298839006e-06   7.943284613775204e-06
-3.2078566471719847e-05   4.630828446034688e-06   3.1151193250546086e-05
-3.2078566471719847e-05   4.630828446034688e-06   3.1151193250546086e-05
-3.2078566471719847e-05   4.630828446034688e-06   3.1151193250546086e-05
-3.2078566471719847e-05   4.630828446034688e-06   3.1151193250546086e-05
-1.862530290883539e-05   3.63550795925093e-06   9.326279604475625e-06
-1.862530290883539e-05   3.63550795925093e-06   9.326279604475625e-06
-1.862530290883539e-05   3.63550795925093e-06   9.326279604475625e-06
-1.862530290883539e-05   3.63550795925093e-06   9.326279604475625e-06
-2.485911569998872e-05   4.583186090288205e-06   1.9147360711109702e-05
-2.485911569998872e-05   4.583186090288205e-06   1.9147360711109702e-05
-2.485911569998872e-05   4.583186090288205e-06   1.9147360711109702e-05
-2.485911569998872e-05   4.583186090288205e-06   1.9147360711109702e-05
-3.010618314584437e-05   8.486325151812416e-06   1.4269414617271853e-05
-3.010618314584437e-05   8.486325151812416e-06   1.4269414617271853e-05
-3.010618314584437e-05   8.486325151812416e-06   1.4269414617271853e-05
-3.010618314584437e-05   8.486325151812416e-06   1.4269414617271853e-05
-4.254897764637206e-05   6.927255296248656e-06   -7.404018130279042e-06
-4.254897764637206e-05   6.927255296248656e-06   -7.404018130279042e-06
-4.254897764637206e-05   6.927255296248656e-06   -7.404018130279042e-06
-4.254897764637206e-05   6.927255296248656e-06   -7.404018130279042e-06
-4.386858473327647e-05   8.44453554091568e-06   1.829898232166209e-05
-4.386858473327647e-05   8.44453554091568e-06   1.829898232166209e-05
-4.386858473327647e-05   8.44453554091568e-06   1.829898232166209e-05
-4.386858473327647e-05   8.44453554091568e-06   1.829898232166209e-05
-3.073720458969173e-05   6.749381151458173e-06   -2.569558617304549e-06
-3.073720458969173e-05   6.749381151458173e-06   -2.569558617304549e-06
-3.073720458969173e-05   6.749381151458173e-06   -2.569558617304549e-06
-3.073720458969173e-05   6.749381151458173e-06   -2.569558617304549e-06
-3.5435432441368036e-05   7.5124270494889706e-06   4.80299359667145e-06
-3.5435432441368036e-05   7.5124270494889706e-06   4.80299359667145e-06
-3.5435432441368036e-05   7.5124270494889706e-06   4.80299359667145e-06
-3.5435432441368036e-05   7.5124270494889706e-06   4.80299359667145e-06
-3.073720458969179e-05   8.44453554091568e-06   1.931607495533655e-05
-3.073720458969179e-05   8.44453554091568e-06   1.931607495533655e-05
-3.073720458969179e-05   8.44453554091568e-06   1.931607495533655e-05
-3.073720458969179e-05   8.44453554091568e-06   1.931607495533655e-05
-4.386858473327652e-05   6.749381151458173e-06   -3.58665125097901e-06
-4.386858473327652e-05   6.749381151458173e-06   -3.58665125097901e-06
-4.386858473327652e-05   6.749381151458173e-06   -3.58665125097901e-06
-4.386858473327652e-05   6.749381151458173e-06   -3.58665125097901e-06
-4.50197669404746e-05   8.272665784475868e-06   2.1790399712829506e-05
-4.50197669404746e-05   8.272665784475868e-06   2.1790399712829506e-05
-4.50197669404746e-05   8.272665784475868e-06   2.1790399712829506e-05
-4.50197669404746e-05   8.272665784475868e-06   2.1790399712829506e-05
-3.144731275346764e-05   6.531431456097787e-06   2.143833315115069e-07
-3.144731275346764e-05   6.531431456097787e-06   2.143833315115069e-07
-3.144731275346764e-05   6.531431456097787e-06   2.143833315115069e-07
-3.144731275346764e-05   6.531431456097787e-06   2.143833315115069e-07
-3.6833400418925235e-05   7.517523110168968e-06   8.599541114832714e-06
-3.6833400418925235e-05   7.517523110168968e-06   8.599541114832714e-06
-3.6833400418925235e-05   7.517523110168968e-06   8.599541114832714e-06
-3.6833400418925235e-05   7.517523110168968e-06   8.599541114832714e-06
-3.144731275346775e-05   8.272665784475868e-06   2.283514030985631e-05
-3.144731275346775e-05   8.272665784475868e-06   2.283514030985631e-05
-3.144731275346775e-05   8.272665784475868e-06   2.283514030985631e-05
-3.144731275346775e-05   8.272665784475868e-06   2.283514030985631e-05
-4.50197669404746e-05   6.531431456097787e-06   -8.303572655154069e-07
-4.50197669404746e-05   6.531431456097787e-06   -8.303572655154069e-07
-4.50197669404746e-05   6.531431456097787e-06   -8.303572655154069e-07
-4.50197669404746e-05   6.531431456097787e-06   -8.303572655154069e-07
-4.635500349292691e-05   7.514003843568174e-06   2.7857168169138392e-05
-4.635500349292691e-05   7.514003843568174e-06   2.7857168169138392e-05
-4.635500349292691e-05   7.514003843568174e-06   2.7857168169138392e-05
-4.635500349292691e-05   7.514003843568174e-06   2.7857168169138392e-05
-3.2078566471719684e-05   5.799633491710386e-06   5.0917286782414806e-06
-3.2078566471719684e-05   5.799633491710386e-06   5.0917286782414806e-06
-3.2078566471719684e-05   5.799633491710386e-06   5.0917286782414806e-06
-3.2078566471719684e-05   5.799633491710386e-06   5.0917286782414806e-06
-3.7144511780504635e-05   7.1987848559440515e-06   1.2695480041009072e-05
-3.7144511780504635e-05   7.1987848559440515e-06   1.2695480041009072e-05
-3.7144511780504635e-05   7.1987848559440515e-06   1.2695480041009072e-05
-3.7144511780504635e-05   7.1987848559440515e-06   1.2695480041009072e-05
1.3898173852126632e-05   -1.5948805292182767e-06   1.97124594369766e-05
1.3898173852126632e-05   -1.5948805292182767e-06   1.97124594369766e-05
1.3898173852126632e-05   -1.5948805292182767e-06   1.97124594369766e-05
1.3898173852126632e-05   -1.5948805292182767e-06   1.97124594369766e-05
3.6414314901583868e-06   3.2880621344145294e-08   3.594545524033708e-06
3.6414314901583868e-06   3.2880621344145294e-08   3.594545524033708e-06
3.6414314901583868e-06   3.2880621344145294e-08   3.594545524033708e-06
3.6414314901583868e-06   3.2880621344145294e-08   3.594545524033708e-06
3.155901839663399e-06   -2.213496056064539e-06   1.837664769450964e-05
3.155901839663399e-06   -2.213496056064539e-06   1.837664769450964e-05
3.155901839663399e-06   -2.213496056064539e-06   1.837664769450964e-05
3.155901839663399e-06   -2.213496056064539e-06   1.837664769450964e-05
1.269782553586504e-05   -5.216239628836033e-07   1.4583182782654496e-06
1.269782553586504e-05   -5.216239628836033e-07   1.4583182782654496e-06
1.269782553586504e-05   -5.216239628836033e-07   1.4583182782654496e-06
1.269782553586504e-05   -5.216239628836033e-07   1.4583182782654496e-06
7.855783501683397e-06   -1.1527693441078755e-06   9.907075563969929e-06
7.855783501683397e-06   -1.1527693441078755e-06   9.907075563969929e-06
7.855783501683397e-06   -1.1527693441078755e-06   9.907075563969929e-06
7.855783501683397e-06   -1.1527693441078755e-06   9.907075563969929e-06
1.2697825535865054e-05   -2.213496056064539e-06   1.7361524438601404e-05
1.2697825535865054e-05   -2.213496056064539e-06   1.7361524438601404e-05
1.2697825535865054e-05   -2.213496056064539e-06   1.7361524438601404e-05
1.2697825535865054e-05   -2.213496056064539e-06   1.7361524438601404e-05
3.155901839663392e-06   -5.216239628836033e-07   2.4734415341738213e-06
3.155901839663392e-06   -5.216239628836033e-07   2.4734415341738213e-06
3.155901839663392e-06   -5.216239628836033e-07   2.4734415341738213e-06
3.155901839663392e-06   -5.216239628836033e-07   2.4734415341738213e-06
2.5899623620290475e-06   -2.426326412030685e-06   1.7245685402656006e-05
2.5899623620290475e-06   -2.426326412030685e-06   1.7245685402656006e-05
2.5899623620290475e-06   -2.426326412030685e-06   1.7245685402656006e-05
2.5899623620290475e-06   -2.426326412030685e-06   1.7245685402656006e-05
1.168139805281937e-05   -7.605326599660883e-07   1.0938163334335744e-06
1.168139805281937e-05   -7.605326599660883e-07   1.0938163334335744e-06
1.168139805281937e-05   -7.605326599660883e-07   1.0938163334335744e-06
1.168139805281937e-05   -7.605326599660883e-07   1.0938163334335744e-06
7.2761128845428755e-06   -1.3948296962126069e-06   8.81653650230892e-06
7.2761128845428755e-06   -1.3948296962126069e-06   8.81653650230892e-06
7.2761128845428755e-06   -1.3948296962126069e-06   8.81653650230892e-06
7.2761128845428755e-06   -1.3948296962126069e-06   8.81653650230892e-06
1.1681398052819383e-05   -2.426326412030685e-06   1.6246209151417248e-05
1.1681398052819383e-05   -2.426326412030685e-06   1.6246209151417248e-05
1.1681398052819383e-05   -2.426326412030685e-06   1.6246209151417248e-05
1.1681398052819383e-05   -2.426326412030685e-06   1.6246209151417248e-05
2.5899623620290408e-06   -7.605326599660883e-07   2.0932925846723054e-06
2.5899623620290408e-06   -7.605326599660883e-07   2.0932925846723054e-06
2.5899623620290408e-06   -7.605326599660883e-07   2.0932925846723054e-06
2.5899623620290408e-06   -7.605326599660883e-07   2.0932925846723054e-06
2.099575505635038e-06   -2.7072620288977247e-06   1.5937602717909158e-05
2.099575505635038e-06   -2.7072620288977247e-06   1.5937602717909158e-05
2.099575505635038e-06   -2.7072620288977247e-06   1.5937602717909158e-05
2.099575505635038e-06   -2.7072620288977247e-06   1.5937602717909158e-05
1.049101021723101e-05   -1.1581635170837892e-06   1.0224190914945178e-06
1.049101021723101e-05   -1.1581635170837892e-06   1.0224190914945178e-06
1.049101021723101e-05   -1.1581635170837892e-06   1.0224190914945178e-06
1.049101021723101e-05   -1.1581635170837892e-06   1.0224190914945178e-06
6.420839653524397e-06   -1.5193908992124777e-06   8.022773126949612e-06
6.420839653524397e-06   -1.5193908992124777e-06   8.022773126949612e-06
6.420839653524397e-06   -1.5193908992124777e-06   8.022773126949612e-06
6.420839653524397e-06   -1.5193908992124777e-06   8.022773126949612e-06
3.641431490158397e-06   8.169850290596758e-07   2.7106659709489667e-05
3.641431490158397e-06   8.169850290596758e-07   2.7106659709489667e-05
3.641431490158397e-06   8.169850290596758e-07   2.7106659709489667e-05
3.641431490158397e-06   8.169850290596758e-07   2.7106659709489667e-05
-5.701682205686153e-06   1.5543856619498232e-06   1.197724392948277e-05
-5.701682205686153e-06   1.5543856619498232e-06   1.197724392948277e-05
-5.701682205686153e-06   1.5543856619498232e-06   1.197724392948277e-05
-5.701682205686153e-06   1.5543856619498232e-06   1.197724392948277e-05
-6.128256124563513e-06   1.9094864028303647e-07   2.7191632452685578e-05
-6.128256124563513e-06   1.9094864028303647e-07   2.7191632452685578e-05
-6.128256124563513e-06   1.9094864028303647e-07   2.7191632452685578e-05
-6.128256124563513e-06   1.9094864028303647e-07   2.7191632452685578e-05
3.155901839663392e-06   9.280203552052349e-07   1.1275792816687778e-05
3.155901839663392e-06   9.280203552052349e-07   1.1275792816687778e-05
3.155901839663392e-06   9.280203552052349e-07   1.1275792816687778e-05
3.155901839663392e-06   9.280203552052349e-07   1.1275792816687778e-05
-1.3281072173000609e-06   8.100410653847766e-07   1.881992881885326e-05
-1.3281072173000609e-06   8.100410653847766e-07   1.881992881885326e-05
-1.3281072173000609e-06   8.100410653847766e-07   1.881992881885326e-05
-1.3281072173000609e-06   8.100410653847766e-07   1.881992881885326e-05
3.155901839663399e-06   1.9094864028303647e-07   2.674938942373226e-05
3.155901839663399e-06   1.9094864028303647e-07   2.674938942373226e-05
3.155901839663399e-06   1.9094864028303647e-07   2.674938942373226e-05
3.155901839663399e-06   1.9094864028303647e-07   2.674938942373226e-05
-6.128256124563513e-06   9.280203552052349e-07   1.1718035845641097e-05
-6.128256124563513e-06   9.280203552052349e-07   1.1718035845641097e-05
-6.128256124563513e-06   9.280203552052349e-07   1.1718035845641097e-05
-6.128256124563513e-06   9.280203552052349e-07   1.1718035845641097e-05
-6.567306601106828e-06   -3.2113820091898317e-07   2.7016081803739062e-05
-6.567306601106828e-06   -3.2113820091898317e-07   2.7016081803739062e-05
-6.567306601106828e-06   -3.2113820091898317e-07   2.7016081803739062e-05
-6.567306601106828e-06   -3.2113820091898317e-07   2.7016081803739062e-05
2.5899623620290408e-06   3.9734887815191626e-07   1.1322874617736854e-05
2.5899623620290408e-06   3.9734887815191626e-07   1.1322874617736854e-05
2.5899623620290408e-06   3.9734887815191626e-07   1.1322874617736854e-05
2.5899623620290408e-06   3.9734887815191626e-07   1.1322874617736854e-05
-1.7835147178004468e-06   3.732942504620137e-07   1.8626435860733567e-05
-1.7835147178004468e-06   3.732942504620137e-07   1.8626435860733567e-05
-1.7835147178004468e-06   3.732942504620137e-07   1.8626435860733567e-05
-1.7835147178004468e-06   3.732942504620137e-07   1.8626435860733567e-05
2.5899623620290475e-06   -3.2113820091898317e-07   2.6584989556296674e-05
2.5899623620290475e-06   -3.2113820091898317e-07   2.6584989556296674e-05
2.5899623620290475e-06   -3.2113820091898317e-07   2.6584989556296674e-05
2.5899623620290475e-06   -3.2113820091898317e-07   2.6584989556296674e-05
-6.567306601106828e-06   3.973488781516994e-07   1.1753966865179588e-05
-6.567306601106828e-06   3.973488781516994e-07   1.1753966865179588e-05
-6.567306601106828e-06   3.973488781516994e-07   1.1753966865179588e-05
-6.567306601106828e-06   3.973488781516994e-07   1.1753966865179588e-05
-6.999829741748839e-06   -8.255503406175667e-07   2.7370578274167026e-05
-6.999829741748839e-06   -8.255503406175667e-07   2.7370578274167026e-05
-6.999829741748839e-06   -8.255503406175667e-07   2.7370578274167026e-05
-6.999829741748839e-06   -8.255503406175667e-07   2.7370578274167026e-05
2.0995755056350314e-06   -1.447455590221705e-07   1.1796419992903696e-05
2.0995755056350314e-06   -1.447455590221705e-07   1.1796419992903696e-05
2.0995755056350314e-06   -1.447455590221705e-07   1.1796419992903696e-05
2.0995755056350314e-06   -1.447455590221705e-07   1.1796419992903696e-05
-2.1690242554646504e-06   -1.8435434751473342e-08   1.8834966853507537e-05
-2.1690242554646504e-06   -1.8435434751473342e-08   1.8834966853507537e-05
-2.1690242554646504e-06   -1.8435434751473342e-08   1.8834966853507537e-05
-2.1690242554646504e-06   -1.8435434751473342e-08   1.8834966853507537e-05
-5.701682205686153e-06   3.0790047849803704e-06   3.0058343268760438e-05
-5.701682205686153e-06   3.0790047849803704e-06   3.0058343268760438e-05
-5.701682205686153e-06   3.0790047849803704e-06   3.0058343268760438e-05
-5.701682205686153e-06   3.0790047849803704e-06   3.0058343268760438e-05
-1.4885816419055127e-05   2.9030401993623486e-06   1.4645874161774847e-05
-1.4885816419055127e-05   2.9030401993623486e-06   1.4645874161774847e-05
-1.4885816419055127e-05   2.9030401993623486e-06   1.4645874161774847e-05
-1.4885816419055127e-05   2.9030401993623486e-06   1.4645874161774847e-05
-1.5295151031070647e-05   2.5103267329565013e-06   2.9792611193569987e-05
-1.5295151031070647e-05   2.5103267329565013e-06   2.9792611193569987e-05
-1.5295151031070647e-05   2.5103267329565013e-06   2.9792611193569987e-05
-1.5295151031070647e-05   2.5103267329565013e-06   2.9792611193569987e-05
-6.128256124563486e-06   2.3257509979865247e-06   1.4625198457040179e-05
-6.128256124563486e-06   2.3257509979865247e-06   1.4625198457040179e-05
-6.128256124563486e-06   2.3257509979865247e-06   1.4625198457040179e-05
-6.128256124563486e-06   2.3257509979865247e-06   1.4625198457040179e-05
-1.05223672177771e-05   2.6397518057515775e-06   2.1760316461071278e-05
-1.05223672177771e-05   2.6397518057515775e-06   2.1760316461071278e-05
-1.05223672177771e-05   2.6397518057515775e-06   2.1760316461071278e-05
-1.05223672177771e-05   2.6397518057515775e-06   2.1760316461071278e-05
-6.128256124563513e-06   2.5103267329565013e-06   2.990335663455193e-05
-6.128256124563513e-06   2.5103267329565013e-06   2.990335663455193e-05
-6.128256124563513e-06   2.5103267329565013e-06   2.990335663455193e-05
-6.128256124563513e-06   2.5103267329565013e-06   2.990335663455193e-05
-1.5295151031070647e-05   2.3257509979865247e-06   1.4514453016058236e-05
-1.5295151031070647e-05   2.3257509979865247e-06   1.4514453016058236e-05
-1.5295151031070647e-05   2.3257509979865247e-06   1.4514453016058236e-05
-1.5295151031070647e-05   2.3257509979865247e-06   1.4514453016058236e-05
-1.571789073399058e-05   1.94817822305772e-06   2.999006566879541e-05
-1.571789073399058e-05   1.94817822305772e-06   2.999006566879541e-05
-1.571789073399058e-05   1.94817822305772e-06   2.999006566879541e-05
-1.571789073399058e-05   1.94817822305772e-06   2.999006566879541e-05
-6.5673066011068146e-06   1.7514228661372113e-06   1.485714532814154e-05
-6.5673066011068146e-06   1.7514228661372113e-06   1.485714532814154e-05
-6.5673066011068146e-06   1.7514228661372113e-06   1.485714532814154e-05
-6.5673066011068146e-06   1.7514228661372113e-06   1.485714532814154e-05
-1.0886791897153107e-05   2.200727972865961e-06   2.1786704424181568e-05
-1.0886791897153107e-05   2.200727972865961e-06   2.1786704424181568e-05
-1.0886791897153107e-05   2.200727972865961e-06   2.1786704424181568e-05
-1.0886791897153107e-05   2.200727972865961e-06   2.1786704424181568e-05
-6.567306601106828e-06   1.94817822305772e-06   3.0108118882947693e-05
-6.567306601106828e-06   1.94817822305772e-06   3.0108118882947693e-05
-6.567306601106828e-06   1.94817822305772e-06   3.0108118882947693e-05
-6.567306601106828e-06   1.94817822305772e-06   3.0108118882947693e-05
-1.5717890733990553e-05   1.7514228661372113e-06   1.4739092113989338e-05
-1.5717890733990553e-05   1.7514228661372113e-06   1.4739092113989338e-05
-1.5717890733990553e-05   1.7514228661372113e-06   1.4739092113989338e-05
-1.5717890733990553e-05   1.7514228661372113e-06   1.4739092113989338e-05
-1.6134017166501434e-05   1.4070084183382195e-06   3.0473713959423528e-05
-1.6134017166501434e-05   1.4070084183382195e-06   3.0473713959423528e-05
-1.6134017166501434e-05   1.4070084183382195e-06   3.0473713959423528e-05
-1.6134017166501434e-05   1.4070084183382195e-06   3.0473713959423528e-05
-6.999829741748839e-06   1.2015314196124616e-06   1.5373354450738024e-05
-6.999829741748839e-06   1.2015314196124616e-06   1.5373354450738024e-05
-6.999829741748839e-06   1.2015314196124616e-06   1.5373354450738024e-05
-6.999829741748839e-06   1.2015314196124616e-06   1.5373354450738024e-05
-1.1274437007823945e-05   1.7705201178167679e-06   2.215630667527443e-05
-1.1274437007823945e-05   1.7705201178167679e-06   2.215630667527443e-05
-1.1274437007823945e-05   1.7705201178167679e-06   2.215630667527443e-05
-1.1274437007823945e-05   1.7705201178167679e-06   2.215630667527443e-05
-1.4885816419055127e-05   5.279731035224503e-06   2.6480271128621565e-05
-1.4885816419055127e-05   5.279731035224503e-06   2.6480271128621565e-05
-1.4885816419055127e-05   5.279731035224503e-06   2.6480271128621565e-05
-1.4885816419055127e-05   5.279731035224503e-06   2.6480271128621565e-05
-2.3903764600925466e-05   4.313393901602888e-06   1.0870555211998022e-05
-2.3903764600925466e-05   4.313393901602888e-06   1.0870555211998022e-05
-2.3903764600925466e-05   4.313393901602888e-06   1.0870555211998022e-05
-2.3903764600925466e-05   4.313393901602888e-06   1.0870555211998022e-05
-2.4349972579775674e-05   4.724320995607486e-06   2.5992527654173465e-05
-2.4349972579775674e-05   4.724320995607486e-06   2.5992527654173465e-05
-2.4349972579775674e-05   4.724320995607486e-06   2.5992527654173465e-05
-2.4349972579775674e-05   4.724320995607486e-06   2.5992527654173465e-05
-1.529515103107062e-05   3.731278021701454e-06   1.149698419067568e-05
-1.529515103107062e-05   3.731278021701454e-06   1.149698419067568e-05
-1.529515103107062e-05   3.731278021701454e-06   1.149698419067568e-05
-1.529515103107062e-05   3.731278021701454e-06   1.149698419067568e-05
-1.9561374408699476e-05   4.438572868055348e-06   1.8182979578912394e-05
-1.9561374408699476e-05   4.438572868055348e-06   1.8182979578912394e-05
-1.9561374408699476e-05   4.438572868055348e-06   1.8182979578912394e-05
-1.9561374408699476e-05   4.438572868055348e-06   1.8182979578912394e-05
-1.5295151031070647e-05   4.724320995607486e-06   2.6588353438517084e-05
-1.5295151031070647e-05   4.724320995607486e-06   2.6588353438517084e-05
-1.5295151031070647e-05   4.724320995607486e-06   2.6588353438517084e-05
-1.5295151031070647e-05   4.724320995607486e-06   2.6588353438517084e-05
-2.434997257977562e-05   3.731278021701671e-06   1.0901158406332115e-05
-2.434997257977562e-05   3.731278021701671e-06   1.0901158406332115e-05
-2.434997257977562e-05   3.731278021701671e-06   1.0901158406332115e-05
-2.434997257977562e-05   3.731278021701671e-06   1.0901158406332115e-05
-2.487835946752572e-05   4.210273298839006e-06   2.6847727880616006e-05
-2.487835946752572e-05   4.210273298839006e-06   2.6847727880616006e-05
-2.487835946752572e-05   4.210273298839006e-06   2.6847727880616006e-05
-2.487835946752572e-05   4.210273298839006e-06   2.6847727880616006e-05
-1.5717890733990525e-05   3.201952365144414e-06   1.2185272551607537e-05
-1.5717890733990525e-05   3.201952365144414e-06   1.2185272551607537e-05
-1.5717890733990525e-05   3.201952365144414e-06   1.2185272551607537e-05
-1.5717890733990525e-05   3.201952365144414e-06   1.2185272551607537e-05
-1.985039995904724e-05   4.026900042719463e-06   1.857781932015684e-05
-1.985039995904724e-05   4.026900042719463e-06   1.857781932015684e-05
-1.985039995904724e-05   4.026900042719463e-06   1.857781932015684e-05
-1.985039995904724e-05   4.026900042719463e-06   1.857781932015684e-05
-1.5717890733990553e-05   4.210273298839006e-06   2.7452720440832392e-05
-1.5717890733990553e-05   4.210273298839006e-06   2.7452720440832392e-05
-1.5717890733990553e-05   4.210273298839006e-06   2.7452720440832392e-05
-1.5717890733990553e-05   4.210273298839006e-06   2.7452720440832392e-05
-2.4878359467525666e-05   3.201952365144414e-06   1.1580279991390825e-05
-2.4878359467525666e-05   3.201952365144414e-06   1.1580279991390825e-05
-2.4878359467525666e-05   3.201952365144414e-06   1.1580279991390825e-05
-2.4878359467525666e-05   3.201952365144414e-06   1.1580279991390825e-05
-2.5331719050559944e-05   3.635507959251147e-06   2.7673337253451705e-05
-2.5331719050559944e-05   3.635507959251147e-06   2.7673337253451705e-05
-2.5331719050559944e-05   3.635507959251147e-06   2.7673337253451705e-05
-2.5331719050559944e-05   3.635507959251147e-06   2.7673337253451705e-05
-1.613401716650138e-05   2.636192967110911e-06   1.2943423108638526e-05
-1.613401716650138e-05   2.636192967110911e-06   1.2943423108638526e-05
-1.613401716650138e-05   2.636192967110911e-06   1.2943423108638526e-05
-1.613401716650138e-05   2.636192967110911e-06   1.2943423108638526e-05
-2.034761276111236e-05   3.6145376085541196e-06   1.9379075648125275e-05
-2.034761276111236e-05   3.6145376085541196e-06   1.9379075648125275e-05
-2.034761276111236e-05   3.6145376085541196e-06   1.9379075648125275e-05
-2.034761276111236e-05   3.6145376085541196e-06   1.9379075648125275e-05
-2.390376460092552e-05   6.927255296248656e-06   1.2373795499039022e-05
-2.390376460092552e-05   6.927255296248656e-06   1.2373795499039022e-05
-2.390376460092552e-05   6.927255296248656e-06   1.2373795499039022e-05
-2.390376460092552e-05   6.927255296248656e-06   1.2373795499039022e-05
-3.2039213056910855e-05   5.308170960145872e-06   -2.156735862598243e-06
-3.2039213056910855e-05   5.308170960145872e-06   -2.156735862598243e-06
-3.2039213056910855e-05   5.308170960145872e-06   -2.156735862598243e-06
-3.2039213056910855e-05   5.308170960145872e-06   -2.156735862598243e-06
-3.318321806425106e-05   6.749381151458173e-06   1.5259290259617012e-05
-3.318321806425106e-05   6.749381151458173e-06   1.5259290259617012e-05
-3.318321806425106e-05   6.749381151458173e-06   1.5259290259617012e-05
-3.318321806425106e-05   6.749381151458173e-06   1.5259290259617012e-05
-2.434997257977562e-05   5.00989337650303e-06   1.5809071171315678e-06
-2.434997257977562e-05   5.00989337650303e-06   1.5809071171315678e-06
-2.434997257977562e-05   5.00989337650303e-06   1.5809071171315678e-06
-2.434997257977562e-05   5.00989337650303e-06   1.5809071171315678e-06
-2.7335832655924402e-05   5.888289755826004e-06   6.030302749786796e-06
-2.7335832655924402e-05   5.888289755826004e-06   6.030302749786796e-06
-2.7335832655924402e-05   5.888289755826004e-06   6.030302749786796e-06
-2.7335832655924402e-05   5.888289755826004e-06   6.030302749786796e-06
-2.434997257977562e-05   6.749381151458173e-06   1.6302982924590293e-05
-2.434997257977562e-05   6.749381151458173e-06   1.6302982924590293e-05
-2.434997257977562e-05   6.749381151458173e-06   1.6302982924590293e-05
-2.434997257977562e-05   6.749381151458173e-06   1.6302982924590293e-05
-3.318321806425117e-05   5.009893376502813e-06   5.372144521582597e-07
-3.318321806425117e-05   5.009893376502813e-06   5.372144521582597e-07
-3.318321806425117e-05   5.009893376502813e-06   5.372144521582597e-07
-3.318321806425117e-05   5.009893376502813e-06   5.372144521582597e-07
-3.416806837941834e-05   6.531431456097787e-06   1.8056275354183266e-05
-3.416806837941834e-05   6.531431456097787e-06   1.8056275354183266e-05
-3.416806837941834e-05   6.531431456097787e-06   1.8056275354183266e-05
-3.416806837941834e-05   6.531431456097787e-06   1.8056275354183266e-05
-2.4878359467525666e-05   4.760512715816555e-06   3.6359784118643193e-06
-2.4878359467525666e-05   4.760512715816555e-06   3.6359784118643193e-06
-2.4878359467525666e-05   4.760512715816555e-06   3.6359784118643193e-06
-2.4878359467525666e-05   4.760512715816555e-06   3.6359784118643193e-06
-2.8434472155150107e-05   5.811071316086597e-06   8.932497731076964e-06
-2.8434472155150107e-05   5.811071316086597e-06   8.932497731076964e-06
-2.8434472155150107e-05   5.811071316086597e-06   8.932497731076964e-06
-2.8434472155150107e-05   5.811071316086597e-06   8.932497731076964e-06
-2.4878359467525666e-05   6.531431456097787e-06   1.9118826598352092e-05
-2.4878359467525666e-05   6.531431456097787e-06   1.9118826598352092e-05
-2.4878359467525666e-05   6.531431456097787e-06   1.9118826598352092e-05
-2.4878359467525666e-05   6.531431456097787e-06   1.9118826598352092e-05
-3.41680683794185e-05   4.760512715816555e-06   2.5734271676957103e-06
-3.41680683794185e-05   4.760512715816555e-06   2.5734271676957103e-06
-3.41680683794185e-05   4.760512715816555e-06   2.5734271676957103e-06
-3.41680683794185e-05   4.760512715816555e-06   2.5734271676957103e-06
-3.534664112117634e-05   5.799633491710386e-06   2.3005372899775932e-05
-3.534664112117634e-05   5.799633491710386e-06   2.3005372899775932e-05
-3.534664112117634e-05   5.799633491710386e-06   2.3005372899775932e-05
-3.534664112117634e-05   5.799633491710386e-06   2.3005372899775932e-05
-2.533171905055989e-05   4.081957292524294e-06   7.344441834926992e-06
-2.533171905055989e-05   4.081957292524294e-06   7.344441834926992e-06
-2.533171905055989e-05   4.081957292524294e-06   7.344441834926992e-06
-2.533171905055989e-05   4.081957292524294e-06   7.344441834926992e-06
-2.870784536875847e-05   5.5025018206673795e-06   1.2118992315039256e-05
-2.870784536875847e-05   5.5025018206673795e-06   1.2118992315039256e-05
-2.870784536875847e-05   5.5025018206673795e-06   1.2118992315039256e-05
-2.870784536875847e-05   5.5025018206673795e-06   1.2118992315039256e-05
2.803848556403427e-06   3.2880621344145294e-08   1.4717856207436468e-05
2.803848556403427e-06   3.2880621344145294e-08   1.4717856207436468e-05
2.803848556403427e-06   3.2880621344145294e-08   1.4717856207436468e-05
2.803848556403427e-06   3.2880621344145294e-08   1.4717856207436468e-05
-3.0708846109356804e-06   1.5961537521348062e-06   5.864598140345695e-06
-3.0708846109356804e-06   1.5961537521348062e-06   5.864598140345695e-06
-3.0708846109356804e-06   1.5961537521348062e-06   5.864598140345695e-06
-3.0708846109356804e-06   1.5961537521348062e-06   5.864598140345695e-06
-3.4150353745292373e-06   -5.216239628836033e-07   1.4514476961604954e-05
-3.4150353745292373e-06   -5.216239628836033e-07   1.4514476961604954e-05
-3.4150353745292373e-06   -5.216239628836033e-07   1.4514476961604954e-05
-3.4150353745292373e-06   -5.216239628836033e-07   1.4514476961604954e-05
1.756694976337846e-06   1.0788518994684542e-06   4.934640859415235e-06
1.756694976337846e-06   1.0788518994684542e-06   4.934640859415235e-06
1.756694976337846e-06   1.0788518994684542e-06   4.934640859415235e-06
1.756694976337846e-06   1.0788518994684542e-06   4.934640859415235e-06
-6.194384203912339e-07   4.5793732250491714e-07   9.267411933475101e-06
-6.194384203912339e-07   4.5793732250491714e-07   9.267411933475101e-06
-6.194384203912339e-07   4.5793732250491714e-07   9.267411933475101e-06
-6.194384203912339e-07   4.5793732250491714e-07   9.267411933475101e-06
1.756694976337846e-06   -5.216239628836033e-07   1.3554191444193654e-05
1.756694976337846e-06   -5.216239628836033e-07   1.3554191444193654e-05
1.756694976337846e-06   -5.216239628836033e-07   1.3554191444193654e-05
1.756694976337846e-06   -5.216239628836033e-07   1.3554191444193654e-05
-3.4150353745292373e-06   1.0788518994684542e-06   5.894926376826589e-06
-3.4150353745292373e-06   1.0788518994684542e-06   5.894926376826589e-06
-3.4150353745292373e-06   1.0788518994684542e-06   5.894926376826589e-06
-3.4150353745292373e-06   1.0788518994684542e-06   5.894926376826589e-06
-3.84021915382639e-06   -7.605326599660883e-07   1.413339937694747e-05
-3.84021915382639e-06   -7.605326599660883e-07   1.413339937694747e-05
-3.84021915382639e-06   -7.605326599660883e-07   1.413339937694747e-05
-3.84021915382639e-06   -7.605326599660883e-07   1.413339937694747e-05
8.479087105995659e-07   7.943307863875725e-07   5.386934868425341e-06
8.479087105995659e-07   7.943307863875725e-07   5.386934868425341e-06
8.479087105995659e-07   7.943307863875725e-07   5.386934868425341e-06
8.479087105995659e-07   7.943307863875725e-07   5.386934868425341e-06
-1.184299150442786e-06   2.3753124836576461e-07   9.108027692975647e-06
-1.184299150442786e-06   2.3753124836576461e-07   9.108027692975647e-06
-1.184299150442786e-06   2.3753124836576461e-07   9.108027692975647e-06
-1.184299150442786e-06   2.3753124836576461e-07   9.108027692975647e-06
8.479087105995524e-07   -7.605326599660883e-07   1.3200481309135121e-05
8.479087105995524e-07   -7.605326599660883e-07   1.3200481309135121e-05
8.479087105995524e-07   -7.605326599660883e-07   1.3200481309135121e-05
8.479087105995524e-07   -7.605326599660883e-07   1.3200481309135121e-05
-3.840219153826387e-06   7.943307863875725e-07   6.3198529362375536e-06
-3.840219153826387e-06   7.943307863875725e-07   6.3198529362375536e-06
-3.840219153826387e-06   7.943307863875725e-07   6.3198529362375536e-06
-3.840219153826387e-06   7.943307863875725e-07   6.3198529362375536e-06
-4.195651288986653e-06   -1.1581635170837892e-06   1.3995884573040187e-05
-4.195651288986653e-06   -1.1581635170837892e-06   1.3995884573040187e-05
-4.195651288986653e-06   -1.1581635170837892e-06   1.3995884573040187e-05
-4.195651288986653e-06   -1.1581635170837892e-06   1.3995884573040187e-05
-2.923212934260582e-07   1.9110060543215974e-07   6.680776106929683e-06
-2.923212934260582e-07   1.9110060543215974e-07   6.680776106929683e-06
-2.923212934260582e-07   1.9110060543215974e-07   6.680776106929683e-06
-2.923212934260582e-07   1.9110060543215974e-07   6.680776106929683e-06
-1.7935179252991834e-06   3.5839731689357723e-08   9.275927017630622e-06
-1.7935179252991834e-06   3.5839731689357723e-08   9.275927017630622e-06
-1.7935179252991834e-06   3.5839731689357723e-08   9.275927017630622e-06
-1.7935179252991834e-06   3.5839731689357723e-08   9.275927017630622e-06
-3.0708846109356804e-06   1.5543856619498232e-06   2.359607811162597e-05
-3.0708846109356804e-06   1.5543856619498232e-06   2.359607811162597e-05
-3.0708846109356804e-06   1.5543856619498232e-06   2.359607811162597e-05
-3.0708846109356804e-06   1.5543856619498232e-06   2.359607811162597e-05
-7.987646706481555e-06   1.8632637200127929e-06   1.5586801453887356e-05
-7.987646706481555e-06   1.8632637200127929e-06   1.5586801453887356e-05
-7.987646706481555e-06   1.8632637200127929e-06   1.5586801453887356e-05
-7.987646706481555e-06   1.8632637200127929e-06   1.5586801453887356e-05
-8.24728899015859e-06   9.280203552052349e-07   2.3531434098360586e-05
-8.24728899015859e-06   9.280203552052349e-07   2.3531434098360586e-05
-8.24728899015859e-06   9.280203552052349e-07   2.3531434098360586e-05
-8.24728899015859e-06   9.280203552052349e-07   2.3531434098360586e-05
-3.4150353745292373e-06   1.285696778941252e-06   1.526307221807001e-05
-3.4150353745292373e-06   1.285696778941252e-06   1.526307221807001e-05
-3.4150353745292373e-06   1.285696778941252e-06   1.526307221807001e-05
-3.4150353745292373e-06   1.285696778941252e-06   1.526307221807001e-05
-5.714303834835819e-06   1.340713648324745e-06   1.9062176196950884e-05
-5.714303834835819e-06   1.340713648324745e-06   1.9062176196950884e-05
-5.714303834835819e-06   1.340713648324745e-06   1.9062176196950884e-05
-5.714303834835819e-06   1.340713648324745e-06   1.9062176196950884e-05
-3.4150353745292373e-06   9.280203552052349e-07   2.3316828244118802e-05
-3.4150353745292373e-06   9.280203552052349e-07   2.3316828244118802e-05
-3.4150353745292373e-06   9.280203552052349e-07   2.3316828244118802e-05
-3.4150353745292373e-06   9.280203552052349e-07   2.3316828244118802e-05
-8.24728899015859e-06   1.285696778941252e-06   1.5477678072311585e-05
-8.24728899015859e-06   1.285696778941252e-06   1.5477678072311585e-05
-8.24728899015859e-06   1.285696778941252e-06   1.5477678072311585e-05
-8.24728899015859e-06   1.285696778941252e-06   1.5477678072311585e-05
-8.515109536743129e-06   3.973488781516994e-07   2.357622078820779e-05
-8.515109536743129e-06   3.973488781516994e-07   2.357622078820779e-05
-8.515109536743129e-06   3.973488781516994e-07   2.357622078820779e-05
-8.515109536743129e-06   3.973488781516994e-07   2.357622078820779e-05
-3.840219153826387e-06   7.527478418111778e-07   1.5571497438484213e-05
-3.840219153826387e-06   7.527478418111778e-07   1.5571497438484213e-05
-3.840219153826387e-06   7.527478418111778e-07   1.5571497438484213e-05
-3.840219153826387e-06   7.527478418111778e-07   1.5571497438484213e-05
-5.979440292169402e-06   9.187557271229507e-07   1.9037261271202604e-05
-5.979440292169402e-06   9.187557271229507e-07   1.9037261271202604e-05
-5.979440292169402e-06   9.187557271229507e-07   1.9037261271202604e-05
-5.979440292169402e-06   9.187557271229507e-07   1.9037261271202604e-05
-3.84021915382639e-06   3.973488781516994e-07   2.3362981410012147e-05
-3.84021915382639e-06   3.973488781516994e-07   2.3362981410012147e-05
-3.84021915382639e-06   3.973488781516994e-07   2.3362981410012147e-05
-3.84021915382639e-06   3.973488781516994e-07   2.3362981410012147e-05
-8.515109536743129e-06   7.527478418111778e-07   1.578473681667996e-05
-8.515109536743129e-06   7.527478418111778e-07   1.578473681667996e-05
-8.515109536743129e-06   7.527478418111778e-07   1.578473681667996e-05
-8.515109536743129e-06   7.527478418111778e-07   1.578473681667996e-05
-8.777864316986052e-06   -1.447455590221705e-07   2.4032616471640665e-05
-8.777864316986052e-06   -1.447455590221705e-07   2.4032616471640665e-05
-8.777864316986052e-06   -1.447455590221705e-07   2.4032616471640665e-05
-8.777864316986052e-06   -1.447455590221705e-07   2.4032616471640665e-05
-4.195651288986646e-06   1.7557128144374528e-07   1.6203404654028954e-05
-4.195651288986646e-06   1.7557128144374528e-07   1.6203404654028954e-05
-4.195651288986646e-06   1.7557128144374528e-07   1.6203404654028954e-05
-4.195651288986646e-06   1.7557128144374528e-07   1.6203404654028954e-05
-6.2442004431349886e-06   5.042161768350258e-07   1.9420466307041185e-05
-6.2442004431349886e-06   5.042161768350258e-07   1.9420466307041185e-05
-6.2442004431349886e-06   5.042161768350258e-07   1.9420466307041185e-05
-6.2442004431349886e-06   5.042161768350258e-07   1.9420466307041185e-05
-7.987646706481555e-06   2.9030401993623486e-06   2.6555613930126618e-05
-7.987646706481555e-06   2.9030401993623486e-06   2.6555613930126618e-05
-7.987646706481555e-06   2.9030401993623486e-06   2.6555613930126618e-05
-7.987646706481555e-06   2.9030401993623486e-06   2.6555613930126618e-05
-1.2886447419821554e-05   2.235737520388248e-06   1.799056446717543e-05
-1.2886447419821554e-05   2.235737520388248e-06   1.799056446717543e-05
-1.2886447419821554e-05   2.235737520388248e-06   1.799056446717543e-05
-1.2886447419821554e-05   2.235737520388248e-06   1.799056446717543e-05
-1.3106260254448586e-05   2.3257509979865247e-06   2.60635453053677e-05
-1.3106260254448586e-05   2.3257509979865247e-06   2.60635453053677e-05
-1.3106260254448586e-05   2.3257509979865247e-06   2.60635453053677e-05
-1.3106260254448586e-05   2.3257509979865247e-06   2.60635453053677e-05
-8.24728899015859e-06   1.7006653239998734e-06   1.8340311269276268e-05
-8.24728899015859e-06   1.7006653239998734e-06   1.8340311269276268e-05
-8.24728899015859e-06   1.7006653239998734e-06   1.8340311269276268e-05
-8.24728899015859e-06   1.7006653239998734e-06   1.8340311269276268e-05
-1.0562284426432857e-05   2.2469243723970047e-06   2.187088156736176e-05
-1.0562284426432857e-05   2.2469243723970047e-06   2.187088156736176e-05
-1.0562284426432857e-05   2.2469243723970047e-06   2.187088156736176e-05
-1.0562284426432857e-05   2.2469243723970047e-06   2.187088156736176e-05
-8.24728899015859e-06   2.3257509979865247e-06   2.643859670975956e-05
-8.24728899015859e-06   2.3257509979865247e-06   2.643859670975956e-05
-8.24728899015859e-06   2.3257509979865247e-06   2.643859670975956e-05
-8.24728899015859e-06   2.3257509979865247e-06   2.643859670975956e-05
-1.3106260254448586e-05   1.7006653239998734e-06   1.7965259864884272e-05
-1.3106260254448586e-05   1.7006653239998734e-06   1.7965259864884272e-05
-1.3106260254448586e-05   1.7006653239998734e-06   1.7965259864884272e-05
-1.3106260254448586e-05   1.7006653239998734e-06   1.7965259864884272e-05
-1.334177904452669e-05   1.7514228661372113e-06   2.632266303835226e-05
-1.334177904452669e-05   1.7514228661372113e-06   2.632266303835226e-05
-1.334177904452669e-05   1.7514228661372113e-06   2.632266303835226e-05
-1.334177904452669e-05   1.7514228661372113e-06   2.632266303835226e-05
-8.515109536743129e-06   1.1568625114412702e-06   1.86349500715306e-05
-8.515109536743129e-06   1.1568625114412702e-06   1.86349500715306e-05
-8.515109536743129e-06   1.1568625114412702e-06   1.86349500715306e-05
-8.515109536743129e-06   1.1568625114412702e-06   1.86349500715306e-05
-1.075009709840701e-05   1.8185396532903724e-06   2.196292305586112e-05
-1.075009709840701e-05   1.8185396532903724e-06   2.196292305586112e-05
-1.075009709840701e-05   1.8185396532903724e-06   2.196292305586112e-05
-1.075009709840701e-05   1.8185396532903724e-06   2.196292305586112e-05
-8.515109536743129e-06   1.7514228661372113e-06   2.6679399251169824e-05
-8.515109536743129e-06   1.7514228661372113e-06   2.6679399251169824e-05
-8.515109536743129e-06   1.7514228661372113e-06   2.6679399251169824e-05
-8.515109536743129e-06   1.7514228661372113e-06   2.6679399251169824e-05
-1.334177904452669e-05   1.1568625114412702e-06   1.8278213858713064e-05
-1.334177904452669e-05   1.1568625114412702e-06   1.8278213858713064e-05
-1.334177904452669e-05   1.1568625114412702e-06   1.8278213858713064e-05
-1.334177904452669e-05   1.1568625114412702e-06   1.8278213858713064e-05
-1.3572436438761024e-05   1.2015314196124616e-06   2.686499900260962e-05
-1.3572436438761024e-05   1.2015314196124616e-06   2.686499900260962e-05
-1.3572436438761024e-05   1.2015314196124616e-06   2.686499900260962e-05
-1.3572436438761024e-05   1.2015314196124616e-06   2.686499900260962e-05
-8.777864316986025e-06   6.414163230985094e-07   1.92101145242265e-05
-8.777864316986025e-06   6.414163230985094e-07   1.92101145242265e-05
-8.777864316986025e-06   6.414163230985094e-07   1.92101145242265e-05
-8.777864316986025e-06   6.414163230985094e-07   1.92101145242265e-05
-1.0959349757706305e-05   1.3966346300588704e-06   2.2392792607917435e-05
-1.0959349757706305e-05   1.3966346300588704e-06   2.2392792607917435e-05
-1.0959349757706305e-05   1.3966346300588704e-06   2.2392792607917435e-05
-1.0959349757706305e-05   1.3966346300588704e-06   2.2392792607917435e-05
-1.2886447419821609e-05   4.313393901602888e-06   2.2959715653138335e-05
-1.2886447419821609e-05   4.313393901602888e-06   2.2959715653138335e-05
-1.2886447419821609e-05   4.313393901602888e-06   2.2959715653138335e-05
-1.2886447419821609e-05   4.313393901602888e-06   2.2959715653138335e-05
-1.770512737124904e-05   3.0233531630493703e-06   1.4154557957627068e-05
-1.770512737124904e-05   3.0233531630493703e-06   1.4154557957627068e-05
-1.770512737124904e-05   3.0233531630493703e-06   1.4154557957627068e-05
-1.770512737124904e-05   3.0233531630493703e-06   1.4154557957627068e-05
-1.7946675108691085e-05   3.731278021701671e-06   2.2283568422327548e-05
-1.7946675108691085e-05   3.731278021701671e-06   2.2283568422327548e-05
-1.7946675108691085e-05   3.731278021701671e-06   2.2283568422327548e-05
-1.7946675108691085e-05   3.731278021701671e-06   2.2283568422327548e-05
-1.3106260254448586e-05   2.460431258938635e-06   1.497871838958113e-05
-1.3106260254448586e-05   2.460431258938635e-06   1.497871838958113e-05
-1.3106260254448586e-05   2.460431258938635e-06   1.497871838958113e-05
-1.3106260254448586e-05   2.460431258938635e-06   1.497871838958113e-05
-1.5378477856957685e-05   3.3530926934802717e-06   1.82301508663712e-05
-1.5378477856957685e-05   3.3530926934802717e-06   1.82301508663712e-05
-1.5378477856957685e-05   3.3530926934802717e-06   1.82301508663712e-05
-1.5378477856957685e-05   3.3530926934802717e-06   1.82301508663712e-05
-1.3106260254448586e-05   3.731278021701671e-06   2.3046076479985196e-05
-1.3106260254448586e-05   3.731278021701671e-06   2.3046076479985196e-05
-1.3106260254448586e-05   3.731278021701671e-06   2.3046076479985196e-05
-1.3106260254448586e-05   3.731278021701671e-06   2.3046076479985196e-05
-1.7946675108690977e-05   2.4604312589387436e-06   1.4216210331923266e-05
-1.7946675108690977e-05   2.4604312589387436e-06   1.4216210331923266e-05
-1.7946675108690977e-05   2.4604312589387436e-06   1.4216210331923266e-05
-1.7946675108690977e-05   2.4604312589387436e-06   1.4216210331923266e-05
-1.8280340418229163e-05   3.2019523651446308e-06   2.3023414574344743e-05
-1.8280340418229163e-05   3.2019523651446308e-06   2.3023414574344743e-05
-1.8280340418229163e-05   3.2019523651446308e-06   2.3023414574344743e-05
-1.8280340418229163e-05   3.2019523651446308e-06   2.3023414574344743e-05
-1.334177904452669e-05   1.959570862434851e-06   1.5537907853133148e-05
-1.334177904452669e-05   1.959570862434851e-06   1.5537907853133148e-05
-1.334177904452669e-05   1.959570862434851e-06   1.5537907853133148e-05
-1.334177904452669e-05   1.959570862434851e-06   1.5537907853133148e-05
-1.5509768638503042e-05   2.937920000290091e-06   1.8564214360380677e-05
-1.5509768638503042e-05   2.937920000290091e-06   1.8564214360380677e-05
-1.5509768638503042e-05   2.937920000290091e-06   1.8564214360380677e-05
-1.5509768638503042e-05   2.937920000290091e-06   1.8564214360380677e-05
-1.334177904452669e-05   3.2019523651446308e-06   2.3768843475970242e-05
-1.334177904452669e-05   3.2019523651446308e-06   2.3768843475970242e-05
-1.334177904452669e-05   3.2019523651446308e-06   2.3768843475970242e-05
-1.334177904452669e-05   3.2019523651446308e-06   2.3768843475970242e-05
-1.8280340418229055e-05   1.959570862434851e-06   1.4792478951507378e-05
-1.8280340418229055e-05   1.959570862434851e-06   1.4792478951507378e-05
-1.8280340418229055e-05   1.959570862434851e-06   1.4792478951507378e-05
-1.8280340418229055e-05   1.959570862434851e-06   1.4792478951507378e-05
-1.854779741077044e-05   2.6361929671106944e-06   2.3846200884711103e-05
-1.854779741077044e-05   2.6361929671106944e-06   2.3846200884711103e-05
-1.854779741077044e-05   2.6361929671106944e-06   2.3846200884711103e-05
-1.854779741077044e-05   2.6361929671106944e-06   2.3846200884711103e-05
-1.3572436438760997e-05   1.4492713420535819e-06   1.626608557306309e-05
-1.3572436438760997e-05   1.4492713420535819e-06   1.626608557306309e-05
-1.3572436438760997e-05   1.4492713420535819e-06   1.626608557306309e-05
-1.3572436438760997e-05   1.4492713420535819e-06   1.626608557306309e-05
-1.57862126717474e-05   2.5430495181309482e-06   1.9299445722394505e-05
-1.57862126717474e-05   2.5430495181309482e-06   1.9299445722394505e-05
-1.57862126717474e-05   2.5430495181309482e-06   1.9299445722394505e-05
-1.57862126717474e-05   2.5430495181309482e-06   1.9299445722394505e-05
-1.770512737124904e-05   5.308170960146089e-06   1.0129850737071499e-05
-1.770512737124904e-05   5.308170960146089e-06   1.0129850737071499e-05
-1.770512737124904e-05   5.308170960146089e-06   1.0129850737071499e-05
-1.770512737124904e-05   5.308170960146089e-06   1.0129850737071499e-05
-2.1491502976078323e-05   3.5734838932301605e-06   2.7784124888732274e-06
-2.1491502976078323e-05   3.5734838932301605e-06   2.7784124888732274e-06
-2.1491502976078323e-05   3.5734838932301605e-06   2.7784124888732274e-06
-2.1491502976078323e-05   3.5734838932301605e-06   2.7784124888732274e-06
-2.2407623672892956e-05   5.00989337650303e-06   1.1876734262991412e-05
-2.2407623672892956e-05   5.00989337650303e-06   1.1876734262991412e-05
-2.2407623672892956e-05   5.00989337650303e-06   1.1876734262991412e-05
-2.2407623672892956e-05   5.00989337650303e-06   1.1876734262991412e-05
-1.794667510869103e-05   3.198921926277228e-06   5.528402859456818e-06
-1.794667510869103e-05   3.198921926277228e-06   5.528402859456818e-06
-1.794667510869103e-05   3.198921926277228e-06   5.528402859456818e-06
-1.794667510869103e-05   3.198921926277228e-06   5.528402859456818e-06
-1.9197615359652244e-05   4.2293235443164635e-06   6.9950623069017e-06
-1.9197615359652244e-05   4.2293235443164635e-06   6.9950623069017e-06
-1.9197615359652244e-05   4.2293235443164635e-06   6.9950623069017e-06
-1.9197615359652244e-05   4.2293235443164635e-06   6.9950623069017e-06
-1.794667510869103e-05   5.009893376502813e-06   1.2963317133126567e-05
-1.794667510869103e-05   5.009893376502813e-06   1.2963317133126567e-05
-1.794667510869103e-05   5.009893376502813e-06   1.2963317133126567e-05
-1.794667510869103e-05   5.009893376502813e-06   1.2963317133126567e-05
-2.2407623672893065e-05   3.1989219262771196e-06   4.441819989321283e-06
-2.2407623672893065e-05   3.1989219262771196e-06   4.441819989321283e-06
-2.2407623672893065e-05   3.1989219262771196e-06   4.441819989321283e-06
-2.2407623672893065e-05   3.1989219262771196e-06   4.441819989321283e-06
-2.319404512618093e-05   4.760512715816338e-06   1.398779570589313e-05
-2.319404512618093e-05   4.760512715816338e-06   1.398779570589313e-05
-2.319404512618093e-05   4.760512715816338e-06   1.398779570589313e-05
-2.319404512618093e-05   4.760512715816338e-06   1.398779570589313e-05
-1.828034041822911e-05   2.941650567608151e-06   6.889605148231921e-06
-1.828034041822911e-05   2.941650567608151e-06   6.889605148231921e-06
-1.828034041822911e-05   2.941650567608151e-06   6.889605148231921e-06
-1.828034041822911e-05   2.941650567608151e-06   6.889605148231921e-06
-1.9974043506697697e-05   4.082500160303669e-06   9.02793387339625e-06
-1.9974043506697697e-05   4.082500160303669e-06   9.02793387339625e-06
-1.9974043506697697e-05   4.082500160303669e-06   9.02793387339625e-06
-1.9974043506697697e-05   4.082500160303669e-06   9.02793387339625e-06
-1.828034041822911e-05   4.760512715816555e-06   1.5079112994818237e-05
-1.828034041822911e-05   4.760512715816555e-06   1.5079112994818237e-05
-1.828034041822911e-05   4.760512715816555e-06   1.5079112994818237e-05
-1.828034041822911e-05   4.760512715816555e-06   1.5079112994818237e-05
-2.3194045126180985e-05   2.941650567608151e-06   5.798287859306879e-06
-2.3194045126180985e-05   2.941650567608151e-06   5.798287859306879e-06
-2.3194045126180985e-05   2.941650567608151e-06   5.798287859306879e-06
-2.3194045126180985e-05   2.941650567608151e-06   5.798287859306879e-06
-2.4195186655329344e-05   4.0819572925245105e-06   1.7808066389409178e-05
-2.4195186655329344e-05   4.0819572925245105e-06   1.7808066389409178e-05
-2.4195186655329344e-05   4.0819572925245105e-06   1.7808066389409178e-05
-2.4195186655329344e-05   4.0819572925245105e-06   1.7808066389409178e-05
-1.8547797410770387e-05   2.350720264400561e-06   9.434493198685456e-06
-1.8547797410770387e-05   2.350720264400561e-06   9.434493198685456e-06
-1.8547797410770387e-05   2.350720264400561e-06   9.434493198685456e-06
-1.8547797410770387e-05   2.350720264400561e-06   9.434493198685456e-06
-2.0195715190548554e-05   3.800784093466354e-06   1.1310984534209311e-05
-2.0195715190548554e-05   3.800784093466354e-06   1.1310984534209311e-05
-2.0195715190548554e-05   3.800784093466354e-06   1.1310984534209311e-05
-2.0195715190548554e-05   3.800784093466354e-06   1.1310984534209311e-05
-8.774855050340693e-06   1.5961537521348062e-06   1.0506837249044153e-05
-8.774855050340693e-06   1.5961537521348062e-06   1.0506837249044153e-05
-8.774855050340693e-06   1.5961537521348062e-06   1.0506837249044153e-05
-8.774855050340693e-06   1.5961537521348062e-06   1.0506837249044153e-05
-9.606261436316747e-06   3.016631778838771e-06   9.973446755106468e-06
-9.606261436316747e-06   3.016631778838771e-06   9.973446755106468e-06
-9.606261436316747e-06   3.016631778838771e-06   9.973446755106468e-06
-9.606261436316747e-06   3.016631778838771e-06   9.973446755106468e-06
-9.853828458901909e-06   1.0788518994684542e-06   1.1283874104072822e-05
-9.853828458901909e-06   1.0788518994684542e-06   1.1283874104072822e-05
-9.853828458901909e-06   1.0788518994684542e-06   1.1283874104072822e-05
-9.853828458901909e-06   1.0788518994684542e-06   1.1283874104072822e-05
-9.815711896529397e-06   2.356426622509146e-06   1.045380166629425e-05
-9.815711896529397e-06   2.356426622509146e-06   1.045380166629425e-05
-9.815711896529397e-06   2.356426622509146e-06   1.045380166629425e-05
-9.815711896529397e-06   2.356426622509146e-06   1.045380166629425e-05
-9.276685357713617e-06   1.880432435804073e-06   9.841020613624241e-06
-9.276685357713617e-06   1.880432435804073e-06   9.841020613624241e-06
-9.276685357713617e-06   1.880432435804073e-06   9.841020613624241e-06
-9.276685357713617e-06   1.880432435804073e-06   9.841020613624241e-06
-9.815711896529424e-06   1.0788518994684542e-06   1.0517329270248255e-05
-9.815711896529424e-06   1.0788518994684542e-06   1.0517329270248255e-05
-9.815711896529424e-06   1.0788518994684542e-06   1.0517329270248255e-05
-9.815711896529424e-06   1.0788518994684542e-06   1.0517329270248255e-05
-9.853828458901909e-06   2.356426622509146e-06   1.1220346500118573e-05
-9.853828458901909e-06   2.356426622509146e-06   1.1220346500118573e-05
-9.853828458901909e-06   2.356426622509146e-06   1.1220346500118573e-05
-9.853828458901909e-06   2.356426622509146e-06   1.1220346500118573e-05
-1.0175126212439026e-05   7.943307863876809e-07   1.1639158117247785e-05
-1.0175126212439026e-05   7.943307863876809e-07   1.1639158117247785e-05
-1.0175126212439026e-05   7.943307863876809e-07   1.1639158117247785e-05
-1.0175126212439026e-05   7.943307863876809e-07   1.1639158117247785e-05
-1.0828159848135324e-05   1.900175531254454e-06   1.2064040663154726e-05
-1.0828159848135324e-05   1.900175531254454e-06   1.2064040663154726e-05
-1.0828159848135324e-05   1.900175531254454e-06   1.2064040663154726e-05
-1.0828159848135324e-05   1.900175531254454e-06   1.2064040663154726e-05
-9.896154872962177e-06   1.5957148778655231e-06   1.0693375429899097e-05
-9.896154872962177e-06   1.5957148778655231e-06   1.0693375429899097e-05
-9.896154872962177e-06   1.5957148778655231e-06   1.0693375429899097e-05
-9.896154872962177e-06   1.5957148778655231e-06   1.0693375429899097e-05
-1.0828159848135337e-05   7.943307863875725e-07   1.0975651270327472e-05
-1.0828159848135337e-05   7.943307863875725e-07   1.0975651270327472e-05
-1.0828159848135337e-05   7.943307863875725e-07   1.0975651270327472e-05
-1.0828159848135337e-05   7.943307863875725e-07   1.0975651270327472e-05
-1.0175126212439026e-05   1.900175531254454e-06   1.2727547510074742e-05
-1.0175126212439026e-05   1.900175531254454e-06   1.2727547510074742e-05
-1.0175126212439026e-05   1.900175531254454e-06   1.2727547510074742e-05
-1.0175126212439026e-05   1.900175531254454e-06   1.2727547510074742e-05
-1.0379806560142314e-05   1.9110060543215974e-07   1.2789331670515138e-05
-1.0379806560142314e-05   1.9110060543215974e-07   1.2789331670515138e-05
-1.0379806560142314e-05   1.9110060543215974e-07   1.2789331670515138e-05
-1.0379806560142314e-05   1.9110060543215974e-07   1.2789331670515138e-05
-1.1906213037618516e-05   7.780658586462258e-07   1.4981163314380192e-05
-1.1906213037618516e-05   7.780658586462258e-07   1.4981163314380192e-05
-1.1906213037618516e-05   7.780658586462258e-07   1.4981163314380192e-05
-1.1906213037618516e-05   7.780658586462258e-07   1.4981163314380192e-05
-1.0331230905811776e-05   1.2464707562680546e-06   1.207515015612886e-05
-1.0331230905811776e-05   1.2464707562680546e-06   1.207515015612886e-05
-1.0331230905811776e-05   1.2464707562680546e-06   1.207515015612886e-05
-1.0331230905811776e-05   1.2464707562680546e-06   1.207515015612886e-05
-9.60626143631673e-06   1.8632637200127929e-06   2.089600054377039e-05
-9.60626143631673e-06   1.8632637200127929e-06   2.089600054377039e-05
-9.60626143631673e-06   1.8632637200127929e-06   2.089600054377039e-05
-9.60626143631673e-06   1.8632637200127929e-06   2.089600054377039e-05
-9.743487800976009e-06   7.809194846654117e-07   2.001788339479649e-05
-9.743487800976009e-06   7.809194846654117e-07   2.001788339479649e-05
-9.743487800976009e-06   7.809194846654117e-07   2.001788339479649e-05
-9.743487800976009e-06   7.809194846654117e-07   2.001788339479649e-05
-9.820289365384855e-06   1.2856967789413604e-06   2.010498833772531e-05
-9.820289365384855e-06   1.2856967789413604e-06   2.010498833772531e-05
-9.820289365384855e-06   1.2856967789413604e-06   2.010498833772531e-05
-9.820289365384855e-06   1.2856967789413604e-06   2.010498833772531e-05
-9.853828458901909e-06   3.739774329563142e-07   2.070791843451141e-05
-9.853828458901909e-06   3.739774329563142e-07   2.070791843451141e-05
-9.853828458901909e-06   3.739774329563142e-07   2.070791843451141e-05
-9.853828458901909e-06   3.739774329563142e-07   2.070791843451141e-05
-9.726238195181232e-06   9.51311173135014e-07   2.014886775086972e-05
-9.726238195181232e-06   9.51311173135014e-07   2.014886775086972e-05
-9.726238195181232e-06   9.51311173135014e-07   2.014886775086972e-05
-9.726238195181232e-06   9.51311173135014e-07   2.014886775086972e-05
-9.853828458901899e-06   1.285696778941252e-06   2.0652019945315925e-05
-9.853828458901899e-06   1.285696778941252e-06   2.0652019945315925e-05
-9.853828458901899e-06   1.285696778941252e-06   2.0652019945315925e-05
-9.853828458901899e-06   1.285696778941252e-06   2.0652019945315925e-05
-9.820289365384827e-06   3.739774329563142e-07   2.0160886826920408e-05
-9.820289365384827e-06   3.739774329563142e-07   2.0160886826920408e-05
-9.820289365384827e-06   3.739774329563142e-07   2.0160886826920408e-05
-9.820289365384827e-06   3.739774329563142e-07   2.0160886826920408e-05
-9.915396223944431e-06   7.527478418110694e-07   2.0380659530727305e-05
-9.915396223944431e-06   7.527478418110694e-07   2.0380659530727305e-05
-9.915396223944431e-06   7.527478418110694e-07   2.0380659530727305e-05
-9.915396223944431e-06   7.527478418110694e-07   2.0380659530727305e-05
-1.0175126212439026e-05   -9.749063946764853e-08   2.1323685933652e-05
-1.0175126212439026e-05   -9.749063946764853e-08   2.1323685933652e-05
-1.0175126212439026e-05   -9.749063946764853e-08   2.1323685933652e-05
-1.0175126212439026e-05   -9.749063946764853e-08   2.1323685933652e-05
-9.820298561600057e-06   6.144392431539115e-07   2.0305148586013803e-05
-9.820298561600057e-06   6.144392431539115e-07   2.0305148586013803e-05
-9.820298561600057e-06   6.144392431539115e-07   2.0305148586013803e-05
-9.820298561600057e-06   6.144392431539115e-07   2.0305148586013803e-05
-1.0175126212439026e-05   7.527478418110694e-07   2.089080261949406e-05
-1.0175126212439026e-05   7.527478418110694e-07   2.089080261949406e-05
-1.0175126212439026e-05   7.527478418110694e-07   2.089080261949406e-05
-1.0175126212439026e-05   7.527478418110694e-07   2.089080261949406e-05
-9.915396223944404e-06   -9.749063946764853e-08   2.0813542844884717e-05
-9.915396223944404e-06   -9.749063946764853e-08   2.0813542844884717e-05
-9.915396223944404e-06   -9.749063946764853e-08   2.0813542844884717e-05
-9.915396223944404e-06   -9.749063946764853e-08   2.0813542844884717e-05
-9.984739752940346e-06   1.7557128144374528e-07   2.0966986832199157e-05
-9.984739752940346e-06   1.7557128144374528e-07   2.0966986832199157e-05
-9.984739752940346e-06   1.7557128144374528e-07   2.0966986832199157e-05
-9.984739752940346e-06   1.7557128144374528e-07   2.0966986832199157e-05
-1.0379806560142307e-05   -7.167869050656289e-07   2.2160846422774526e-05
-1.0379806560142307e-05   -7.167869050656289e-07   2.2160846422774526e-05
-1.0379806560142307e-05   -7.167869050656289e-07   2.2160846422774526e-05
-1.0379806560142307e-05   -7.167869050656289e-07   2.2160846422774526e-05
-9.96875301295978e-06   2.1881315629757644e-07   2.0914397140651904e-05
-9.96875301295978e-06   2.1881315629757644e-07   2.0914397140651904e-05
-9.96875301295978e-06   2.1881315629757644e-07   2.0914397140651904e-05
-9.96875301295978e-06   2.1881315629757644e-07   2.0914397140651904e-05
-9.743487800976063e-06   2.235737520388248e-06   2.305073862323456e-05
-9.743487800976063e-06   2.235737520388248e-06   2.305073862323456e-05
-9.743487800976063e-06   2.235737520388248e-06   2.305073862323456e-05
-9.743487800976063e-06   2.235737520388248e-06   2.305073862323456e-05
-1.0497950216219366e-05   2.1740545291326976e-07   2.05823020240107e-05
-1.0497950216219366e-05   2.1740545291326976e-07   2.05823020240107e-05
-1.0497950216219366e-05   2.1740545291326976e-07   2.05823020240107e-05
-1.0497950216219366e-05   2.1740545291326976e-07   2.05823020240107e-05
-1.0523974774933887e-05   1.7006653239998734e-06   2.187157018251277e-05
-1.0523974774933887e-05   1.7006653239998734e-06   2.187157018251277e-05
-1.0523974774933887e-05   1.7006653239998734e-06   2.187157018251277e-05
-1.0523974774933887e-05   1.7006653239998734e-06   2.187157018251277e-05
-9.820289365384827e-06   -1.2608692962878375e-07   2.1794812518774866e-05
-9.820289365384827e-06   -1.2608692962878375e-07   2.1794812518774866e-05
-9.820289365384827e-06   -1.2608692962878375e-07   2.1794812518774866e-05
-9.820289365384827e-06   -1.2608692962878375e-07   2.1794812518774866e-05
-1.0129147509397747e-05   9.728283367114142e-07   2.1650226932325644e-05
-1.0129147509397747e-05   9.728283367114142e-07   2.1650226932325644e-05
-1.0129147509397747e-05   9.728283367114142e-07   2.1650226932325644e-05
-1.0129147509397747e-05   9.728283367114142e-07   2.1650226932325644e-05
-9.820289365384827e-06   1.700665323999765e-06   2.2967621534689857e-05
-9.820289365384827e-06   1.700665323999765e-06   2.2967621534689857e-05
-9.820289365384827e-06   1.700665323999765e-06   2.2967621534689857e-05
-9.820289365384827e-06   1.700665323999765e-06   2.2967621534689857e-05
-1.052397477493386e-05   -1.2608692962878375e-07   2.0698761166597726e-05
-1.052397477493386e-05   -1.2608692962878375e-07   2.0698761166597726e-05
-1.052397477493386e-05   -1.2608692962878375e-07   2.0698761166597726e-05
-1.052397477493386e-05   -1.2608692962878375e-07   2.0698761166597726e-05
-1.0571028890448618e-05   1.1568625114412702e-06   2.221432178463995e-05
-1.0571028890448618e-05   1.1568625114412702e-06   2.221432178463995e-05
-1.0571028890448618e-05   1.1568625114412702e-06   2.221432178463995e-05
-1.0571028890448618e-05   1.1568625114412702e-06   2.221432178463995e-05
-9.915396223944404e-06   -5.373891567887149e-07   2.213815167473749e-05
-9.915396223944404e-06   -5.373891567887149e-07   2.213815167473749e-05
-9.915396223944404e-06   -5.373891567887149e-07   2.213815167473749e-05
-9.915396223944404e-06   -5.373891567887149e-07   2.213815167473749e-05
-1.0135071330727861e-05   6.32714689375799e-07   2.180221454501052e-05
-1.0135071330727861e-05   6.32714689375799e-07   2.180221454501052e-05
-1.0135071330727861e-05   6.32714689375799e-07   2.180221454501052e-05
-1.0135071330727861e-05   6.32714689375799e-07   2.180221454501052e-05
-9.915396223944431e-06   1.1568625114412702e-06   2.3230872785577703e-05
-9.915396223944431e-06   1.1568625114412702e-06   2.3230872785577703e-05
-9.915396223944431e-06   1.1568625114412702e-06   2.3230872785577703e-05
-9.915396223944431e-06   1.1568625114412702e-06   2.3230872785577703e-05
-1.0571028890448564e-05   -5.373891567887149e-07   2.1121600673799468e-05
-1.0571028890448564e-05   -5.373891567887149e-07   2.1121600673799468e-05
-1.0571028890448564e-05   -5.373891567887149e-07   2.1121600673799468e-05
-1.0571028890448564e-05   -5.373891567887149e-07   2.1121600673799468e-05
-1.060126522533009e-05   6.414163230985094e-07   2.2826512111025015e-05
-1.060126522533009e-05   6.414163230985094e-07   2.2826512111025015e-05
-1.060126522533009e-05   6.414163230985094e-07   2.2826512111025015e-05
-1.060126522533009e-05   6.414163230985094e-07   2.2826512111025015e-05
-9.984739752940346e-06   -9.502411553882978e-07   2.275396414413392e-05
-9.984739752940346e-06   -9.502411553882978e-07   2.275396414413392e-05
-9.984739752940346e-06   -9.502411553882978e-07   2.275396414413392e-05
-9.984739752940346e-06   -9.502411553882978e-07   2.275396414413392e-05
-1.0157858801587182e-05   2.8308351333601427e-07   2.2302501090643457e-05
-1.0157858801587182e-05   2.8308351333601427e-07   2.2302501090643457e-05
-1.0157858801587182e-05   2.8308351333601427e-07   2.2302501090643457e-05
-1.0157858801587182e-05   2.8308351333601427e-07   2.2302501090643457e-05
-1.0497950216219366e-05   3.0233531630493703e-06   1.877775731633333e-05
-1.0497950216219366e-05   3.0233531630493703e-06   1.877775731633333e-05
-1.0497950216219366e-05   3.0233531630493703e-06   1.877775731633333e-05
-1.0497950216219366e-05   3.0233531630493703e-06   1.877775731633333e-05
-1.1585833650889956e-05   9.932409353877658e-07   1.5746550921952184e-05
-1.1585833650889956e-05   9.932409353877658e-07   1.5746550921952184e-05
-1.1585833650889956e-05   9.932409353877658e-07   1.5746550921952184e-05
-1.1585833650889956e-05   9.932409353877658e-07   1.5746550921952184e-05
-1.1605198618620067e-05   2.4604312589387436e-06   1.7733136876029094e-05
-1.1605198618620067e-05   2.4604312589387436e-06   1.7733136876029094e-05
-1.1605198618620067e-05   2.4604312589387436e-06   1.7733136876029094e-05
-1.1605198618620067e-05   2.4604312589387436e-06   1.7733136876029094e-05
-1.0523974774933887e-05   5.406115403045527e-07   1.70829889677326e-05
-1.0523974774933887e-05   5.406115403045527e-07   1.70829889677326e-05
-1.0523974774933887e-05   5.406115403045527e-07   1.70829889677326e-05
-1.0523974774933887e-05   5.406115403045527e-07   1.70829889677326e-05
-1.1024358461528562e-05   1.7957752999318583e-06   1.716386352294748e-05
-1.1024358461528562e-05   1.7957752999318583e-06   1.716386352294748e-05
-1.1024358461528562e-05   1.7957752999318583e-06   1.716386352294748e-05
-1.1024358461528562e-05   1.7957752999318583e-06   1.716386352294748e-05
-1.0523974774933887e-05   2.4604312589387436e-06   1.8885028707209413e-05
-1.0523974774933887e-05   2.4604312589387436e-06   1.8885028707209413e-05
-1.0523974774933887e-05   2.4604312589387436e-06   1.8885028707209413e-05
-1.0523974774933887e-05   2.4604312589387436e-06   1.8885028707209413e-05
-1.1605198618620067e-05   5.406115403045527e-07   1.5931097136552098e-05
-1.1605198618620067e-05   5.406115403045527e-07   1.5931097136552098e-05
-1.1605198618620067e-05   5.406115403045527e-07   1.5931097136552098e-05
-1.1605198618620067e-05   5.406115403045527e-07   1.5931097136552098e-05
-1.1731312042390313e-05   1.959570862434851e-06   1.8390067629018235e-05
-1.1731312042390313e-05   1.959570862434851e-06   1.8390067629018235e-05
-1.1731312042390313e-05   1.959570862434851e-06   1.8390067629018235e-05
-1.1731312042390313e-05   1.959570862434851e-06   1.8390067629018235e-05
-1.057102889044859e-05   1.5299061236493175e-07   1.7540210525823796e-05
-1.057102889044859e-05   1.5299061236493175e-07   1.7540210525823796e-05
-1.057102889044859e-05   1.5299061236493175e-07   1.7540210525823796e-05
-1.057102889044859e-05   1.5299061236493175e-07   1.7540210525823796e-05
-1.0993184970556241e-05   1.4240378341213392e-06   1.748117565961518e-05
-1.0993184970556241e-05   1.4240378341213392e-06   1.748117565961518e-05
-1.0993184970556241e-05   1.4240378341213392e-06   1.748117565961518e-05
-1.0993184970556241e-05   1.4240378341213392e-06   1.748117565961518e-05
-1.057102889044859e-05   1.959570862434851e-06   1.947401577905971e-05
-1.057102889044859e-05   1.959570862434851e-06   1.947401577905971e-05
-1.057102889044859e-05   1.959570862434851e-06   1.947401577905971e-05
-1.057102889044859e-05   1.959570862434851e-06   1.947401577905971e-05
-1.1731312042390313e-05   1.5299061236493175e-07   1.6456262375781816e-05
-1.1731312042390313e-05   1.5299061236493175e-07   1.6456262375781816e-05
-1.1731312042390313e-05   1.5299061236493175e-07   1.6456262375781816e-05
-1.1731312042390313e-05   1.5299061236493175e-07   1.6456262375781816e-05
-1.1806587941002146e-05   1.4492713420535819e-06   1.9206318833741437e-05
-1.1806587941002146e-05   1.4492713420535819e-06   1.9206318833741437e-05
-1.1806587941002146e-05   1.4492713420535819e-06   1.9206318833741437e-05
-1.1806587941002146e-05   1.4492713420535819e-06   1.9206318833741437e-05
-1.0601265225330063e-05   -2.3778429799410812e-07   1.8209681024983085e-05
-1.0601265225330063e-05   -2.3778429799410812e-07   1.8209681024983085e-05
-1.0601265225330063e-05   -2.3778429799410812e-07   1.8209681024983085e-05
-1.0601265225330063e-05   -2.3778429799410812e-07   1.8209681024983085e-05
-1.1048632658977662e-05   1.0919632124014884e-06   1.8157444908157986e-05
-1.1048632658977662e-05   1.0919632124014884e-06   1.8157444908157986e-05
-1.1048632658977662e-05   1.0919632124014884e-06   1.8157444908157986e-05
-1.1048632658977662e-05   1.0919632124014884e-06   1.8157444908157986e-05
-1.1585833650889902e-05   3.573483893230052e-06   7.224356751132119e-06
-1.1585833650889902e-05   3.573483893230052e-06   7.224356751132119e-06
-1.1585833650889902e-05   3.573483893230052e-06   7.224356751132119e-06
-1.1585833650889902e-05   3.573483893230052e-06   7.224356751132119e-06
-1.144748516405963e-05   1.6376616636242522e-06   6.293444224752512e-06
-1.144748516405963e-05   1.6376616636242522e-06   6.293444224752512e-06
-1.144748516405963e-05   1.6376616636242522e-06   6.293444224752512e-06
-1.144748516405963e-05   1.6376616636242522e-06   6.293444224752512e-06
-1.2036163891775739e-05   3.1989219262771196e-06   7.916331118265792e-06
-1.2036163891775739e-05   3.1989219262771196e-06   7.916331118265792e-06
-1.2036163891775739e-05   3.1989219262771196e-06   7.916331118265792e-06
-1.2036163891775739e-05   3.1989219262771196e-06   7.916331118265792e-06
-1.1605198618620013e-05   1.317258117449426e-06   8.327053948303104e-06
-1.1605198618620013e-05   1.317258117449426e-06   8.327053948303104e-06
-1.1605198618620013e-05   1.317258117449426e-06   8.327053948303104e-06
-1.1605198618620013e-05   1.317258117449426e-06   8.327053948303104e-06
-1.1289525088600388e-05   2.5143102081083427e-06   7.082700143875003e-06
-1.1289525088600388e-05   2.5143102081083427e-06   7.082700143875003e-06
-1.1289525088600388e-05   2.5143102081083427e-06   7.082700143875003e-06
-1.1289525088600388e-05   2.5143102081083427e-06   7.082700143875003e-06
-1.1605198618620013e-05   3.1989219262771196e-06   9.045329403562213e-06
-1.1605198618620013e-05   3.1989219262771196e-06   9.045329403562213e-06
-1.1605198618620013e-05   3.1989219262771196e-06   9.045329403562213e-06
-1.1605198618620013e-05   3.1989219262771196e-06   9.045329403562213e-06
-1.2036163891775793e-05   1.3172581174495344e-06   7.1980556630064116e-06
-1.2036163891775793e-05   1.3172581174495344e-06   7.1980556630064116e-06
-1.2036163891775793e-05   1.3172581174495344e-06   7.1980556630064116e-06
-1.2036163891775793e-05   1.3172581174495344e-06   7.1980556630064116e-06
-1.2553037313253019e-05   2.941650567608151e-06   9.386867723950969e-06
-1.2553037313253019e-05   2.941650567608151e-06   9.386867723950969e-06
-1.2553037313253019e-05   2.941650567608151e-06   9.386867723950969e-06
-1.2553037313253019e-05   2.941650567608151e-06   9.386867723950969e-06
-1.1731312042390313e-05   1.1077737312886488e-06   9.117651707637943e-06
-1.1731312042390313e-05   1.1077737312886488e-06   9.117651707637943e-06
-1.1731312042390313e-05   1.1077737312886488e-06   9.117651707637943e-06
-1.1731312042390313e-05   1.1077737312886488e-06   9.117651707637943e-06
-1.1709179427073127e-05   2.3272944615346843e-06   8.349051577294679e-06
-1.1709179427073127e-05   2.3272944615346843e-06   8.349051577294679e-06
-1.1709179427073127e-05   2.3272944615346843e-06   8.349051577294679e-06
-1.1709179427073127e-05   2.3272944615346843e-06   8.349051577294679e-06
-1.1731312042390313e-05   2.941650567608151e-06   1.0487193825742345e-05
-1.1731312042390313e-05   2.941650567608151e-06   1.0487193825742345e-05
-1.1731312042390313e-05   2.941650567608151e-06   1.0487193825742345e-05
-1.1731312042390313e-05   2.941650567608151e-06   1.0487193825742345e-05
-1.2553037313253073e-05   1.1077737312886488e-06   8.017325605846242e-06
-1.2553037313253073e-05   1.1077737312886488e-06   8.017325605846242e-06
-1.2553037313253073e-05   1.1077737312886488e-06   8.017325605846242e-06
-1.2553037313253073e-05   1.1077737312886488e-06   8.017325605846242e-06
-1.332127574827193e-05   2.3507202644006695e-06   1.2088174755609232e-05
-1.332127574827193e-05   2.3507202644006695e-06   1.2088174755609232e-05
-1.332127574827193e-05   2.3507202644006695e-06   1.2088174755609232e-05
-1.332127574827193e-05   2.3507202644006695e-06   1.2088174755609232e-05
-1.1806587941002092e-05   6.862124664192004e-07   1.0562399755614663e-05
-1.1806587941002092e-05   6.862124664192004e-07   1.0562399755614663e-05
-1.1806587941002092e-05   6.862124664192004e-07   1.0562399755614663e-05
-1.1806587941002092e-05   6.862124664192004e-07   1.0562399755614663e-05
-1.1851087817403962e-05   2.1047637522059615e-06   9.785435444811504e-06
-1.1851087817403962e-05   2.1047637522059615e-06   9.785435444811504e-06
-1.1851087817403962e-05   2.1047637522059615e-06   9.785435444811504e-06
-1.1851087817403962e-05   2.1047637522059615e-06   9.785435444811504e-06
-2.278065716568573e-05   3.016631778838771e-06   8.791862694263158e-06
-2.278065716568573e-05   3.016631778838771e-06   8.791862694263158e-06
-2.278065716568573e-05   3.016631778838771e-06   8.791862694263158e-06
-2.278065716568573e-05   3.016631778838771e-06   8.791862694263158e-06
-1.5381494344454573e-05   4.176846536636629e-06   2.1819929584327173e-05
-1.5381494344454573e-05   4.176846536636629e-06   2.1819929584327173e-05
-1.5381494344454573e-05   4.176846536636629e-06   2.1819929584327173e-05
-1.5381494344454573e-05   4.176846536636629e-06   2.1819929584327173e-05
-1.537424737239866e-05   2.356426622509146e-06   9.985731795172806e-06
-1.537424737239866e-05   2.356426622509146e-06   9.985731795172806e-06
-1.537424737239866e-05   2.356426622509146e-06   9.985731795172806e-06
-1.537424737239866e-05   2.356426622509146e-06   9.985731795172806e-06
-2.509386334903673e-05   1.6916090037554193e-06   2.658398232748864e-05
-2.509386334903673e-05   1.6916090037554193e-06   2.658398232748864e-05
-2.509386334903673e-05   1.6916090037554193e-06   2.658398232748864e-05
-2.509386334903673e-05   1.6916090037554193e-06   2.658398232748864e-05
-1.8643150960332773e-05   2.4750275939059395e-06   1.5362743858891712e-05
-1.8643150960332773e-05   2.4750275939059395e-06   1.5362743858891712e-05
-1.8643150960332773e-05   2.4750275939059395e-06   1.5362743858891712e-05
-1.8643150960332773e-05   2.4750275939059395e-06   1.5362743858891712e-05
-2.5093863349036764e-05   2.356426622509146e-06   1.0384622366424998e-05
-2.5093863349036764e-05   2.356426622509146e-06   1.0384622366424998e-05
-2.5093863349036764e-05   2.356426622509146e-06   1.0384622366424998e-05
-2.5093863349036764e-05   2.356426622509146e-06   1.0384622366424998e-05
-1.537424737239866e-05   1.6916090037554193e-06   2.618509175623642e-05
-1.537424737239866e-05   1.6916090037554193e-06   2.618509175623642e-05
-1.537424737239866e-05   1.6916090037554193e-06   2.618509175623642e-05
-1.537424737239866e-05   1.6916090037554193e-06   2.618509175623642e-05
-1.5584237254709014e-05   1.900175531254454e-06   1.1168765605800313e-05
-1.5584237254709014e-05   1.900175531254454e-06   1.1168765605800313e-05
-1.5584237254709014e-05   1.900175531254454e-06   1.1168765605800313e-05
-1.5584237254709014e-05   1.900175531254454e-06   1.1168765605800313e-05
-2.5182420919732395e-05   1.2137010320938287e-06   2.7577623080335466e-05
-2.5182420919732395e-05   1.2137010320938287e-06   2.7577623080335466e-05
-2.5182420919732395e-05   1.2137010320938287e-06   2.7577623080335466e-05
-2.5182420919732395e-05   1.2137010320938287e-06   2.7577623080335466e-05
-1.9894211021316435e-05   1.5460891081482708e-06   1.8564507070676077e-05
-1.9894211021316435e-05   1.5460891081482708e-06   1.8564507070676077e-05
-1.9894211021316435e-05   1.5460891081482708e-06   1.8564507070676077e-05
-1.9894211021316435e-05   1.5460891081482708e-06   1.8564507070676077e-05
-2.5182420919732436e-05   1.900175531254454e-06   1.1580650305296613e-05
-2.5182420919732436e-05   1.900175531254454e-06   1.1580650305296613e-05
-2.5182420919732436e-05   1.900175531254454e-06   1.1580650305296613e-05
-2.5182420919732436e-05   1.900175531254454e-06   1.1580650305296613e-05
-1.5584237254708994e-05   1.2137010320938287e-06   2.7165738380839166e-05
-1.5584237254708994e-05   1.2137010320938287e-06   2.7165738380839166e-05
-1.5584237254708994e-05   1.2137010320938287e-06   2.7165738380839166e-05
-1.5584237254708994e-05   1.2137010320938287e-06   2.7165738380839166e-05
-1.5418140651778656e-05   7.780658586462258e-07   1.3237953263220295e-05
-1.5418140651778656e-05   7.780658586462258e-07   1.3237953263220295e-05
-1.5418140651778656e-05   7.780658586462258e-07   1.3237953263220295e-05
-1.5418140651778656e-05   7.780658586462258e-07   1.3237953263220295e-05
-2.54553768356769e-05   -8.187584015031425e-07   3.092477479247362e-05
-2.54553768356769e-05   -8.187584015031425e-07   3.092477479247362e-05
-2.54553768356769e-05   -8.187584015031425e-07   3.092477479247362e-05
-2.54553768356769e-05   -8.187584015031425e-07   3.092477479247362e-05
-1.959084206653855e-05   7.495433842839958e-07   2.0209569105770792e-05
-1.959084206653855e-05   7.495433842839958e-07   2.0209569105770792e-05
-1.959084206653855e-05   7.495433842839958e-07   2.0209569105770792e-05
-1.959084206653855e-05   7.495433842839958e-07   2.0209569105770792e-05
-1.5381494344454593e-05   7.809194846654117e-07   2.0181834729840345e-05
-1.5381494344454593e-05   7.809194846654117e-07   2.0181834729840345e-05
-1.5381494344454593e-05   7.809194846654117e-07   2.0181834729840345e-05
-1.5381494344454593e-05   7.809194846654117e-07   2.0181834729840345e-05
-9.438861844251957e-06   -4.718045748754358e-06   2.678684309012614e-05
-9.438861844251957e-06   -4.718045748754358e-06   2.678684309012614e-05
-9.438861844251957e-06   -4.718045748754358e-06   2.678684309012614e-05
-9.438861844251957e-06   -4.718045748754358e-06   2.678684309012614e-05
-9.458208372000891e-06   3.739774329563142e-07   1.6930371312561985e-05
-9.458208372000891e-06   3.739774329563142e-07   1.6930371312561985e-05
-9.458208372000891e-06   3.739774329563142e-07   1.6930371312561985e-05
-9.458208372000891e-06   3.739774329563142e-07   1.6930371312561985e-05
-1.537424737239866e-05   -3.86424326204968e-06   2.933336873022868e-05
-1.537424737239866e-05   -3.86424326204968e-06   2.933336873022868e-05
-1.537424737239866e-05   -3.86424326204968e-06   2.933336873022868e-05
-1.537424737239866e-05   -3.86424326204968e-06   2.933336873022868e-05
-1.234743142346998e-05   -2.3332708743590007e-06   2.3370092049399937e-05
-1.234743142346998e-05   -2.3332708743590007e-06   2.3370092049399937e-05
-1.234743142346998e-05   -2.3332708743590007e-06   2.3370092049399937e-05
-1.234743142346998e-05   -2.3332708743590007e-06   2.3370092049399937e-05
-1.5374247372398673e-05   3.739774329563142e-07   1.9473303729565473e-05
-1.5374247372398673e-05   3.739774329563142e-07   1.9473303729565473e-05
-1.5374247372398673e-05   3.739774329563142e-07   1.9473303729565473e-05
-1.5374247372398673e-05   3.739774329563142e-07   1.9473303729565473e-05
-9.458208372000891e-06   -3.86424326204968e-06   2.6790436313225098e-05
-9.458208372000891e-06   -3.86424326204968e-06   2.6790436313225098e-05
-9.458208372000891e-06   -3.86424326204968e-06   2.6790436313225098e-05
-9.458208372000891e-06   -3.86424326204968e-06   2.6790436313225098e-05
-9.495698928227187e-06   -9.749063946764853e-08   1.7452472460105918e-05
-9.495698928227187e-06   -9.749063946764853e-08   1.7452472460105918e-05
-9.495698928227187e-06   -9.749063946764853e-08   1.7452472460105918e-05
-9.495698928227187e-06   -9.749063946764853e-08   1.7452472460105918e-05
-1.5584237254708994e-05   -3.9515432549203544e-06   2.991246790684708e-05
-1.5584237254708994e-05   -3.9515432549203544e-06   2.991246790684708e-05
-1.5584237254708994e-05   -3.9515432549203544e-06   2.991246790684708e-05
-1.5584237254708994e-05   -3.9515432549203544e-06   2.991246790684708e-05
-1.2257563923001067e-05   -2.038586070338686e-06   2.322023804325141e-05
-1.2257563923001067e-05   -2.038586070338686e-06   2.322023804325141e-05
-1.2257563923001067e-05   -2.038586070338686e-06   2.322023804325141e-05
-1.2257563923001067e-05   -2.038586070338686e-06   2.322023804325141e-05
-1.5584237254709014e-05   -9.749063946764853e-08   1.9764904029377585e-05
-1.5584237254709014e-05   -9.749063946764853e-08   1.9764904029377585e-05
-1.5584237254709014e-05   -9.749063946764853e-08   1.9764904029377585e-05
-1.5584237254709014e-05   -9.749063946764853e-08   1.9764904029377585e-05
-9.49569892822716e-06   -3.9515432549203544e-06   2.7600036337575493e-05
-9.49569892822716e-06   -3.9515432549203544e-06   2.7600036337575493e-05
-9.49569892822716e-06   -3.9515432549203544e-06   2.7600036337575493e-05
-9.49569892822716e-06   -3.9515432549203544e-06   2.7600036337575493e-05
-9.403415870292228e-06   -7.167869050656289e-07   1.8103636607718742e-05
-9.403415870292228e-06   -7.167869050656289e-07   1.8103636607718742e-05
-9.403415870292228e-06   -7.167869050656289e-07   1.8103636607718742e-05
-9.403415870292228e-06   -7.167869050656289e-07   1.8103636607718742e-05
-1.5418140651778616e-05   -3.986487925011415e-06   3.008999852216338e-05
-1.5418140651778616e-05   -3.986487925011415e-06   3.008999852216338e-05
-1.5418140651778616e-05   -3.986487925011415e-06   3.008999852216338e-05
-1.5418140651778616e-05   -3.986487925011415e-06   3.008999852216338e-05
-1.2314978183417043e-05   -2.2883293433256444e-06   2.389916592588265e-05
-1.2314978183417043e-05   -2.2883293433256444e-06   2.389916592588265e-05
-1.2314978183417043e-05   -2.2883293433256444e-06   2.389916592588265e-05
-1.2314978183417043e-05   -2.2883293433256444e-06   2.389916592588265e-05
-9.438861844251957e-06   2.1740545291337818e-07   1.865787345948762e-05
-9.438861844251957e-06   2.1740545291337818e-07   1.865787345948762e-05
-9.438861844251957e-06   2.1740545291337818e-07   1.865787345948762e-05
-9.438861844251957e-06   2.1740545291337818e-07   1.865787345948762e-05
-6.947683971173169e-06   -3.6858241170062618e-06   2.046789883933403e-05
-6.947683971173169e-06   -3.6858241170062618e-06   2.046789883933403e-05
-6.947683971173169e-06   -3.6858241170062618e-06   2.046789883933403e-05
-6.947683971173169e-06   -3.6858241170062618e-06   2.046789883933403e-05
-6.8860774598032215e-06   -1.2608692962878375e-07   1.646800073503308e-05
-6.8860774598032215e-06   -1.2608692962878375e-07   1.646800073503308e-05
-6.8860774598032215e-06   -1.2608692962878375e-07   1.646800073503308e-05
-6.8860774598032215e-06   -1.2608692962878375e-07   1.646800073503308e-05
-9.458208372000891e-06   -3.619914045267759e-06   2.2851181858079487e-05
-9.458208372000891e-06   -3.619914045267759e-06   2.2851181858079487e-05
-9.458208372000891e-06   -3.619914045267759e-06   2.2851181858079487e-05
-9.458208372000891e-06   -3.619914045267759e-06   2.2851181858079487e-05
-8.132497370623212e-06   -1.862491012637169e-06   1.9587209702871876e-05
-8.132497370623212e-06   -1.862491012637169e-06   1.9587209702871876e-05
-8.132497370623212e-06   -1.862491012637169e-06   1.9587209702871876e-05
-8.132497370623212e-06   -1.862491012637169e-06   1.9587209702871876e-05
-9.458208372000891e-06   -1.2608692962878375e-07   1.8564297004416443e-05
-9.458208372000891e-06   -1.2608692962878375e-07   1.8564297004416443e-05
-9.458208372000891e-06   -1.2608692962878375e-07   1.8564297004416443e-05
-9.458208372000891e-06   -1.2608692962878375e-07   1.8564297004416443e-05
-6.886077459803167e-06   -3.619914045267759e-06   2.075488558869613e-05
-6.886077459803167e-06   -3.619914045267759e-06   2.075488558869613e-05
-6.886077459803167e-06   -3.619914045267759e-06   2.075488558869613e-05
-6.886077459803167e-06   -3.619914045267759e-06   2.075488558869613e-05
-6.833390895691799e-06   -5.373891567887149e-07   1.6861364284248884e-05
-6.833390895691799e-06   -5.373891567887149e-07   1.6861364284248884e-05
-6.833390895691799e-06   -5.373891567887149e-07   1.6861364284248884e-05
-6.833390895691799e-06   -5.373891567887149e-07   1.6861364284248884e-05
-9.49569892822716e-06   -3.7302508329717095e-06   2.3214261344184275e-05
-9.49569892822716e-06   -3.7302508329717095e-06   2.3214261344184275e-05
-9.49569892822716e-06   -3.7302508329717095e-06   2.3214261344184275e-05
-9.49569892822716e-06   -3.7302508329717095e-06   2.3214261344184275e-05
-8.06118546513506e-06   -1.985888000880214e-06   1.9776787873108763e-05
-8.06118546513506e-06   -1.985888000880214e-06   1.9776787873108763e-05
-8.06118546513506e-06   -1.985888000880214e-06   1.9776787873108763e-05
-8.06118546513506e-06   -1.985888000880214e-06   1.9776787873108763e-05
-9.49569892822716e-06   -5.373891567887149e-07   1.8777081289958638e-05
-9.49569892822716e-06   -5.373891567887149e-07   1.8777081289958638e-05
-9.49569892822716e-06   -5.373891567887149e-07   1.8777081289958638e-05
-9.49569892822716e-06   -5.373891567887149e-07   1.8777081289958638e-05
-6.833390895691799e-06   -3.7302508329717095e-06   2.1298544338474515e-05
-6.833390895691799e-06   -3.7302508329717095e-06   2.1298544338474515e-05
-6.833390895691799e-06   -3.7302508329717095e-06   2.1298544338474515e-05
-6.833390895691799e-06   -3.7302508329717095e-06   2.1298544338474515e-05
-6.700063756245238e-06   -9.502411553882978e-07   1.7470569564551996e-05
-6.700063756245238e-06   -9.502411553882978e-07   1.7470569564551996e-05
-6.700063756245238e-06   -9.502411553882978e-07   1.7470569564551996e-05
-6.700063756245238e-06   -9.502411553882978e-07   1.7470569564551996e-05
-9.403415870292228e-06   -3.886240616108021e-06   2.3737756097728664e-05
-9.403415870292228e-06   -3.886240616108021e-06   2.3737756097728664e-05
-9.403415870292228e-06   -3.886240616108021e-06   2.3737756097728664e-05
-9.403415870292228e-06   -3.886240616108021e-06   2.3737756097728664e-05
-7.977855822128939e-06   -2.1659791497809938e-06   2.032966580432701e-05
-7.977855822128939e-06   -2.1659791497809938e-06   2.032966580432701e-05
-7.977855822128939e-06   -2.1659791497809938e-06   2.032966580432701e-05
-7.977855822128939e-06   -2.1659791497809938e-06   2.032966580432701e-05
-6.947683971173142e-06   9.932409353877658e-07   1.2698251952074282e-05
-6.947683971173142e-06   9.932409353877658e-07   1.2698251952074282e-05
-6.947683971173142e-06   9.932409353877658e-07   1.2698251952074282e-05
-6.947683971173142e-06   9.932409353877658e-07   1.2698251952074282e-05
-5.7967778538821325e-06   -1.5127772626124625e-06   1.3112817895425777e-05
-5.7967778538821325e-06   -1.5127772626124625e-06   1.3112817895425777e-05
-5.7967778538821325e-06   -1.5127772626124625e-06   1.3112817895425777e-05
-5.7967778538821325e-06   -1.5127772626124625e-06   1.3112817895425777e-05
-5.672809911661685e-06   5.406115403045527e-07   1.1465553213000149e-05
-5.672809911661685e-06   5.406115403045527e-07   1.1465553213000149e-05
-5.672809911661685e-06   5.406115403045527e-07   1.1465553213000149e-05
-5.672809911661685e-06   5.406115403045527e-07   1.1465553213000149e-05
-6.8860774598032215e-06   -1.770513998308439e-06   1.487434111640401e-05
-6.8860774598032215e-06   -1.770513998308439e-06   1.487434111640401e-05
-6.8860774598032215e-06   -1.770513998308439e-06   1.487434111640401e-05
-6.8860774598032215e-06   -1.770513998308439e-06   1.487434111640401e-05
-6.279701190034081e-06   -3.4517202078006423e-07   1.3008508813605406e-05
-6.279701190034081e-06   -3.4517202078006423e-07   1.3008508813605406e-05
-6.279701190034081e-06   -3.4517202078006423e-07   1.3008508813605406e-05
-6.279701190034081e-06   -3.4517202078006423e-07   1.3008508813605406e-05
-6.8860774598032215e-06   5.406115403045527e-07   1.2852228536168009e-05
-6.8860774598032215e-06   5.406115403045527e-07   1.2852228536168009e-05
-6.8860774598032215e-06   5.406115403045527e-07   1.2852228536168009e-05
-6.8860774598032215e-06   5.406115403045527e-07   1.2852228536168009e-05
-5.672809911661685e-06   -1.770513998308439e-06   1.3487665793236205e-05
-5.672809911661685e-06   -1.770513998308439e-06   1.3487665793236205e-05
-5.672809911661685e-06   -1.770513998308439e-06   1.3487665793236205e-05
-5.672809911661685e-06   -1.770513998308439e-06   1.3487665793236205e-05
-5.617288779453825e-06   1.5299061236493175e-07   1.2007485819878869e-05
-5.617288779453825e-06   1.5299061236493175e-07   1.2007485819878869e-05
-5.617288779453825e-06   1.5299061236493175e-07   1.2007485819878869e-05
-5.617288779453825e-06   1.5299061236493175e-07   1.2007485819878869e-05
-6.833390895691772e-06   -1.967823248292199e-06   1.5306810996669538e-05
-6.833390895691772e-06   -1.967823248292199e-06   1.5306810996669538e-05
-6.833390895691772e-06   -1.967823248292199e-06   1.5306810996669538e-05
-6.833390895691772e-06   -1.967823248292199e-06   1.5306810996669538e-05
-6.156754335650462e-06   -6.208422538458817e-07   1.3370894799932137e-05
-6.156754335650462e-06   -6.208422538458817e-07   1.3370894799932137e-05
-6.156754335650462e-06   -6.208422538458817e-07   1.3370894799932137e-05
-6.156754335650462e-06   -6.208422538458817e-07   1.3370894799932137e-05
-6.833390895691772e-06   1.5299061236493175e-07   1.3279974136272995e-05
-6.833390895691772e-06   1.5299061236493175e-07   1.3279974136272995e-05
-6.833390895691772e-06   1.5299061236493175e-07   1.3279974136272995e-05
-6.833390895691772e-06   1.5299061236493175e-07   1.3279974136272995e-05
-5.617288779453879e-06   -1.967823248292199e-06   1.4034322680275222e-05
-5.617288779453879e-06   -1.967823248292199e-06   1.4034322680275222e-05
-5.617288779453879e-06   -1.967823248292199e-06   1.4034322680275222e-05
-5.617288779453879e-06   -1.967823248292199e-06   1.4034322680275222e-05
-5.5252347050329005e-06   -2.3778429799410812e-07   1.2688043804018638e-05
-5.5252347050329005e-06   -2.3778429799410812e-07   1.2688043804018638e-05
-5.5252347050329005e-06   -2.3778429799410812e-07   1.2688043804018638e-05
-5.5252347050329005e-06   -2.3778429799410812e-07   1.2688043804018638e-05
-6.700063756245238e-06   -2.226512845451736e-06   1.5839329351180465e-05
-6.700063756245238e-06   -2.226512845451736e-06   1.5839329351180465e-05
-6.700063756245238e-06   -2.226512845451736e-06   1.5839329351180465e-05
-6.700063756245238e-06   -2.226512845451736e-06   1.5839329351180465e-05
-6.0616568254797835e-06   -8.62494272144338e-07   1.395690665592067e-05
-6.0616568254797835e-06   -8.62494272144338e-07   1.395690665592067e-05
-6.0616568254797835e-06   -8.62494272144338e-07   1.395690665592067e-05
-6.0616568254797835e-06   -8.62494272144338e-07   1.395690665592067e-05
-5.7967778538821325e-06   1.6376616636242522e-06   2.903027673837894e-06
-5.7967778538821325e-06   1.6376616636242522e-06   2.903027673837894e-06
-5.7967778538821325e-06   1.6376616636242522e-06   2.903027673837894e-06
-5.7967778538821325e-06   1.6376616636242522e-06   2.903027673837894e-06
-3.358969113091226e-06   -1.6872827938925776e-07   5.882208276014622e-06
-3.358969113091226e-06   -1.6872827938925776e-07   5.882208276014622e-06
-3.358969113091226e-06   -1.6872827938925776e-07   5.882208276014622e-06
-3.358969113091226e-06   -1.6872827938925776e-07   5.882208276014622e-06
-3.55018018244178e-06   1.3172581174495344e-06   2.9298664918437018e-06
-3.55018018244178e-06   1.3172581174495344e-06   2.9298664918437018e-06
-3.55018018244178e-06   1.3172581174495344e-06   2.9298664918437018e-06
-3.55018018244178e-06   1.3172581174495344e-06   2.9298664918437018e-06
-5.672809911661685e-06   -2.3548110406279793e-07   7.399226240117733e-06
-5.672809911661685e-06   -2.3548110406279793e-07   7.399226240117733e-06
-5.672809911661685e-06   -2.3548110406279793e-07   7.399226240117733e-06
-5.672809911661685e-06   -2.3548110406279793e-07   7.399226240117733e-06
-4.436662215422549e-06   8.420011201546178e-07   4.692490745188994e-06
-4.436662215422549e-06   8.420011201546178e-07   4.692490745188994e-06
-4.436662215422549e-06   8.420011201546178e-07   4.692490745188994e-06
-4.436662215422549e-06   8.420011201546178e-07   4.692490745188994e-06
-5.672809911661631e-06   1.317258117449426e-06   3.861510024750971e-06
-5.672809911661631e-06   1.317258117449426e-06   3.861510024750971e-06
-5.672809911661631e-06   1.317258117449426e-06   3.861510024750971e-06
-5.672809911661631e-06   1.317258117449426e-06   3.861510024750971e-06
-3.550180182441726e-06   -2.3548110406274372e-07   6.467582707210464e-06
-3.550180182441726e-06   -2.3548110406274372e-07   6.467582707210464e-06
-3.550180182441726e-06   -2.3548110406274372e-07   6.467582707210464e-06
-3.550180182441726e-06   -2.3548110406274372e-07   6.467582707210464e-06
-3.7071931642159426e-06   1.1077737312886488e-06   3.808749021541407e-06
-3.7071931642159426e-06   1.1077737312886488e-06   3.808749021541407e-06
-3.7071931642159426e-06   1.1077737312886488e-06   3.808749021541407e-06
-3.7071931642159426e-06   1.1077737312886488e-06   3.808749021541407e-06
-5.617288779453825e-06   -3.257698190340069e-07   7.852367843798097e-06
-5.617288779453825e-06   -3.257698190340069e-07   7.852367843798097e-06
-5.617288779453825e-06   -3.257698190340069e-07   7.852367843798097e-06
-5.617288779453825e-06   -3.257698190340069e-07   7.852367843798097e-06
-4.515442997928942e-06   6.836635883336085e-07   5.410298163502207e-06
-4.515442997928942e-06   6.836635883336085e-07   5.410298163502207e-06
-4.515442997928942e-06   6.836635883336085e-07   5.410298163502207e-06
-4.515442997928942e-06   6.836635883336085e-07   5.410298163502207e-06
-5.617288779453825e-06   1.1077737312886488e-06   4.668875151735033e-06
-5.617288779453825e-06   1.1077737312886488e-06   4.668875151735033e-06
-5.617288779453825e-06   1.1077737312886488e-06   4.668875151735033e-06
-5.617288779453825e-06   1.1077737312886488e-06   4.668875151735033e-06
-3.707193164215997e-06   -3.257698190340611e-07   6.9922417136045255e-06
-3.707193164215997e-06   -3.257698190340611e-07   6.9922417136045255e-06
-3.707193164215997e-06   -3.257698190340611e-07   6.9922417136045255e-06
-3.707193164215997e-06   -3.257698190340611e-07   6.9922417136045255e-06
-4.092637186712059e-06   6.862124664192004e-07   5.379911166108727e-06
-4.092637186712059e-06   6.862124664192004e-07   5.379911166108727e-06
-4.092637186712059e-06   6.862124664192004e-07   5.379911166108727e-06
-4.092637186712059e-06   6.862124664192004e-07   5.379911166108727e-06
-5.5252347050329005e-06   -4.35595454531079e-07   8.440658449213414e-06
-5.5252347050329005e-06   -4.35595454531079e-07   8.440658449213414e-06
-5.5252347050329005e-06   -4.35595454531079e-07   8.440658449213414e-06
-5.5252347050329005e-06   -4.35595454531079e-07   8.440658449213414e-06
-4.526238173359348e-06   5.763986393775462e-07   6.168467773412533e-06
-4.526238173359348e-06   5.763986393775462e-07   6.168467773412533e-06
-4.526238173359348e-06   5.763986393775462e-07   6.168467773412533e-06
-4.526238173359348e-06   5.763986393775462e-07   6.168467773412533e-06
-5.337169054376657e-05   4.176846536636683e-06   2.2874254331372977e-05
-5.337169054376657e-05   4.176846536636683e-06   2.2874254331372977e-05
-5.337169054376657e-05   4.176846536636683e-06   2.2874254331372977e-05
-5.337169054376657e-05   4.176846536636683e-06   2.2874254331372977e-05
-1.2546767479176767e-05   -2.608382787029302e-05   7.275938812819828e-05
-1.2546767479176767e-05   -2.608382787029302e-05   7.275938812819828e-05
-1.2546767479176767e-05   -2.608382787029302e-05   7.275938812819828e-05
-1.2546767479176767e-05   -2.608382787029302e-05   7.275938812819828e-05
-1.4726938263533126e-05   1.6916090037554193e-06   1.255611088118304e-05
-1.4726938263533126e-05   1.6916090037554193e-06   1.255611088118304e-05
-1.4726938263533126e-05   1.6916090037554193e-06   1.255611088118304e-05
-1.4726938263533126e-05   1.6916090037554193e-06   1.255611088118304e-05
-4.867652803394431e-05   -2.027417971860805e-05   8.2318233731953e-05
-4.867652803394431e-05   -2.027417971860805e-05   8.2318233731953e-05
-4.867652803394431e-05   -2.027417971860805e-05   8.2318233731953e-05
-4.867652803394431e-05   -2.027417971860805e-05   8.2318233731953e-05
-3.24547865172369e-05   -1.0093469233887097e-05   4.917357157994139e-05
-3.24547865172369e-05   -1.0093469233887097e-05   4.917357157994139e-05
-3.24547865172369e-05   -1.0093469233887097e-05   4.917357157994139e-05
-3.24547865172369e-05   -1.0093469233887097e-05   4.917357157994139e-05
-4.8676528033944226e-05   1.6916090037554193e-06   2.57355841146011e-05
-4.8676528033944226e-05   1.6916090037554193e-06   2.57355841146011e-05
-4.8676528033944226e-05   1.6916090037554193e-06   2.57355841146011e-05
-4.8676528033944226e-05   1.6916090037554193e-06   2.57355841146011e-05
-1.4726938263533146e-05   -2.027417971860805e-05   6.913876049853492e-05
-1.4726938263533146e-05   -2.027417971860805e-05   6.913876049853492e-05
-1.4726938263533146e-05   -2.027417971860805e-05   6.913876049853492e-05
-1.4726938263533146e-05   -2.027417971860805e-05   6.913876049853492e-05
-1.5060061948652183e-05   1.2137010320938287e-06   1.379770814953744e-05
-1.5060061948652183e-05   1.2137010320938287e-06   1.379770814953744e-05
-1.5060061948652183e-05   1.2137010320938287e-06   1.379770814953744e-05
-1.5060061948652183e-05   1.2137010320938287e-06   1.379770814953744e-05
-4.592767813859666e-05   -1.747484207306026e-05   7.645686099587059e-05
-4.592767813859666e-05   -1.747484207306026e-05   7.645686099587059e-05
-4.592767813859666e-05   -1.747484207306026e-05   7.645686099587059e-05
-4.592767813859666e-05   -1.747484207306026e-05   7.645686099587059e-05
-3.148417186654908e-05   -9.562583632820445e-06   4.763699547831408e-05
-3.148417186654908e-05   -9.562583632820445e-06   4.763699547831408e-05
-3.148417186654908e-05   -9.562583632820445e-06   4.763699547831408e-05
-3.148417186654908e-05   -9.562583632820445e-06   4.763699547831408e-05
-4.592767813859658e-05   1.2137010320938287e-06   2.501083401262985e-05
-4.592767813859658e-05   1.2137010320938287e-06   2.501083401262985e-05
-4.592767813859658e-05   1.2137010320938287e-06   2.501083401262985e-05
-4.592767813859658e-05   1.2137010320938287e-06   2.501083401262985e-05
-1.506006194865221e-05   -1.747484207306026e-05   6.524373513277811e-05
-1.506006194865221e-05   -1.747484207306026e-05   6.524373513277811e-05
-1.506006194865221e-05   -1.747484207306026e-05   6.524373513277811e-05
-1.506006194865221e-05   -1.747484207306026e-05   6.524373513277811e-05
-1.649686449622006e-05   -8.187584015031425e-07   1.7277837315765663e-05
-1.649686449622006e-05   -8.187584015031425e-07   1.7277837315765663e-05
-1.649686449622006e-05   -8.187584015031425e-07   1.7277837315765663e-05
-1.649686449622006e-05   -8.187584015031425e-07   1.7277837315765663e-05
-4.240405547850464e-05   -1.3757293757647541e-05   6.821961016659313e-05
-4.240405547850464e-05   -1.3757293757647541e-05   6.821961016659313e-05
-4.240405547850464e-05   -1.3757293757647541e-05   6.821961016659313e-05
-4.240405547850464e-05   -1.3757293757647541e-05   6.821961016659313e-05
-3.028330633875389e-05   -8.827150872798265e-06   4.506027586943236e-05
-3.028330633875389e-05   -8.827150872798265e-06   4.506027586943236e-05
-3.028330633875389e-05   -8.827150872798265e-06   4.506027586943236e-05
-3.028330633875389e-05   -8.827150872798265e-06   4.506027586943236e-05
-1.2546767479176746e-05   -4.718045748754358e-06   1.2984142333066025e-05
-1.2546767479176746e-05   -4.718045748754358e-06   1.2984142333066025e-05
-1.2546767479176746e-05   -4.718045748754358e-06   1.2984142333066025e-05
-1.2546767479176746e-05   -4.718045748754358e-06   1.2984142333066025e-05
-4.37045601899916e-06   -8.086927558536205e-06   2.4589999014159603e-05
-4.37045601899916e-06   -8.086927558536205e-06   2.4589999014159603e-05
-4.37045601899916e-06   -8.086927558536205e-06   2.4589999014159603e-05
-4.37045601899916e-06   -8.086927558536205e-06   2.4589999014159603e-05
-4.882387327272711e-06   -3.86424326204968e-06   1.159005733766729e-05
-4.882387327272711e-06   -3.86424326204968e-06   1.159005733766729e-05
-4.882387327272711e-06   -3.86424326204968e-06   1.159005733766729e-05
-4.882387327272711e-06   -3.86424326204968e-06   1.159005733766729e-05
-1.4726938263533146e-05   -1.0721460791229695e-05   3.211197274894264e-05
-1.4726938263533146e-05   -1.0721460791229695e-05   3.211197274894264e-05
-1.4726938263533146e-05   -1.0721460791229695e-05   3.211197274894264e-05
-1.4726938263533146e-05   -1.0721460791229695e-05   3.211197274894264e-05
-8.655454218369386e-06   -5.617113070610326e-06   1.893022404129803e-05
-8.655454218369386e-06   -5.617113070610326e-06   1.893022404129803e-05
-8.655454218369386e-06   -5.617113070610326e-06   1.893022404129803e-05
-8.655454218369386e-06   -5.617113070610326e-06   1.893022404129803e-05
-1.4726938263533119e-05   -3.86424326204968e-06   1.5704387855175152e-05
-1.4726938263533119e-05   -3.86424326204968e-06   1.5704387855175152e-05
-1.4726938263533119e-05   -3.86424326204968e-06   1.5704387855175152e-05
-1.4726938263533119e-05   -3.86424326204968e-06   1.5704387855175152e-05
-4.882387327272711e-06   -1.0721460791229695e-05   2.7997642231434642e-05
-4.882387327272711e-06   -1.0721460791229695e-05   2.7997642231434642e-05
-4.882387327272711e-06   -1.0721460791229695e-05   2.7997642231434642e-05
-4.882387327272711e-06   -1.0721460791229695e-05   2.7997642231434642e-05
-5.32099569306902e-06   -3.9515432549203544e-06   1.3031893158315473e-05
-5.32099569306902e-06   -3.9515432549203544e-06   1.3031893158315473e-05
-5.32099569306902e-06   -3.9515432549203544e-06   1.3031893158315473e-05
-5.32099569306902e-06   -3.9515432549203544e-06   1.3031893158315473e-05
-1.506006194865221e-05   -9.805784116970306e-06   3.277621476818392e-05
-1.506006194865221e-05   -9.805784116970306e-06   3.277621476818392e-05
-1.506006194865221e-05   -9.805784116970306e-06   3.277621476818392e-05
-1.506006194865221e-05   -9.805784116970306e-06   3.277621476818392e-05
-9.760308087947188e-06   -6.86735797907336e-06   2.2180235984270896e-05
-9.760308087947188e-06   -6.86735797907336e-06   2.2180235984270896e-05
-9.760308087947188e-06   -6.86735797907336e-06   2.2180235984270896e-05
-9.760308087947188e-06   -6.86735797907336e-06   2.2180235984270896e-05
-1.5060061948652183e-05   -3.9515432549203544e-06   1.6544437675545365e-05
-1.5060061948652183e-05   -3.9515432549203544e-06   1.6544437675545365e-05
-1.5060061948652183e-05   -3.9515432549203544e-06   1.6544437675545365e-05
-1.5060061948652183e-05   -3.9515432549203544e-06   1.6544437675545365e-05
-5.32099569306902e-06   -9.805784116970306e-06   2.9263670250954016e-05
-5.32099569306902e-06   -9.805784116970306e-06   2.9263670250954016e-05
-5.32099569306902e-06   -9.805784116970306e-06   2.9263670250954016e-05
-5.32099569306902e-06   -9.805784116970306e-06   2.9263670250954016e-05
-6.034490607982168e-06   -3.986487925011415e-06   1.4256120896475699e-05
-6.034490607982168e-06   -3.986487925011415e-06   1.4256120896475699e-05
-6.034490607982168e-06   -3.986487925011415e-06   1.4256120896475699e-05
-6.034490607982168e-06   -3.986487925011415e-06   1.4256120896475699e-05
-1.6496864496220065e-05   -9.228212433460454e-06   3.483844541527486e-05
-1.6496864496220065e-05   -9.228212433460454e-06   3.483844541527486e-05
-1.6496864496220065e-05   -9.228212433460454e-06   3.483844541527486e-05
-1.6496864496220065e-05   -9.228212433460454e-06   3.483844541527486e-05
-1.040533467173129e-05   -6.270228479706975e-06   2.2911105335541503e-05
-1.040533467173129e-05   -6.270228479706975e-06   2.2911105335541503e-05
-1.040533467173129e-05   -6.270228479706975e-06   2.2911105335541503e-05
-1.040533467173129e-05   -6.270228479706975e-06   2.2911105335541503e-05
-4.37045601899916e-06   -3.6858241170062075e-06   6.985806738356445e-06
-4.37045601899916e-06   -3.6858241170062075e-06   6.985806738356445e-06
-4.37045601899916e-06   -3.6858241170062075e-06   6.985806738356445e-06
-4.37045601899916e-06   -3.6858241170062075e-06   6.985806738356445e-06
-2.4384499334124737e-06   -2.2599024030086953e-06   1.1061369909399506e-05
-2.4384499334124737e-06   -2.2599024030086953e-06   1.1061369909399506e-05
-2.4384499334124737e-06   -2.2599024030086953e-06   1.1061369909399506e-05
-2.4384499334124737e-06   -2.2599024030086953e-06   1.1061369909399506e-05
-2.343945036110159e-06   -3.619914045267759e-06   8.047990590037853e-06
-2.343945036110159e-06   -3.619914045267759e-06   8.047990590037853e-06
-2.343945036110159e-06   -3.619914045267759e-06   8.047990590037853e-06
-2.343945036110159e-06   -3.619914045267759e-06   8.047990590037853e-06
-4.882387327272711e-06   -2.9579345327409052e-06   1.1881540034459253e-05
-4.882387327272711e-06   -2.9579345327409052e-06   1.1881540034459253e-05
-4.882387327272711e-06   -2.9579345327409052e-06   1.1881540034459253e-05
-4.882387327272711e-06   -2.9579345327409052e-06   1.1881540034459253e-05
-3.2867517265908555e-06   -2.963406985190969e-06   9.225430838126101e-06
-3.2867517265908555e-06   -2.963406985190969e-06   9.225430838126101e-06
-3.2867517265908555e-06   -2.963406985190969e-06   9.225430838126101e-06
-3.2867517265908555e-06   -2.963406985190969e-06   9.225430838126101e-06
-4.882387327272684e-06   -3.619914045267759e-06   7.65080288252172e-06
-4.882387327272684e-06   -3.619914045267759e-06   7.65080288252172e-06
-4.882387327272684e-06   -3.619914045267759e-06   7.65080288252172e-06
-4.882387327272684e-06   -3.619914045267759e-06   7.65080288252172e-06
-2.343945036110159e-06   -2.9579345327409052e-06   1.2278727741975358e-05
-2.343945036110159e-06   -2.9579345327409052e-06   1.2278727741975358e-05
-2.343945036110159e-06   -2.9579345327409052e-06   1.2278727741975358e-05
-2.343945036110159e-06   -2.9579345327409052e-06   1.2278727741975358e-05
-2.348360231040796e-06   -3.7302508329717095e-06   8.605163953518205e-06
-2.348360231040796e-06   -3.7302508329717095e-06   8.605163953518205e-06
-2.348360231040796e-06   -3.7302508329717095e-06   8.605163953518205e-06
-2.348360231040796e-06   -3.7302508329717095e-06   8.605163953518205e-06
-5.32099569306902e-06   -3.798507851981778e-06   1.3600510601637637e-05
-5.32099569306902e-06   -3.798507851981778e-06   1.3600510601637637e-05
-5.32099569306902e-06   -3.798507851981778e-06   1.3600510601637637e-05
-5.32099569306902e-06   -3.798507851981778e-06   1.3600510601637637e-05
-3.485671050276637e-06   -3.2400669046230934e-06   1.0206571628568553e-05
-3.485671050276637e-06   -3.2400669046230934e-06   1.0206571628568553e-05
-3.485671050276637e-06   -3.2400669046230934e-06   1.0206571628568553e-05
-3.485671050276637e-06   -3.2400669046230934e-06   1.0206571628568553e-05
-5.32099569306902e-06   -3.7302508329717095e-06   8.646118164924173e-06
-5.32099569306902e-06   -3.7302508329717095e-06   8.646118164924173e-06
-5.32099569306902e-06   -3.7302508329717095e-06   8.646118164924173e-06
-5.32099569306902e-06   -3.7302508329717095e-06   8.646118164924173e-06
-2.348360231040796e-06   -3.798507851981778e-06   1.3559556390231614e-05
-2.348360231040796e-06   -3.798507851981778e-06   1.3559556390231614e-05
-2.348360231040796e-06   -3.798507851981778e-06   1.3559556390231614e-05
-2.348360231040796e-06   -3.798507851981778e-06   1.3559556390231614e-05
-2.3848994949927276e-06   -3.886240616107967e-06   9.439067914683347e-06
-2.3848994949927276e-06   -3.886240616107967e-06   9.439067914683347e-06
-2.3848994949927276e-06   -3.886240616107967e-06   9.439067914683347e-06
-2.3848994949927276e-06   -3.886240616107967e-06   9.439067914683347e-06
-6.034490607982195e-06   -4.597292564983182e-06   1.5948350938990762e-05
-6.034490607982195e-06   -4.597292564983182e-06   1.5948350938990762e-05
-6.034490607982195e-06   -4.597292564983182e-06   1.5948350938990762e-05
-6.034490607982195e-06   -4.597292564983182e-06   1.5948350938990762e-05
-3.712400033167786e-06   -3.537864157693554e-06   1.1442542936593108e-05
-3.712400033167786e-06   -3.537864157693554e-06   1.1442542936593108e-05
-3.712400033167786e-06   -3.537864157693554e-06   1.1442542936593108e-05
-3.712400033167786e-06   -3.537864157693554e-06   1.1442542936593108e-05
-2.4384499334124737e-06   -1.5127772626124625e-06   1.9898897416469334e-06
-2.4384499334124737e-06   -1.5127772626124625e-06   1.9898897416469334e-06
-2.4384499334124737e-06   -1.5127772626124625e-06   1.9898897416469334e-06
-2.4384499334124737e-06   -1.5127772626124625e-06   1.9898897416469334e-06
-1.8115987884368572e-06   3.882314558249485e-07   4.175246881002166e-06
-1.8115987884368572e-06   3.882314558249485e-07   4.175246881002166e-06
-1.8115987884368572e-06   3.882314558249485e-07   4.175246881002166e-06
-1.8115987884368572e-06   3.882314558249485e-07   4.175246881002166e-06
-1.46642098203801e-06   -1.7705139983084932e-06   3.312525588545774e-06
-1.46642098203801e-06   -1.7705139983084932e-06   3.312525588545774e-06
-1.46642098203801e-06   -1.7705139983084932e-06   3.312525588545774e-06
-1.46642098203801e-06   -1.7705139983084932e-06   3.312525588545774e-06
-2.343945036110159e-06   1.3795178635807006e-07   3.629986207865862e-06
-2.343945036110159e-06   1.3795178635807006e-07   3.629986207865862e-06
-2.343945036110159e-06   1.3795178635807006e-07   3.629986207865862e-06
-2.343945036110159e-06   1.3795178635807006e-07   3.629986207865862e-06
-1.8907089909166457e-06   -7.109114991799112e-07   3.3839107705326997e-06
-1.8907089909166457e-06   -7.109114991799112e-07   3.3839107705326997e-06
-1.8907089909166457e-06   -7.109114991799112e-07   3.3839107705326997e-06
-1.8907089909166457e-06   -7.109114991799112e-07   3.3839107705326997e-06
-2.343945036110159e-06   -1.7705139983084932e-06   2.167446117745794e-06
-2.343945036110159e-06   -1.7705139983084932e-06   2.167446117745794e-06
-2.343945036110159e-06   -1.7705139983084932e-06   2.167446117745794e-06
-2.343945036110159e-06   -1.7705139983084932e-06   2.167446117745794e-06
-1.46642098203801e-06   1.3795178635807006e-07   4.775065678665788e-06
-1.46642098203801e-06   1.3795178635807006e-07   4.775065678665788e-06
-1.46642098203801e-06   1.3795178635807006e-07   4.775065678665788e-06
-1.46642098203801e-06   1.3795178635807006e-07   4.775065678665788e-06
-1.2772738050169027e-06   -1.967823248292199e-06   3.6390225907627534e-06
-1.2772738050169027e-06   -1.967823248292199e-06   3.6390225907627534e-06
-1.2772738050169027e-06   -1.967823248292199e-06   3.6390225907627534e-06
-1.2772738050169027e-06   -1.967823248292199e-06   3.6390225907627534e-06
-2.348360231040796e-06   -2.585032832095783e-07   4.398574655086179e-06
-2.348360231040796e-06   -2.585032832095783e-07   4.398574655086179e-06
-2.348360231040796e-06   -2.585032832095783e-07   4.398574655086179e-06
-2.348360231040796e-06   -2.585032832095783e-07   4.398574655086179e-06
-1.7142633525372509e-06   -9.104828625258049e-07   3.7329342718367582e-06
-1.7142633525372509e-06   -9.104828625258049e-07   3.7329342718367582e-06
-1.7142633525372509e-06   -9.104828625258049e-07   3.7329342718367582e-06
-1.7142633525372509e-06   -9.104828625258049e-07   3.7329342718367582e-06
-2.348360231040796e-06   -1.967823248292199e-06   2.613430611713005e-06
-2.348360231040796e-06   -1.967823248292199e-06   2.613430611713005e-06
-2.348360231040796e-06   -1.967823248292199e-06   2.613430611713005e-06
-2.348360231040796e-06   -1.967823248292199e-06   2.613430611713005e-06
-1.2772738050169027e-06   -2.585032832095783e-07   5.424166634135819e-06
-1.2772738050169027e-06   -2.585032832095783e-07   5.424166634135819e-06
-1.2772738050169027e-06   -2.585032832095783e-07   5.424166634135819e-06
-1.2772738050169027e-06   -2.585032832095783e-07   5.424166634135819e-06
-9.871822766363667e-07   -2.22651284545179e-06   3.994712732499758e-06
-9.871822766363667e-07   -2.22651284545179e-06   3.994712732499758e-06
-9.871822766363667e-07   -2.22651284545179e-06   3.994712732499758e-06
-9.871822766363667e-07   -2.22651284545179e-06   3.994712732499758e-06
-2.3848994949927276e-06   -1.0723930322302653e-06   5.63176954182737e-06
-2.3848994949927276e-06   -1.0723930322302653e-06   5.63176954182737e-06
-2.3848994949927276e-06   -1.0723930322302653e-06   5.63176954182737e-06
-2.3848994949927276e-06   -1.0723930322302653e-06   5.63176954182737e-06
-1.570751811468793e-06   -1.2155980639099134e-06   4.360779754962333e-06
-1.570751811468793e-06   -1.2155980639099134e-06   4.360779754962333e-06
-1.570751811468793e-06   -1.2155980639099134e-06   4.360779754962333e-06
-1.570751811468793e-06   -1.2155980639099134e-06   4.360779754962333e-06
-1.8115987884368572e-06   -1.6872827938920355e-07   -3.0162806808937015e-06
-1.8115987884368572e-06   -1.6872827938920355e-07   -3.0162806808937015e-06
-1.8115987884368572e-06   -1.6872827938920355e-07   -3.0162806808937015e-06
-1.8115987884368572e-06   -1.6872827938920355e-07   -3.0162806808937015e-06
-3.378311798521525e-07   2.5905511974029337e-07   -3.033312937748573e-07
-3.378311798521525e-07   2.5905511974029337e-07   -3.033312937748573e-07
-3.378311798521525e-07   2.5905511974029337e-07   -3.033312937748573e-07
-3.378311798521525e-07   2.5905511974029337e-07   -3.033312937748573e-07
1.0935985661963618e-09   -2.3548110406279793e-07   -2.3658022730272494e-06
1.0935985661963618e-09   -2.3548110406279793e-07   -2.3658022730272494e-06
1.0935985661963618e-09   -2.3548110406279793e-07   -2.3658022730272494e-06
1.0935985661963618e-09   -2.3548110406279793e-07   -2.3658022730272494e-06
-1.46642098203801e-06   4.480383818463121e-07   -3.300563302325709e-07
-1.46642098203801e-06   4.480383818463121e-07   -3.300563302325709e-07
-1.46642098203801e-06   4.480383818463121e-07   -3.300563302325709e-07
-1.46642098203801e-06   4.480383818463121e-07   -3.300563302325709e-07
-8.260252979813698e-07   1.1988482329037815e-07   -1.2004903351937012e-06
-8.260252979813698e-07   1.1988482329037815e-07   -1.2004903351937012e-06
-8.260252979813698e-07   1.1988482329037815e-07   -1.2004903351937012e-06
-8.260252979813698e-07   1.1988482329037815e-07   -1.2004903351937012e-06
-1.46642098203801e-06   -2.3548110406274372e-07   -2.7759139645729147e-06
-1.46642098203801e-06   -2.3548110406274372e-07   -2.7759139645729147e-06
-1.46642098203801e-06   -2.3548110406274372e-07   -2.7759139645729147e-06
-1.46642098203801e-06   -2.3548110406274372e-07   -2.7759139645729147e-06
1.0935985661963618e-09   4.480383818463121e-07   8.00553613128233e-08
1.0935985661963618e-09   4.480383818463121e-07   8.00553613128233e-08
1.0935985661963618e-09   4.480383818463121e-07   8.00553613128233e-08
1.0935985661963618e-09   4.480383818463121e-07   8.00553613128233e-08
1.783518812429859e-07   -3.257698190340069e-07   -2.1176222370800513e-06
1.783518812429859e-07   -3.257698190340069e-07   -2.1176222370800513e-06
1.783518812429859e-07   -3.257698190340069e-07   -2.1176222370800513e-06
1.783518812429859e-07   -3.257698190340069e-07   -2.1176222370800513e-06
-1.2772738050169027e-06   3.8308019535659413e-07   -1.1688943528126872e-07
-1.2772738050169027e-06   3.8308019535659413e-07   -1.1688943528126872e-07
-1.2772738050169027e-06   3.8308019535659413e-07   -1.1688943528126872e-07
-1.2772738050169027e-06   3.8308019535659413e-07   -1.1688943528126872e-07
-5.757430673785974e-07   7.825241408814746e-08   -1.1032106625836428e-06
-5.757430673785974e-07   7.825241408814746e-08   -1.1032106625836428e-06
-5.757430673785974e-07   7.825241408814746e-08   -1.1032106625836428e-06
-5.757430673785974e-07   7.825241408814746e-08   -1.1032106625836428e-06
-1.2772738050169027e-06   -3.257698190340611e-07   -2.5429322457144255e-06
-1.2772738050169027e-06   -3.257698190340611e-07   -2.5429322457144255e-06
-1.2772738050169027e-06   -3.257698190340611e-07   -2.5429322457144255e-06
-1.2772738050169027e-06   -3.257698190340611e-07   -2.5429322457144255e-06
1.7835188124304012e-07   3.8308019535659413e-07   3.0842057335313255e-07
1.7835188124304012e-07   3.8308019535659413e-07   3.0842057335313255e-07
1.7835188124304012e-07   3.8308019535659413e-07   3.0842057335313255e-07
1.7835188124304012e-07   3.8308019535659413e-07   3.0842057335313255e-07
3.9874455522382257e-07   -4.35595454531079e-07   -1.7528762113572065e-06
3.9874455522382257e-07   -4.35595454531079e-07   -1.7528762113572065e-06
3.9874455522382257e-07   -4.35595454531079e-07   -1.7528762113572065e-06
3.9874455522382257e-07   -4.35595454531079e-07   -1.7528762113572065e-06
-9.871822766363667e-07   3.27479261527781e-07   9.915701210745816e-08
-9.871822766363667e-07   3.27479261527781e-07   9.915701210745816e-08
-9.871822766363667e-07   3.27479261527781e-07   9.915701210745816e-08
-9.871822766363667e-07   3.27479261527781e-07   9.915701210745816e-08
-3.492888636314937e-07   2.7764721667600245e-08   -7.841699523177198e-07
-3.492888636314937e-07   2.7764721667600245e-08   -7.841699523177198e-07
-3.492888636314937e-07   2.7764721667600245e-08   -7.841699523177198e-07
-3.492888636314937e-07   2.7764721667600245e-08   -7.841699523177198e-07
              </DataArray>   
             <DataArray type="Float64" NumberOfComponents="3" Name="Stress" format="ascii">   
-2.7707180333010206   -0.6926795083252552   -0.6926795083252552
-2.7707180333010206   -0.6926795083252552   -0.6926795083252552
-2.7707180333010206   -0.6926795083252552   -0.6926795083252552
-2.7707180333010206   -0.6926795083252552   -0.6926795083252552
-1.603329446102681   -0.050923575011384725   -0.03219548894913214
-1.603329446102681   -0.050923575011384725   -0.03219548894913214
-1.603329446102681   -0.050923575011384725   -0.03219548894913214
-1.603329446102681   -0.050923575011384725   -0.03219548894913214
-1.7281064928015735   -0.43202662320039337   -0.43202662320039337
-1.7281064928015735   -0.43202662320039337   -0.43202662320039337
-1.7281064928015735   -0.43202662320039337   -0.43202662320039337
-1.7281064928015735   -0.43202662320039337   -0.43202662320039337
-2.6703470538951435   -0.2193925076918919   -0.0839335798076212
-2.6703470538951435   -0.2193925076918919   -0.0839335798076212
-2.6703470538951435   -0.2193925076918919   -0.0839335798076212
-2.6703470538951435   -0.2193925076918919   -0.0839335798076212
-2.094310784767405   -0.34340881139448454   -0.00578992871172071
-2.094310784767405   -0.34340881139448454   -0.00578992871172071
-2.094310784767405   -0.34340881139448454   -0.00578992871172071
-2.094310784767405   -0.34340881139448454   -0.00578992871172071
-2.8996464848836054   -0.7249116212209014   -0.7249116212209014
-2.8996464848836054   -0.7249116212209014   -0.7249116212209014
-2.8996464848836054   -0.7249116212209014   -0.7249116212209014
-2.8996464848836054   -0.7249116212209014   -0.7249116212209014
-1.553196083770318   0.019103468371413523   -0.008604669615923627
-1.553196083770318   0.019103468371413523   -0.008604669615923627
-1.553196083770318   0.019103468371413523   -0.008604669615923627
-1.553196083770318   0.019103468371413523   -0.008604669615923627
-1.7329441501829392   -0.4332360375457348   -0.4332360375457348
-1.7329441501829392   -0.4332360375457348   -0.4332360375457348
-1.7329441501829392   -0.4332360375457348   -0.4332360375457348
-1.7329441501829392   -0.4332360375457348   -0.4332360375457348
-2.7600519850940284   -0.22148561510779036   -0.12298596359242335
-2.7600519850940284   -0.22148561510779036   -0.12298596359242335
-2.7600519850940284   -0.22148561510779036   -0.12298596359242335
-2.7600519850940284   -0.22148561510779036   -0.12298596359242335
-2.172385264454924   -0.323311742901349   -0.11528565047356201
-2.172385264454924   -0.323311742901349   -0.11528565047356201
-2.172385264454924   -0.323311742901349   -0.11528565047356201
-2.172385264454924   -0.323311742901349   -0.11528565047356201
-2.9901751881711003   -0.7475437970427751   -0.7475437970427751
-2.9901751881711003   -0.7475437970427751   -0.7475437970427751
-2.9901751881711003   -0.7475437970427751   -0.7475437970427751
-2.9901751881711003   -0.7475437970427751   -0.7475437970427751
-1.5486482444274798   0.04699484706764184   0.008012606618186327
-1.5486482444274798   0.04699484706764184   0.008012606618186327
-1.5486482444274798   0.04699484706764184   0.008012606618186327
-1.5486482444274798   0.04699484706764184   0.008012606618186327
-1.7319927972996336   -0.4329981993249084   -0.4329981993249084
-1.7319927972996336   -0.4329981993249084   -0.4329981993249084
-1.7319927972996336   -0.4329981993249084   -0.4329981993249084
-1.7319927972996336   -0.4329981993249084   -0.4329981993249084
-2.9203205751293786   -0.19424149197330848   -0.07380572626746464
-2.9203205751293786   -0.19424149197330848   -0.07380572626746464
-2.9203205751293786   -0.19424149197330848   -0.07380572626746464
-2.9203205751293786   -0.19424149197330848   -0.07380572626746464
-2.2302993524454116   -0.31826961687303507   -0.20834917804489034
-2.2302993524454116   -0.31826961687303507   -0.20834917804489034
-2.2302993524454116   -0.31826961687303507   -0.20834917804489034
-2.2302993524454116   -0.31826961687303507   -0.20834917804489034
-1.7630062592339781   -0.44075156480849453   -0.44075156480849453
-1.7630062592339781   -0.44075156480849453   -0.44075156480849453
-1.7630062592339781   -0.44075156480849453   -0.44075156480849453
-1.7630062592339781   -0.44075156480849453   -0.44075156480849453
-0.7356231568383963   -0.04903040854888989   -0.015926881164487285
-0.7356231568383963   -0.04903040854888989   -0.015926881164487285
-0.7356231568383963   -0.04903040854888989   -0.015926881164487285
-0.7356231568383963   -0.04903040854888989   -0.015926881164487285
-0.7722060516977828   -0.1930515129244457   -0.1930515129244457
-0.7722060516977828   -0.1930515129244457   -0.1930515129244457
-0.7722060516977828   -0.1930515129244457   -0.1930515129244457
-0.7722060516977828   -0.1930515129244457   -0.1930515129244457
-1.6050876351610532   -0.18883045536638118   -0.060128502831805354
-1.6050876351610532   -0.18883045536638118   -0.060128502831805354
-1.6050876351610532   -0.18883045536638118   -0.060128502831805354
-1.6050876351610532   -0.18883045536638118   -0.060128502831805354
-1.1838556535957738   -0.22429519414807617   0.009244625765659549
-1.1838556535957738   -0.22429519414807617   0.009244625765659549
-1.1838556535957738   -0.22429519414807617   0.009244625765659549
-1.1838556535957738   -0.22429519414807617   0.009244625765659549
-1.728106492801572   -0.432026623200393   -0.432026623200393
-1.728106492801572   -0.432026623200393   -0.432026623200393
-1.728106492801572   -0.432026623200393   -0.432026623200393
-1.728106492801572   -0.432026623200393   -0.432026623200393
-0.6940050868234704   0.005326762143358865   -0.00042496362068820265
-0.6940050868234704   0.005326762143358865   -0.00042496362068820265
-0.6940050868234704   0.005326762143358865   -0.00042496362068820265
-0.6940050868234704   0.005326762143358865   -0.00042496362068820265
-0.7549391658382875   -0.18873479145957187   -0.18873479145957187
-0.7549391658382875   -0.18873479145957187   -0.18873479145957187
-0.7549391658382875   -0.18873479145957187   -0.18873479145957187
-0.7549391658382875   -0.18873479145957187   -0.18873479145957187
-1.6010162771303966   -0.15403608988877887   -0.05279661993997779
-1.6010162771303966   -0.15403608988877887   -0.05279661993997779
-1.6010162771303966   -0.15403608988877887   -0.05279661993997779
-1.6010162771303966   -0.15403608988877887   -0.05279661993997779
-1.1673404783038386   -0.18882012687833838   -0.0610295327011791
-1.1673404783038386   -0.18882012687833838   -0.0610295327011791
-1.1673404783038386   -0.18882012687833838   -0.0610295327011791
-1.1673404783038386   -0.18882012687833838   -0.0610295327011791
-1.7329441501829392   -0.4332360375457348   -0.4332360375457348
-1.7329441501829392   -0.4332360375457348   -0.4332360375457348
-1.7329441501829392   -0.4332360375457348   -0.4332360375457348
-1.7329441501829392   -0.4332360375457348   -0.4332360375457348
-0.6664198662546156   0.0470565827285134   0.018070332270702358
-0.6664198662546156   0.0470565827285134   0.018070332270702358
-0.6664198662546156   0.0470565827285134   0.018070332270702358
-0.6664198662546156   0.0470565827285134   0.018070332270702358
-0.7392103818595808   -0.1848025954648952   -0.1848025954648952
-0.7392103818595808   -0.1848025954648952   -0.1848025954648952
-0.7392103818595808   -0.1848025954648952   -0.1848025954648952
-0.7392103818595808   -0.1848025954648952   -0.1848025954648952
-1.58921700612424   -0.11884777303181396   -0.03326966974105753
-1.58921700612424   -0.11884777303181396   -0.03326966974105753
-1.58921700612424   -0.11884777303181396   -0.03326966974105753
-1.58921700612424   -0.11884777303181396   -0.03326966974105753
-1.1730797551678742   -0.1670852365011809   -0.1359658422425215
-1.1730797551678742   -0.1670852365011809   -0.1359658422425215
-1.1730797551678742   -0.1670852365011809   -0.1359658422425215
-1.1730797551678742   -0.1670852365011809   -0.1359658422425215
-0.8029241098841355   -0.20073102747103388   -0.20073102747103388
-0.8029241098841355   -0.20073102747103388   -0.20073102747103388
-0.8029241098841355   -0.20073102747103388   -0.20073102747103388
-0.8029241098841355   -0.20073102747103388   -0.20073102747103388
0.0951236626594527   0.006195888313841838   0.0007812848397704044
0.0951236626594527   0.006195888313841838   0.0007812848397704044
0.0951236626594527   0.006195888313841838   0.0007812848397704044
0.0951236626594527   0.006195888313841838   0.0007812848397704044
0.12376640717345529   0.03094160179336382   0.03094160179336382
0.12376640717345529   0.03094160179336382   0.03094160179336382
0.12376640717345529   0.03094160179336382   0.03094160179336382
0.12376640717345529   0.03094160179336382   0.03094160179336382
-0.7259352305410991   -0.1254714215585241   -0.029277498506954505
-0.7259352305410991   -0.1254714215585241   -0.029277498506954505
-0.7259352305410991   -0.1254714215585241   -0.029277498506954505
-0.7259352305410991   -0.1254714215585241   -0.029277498506954505
-0.3108462631512795   -0.07885147962006978   0.05272499496269664
-0.3108462631512795   -0.07885147962006978   0.05272499496269664
-0.3108462631512795   -0.07885147962006978   0.05272499496269664
-0.3108462631512795   -0.07885147962006978   0.05272499496269664
-0.7722060516977828   -0.1930515129244457   -0.1930515129244457
-0.7722060516977828   -0.1930515129244457   -0.1930515129244457
-0.7722060516977828   -0.1930515129244457   -0.1930515129244457
-0.7722060516977828   -0.1930515129244457   -0.1930515129244457
0.12597841046189495   0.054462875291042184   0.018480344737882813
0.12597841046189495   0.054462875291042184   0.018480344737882813
0.12597841046189495   0.054462875291042184   0.018480344737882813
0.12597841046189495   0.054462875291042184   0.018480344737882813
0.1392596041152275   0.034814901028806876   0.034814901028806876
0.1392596041152275   0.034814901028806876   0.034814901028806876
0.1392596041152275   0.034814901028806876   0.034814901028806876
0.1392596041152275   0.034814901028806876   0.034814901028806876
-0.7002635060553094   -0.08445773675711447   -0.019633547247151082
-0.7002635060553094   -0.08445773675711447   -0.019633547247151082
-0.7002635060553094   -0.08445773675711447   -0.019633547247151082
-0.7002635060553094   -0.08445773675711447   -0.019633547247151082
-0.2981768355933913   -0.04873164595138452   -0.018023024954825658
-0.2981768355933913   -0.04873164595138452   -0.018023024954825658
-0.2981768355933913   -0.04873164595138452   -0.018023024954825658
-0.2981768355933913   -0.04873164595138452   -0.018023024954825658
-0.7549391658382875   -0.18873479145957187   -0.18873479145957187
-0.7549391658382875   -0.18873479145957187   -0.18873479145957187
-0.7549391658382875   -0.18873479145957187   -0.18873479145957187
-0.7549391658382875   -0.18873479145957187   -0.18873479145957187
0.15076331258281594   0.09592000441587649   0.03122833997967833
0.15076331258281594   0.09592000441587649   0.03122833997967833
0.15076331258281594   0.09592000441587649   0.03122833997967833
0.15076331258281594   0.09592000441587649   0.03122833997967833
0.16009385450227556   0.04002346362556889   0.04002346362556889
0.16009385450227556   0.04002346362556889   0.04002346362556889
0.16009385450227556   0.04002346362556889   0.04002346362556889
0.16009385450227556   0.04002346362556889   0.04002346362556889
-0.6723253455994438   -0.03554827457095652   0.00036826494184252767
-0.6723253455994438   -0.03554827457095652   0.00036826494184252767
-0.6723253455994438   -0.03554827457095652   0.00036826494184252767
-0.6723253455994438   -0.03554827457095652   0.00036826494184252767
-0.2892472756721818   -0.019695109755734262   -0.08813931809915072
-0.2892472756721818   -0.019695109755734262   -0.08813931809915072
-0.2892472756721818   -0.019695109755734262   -0.08813931809915072
-0.2892472756721818   -0.019695109755734262   -0.08813931809915072
0.10414247558747822   0.026035618896869554   0.026035618896869554
0.10414247558747822   0.026035618896869554   0.026035618896869554
0.10414247558747822   0.026035618896869554   0.026035618896869554
0.10414247558747822   0.026035618896869554   0.026035618896869554
1.0045345593352593   0.09217227077528825   0.030990167049085006
1.0045345593352593   0.09217227077528825   0.030990167049085006
1.0045345593352593   0.09217227077528825   0.030990167049085006
1.0045345593352593   0.09217227077528825   0.030990167049085006
1.0907445828710882   0.27268614571777205   0.27268614571777205
1.0907445828710882   0.27268614571777205   0.27268614571777205
1.0907445828710882   0.27268614571777205   0.27268614571777205
1.0907445828710882   0.27268614571777205   0.27268614571777205
0.09428931184948364   -0.0707312583734504   -0.014771014659682044
0.09428931184948364   -0.0707312583734504   -0.014771014659682044
0.09428931184948364   -0.0707312583734504   -0.014771014659682044
0.09428931184948364   -0.0707312583734504   -0.014771014659682044
0.5727706404779512   0.07131121497677445   0.104046105881207
0.5727706404779512   0.07131121497677445   0.104046105881207
0.5727706404779512   0.07131121497677445   0.104046105881207
0.5727706404779512   0.07131121497677445   0.104046105881207
0.1237664071734557   0.030941601793363926   0.030941601793363926
0.1237664071734557   0.030941601793363926   0.030941601793363926
0.1237664071734557   0.030941601793363926   0.030941601793363926
0.1237664071734557   0.030941601793363926   0.030941601793363926
1.016482197854862   0.12622799585870353   0.04783237049570928
1.016482197854862   0.12622799585870353   0.04783237049570928
1.016482197854862   0.12622799585870353   0.04783237049570928
1.016482197854862   0.12622799585870353   0.04783237049570928
1.0860976160226061   0.27152440400565153   0.27152440400565153
1.0860976160226061   0.27152440400565153   0.27152440400565153
1.0860976160226061   0.27152440400565153   0.27152440400565153
1.0860976160226061   0.27152440400565153   0.27152440400565153
0.11923118574136342   -0.030625512122730052   0.00011322231102225272
0.11923118574136342   -0.030625512122730052   0.00011322231102225272
0.11923118574136342   -0.030625512122730052   0.00011322231102225272
0.11923118574136342   -0.030625512122730052   0.00011322231102225272
0.568568617295341   0.0935992479019109   0.027049786383654576
0.568568617295341   0.0935992479019109   0.027049786383654576
0.568568617295341   0.0935992479019109   0.027049786383654576
0.568568617295341   0.0935992479019109   0.027049786383654576
0.13925960411522764   0.03481490102880691   0.03481490102880691
0.13925960411522764   0.03481490102880691   0.03481490102880691
0.13925960411522764   0.03481490102880691   0.03481490102880691
0.13925960411522764   0.03481490102880691   0.03481490102880691
1.0217144487189032   0.16172924192427607   0.05940372956851285
1.0217144487189032   0.16172924192427607   0.05940372956851285
1.0217144487189032   0.16172924192427607   0.05940372956851285
1.0217144487189032   0.16172924192427607   0.05940372956851285
1.107155632661732   0.276788908165433   0.276788908165433
1.107155632661732   0.276788908165433   0.276788908165433
1.107155632661732   0.276788908165433   0.276788908165433
1.107155632661732   0.276788908165433   0.276788908165433
0.15192319485622327   0.022431094558075536   0.0167625344627996
0.15192319485622327   0.022431094558075536   0.0167625344627996
0.15192319485622327   0.022431094558075536   0.0167625344627996
0.15192319485622327   0.022431094558075536   0.0167625344627996
0.5774148438508333   0.12698275205445606   -0.04434281554844742
0.5774148438508333   0.12698275205445606   -0.04434281554844742
0.5774148438508333   0.12698275205445606   -0.04434281554844742
0.5774148438508333   0.12698275205445606   -0.04434281554844742
1.088780079744872   0.272195019936218   0.272195019936218
1.088780079744872   0.272195019936218   0.272195019936218
1.088780079744872   0.272195019936218   0.272195019936218
1.088780079744872   0.272195019936218   0.272195019936218
2.258656177847996   0.17217670716735034   0.05908253941638672
2.258656177847996   0.17217670716735034   0.05908253941638672
2.258656177847996   0.17217670716735034   0.05908253941638672
2.258656177847996   0.17217670716735034   0.05908253941638672
2.308708867010573   0.5771772167526432   0.5771772167526432
2.308708867010573   0.5771772167526432   0.5771772167526432
2.308708867010573   0.5771772167526432   0.5771772167526432
2.308708867010573   0.5771772167526432   0.5771772167526432
0.9695645681556033   -0.05507458066664689   -0.005453201475233427
0.9695645681556033   -0.05507458066664689   -0.005453201475233427
0.9695645681556033   -0.05507458066664689   -0.005453201475233427
0.9695645681556033   -0.05507458066664689   -0.005453201475233427
1.6108350095647346   0.22799813449341977   0.18182678313050166
1.6108350095647346   0.22799813449341977   0.18182678313050166
1.6108350095647346   0.22799813449341977   0.18182678313050166
1.6108350095647346   0.22799813449341977   0.18182678313050166
1.0907445828710873   0.27268614571777183   0.27268614571777183
1.0907445828710873   0.27268614571777183   0.27268614571777183
1.0907445828710873   0.27268614571777183   0.27268614571777183
1.0907445828710873   0.27268614571777183   0.27268614571777183
2.139523388657213   0.201411026730356   0.10701601500816747
2.139523388657213   0.201411026730356   0.10701601500816747
2.139523388657213   0.201411026730356   0.10701601500816747
2.139523388657213   0.201411026730356   0.10701601500816747
2.239771144622765   0.5599427861556913   0.5599427861556913
2.239771144622765   0.5599427861556913   0.5599427861556913
2.239771144622765   0.5599427861556913   0.5599427861556913
2.239771144622765   0.5599427861556913   0.5599427861556913
0.9729790654412158   -0.030358408114073115   0.00781446321842473
0.9729790654412158   -0.030358408114073115   0.00781446321842473
0.9729790654412158   -0.030358408114073115   0.00781446321842473
0.9729790654412158   -0.030358408114073115   0.00781446321842473
1.5630869717801272   0.23458896492727993   0.08718550711219071
1.5630869717801272   0.23458896492727993   0.08718550711219071
1.5630869717801272   0.23458896492727993   0.08718550711219071
1.5630869717801272   0.23458896492727993   0.08718550711219071
1.0860976160226061   0.27152440400565153   0.27152440400565153
1.0860976160226061   0.27152440400565153   0.27152440400565153
1.0860976160226061   0.27152440400565153   0.27152440400565153
1.0860976160226061   0.27152440400565153   0.27152440400565153
2.070673599395154   0.2020809793897525   0.07231686678361085
2.070673599395154   0.2020809793897525   0.07231686678361085
2.070673599395154   0.2020809793897525   0.07231686678361085
2.070673599395154   0.2020809793897525   0.07231686678361085
2.137125118921069   0.5342812797302673   0.5342812797302673
2.137125118921069   0.5342812797302673   0.5342812797302673
2.137125118921069   0.5342812797302673   0.5342812797302673
2.137125118921069   0.5342812797302673   0.5342812797302673
1.009010171063852   0.03194456890734873   0.03090593943411673
1.009010171063852   0.03194456890734873   0.03090593943411673
1.009010171063852   0.03194456890734873   0.03090593943411673
1.009010171063852   0.03194456890734873   0.03090593943411673
1.4967459080473913   0.25436756299722807   -0.022889176383550834
1.4967459080473913   0.25436756299722807   -0.022889176383550834
1.4967459080473913   0.25436756299722807   -0.022889176383550834
1.4967459080473913   0.25436756299722807   -0.022889176383550834
-2.18963448439839   -0.15679999766112412   0.024727436097882152
-2.18963448439839   -0.15679999766112412   0.024727436097882152
-2.18963448439839   -0.15679999766112412   0.024727436097882152
-2.18963448439839   -0.15679999766112412   0.024727436097882152
-1.3938120834451426   -0.03222800954464289   -0.009041222810223695
-1.3938120834451426   -0.03222800954464289   -0.009041222810223695
-1.3938120834451426   -0.03222800954464289   -0.009041222810223695
-1.3938120834451426   -0.03222800954464289   -0.009041222810223695
-1.403197103114876   0.056695143078986376   0.029354723266502708
-1.403197103114876   0.056695143078986376   0.029354723266502708
-1.403197103114876   0.056695143078986376   0.029354723266502708
-1.403197103114876   0.056695143078986376   0.029354723266502708
-2.22220514812256   -0.1516224307733377   -0.026347796092362652
-2.22220514812256   -0.1516224307733377   -0.026347796092362652
-2.22220514812256   -0.1516224307733377   -0.026347796092362652
-2.22220514812256   -0.1516224307733377   -0.026347796092362652
-1.7313011042438475   -0.05914848459734495   -0.006902905981315849
-1.7313011042438475   -0.05914848459734495   -0.006902905981315849
-1.7313011042438475   -0.05914848459734495   -0.006902905981315849
-1.7313011042438475   -0.05914848459734495   -0.006902905981315849
-2.206016454305856   -0.10762085280745465   0.0105940950252775
-2.206016454305856   -0.10762085280745465   0.0105940950252775
-2.206016454305856   -0.10762085280745465   0.0105940950252775
-2.206016454305856   -0.10762085280745465   0.0105940950252775
-1.4217137613052893   0.010365600739398628   -0.016899025345952334
-1.4217137613052893   0.010365600739398628   -0.016899025345952334
-1.4217137613052893   0.010365600739398628   -0.016899025345952334
-1.4217137613052893   0.010365600739398628   -0.016899025345952334
-1.404845412967616   0.08083525646879502   0.03341182216409257
-1.404845412967616   0.08083525646879502   0.03341182216409257
-1.404845412967616   0.08083525646879502   0.03341182216409257
-1.404845412967616   0.08083525646879502   0.03341182216409257
-2.23564196749554   -0.13354382307113244   -0.03477946790523159
-2.23564196749554   -0.13354382307113244   -0.03477946790523159
-2.23564196749554   -0.13354382307113244   -0.03477946790523159
-2.23564196749554   -0.13354382307113244   -0.03477946790523159
-1.7798891538702057   -0.039587199309152   -0.01689859472161541
-1.7798891538702057   -0.039587199309152   -0.01689859472161541
-1.7798891538702057   -0.039587199309152   -0.01689859472161541
-1.7798891538702057   -0.039587199309152   -0.01689859472161541
-2.195466826505134   -0.06455075656366466   0.09710317053931213
-2.195466826505134   -0.06455075656366466   0.09710317053931213
-2.195466826505134   -0.06455075656366466   0.09710317053931213
-2.195466826505134   -0.06455075656366466   0.09710317053931213
-1.4282936875174874   0.028569056401860804   -0.031563350518318184
-1.4282936875174874   0.028569056401860804   -0.031563350518318184
-1.4282936875174874   0.028569056401860804   -0.031563350518318184
-1.4282936875174874   0.028569056401860804   -0.031563350518318184
-1.3792648731097277   0.1408633916434956   0.060662989796906486
-1.3792648731097277   0.1408633916434956   0.060662989796906486
-1.3792648731097277   0.1408633916434956   0.060662989796906486
-1.3792648731097277   0.1408633916434956   0.060662989796906486
-2.173806111669013   -0.10773205773241812   -0.05687869077262768
-2.173806111669013   -0.10773205773241812   -0.05687869077262768
-2.173806111669013   -0.10773205773241812   -0.05687869077262768
-2.173806111669013   -0.10773205773241812   -0.05687869077262768
-1.7117819569733697   0.015988348716892142   0.037946313855920885
-1.7117819569733697   0.015988348716892142   0.037946313855920885
-1.7117819569733697   0.015988348716892142   0.037946313855920885
-1.7117819569733697   0.015988348716892142   0.037946313855920885
-1.4284161759920306   -0.18938464597048377   -0.024905049118822267
-1.4284161759920306   -0.18938464597048377   -0.024905049118822267
-1.4284161759920306   -0.18938464597048377   -0.024905049118822267
-1.4284161759920306   -0.18938464597048377   -0.024905049118822267
-0.6581565202033484   -0.014678024824293756   0.006974552449924079
-0.6581565202033484   -0.014678024824293756   0.006974552449924079
-0.6581565202033484   -0.014678024824293756   0.006974552449924079
-0.6581565202033484   -0.014678024824293756   0.006974552449924079
-0.6677625327457792   0.012656802870622097   0.009982685937938718
-0.6677625327457792   0.012656802870622097   0.009982685937938718
-0.6677625327457792   0.012656802870622097   0.009982685937938718
-0.6677625327457792   0.012656802870622097   0.009982685937938718
-1.456710944449254   -0.13861995602023722   -0.04289938430616485
-1.456710944449254   -0.13861995602023722   -0.04289938430616485
-1.456710944449254   -0.13861995602023722   -0.04289938430616485
-1.456710944449254   -0.13861995602023722   -0.04289938430616485
-1.0527358637160704   -0.08549741462193369   -0.024151391700641338
-1.0527358637160704   -0.08549741462193369   -0.024151391700641338
-1.0527358637160704   -0.08549741462193369   -0.024151391700641338
-1.0527358637160704   -0.08549741462193369   -0.024151391700641338
-1.455333799955512   -0.1514839261087097   -0.023149691748987594
-1.455333799955512   -0.1514839261087097   -0.023149691748987594
-1.455333799955512   -0.1514839261087097   -0.023149691748987594
-1.455333799955512   -0.1514839261087097   -0.023149691748987594
-0.6665442584682054   0.028116191730411855   0.0006146684660238363
-0.6665442584682054   0.028116191730411855   0.0006146684660238363
-0.6665442584682054   0.028116191730411855   0.0006146684660238363
-0.6665442584682054   0.028116191730411855   0.0006146684660238363
-0.6652270673000458   0.046389722537865635   0.013543232362897666
-0.6652270673000458   0.046389722537865635   0.013543232362897666
-0.6652270673000458   0.046389722537865635   0.013543232362897666
-0.6652270673000458   0.046389722537865635   0.013543232362897666
-1.4572890973583394   -0.10157010884690579   -0.04640123447382404
-1.4572890973583394   -0.10157010884690579   -0.04640123447382404
-1.4572890973583394   -0.10157010884690579   -0.04640123447382404
-1.4572890973583394   -0.10157010884690579   -0.04640123447382404
-1.050675173556659   -0.047576030382327716   -0.011483223032470423
-1.050675173556659   -0.047576030382327716   -0.011483223032470423
-1.050675173556659   -0.047576030382327716   -0.011483223032470423
-1.050675173556659   -0.047576030382327716   -0.011483223032470423
-1.4515859831003683   -0.114568217917461   -0.004887554113412941
-1.4515859831003683   -0.114568217917461   -0.004887554113412941
-1.4515859831003683   -0.114568217917461   -0.004887554113412941
-1.4515859831003683   -0.114568217917461   -0.004887554113412941
-0.6661105043499045   0.06420750881653528   -0.008691739165053648
-0.6661105043499045   0.06420750881653528   -0.008691739165053648
-0.6661105043499045   0.06420750881653528   -0.008691739165053648
-0.6661105043499045   0.06420750881653528   -0.008691739165053648
-0.6540683516715304   0.08027266201589872   0.027183851044796252
-0.6540683516715304   0.08027266201589872   0.027183851044796252
-0.6540683516715304   0.08027266201589872   0.027183851044796252
-0.6540683516715304   0.08027266201589872   0.027183851044796252
-1.4416630750783488   -0.058761324243204294   -0.05170330415950386
-1.4416630750783488   -0.058761324243204294   -0.05170330415950386
-1.4416630750783488   -0.058761324243204294   -0.05170330415950386
-1.4416630750783488   -0.058761324243204294   -0.05170330415950386
-1.0462651587517784   -0.011690176048716139   0.0052513697698350625
-1.0462651587517784   -0.011690176048716139   0.0052513697698350625
-1.0462651587517784   -0.011690176048716139   0.0052513697698350625
-1.0462651587517784   -0.011690176048716139   0.0052513697698350625
-0.6940123811630352   -0.15765344404430962   -0.029329333128499023
-0.6940123811630352   -0.15765344404430962   -0.029329333128499023
-0.6940123811630352   -0.15765344404430962   -0.029329333128499023
-0.6940123811630352   -0.15765344404430962   -0.029329333128499023
0.07180037916944551   0.016319477539298955   0.027036279632433373
0.07180037916944551   0.016319477539298955   0.027036279632433373
0.07180037916944551   0.016319477539298955   0.027036279632433373
0.07180037916944551   0.016319477539298955   0.027036279632433373
0.0685467285339496   0.039714389612767895   0.0021695982744548044
0.0685467285339496   0.039714389612767895   0.0021695982744548044
0.0685467285339496   0.039714389612767895   0.0021695982744548044
0.0685467285339496   0.039714389612767895   0.0021695982744548044
-0.6969224355896808   -0.10443083312372001   -0.01872919228722727
-0.6969224355896808   -0.10443083312372001   -0.01872919228722727
-0.6969224355896808   -0.10443083312372001   -0.01872919228722727
-0.6969224355896808   -0.10443083312372001   -0.01872919228722727
-0.31567098684167794   -0.05228184853242749   -0.009996563895196696
-0.31567098684167794   -0.05228184853242749   -0.009996563895196696
-0.31567098684167794   -0.05228184853242749   -0.009996563895196696
-0.31567098684167794   -0.05228184853242749   -0.009996563895196696
-0.701744415684318   -0.12019312005216935   -0.027076805831963775
-0.701744415684318   -0.12019312005216935   -0.027076805831963775
-0.701744415684318   -0.12019312005216935   -0.027076805831963775
-0.701744415684318   -0.12019312005216935   -0.027076805831963775
0.07604550703362196   0.05815347494625242   0.021224405439332166
0.07604550703362196   0.05815347494625242   0.021224405439332166
0.07604550703362196   0.05815347494625242   0.021224405439332166
0.07604550703362196   0.05815347494625242   0.021224405439332166
0.07402215546593037   0.07683896742985417   0.012564312166452297
0.07402215546593037   0.07683896742985417   0.012564312166452297
0.07402215546593037   0.07683896742985417   0.012564312166452297
0.07402215546593037   0.07683896742985417   0.012564312166452297
-0.6946314517092402   -0.0637191321807855   -0.023369834964422968
-0.6946314517092402   -0.0637191321807855   -0.023369834964422968
-0.6946314517092402   -0.0637191321807855   -0.023369834964422968
-0.6946314517092402   -0.0637191321807855   -0.023369834964422968
-0.3106974410152544   -0.012830691429146654   0.0037066138198079447
-0.3106974410152544   -0.012830691429146654   0.0037066138198079447
-0.3106974410152544   -0.012830691429146654   0.0037066138198079447
-0.3106974410152544   -0.012830691429146654   0.0037066138198079447
-0.6964972139559704   -0.08255110380299042   -0.013866674575869768
-0.6964972139559704   -0.08255110380299042   -0.013866674575869768
-0.6964972139559704   -0.08255110380299042   -0.013866674575869768
-0.6964972139559704   -0.08255110380299042   -0.013866674575869768
0.07876852389643625   0.09855154523583454   0.014583576513000759
0.07876852389643625   0.09855154523583454   0.014583576513000759
0.07876852389643625   0.09855154523583454   0.014583576513000759
0.07876852389643625   0.09855154523583454   0.014583576513000759
0.07578531015068452   0.11813536595074581   0.02067581180022591
0.07578531015068452   0.11813536595074581   0.02067581180022591
0.07578531015068452   0.11813536595074581   0.02067581180022591
0.07578531015068452   0.11813536595074581   0.02067581180022591
-0.6854894515345287   -0.020199963240840002   -0.02944902301345354
-0.6854894515345287   -0.020199963240840002   -0.02944902301345354
-0.6854894515345287   -0.020199963240840002   -0.02944902301345354
-0.6854894515345287   -0.020199963240840002   -0.02944902301345354
-0.30287096435599015   0.028425999526887194   0.018708338473663114
-0.30287096435599015   0.028425999526887194   0.018708338473663114
-0.30287096435599015   0.028425999526887194   0.018708338473663114
-0.30287096435599015   0.028425999526887194   0.018708338473663114
0.03280600307886873   -0.11557891545169734   -0.03603720782945422
0.03280600307886873   -0.11557891545169734   -0.03603720782945422
0.03280600307886873   -0.11557891545169734   -0.03603720782945422
0.03280600307886873   -0.11557891545169734   -0.03603720782945422
0.8261629736799931   0.05699821880705913   0.04963218009931437
0.8261629736799931   0.05699821880705913   0.04963218009931437
0.8261629736799931   0.05699821880705913   0.04963218009931437
0.8261629736799931   0.05699821880705913   0.04963218009931437
0.8252111858510266   0.07681825728982453   -0.007945310344854122
0.8252111858510266   0.07681825728982453   -0.007945310344854122
0.8252111858510266   0.07681825728982453   -0.007945310344854122
0.8252111858510266   0.07681825728982453   -0.007945310344854122
0.04728639411206051   -0.06940605944609943   0.004988375223876695
0.04728639411206051   -0.06940605944609943   0.004988375223876695
0.04728639411206051   -0.06940605944609943   0.004988375223876695
0.04728639411206051   -0.06940605944609943   0.004988375223876695
0.42752991293092024   -0.009922575901717426   0.0008912940979496388
0.42752991293092024   -0.009922575901717426   0.0008912940979496388
0.42752991293092024   -0.009922575901717426   0.0008912940979496388
0.42752991293092024   -0.009922575901717426   0.0008912940979496388
0.03789913711164024   -0.08443823686162251   -0.026915732362701065
0.03789913711164024   -0.08443823686162251   -0.026915732362701065
0.03789913711164024   -0.08443823686162251   -0.026915732362701065
0.03789913711164024   -0.08443823686162251   -0.026915732362701065
0.8394120333002829   0.09666402515418228   0.0432131590370628
0.8394120333002829   0.09666402515418228   0.0432131590370628
0.8394120333002829   0.09666402515418228   0.0432131590370628
0.8394120333002829   0.09666402515418228   0.0432131590370628
0.8318077352789508   0.1135390927961882   0.008359697368024173
0.8318077352789508   0.1135390927961882   0.008359697368024173
0.8318077352789508   0.1135390927961882   0.008359697368024173
0.8318077352789508   0.1135390927961882   0.008359697368024173
0.0490564329975058   -0.033017690323896044   -0.0024076424219203803
0.0490564329975058   -0.033017690323896044   -0.0024076424219203803
0.0490564329975058   -0.033017690323896044   -0.0024076424219203803
0.0490564329975058   -0.033017690323896044   -0.0024076424219203803
0.43331764410833207   0.02517583353459721   0.017732985028597548
0.43331764410833207   0.02517583353459721   0.017732985028597548
0.43331764410833207   0.02517583353459721   0.017732985028597548
0.43331764410833207   0.02517583353459721   0.017732985028597548
0.04221202250928022   -0.04998455522394997   -0.019662829962994108
0.04221202250928022   -0.04998455522394997   -0.019662829962994108
0.04221202250928022   -0.04998455522394997   -0.019662829962994108
0.04221202250928022   -0.04998455522394997   -0.019662829962994108
0.8421358971522199   0.13398970908128446   0.039549890449260376
0.8421358971522199   0.13398970908128446   0.039549890449260376
0.8421358971522199   0.13398970908128446   0.039549890449260376
0.8421358971522199   0.13398970908128446   0.039549890449260376
0.8185206417454264   0.15591864687619655   0.01760284916420156
0.8185206417454264   0.15591864687619655   0.01760284916420156
0.8185206417454264   0.15591864687619655   0.01760284916420156
0.8185206417454264   0.15591864687619655   0.01760284916420156
0.0486834313536429   0.012037945673740407   -0.008736161907976738
0.0486834313536429   0.012037945673740407   -0.008736161907976738
0.0486834313536429   0.012037945673740407   -0.008736161907976738
0.0486834313536429   0.012037945673740407   -0.008736161907976738
0.43980470716295983   0.06529956092658813   0.033325895610994014
0.43980470716295983   0.06529956092658813   0.033325895610994014
0.43980470716295983   0.06529956092658813   0.033325895610994014
0.43980470716295983   0.06529956092658813   0.033325895610994014
0.7610070389823121   -0.15249956950455856   -0.06664970507747364
0.7610070389823121   -0.15249956950455856   -0.06664970507747364
0.7610070389823121   -0.15249956950455856   -0.06664970507747364
0.7610070389823121   -0.15249956950455856   -0.06664970507747364
1.5672298424224211   0.10352104373017296   0.04839267519555393
1.5672298424224211   0.10352104373017296   0.04839267519555393
1.5672298424224211   0.10352104373017296   0.04839267519555393
1.5672298424224211   0.10352104373017296   0.04839267519555393
1.5850431016311168   0.049059044657719264   -0.10026360832891618
1.5850431016311168   0.049059044657719264   -0.10026360832891618
1.5850431016311168   0.049059044657719264   -0.10026360832891618
1.5850431016311168   0.049059044657719264   -0.10026360832891618
0.8109831903266549   -0.03121967528677988   0.028952644609878536
0.8109831903266549   -0.03121967528677988   0.028952644609878536
0.8109831903266549   -0.03121967528677988   0.028952644609878536
0.8109831903266549   -0.03121967528677988   0.028952644609878536
1.1223403066360542   -0.019652314465247178   -0.028112420426333953
1.1223403066360542   -0.019652314465247178   -0.028112420426333953
1.1223403066360542   -0.019652314465247178   -0.028112420426333953
1.1223403066360542   -0.019652314465247178   -0.028112420426333953
0.7825388509995579   -0.10023902438773677   -0.044249702924639214
0.7825388509995579   -0.10023902438773677   -0.044249702924639214
0.7825388509995579   -0.10023902438773677   -0.044249702924639214
0.7825388509995579   -0.10023902438773677   -0.044249702924639214
1.6278894343518528   0.13248038715231703   0.030546712780165075
1.6278894343518528   0.13248038715231703   0.030546712780165075
1.6278894343518528   0.13248038715231703   0.030546712780165075
1.6278894343518528   0.13248038715231703   0.030546712780165075
1.6026197973017344   0.08945569155473504   -0.022755770298052994
1.6026197973017344   0.08945569155473504   -0.022755770298052994
1.6026197973017344   0.08945569155473504   -0.022755770298052994
1.6026197973017344   0.08945569155473504   -0.022755770298052994
0.8078029562811845   -0.013069702855865839   0.01494459803123311
0.8078029562811845   -0.013069702855865839   0.01494459803123311
0.8078029562811845   -0.013069702855865839   0.01494459803123311
0.8078029562811845   -0.013069702855865839   0.01494459803123311
1.1812134460200152   0.0295117898586868   0.019418616423798926
1.1812134460200152   0.0295117898586868   0.019418616423798926
1.1812134460200152   0.0295117898586868   0.019418616423798926
1.1812134460200152   0.0295117898586868   0.019418616423798926
0.7849749407161988   -0.07664596852722633   -0.03561921412232813
0.7849749407161988   -0.07664596852722633   -0.03561921412232813
0.7849749407161988   -0.07664596852722633   -0.03561921412232813
0.7849749407161988   -0.07664596852722633   -0.03561921412232813
1.6235466167687411   0.15113076112811832   0.020203257463597142
1.6235466167687411   0.15113076112811832   0.020203257463597142
1.6235466167687411   0.15113076112811832   0.020203257463597142
1.6235466167687411   0.15113076112811832   0.020203257463597142
1.600069420865026   0.1370116646048822   -0.034817831879389784
1.600069420865026   0.1370116646048822   -0.034817831879389784
1.600069420865026   0.1370116646048822   -0.034817831879389784
1.600069420865026   0.1370116646048822   -0.034817831879389784
0.7912292002946257   0.02874473293741414   0.008319555848967472
0.7912292002946257   0.02874473293741414   0.008319555848967472
0.7912292002946257   0.02874473293741414   0.008319555848967472
0.7912292002946257   0.02874473293741414   0.008319555848967472
1.151100146490505   0.05176400269539158   0.014424246108877624
1.151100146490505   0.05176400269539158   0.014424246108877624
1.151100146490505   0.05176400269539158   0.014424246108877624
1.151100146490505   0.05176400269539158   0.014424246108877624
-1.7207823773661721   -0.07808497387925778   0.08864424943773135
-1.7207823773661721   -0.07808497387925778   0.08864424943773135
-1.7207823773661721   -0.07808497387925778   0.08864424943773135
-1.7207823773661721   -0.07808497387925778   0.08864424943773135
-1.142893683428254   -0.043459876978824696   -0.02306552240373938
-1.142893683428254   -0.043459876978824696   -0.02306552240373938
-1.142893683428254   -0.043459876978824696   -0.02306552240373938
-1.142893683428254   -0.043459876978824696   -0.02306552240373938
-1.1016480098499917   0.09263124464916211   0.07436344274756751
-1.1016480098499917   0.09263124464916211   0.07436344274756751
-1.1016480098499917   0.09263124464916211   0.07436344274756751
-1.1016480098499917   0.09263124464916211   0.07436344274756751
-1.7286942041371713   -0.12343059653762367   -0.03613809083611143
-1.7286942041371713   -0.12343059653762367   -0.03613809083611143
-1.7286942041371713   -0.12343059653762367   -0.03613809083611143
-1.7286942041371713   -0.12343059653762367   -0.03613809083611143
-1.3657091861395967   -0.02111582507275056   -0.0025463747756205163
-1.3657091861395967   -0.02111582507275056   -0.0025463747756205163
-1.3657091861395967   -0.02111582507275056   -0.0025463747756205163
-1.3657091861395967   -0.02111582507275056   -0.0025463747756205163
-1.6805488939922077   -0.01815837338214832   0.09931623673323137
-1.6805488939922077   -0.01815837338214832   0.09931623673323137
-1.6805488939922077   -0.01815837338214832   0.09931623673323137
-1.6805488939922077   -0.01815837338214832   0.09931623673323137
-1.142211032931063   -0.005058691442420882   -0.030761736566205775
-1.142211032931063   -0.005058691442420882   -0.030761736566205775
-1.142211032931063   -0.005058691442420882   -0.030761736566205775
-1.142211032931063   -0.005058691442420882   -0.030761736566205775
-1.0971296101577883   0.11489945721312259   0.06892457617829154
-1.0971296101577883   0.11489945721312259   0.06892457617829154
-1.0971296101577883   0.11489945721312259   0.06892457617829154
-1.0971296101577883   0.11489945721312259   0.06892457617829154
-1.7018716377317047   -0.10324260764697624   -0.04947474411790491
-1.7018716377317047   -0.10324260764697624   -0.04947474411790491
-1.7018716377317047   -0.10324260764697624   -0.04947474411790491
-1.7018716377317047   -0.10324260764697624   -0.04947474411790491
-1.3685757104443892   0.005046721284139966   0.0157609463498046
-1.3685757104443892   0.005046721284139966   0.0157609463498046
-1.3685757104443892   0.005046721284139966   0.0157609463498046
-1.3685757104443892   0.005046721284139966   0.0157609463498046
-1.6570397951106204   0.002850731045838273   0.06859113029470212
-1.6570397951106204   0.002850731045838273   0.06859113029470212
-1.6570397951106204   0.002850731045838273   0.06859113029470212
-1.6570397951106204   0.002850731045838273   0.06859113029470212
-1.1394627929110743   0.01130477838811006   -0.03914665876311907
-1.1394627929110743   0.01130477838811006   -0.03914665876311907
-1.1394627929110743   0.01130477838811006   -0.03914665876311907
-1.1394627929110743   0.01130477838811006   -0.03914665876311907
-1.0981682859303996   0.12970919715997448   0.054689757950722076
-1.0981682859303996   0.12970919715997448   0.054689757950722076
-1.0981682859303996   0.12970919715997448   0.054689757950722076
-1.0981682859303996   0.12970919715997448   0.054689757950722076
-1.6670682965993084   -0.08177938866904721   -0.06308694223728648
-1.6670682965993084   -0.08177938866904721   -0.06308694223728648
-1.6670682965993084   -0.08177938866904721   -0.06308694223728648
-1.6670682965993084   -0.08177938866904721   -0.06308694223728648
-1.3292076036006755   0.028481043654330462   0.032819019954623496
-1.3292076036006755   0.028481043654330462   0.032819019954623496
-1.3292076036006755   0.028481043654330462   0.032819019954623496
-1.3292076036006755   0.028481043654330462   0.032819019954623496
-1.1462859026924554   -0.108663425794012   0.025176930090439933
-1.1462859026924554   -0.108663425794012   0.025176930090439933
-1.1462859026924554   -0.108663425794012   0.025176930090439933
-1.1462859026924554   -0.108663425794012   0.025176930090439933
-0.5789707418695513   -0.020956613947639605   0.0011055322614590309
-0.5789707418695513   -0.020956613947639605   0.0011055322614590309
-0.5789707418695513   -0.020956613947639605   0.0011055322614590309
-0.5789707418695513   -0.020956613947639605   0.0011055322614590309
-0.5625253301436676   0.056879502903600984   0.04041229600743957
-0.5625253301436676   0.056879502903600984   0.04041229600743957
-0.5625253301436676   0.056879502903600984   0.04041229600743957
-0.5625253301436676   0.056879502903600984   0.04041229600743957
-1.164504770046277   -0.10716112437760536   -0.04012798920710051
-1.164504770046277   -0.10716112437760536   -0.04012798920710051
-1.164504770046277   -0.10716112437760536   -0.04012798920710051
-1.164504770046277   -0.10716112437760536   -0.04012798920710051
-0.8600093118628288   -0.04220271001653514   -0.01743985862691605
-0.8600093118628288   -0.04220271001653514   -0.01743985862691605
-0.8600093118628288   -0.04220271001653514   -0.01743985862691605
-0.8600093118628288   -0.04220271001653514   -0.01743985862691605
-1.1426430757831327   -0.06235219489964616   0.024371552630668876
-1.1426430757831327   -0.06235219489964616   0.024371552630668876
-1.1426430757831327   -0.06235219489964616   0.024371552630668876
-1.1426430757831327   -0.06235219489964616   0.024371552630668876
-0.5799578612424289   0.016499736590026848   -0.006370593172787618
-0.5799578612424289   0.016499736590026848   -0.006370593172787618
-0.5799578612424289   0.016499736590026848   -0.006370593172787618
-0.5799578612424289   0.016499736590026848   -0.006370593172787618
-0.5607165010270758   0.09401672253723461   0.03496032611561429
-0.5607165010270758   0.09401672253723461   0.03496032611561429
-0.5607165010270758   0.09401672253723461   0.03496032611561429
-0.5607165010270758   0.09401672253723461   0.03496032611561429
-1.1578711067117133   -0.07250119695363444   -0.04738225242457822
-1.1578711067117133   -0.07250119695363444   -0.04738225242457822
-1.1578711067117133   -0.07250119695363444   -0.04738225242457822
-1.1578711067117133   -0.07250119695363444   -0.04738225242457822
-0.8505911518467423   -0.004634963939564307   -7.01837124106805e-05
-0.8505911518467423   -0.004634963939564307   -7.01837124106805e-05
-0.8505911518467423   -0.004634963939564307   -7.01837124106805e-05
-0.8505911518467423   -0.004634963939564307   -7.01837124106805e-05
-1.135563370588875   -0.024678058625876714   0.016333289861856788
-1.135563370588875   -0.024678058625876714   0.016333289861856788
-1.135563370588875   -0.024678058625876714   0.016333289861856788
-1.135563370588875   -0.024678058625876714   0.016333289861856788
-0.579417785672858   0.04980003568653468   -0.014329410262588063
-0.579417785672858   0.04980003568653468   -0.014329410262588063
-0.579417785672858   0.04980003568653468   -0.014329410262588063
-0.579417785672858   0.04980003568653468   -0.014329410262588063
-0.5605237908713965   0.1330458476912049   0.026193271305581883
-0.5605237908713965   0.1330458476912049   0.026193271305581883
-0.5605237908713965   0.1330458476912049   0.026193271305581883
-0.5605237908713965   0.1330458476912049   0.026193271305581883
-1.1522646432100312   -0.03509570565577824   -0.05098712563168846
-1.1522646432100312   -0.03509570565577824   -0.05098712563168846
-1.1522646432100312   -0.03509570565577824   -0.05098712563168846
-1.1522646432100312   -0.03509570565577824   -0.05098712563168846
-0.8511119744660897   0.02982368125938259   0.013208993462213915
-0.8511119744660897   0.02982368125938259   0.013208993462213915
-0.8511119744660897   0.02982368125938259   0.013208993462213915
-0.8511119744660897   0.02982368125938259   0.013208993462213915
-0.6005301374708003   -0.12423624471143584   -0.003411814980994728
-0.6005301374708003   -0.12423624471143584   -0.003411814980994728
-0.6005301374708003   -0.12423624471143584   -0.003411814980994728
-0.6005301374708003   -0.12423624471143584   -0.003411814980994728
-0.020263936041973706   0.006115405361965404   0.025643984691177794
-0.020263936041973706   0.006115405361965404   0.025643984691177794
-0.020263936041973706   0.006115405361965404   0.025643984691177794
-0.020263936041973706   0.006115405361965404   0.025643984691177794
-0.02243426929103287   0.03666430154161521   0.012258314740800946
-0.02243426929103287   0.03666430154161521   0.012258314740800946
-0.02243426929103287   0.03666430154161521   0.012258314740800946
-0.02243426929103287   0.03666430154161521   0.012258314740800946
-0.600906854705203   -0.07960454698374403   -0.015011276912892188
-0.600906854705203   -0.07960454698374403   -0.015011276912892188
-0.600906854705203   -0.07960454698374403   -0.015011276912892188
-0.600906854705203   -0.07960454698374403   -0.015011276912892188
-0.31198873368532676   -0.03895720885343386   -0.009764649523839725
-0.31198873368532676   -0.03895720885343386   -0.009764649523839725
-0.31198873368532676   -0.03895720885343386   -0.009764649523839725
-0.31198873368532676   -0.03895720885343386   -0.009764649523839725
-0.6002597181772942   -0.08302373286267967   -0.00835640839441223
-0.6002597181772942   -0.08302373286267967   -0.00835640839441223
-0.6002597181772942   -0.08302373286267967   -0.00835640839441223
-0.6002597181772942   -0.08302373286267967   -0.00835640839441223
-0.01977989051687344   0.043385002722619206   0.01880950743059434
-0.01977989051687344   0.043385002722619206   0.01880950743059434
-0.01977989051687344   0.043385002722619206   0.01880950743059434
-0.01977989051687344   0.043385002722619206   0.01880950743059434
-0.019667515779561832   0.07712275330783731   0.005875656549012766
-0.019667515779561832   0.07712275330783731   0.005875656549012766
-0.019667515779561832   0.07712275330783731   0.005875656549012766
-0.019667515779561832   0.07712275330783731   0.005875656549012766
-0.5993673271045155   -0.04227054005928045   -0.022006541675066413
-0.5993673271045155   -0.04227054005928045   -0.022006541675066413
-0.5993673271045155   -0.04227054005928045   -0.022006541675066413
-0.5993673271045155   -0.04227054005928045   -0.022006541675066413
-0.3089319673338955   -0.0015497344838459465   0.004270926164086943
-0.3089319673338955   -0.0015497344838459465   0.004270926164086943
-0.3089319673338955   -0.0015497344838459465   0.004270926164086943
-0.3089319673338955   -0.0015497344838459465   0.004270926164086943
-0.5984660160930604   -0.04313848616673262   -0.016632040510338387
-0.5984660160930604   -0.04313848616673262   -0.016632040510338387
-0.5984660160930604   -0.04313848616673262   -0.016632040510338387
-0.5984660160930604   -0.04313848616673262   -0.016632040510338387
-0.017842864265841574   0.08071666194046499   0.011405005484986852
-0.017842864265841574   0.08071666194046499   0.011405005484986852
-0.017842864265841574   0.08071666194046499   0.011405005484986852
-0.017842864265841574   0.08071666194046499   0.011405005484986852
-0.01905733269955679   0.11878946287309598   -0.0009340112787455598
-0.01905733269955679   0.11878946287309598   -0.0009340112787455598
-0.01905733269955679   0.11878946287309598   -0.0009340112787455598
-0.01905733269955679   0.11878946287309598   -0.0009340112787455598
-0.599047229504545   -0.004302306668938272   -0.029075767500020076
-0.599047229504545   -0.004302306668938272   -0.029075767500020076
-0.599047229504545   -0.004302306668938272   -0.029075767500020076
-0.599047229504545   -0.004302306668938272   -0.029075767500020076
-0.3065517815737416   0.035893380626059054   0.01714231888341507
-0.3065517815737416   0.035893380626059054   0.01714231888341507
-0.3065517815737416   0.035893380626059054   0.01714231888341507
-0.3065517815737416   0.035893380626059054   0.01714231888341507
-0.0597810444079243   -0.13606854265475762   -0.029757609121851904
-0.0597810444079243   -0.13606854265475762   -0.029757609121851904
-0.0597810444079243   -0.13606854265475762   -0.029757609121851904
-0.0597810444079243   -0.13606854265475762   -0.029757609121851904
0.5362985870257756   0.03779926237251745   0.04875507435820277
0.5362985870257756   0.03779926237251745   0.04875507435820277
0.5362985870257756   0.03779926237251745   0.04875507435820277
0.5362985870257756   0.03779926237251745   0.04875507435820277
0.5187498515458895   0.020040561852195132   -0.019241975718479545
0.5187498515458895   0.020040561852195132   -0.019241975718479545
0.5187498515458895   0.020040561852195132   -0.019241975718479545
0.5187498515458895   0.020040561852195132   -0.019241975718479545
-0.04007822912678285   -0.04979602324846365   0.010498840352130155
-0.04007822912678285   -0.04979602324846365   0.010498840352130155
-0.04007822912678285   -0.04979602324846365   0.010498840352130155
-0.04007822912678285   -0.04979602324846365   0.010498840352130155
0.2354140288541327   -0.031516281122529084   -0.005513159593474998
0.2354140288541327   -0.031516281122529084   -0.005513159593474998
0.2354140288541327   -0.031516281122529084   -0.005513159593474998
0.2354140288541327   -0.031516281122529084   -0.005513159593474998
-0.05954210401666506   -0.09924395465480731   -0.03737260269093719
-0.05954210401666506   -0.09924395465480731   -0.03737260269093719
-0.05954210401666506   -0.09924395465480731   -0.03737260269093719
-0.05954210401666506   -0.09924395465480731   -0.03737260269093719
0.5419688064239   0.07324357324666451   0.04364978727710346
0.5419688064239   0.07324357324666451   0.04364978727710346
0.5419688064239   0.07324357324666451   0.04364978727710346
0.5419688064239   0.07324357324666451   0.04364978727710346
0.5271749930330437   0.05768139516474096   -0.027030775014273298
0.5271749930330437   0.05768139516474096   -0.027030775014273298
0.5271749930330437   0.05768139516474096   -0.027030775014273298
0.5271749930330437   0.05768139516474096   -0.027030775014273298
-0.03892973975454402   -0.016346039213830443   0.003033329195770297
-0.03892973975454402   -0.016346039213830443   0.003033329195770297
-0.03892973975454402   -0.016346039213830443   0.003033329195770297
-0.03892973975454402   -0.016346039213830443   0.003033329195770297
0.23751233433627572   0.0023278473999968144   0.008434471186091396
0.23751233433627572   0.0023278473999968144   0.008434471186091396
0.23751233433627572   0.0023278473999968144   0.008434471186091396
0.23751233433627572   0.0023278473999968144   0.008434471186091396
-0.05786018798783127   -0.06292706356123101   -0.045037887623265854
-0.05786018798783127   -0.06292706356123101   -0.045037887623265854
-0.05786018798783127   -0.06292706356123101   -0.045037887623265854
-0.05786018798783127   -0.06292706356123101   -0.045037887623265854
0.5501977187339004   0.10835469697971215   0.03740955167503885
0.5501977187339004   0.10835469697971215   0.03740955167503885
0.5501977187339004   0.10835469697971215   0.03740955167503885
0.5501977187339004   0.10835469697971215   0.03740955167503885
0.5323763909575849   0.1048789369322286   -0.028224165219477793
0.5323763909575849   0.1048789369322286   -0.028224165219477793
0.5323763909575849   0.1048789369322286   -0.028224165219477793
0.5323763909575849   0.1048789369322286   -0.028224165219477793
-0.038962984911146234   0.02274128464047522   -0.004414094104071649
-0.038962984911146234   0.02274128464047522   -0.004414094104071649
-0.038962984911146234   0.02274128464047522   -0.004414094104071649
-0.038962984911146234   0.02274128464047522   -0.004414094104071649
0.24575535783914407   0.04006428043871721   0.024996461936033137
0.24575535783914407   0.04006428043871721   0.024996461936033137
0.24575535783914407   0.04006428043871721   0.024996461936033137
0.24575535783914407   0.04006428043871721   0.024996461936033137
0.4803742668130565   -0.13511838274782062   -0.057948881585049294
0.4803742668130565   -0.13511838274782062   -0.057948881585049294
0.4803742668130565   -0.13511838274782062   -0.057948881585049294
0.4803742668130565   -0.13511838274782062   -0.057948881585049294
1.0563558126816877   0.07848712022674686   0.054237078510964556
1.0563558126816877   0.07848712022674686   0.054237078510964556
1.0563558126816877   0.07848712022674686   0.054237078510964556
1.0563558126816877   0.07848712022674686   0.054237078510964556
1.0481266812017849   -0.005008269992343162   -0.07713381979307572
1.0481266812017849   -0.005008269992343162   -0.07713381979307572
1.0481266812017849   -0.005008269992343162   -0.07713381979307572
1.0481266812017849   -0.005008269992343162   -0.07713381979307572
0.5236201272777207   -0.011257970951009055   0.036407935743886476
0.5236201272777207   -0.011257970951009055   0.036407935743886476
0.5236201272777207   -0.011257970951009055   0.036407935743886476
0.5236201272777207   -0.011257970951009055   0.036407935743886476
0.7393959052414419   -0.026367886862072615   -0.024266664350537148
0.7393959052414419   -0.026367886862072615   -0.024266664350537148
0.7393959052414419   -0.026367886862072615   -0.024266664350537148
0.7393959052414419   -0.026367886862072615   -0.024266664350537148
0.48087545620796235   -0.1172886909530626   -0.07128469960285029
0.48087545620796235   -0.1172886909530626   -0.07128469960285029
0.48087545620796235   -0.1172886909530626   -0.07128469960285029
0.48087545620796235   -0.1172886909530626   -0.07128469960285029
1.0939419252442528   0.10409302298242262   0.042841107444497484
1.0939419252442528   0.10409302298242262   0.042841107444497484
1.0939419252442528   0.10409302298242262   0.042841107444497484
1.0939419252442528   0.10409302298242262   0.042841107444497484
1.0738654068739435   0.01646149336173272   -0.10346187147353325
1.0738654068739435   0.01646149336173272   -0.10346187147353325
1.0738654068739435   0.01646149336173272   -0.10346187147353325
1.0738654068739435   0.01646149336173272   -0.10346187147353325
0.527495048525821   0.005120480471840078   0.027130417142523143
0.527495048525821   0.005120480471840078   0.027130417142523143
0.527495048525821   0.005120480471840078   0.027130417142523143
0.527495048525821   0.005120480471840078   0.027130417142523143
0.7728883412723159   -0.003155510037410214   -0.007398670428553647
0.7728883412723159   -0.003155510037410214   -0.007398670428553647
0.7728883412723159   -0.003155510037410214   -0.007398670428553647
0.7728883412723159   -0.003155510037410214   -0.007398670428553647
0.4863569531933351   -0.09586311574108014   -0.07757646330698914
0.4863569531933351   -0.09586311574108014   -0.07757646330698914
0.4863569531933351   -0.09586311574108014   -0.07757646330698914
0.4863569531933351   -0.09586311574108014   -0.07757646330698914
1.1217864869193555   0.12422807428758023   0.028376947827689354
1.1217864869193555   0.12422807428758023   0.028376947827689354
1.1217864869193555   0.12422807428758023   0.028376947827689354
1.1217864869193555   0.12422807428758023   0.028376947827689354
1.1147327868827035   0.0723170905597808   -0.09732224262727708
1.1147327868827035   0.0723170905597808   -0.09732224262727708
1.1147327868827035   0.0723170905597808   -0.09732224262727708
1.1147327868827035   0.0723170905597808   -0.09732224262727708
0.5292676427701868   0.04129869474117813   0.019812336034589328
0.5292676427701868   0.04129869474117813   0.019812336034589328
0.5292676427701868   0.04129869474117813   0.019812336034589328
0.5292676427701868   0.04129869474117813   0.019812336034589328
0.7786344377562506   0.023385295829583264   0.011268082524901635
0.7786344377562506   0.023385295829583264   0.011268082524901635
0.7786344377562506   0.023385295829583264   0.011268082524901635
0.7786344377562506   0.023385295829583264   0.011268082524901635
-1.229771244297026   -0.04016225060827372   0.08030017031778763
-1.229771244297026   -0.04016225060827372   0.08030017031778763
-1.229771244297026   -0.04016225060827372   0.08030017031778763
-1.229771244297026   -0.04016225060827372   0.08030017031778763
-0.8605013303245358   -0.05749837903945648   -0.030324090555523195
-0.8605013303245358   -0.05749837903945648   -0.030324090555523195
-0.8605013303245358   -0.05749837903945648   -0.030324090555523195
-0.8605013303245358   -0.05749837903945648   -0.030324090555523195
-0.8099231246242944   0.08124515675285154   0.06846959610338778
-0.8099231246242944   0.08124515675285154   0.06846959610338778
-0.8099231246242944   0.08124515675285154   0.06846959610338778
-0.8099231246242944   0.08124515675285154   0.06846959610338778
-1.2298661697286124   -0.10123759883473121   -0.04435787779257665
-1.2298661697286124   -0.10123759883473121   -0.04435787779257665
-1.2298661697286124   -0.10123759883473121   -0.04435787779257665
-1.2298661697286124   -0.10123759883473121   -0.04435787779257665
-0.9902196267746207   -0.015777548162621502   -0.002197271810120041
-0.9902196267746207   -0.015777548162621502   -0.002197271810120041
-0.9902196267746207   -0.015777548162621502   -0.002197271810120041
-0.9902196267746207   -0.015777548162621502   -0.002197271810120041
-1.1838623139438165   0.008040133439669972   0.07638366885700197
-1.1838623139438165   0.008040133439669972   0.07638366885700197
-1.1838623139438165   0.008040133439669972   0.07638366885700197
-1.1838623139438165   0.008040133439669972   0.07638366885700197
-0.8521838234135056   -0.024289418525964224   -0.037299322563848616
-0.8521838234135056   -0.024289418525964224   -0.037299322563848616
-0.8521838234135056   -0.024289418525964224   -0.037299322563848616
-0.8521838234135056   -0.024289418525964224   -0.037299322563848616
-0.8022948525497102   0.09813994351324631   0.05786122650119821
-0.8022948525497102   0.09813994351324631   0.05786122650119821
-0.8022948525497102   0.09813994351324631   0.05786122650119821
-0.8022948525497102   0.09813994351324631   0.05786122650119821
-1.200751014064042   -0.08240493829677659   -0.05607364409689562
-1.200751014064042   -0.08240493829677659   -0.05607364409689562
-1.200751014064042   -0.08240493829677659   -0.05607364409689562
-1.200751014064042   -0.08240493829677659   -0.05607364409689562
-0.9832932370623303   0.006505376505446858   0.010382273658006591
-0.9832932370623303   0.006505376505446858   0.010382273658006591
-0.9832932370623303   0.006505376505446858   0.010382273658006591
-0.9832932370623303   0.006505376505446858   0.010382273658006591
-1.155142201889416   0.02825943670079767   0.06130604177866064
-1.155142201889416   0.02825943670079767   0.06130604177866064
-1.155142201889416   0.02825943670079767   0.06130604177866064
-1.155142201889416   0.02825943670079767   0.06130604177866064
-0.8445199821858116   -0.00914074894580194   -0.0459837292202528
-0.8445199821858116   -0.00914074894580194   -0.0459837292202528
-0.8445199821858116   -0.00914074894580194   -0.0459837292202528
-0.8445199821858116   -0.00914074894580194   -0.0459837292202528
-0.7980712657107413   0.11459535849582148   0.049789762698489476
-0.7980712657107413   0.11459535849582148   0.049789762698489476
-0.7980712657107413   0.11459535849582148   0.049789762698489476
-0.7980712657107413   0.11459535849582148   0.049789762698489476
-1.1617571488592648   -0.057504937693197866   -0.06713485708260342
-1.1617571488592648   -0.057504937693197866   -0.06713485708260342
-1.1617571488592648   -0.057504937693197866   -0.06713485708260342
-1.1617571488592648   -0.057504937693197866   -0.06713485708260342
-0.9463919462624164   0.027384679930003597   0.028029021072247494
-0.9463919462624164   0.027384679930003597   0.028029021072247494
-0.9463919462624164   0.027384679930003597   0.028029021072247494
-0.9463919462624164   0.027384679930003597   0.028029021072247494
-0.8508127022140273   -0.06951831523109629   0.030138986188651618
-0.8508127022140273   -0.06951831523109629   0.030138986188651618
-0.8508127022140273   -0.06951831523109629   0.030138986188651618
-0.8508127022140273   -0.06951831523109629   0.030138986188651618
-0.49342285903215133   -0.03725754547610441   -0.004894501876083673
-0.49342285903215133   -0.03725754547610441   -0.004894501876083673
-0.49342285903215133   -0.03725754547610441   -0.004894501876083673
-0.49342285903215133   -0.03725754547610441   -0.004894501876083673
-0.4683501402538374   0.04747874426784229   0.0369167242276982
-0.4683501402538374   0.04747874426784229   0.0369167242276982
-0.4683501402538374   0.04747874426784229   0.0369167242276982
-0.4683501402538374   0.04747874426784229   0.0369167242276982
-0.8636119156159375   -0.08273555858005262   -0.035993643521923496
-0.8636119156159375   -0.08273555858005262   -0.035993643521923496
-0.8636119156159375   -0.08273555858005262   -0.035993643521923496
-0.8636119156159375   -0.08273555858005262   -0.035993643521923496
-0.6663601278909154   -0.03248876518188859   -0.013611389859913343
-0.6663601278909154   -0.03248876518188859   -0.013611389859913343
-0.6663601278909154   -0.03248876518188859   -0.013611389859913343
-0.6663601278909154   -0.03248876518188859   -0.013611389859913343
-0.8408351847223894   -0.029475599165213667   0.024630051530970386
-0.8408351847223894   -0.029475599165213667   0.024630051530970386
-0.8408351847223894   -0.029475599165213667   0.024630051530970386
-0.8408351847223894   -0.029475599165213667   0.024630051530970386
-0.4882052004791811   -0.002859544478793552   -0.012020288152384515
-0.4882052004791811   -0.002859544478793552   -0.012020288152384515
-0.4882052004791811   -0.002859544478793552   -0.012020288152384515
-0.4882052004791811   -0.002859544478793552   -0.012020288152384515
-0.46239346725457553   0.08212421779590026   0.030267181865957338
-0.46239346725457553   0.08212421779590026   0.030267181865957338
-0.46239346725457553   0.08212421779590026   0.030267181865957338
-0.46239346725457553   0.08212421779590026   0.030267181865957338
-0.851985386754194   -0.05004145790098405   -0.042410043106990265
-0.851985386754194   -0.05004145790098405   -0.042410043106990265
-0.851985386754194   -0.05004145790098405   -0.042410043106990265
-0.851985386754194   -0.05004145790098405   -0.042410043106990265
-0.653563990913004   0.0015627902443837438   0.0010171558236880263
-0.653563990913004   0.0015627902443837438   0.0010171558236880263
-0.653563990913004   0.0015627902443837438   0.0010171558236880263
-0.653563990913004   0.0015627902443837438   0.0010171558236880263
-0.8274849797764721   0.007552154745380513   0.022498379135255125
-0.8274849797764721   0.007552154745380513   0.022498379135255125
-0.8274849797764721   0.007552154745380513   0.022498379135255125
-0.8274849797764721   0.007552154745380513   0.022498379135255125
-0.4832656664621012   0.028158812919732684   -0.020128409295499354
-0.4832656664621012   0.028158812919732684   -0.020128409295499354
-0.4832656664621012   0.028158812919732684   -0.020128409295499354
-0.4832656664621012   0.028158812919732684   -0.020128409295499354
-0.45663815579948563   0.11904199861210878   0.024074908297201214
-0.45663815579948563   0.11904199861210878   0.024074908297201214
-0.45663815579948563   0.11904199861210878   0.024074908297201214
-0.45663815579948563   0.11904199861210878   0.024074908297201214
-0.8432836476758371   -0.014807063418389527   -0.046869725212775416
-0.8432836476758371   -0.014807063418389527   -0.046869725212775416
-0.8432836476758371   -0.014807063418389527   -0.046869725212775416
-0.8432836476758371   -0.014807063418389527   -0.046869725212775416
-0.6486058772160328   0.03360646377560414   0.014948287255681349
-0.6486058772160328   0.03360646377560414   0.014948287255681349
-0.6486058772160328   0.03360646377560414   0.014948287255681349
-0.6486058772160328   0.03360646377560414   0.014948287255681349
-0.5038442775527314   -0.09548440655786937   0.0012252666027770575
-0.5038442775527314   -0.09548440655786937   0.0012252666027770575
-0.5038442775527314   -0.09548440655786937   0.0012252666027770575
-0.5038442775527314   -0.09548440655786937   0.0012252666027770575
-0.1301262654054745   -0.011159920482039237   0.020541095048565255
-0.1301262654054745   -0.011159920482039237   0.020541095048565255
-0.1301262654054745   -0.011159920482039237   0.020541095048565255
-0.1301262654054745   -0.011159920482039237   0.020541095048565255
-0.12693548496479165   0.01959302199350096   0.00700519823292132
-0.12693548496479165   0.01959302199350096   0.00700519823292132
-0.12693548496479165   0.01959302199350096   0.00700519823292132
-0.12693548496479165   0.01959302199350096   0.00700519823292132
-0.4983179800612771   -0.055851427962478155   -0.009592302579183943
-0.4983179800612771   -0.055851427962478155   -0.009592302579183943
-0.4983179800612771   -0.055851427962478155   -0.009592302579183943
-0.4983179800612771   -0.055851427962478155   -0.009592302579183943
-0.3153430804327404   -0.034198686529096856   -0.009674719101967488
-0.3153430804327404   -0.034198686529096856   -0.009674719101967488
-0.3153430804327404   -0.034198686529096856   -0.009674719101967488
-0.3153430804327404   -0.034198686529096856   -0.009674719101967488
-0.4975046735317254   -0.05683107912104229   -0.004546118772861143
-0.4975046735317254   -0.05683107912104229   -0.004546118772861143
-0.4975046735317254   -0.05683107912104229   -0.004546118772861143
-0.4975046735317254   -0.05683107912104229   -0.004546118772861143
-0.12481974350961063   0.023501721136797833   0.013675206365529517
-0.12481974350961063   0.023501721136797833   0.013675206365529517
-0.12481974350961063   0.023501721136797833   0.013675206365529517
-0.12481974350961063   0.023501721136797833   0.013675206365529517
-0.11974239155276332   0.058420579918605935   0.0018241226626133297
-0.11974239155276332   0.058420579918605935   0.0018241226626133297
-0.11974239155276332   0.058420579918605935   0.0018241226626133297
-0.11974239155276332   0.058420579918605935   0.0018241226626133297
-0.4923550826253515   -0.020948601255135424   -0.016468075936886973
-0.4923550826253515   -0.020948601255135424   -0.016468075936886973
-0.4923550826253515   -0.020948601255135424   -0.016468075936886973
-0.4923550826253515   -0.020948601255135424   -0.016468075936886973
-0.30766011926393466   0.0006926600099061292   0.004112428812113385
-0.30766011926393466   0.0006926600099061292   0.004112428812113385
-0.30766011926393466   0.0006926600099061292   0.004112428812113385
-0.30766011926393466   0.0006926600099061292   0.004112428812113385
-0.49052461536568764   -0.018127964629368526   -0.010136376264334643
-0.49052461536568764   -0.018127964629368526   -0.010136376264334643
-0.49052461536568764   -0.018127964629368526   -0.010136376264334643
-0.49052461536568764   -0.018127964629368526   -0.010136376264334643
-0.11886845741706821   0.05830434468819817   0.0063100285714977195
-0.11886845741706821   0.05830434468819817   0.0063100285714977195
-0.11886845741706821   0.05830434468819817   0.0063100285714977195
-0.11886845741706821   0.05830434468819817   0.0063100285714977195
-0.11328956965724434   0.09781129708776212   -0.004265408563834269
-0.11328956965724434   0.09781129708776212   -0.004265408563834269
-0.11328956965724434   0.09781129708776212   -0.004265408563834269
-0.11328956965724434   0.09781129708776212   -0.004265408563834269
-0.48712175681670156   0.014358576477995377   -0.0236596746547669
-0.48712175681670156   0.014358576477995377   -0.0236596746547669
-0.48712175681670156   0.014358576477995377   -0.0236596746547669
-0.48712175681670156   0.014358576477995377   -0.0236596746547669
-0.3006455041867598   0.03575129118783173   0.017395000574779846
-0.3006455041867598   0.03575129118783173   0.017395000574779846
-0.3006455041867598   0.03575129118783173   0.017395000574779846
-0.3006455041867598   0.03575129118783173   0.017395000574779846
-0.16076327232005938   -0.1167707469746391   -0.027033113031760238
-0.16076327232005938   -0.1167707469746391   -0.027033113031760238
-0.16076327232005938   -0.1167707469746391   -0.027033113031760238
-0.16076327232005938   -0.1167707469746391   -0.027033113031760238
0.22834865984175512   0.018103968766885005   0.044543182504334464
0.22834865984175512   0.018103968766885005   0.044543182504334464
0.22834865984175512   0.018103968766885005   0.044543182504334464
0.22834865984175512   0.018103968766885005   0.044543182504334464
0.2124132195103792   -0.006368616578475435   -0.024855574935075484
0.2124132195103792   -0.006368616578475435   -0.024855574935075484
0.2124132195103792   -0.006368616578475435   -0.024855574935075484
0.2124132195103792   -0.006368616578475435   -0.024855574935075484
-0.13437495924932458   -0.02710207631037122   0.016502925114128847
-0.13437495924932458   -0.02710207631037122   0.016502925114128847
-0.13437495924932458   -0.02710207631037122   0.016502925114128847
-0.13437495924932458   -0.02710207631037122   0.016502925114128847
0.03496226193806991   -0.032117758861099965   -0.0068870923407080235
0.03496226193806991   -0.032117758861099965   -0.0068870923407080235
0.03496226193806991   -0.032117758861099965   -0.0068870923407080235
0.03496226193806991   -0.032117758861099965   -0.0068870923407080235
-0.15522560459566465   -0.08157978499854548   -0.033272592929397216
-0.15522560459566465   -0.08157978499854548   -0.033272592929397216
-0.15522560459566465   -0.08157978499854548   -0.033272592929397216
-0.15522560459566465   -0.08157978499854548   -0.033272592929397216
0.23674961564969474   0.05159484290267621   0.03886294628034671
0.23674961564969474   0.05159484290267621   0.03886294628034671
0.23674961564969474   0.05159484290267621   0.03886294628034671
0.23674961564969474   0.05159484290267621   0.03886294628034671
0.2257965363517254   0.030360285303058947   -0.028161324326052194
0.2257965363517254   0.030360285303058947   -0.028161324326052194
0.2257965363517254   0.030360285303058947   -0.028161324326052194
0.2257965363517254   0.030360285303058947   -0.028161324326052194
-0.12918418331137554   0.00411147467528529   0.008924269112874026
-0.12918418331137554   0.00411147467528529   0.008924269112874026
-0.12918418331137554   0.00411147467528529   0.008924269112874026
-0.12918418331137554   0.00411147467528529   0.008924269112874026
0.04208100585650664   -0.00047964991699811846   0.007138629659152277
0.04208100585650664   -0.00047964991699811846   0.007138629659152277
0.04208100585650664   -0.00047964991699811846   0.007138629659152277
0.04208100585650664   -0.00047964991699811846   0.007138629659152277
-0.14930606650778955   -0.047118920702013206   -0.040454751491898
-0.14930606650778955   -0.047118920702013206   -0.040454751491898
-0.14930606650778955   -0.047118920702013206   -0.040454751491898
-0.14930606650778955   -0.047118920702013206   -0.040454751491898
0.24894143706344687   0.08461369819566422   0.03330976633994624
0.24894143706344687   0.08461369819566422   0.03330976633994624
0.24894143706344687   0.08461369819566422   0.03330976633994624
0.24894143706344687   0.08461369819566422   0.03330976633994624
0.23657354168942024   0.0722230876619197   -0.03254160559741567
0.23657354168942024   0.0722230876619197   -0.03254160559741567
0.23657354168942024   0.0722230876619197   -0.03254160559741567
0.23657354168942024   0.0722230876619197   -0.03254160559741567
-0.12363654549940836   0.040096222746430286   0.0017147865666761117
-0.12363654549940836   0.040096222746430286   0.0017147865666761117
-0.12363654549940836   0.040096222746430286   0.0017147865666761117
-0.12363654549940836   0.040096222746430286   0.0017147865666761117
0.053077972481275486   0.03393730252739722   0.021662845000537084
0.053077972481275486   0.03393730252739722   0.021662845000537084
0.053077972481275486   0.03393730252739722   0.021662845000537084
0.053077972481275486   0.03393730252739722   0.021662845000537084
0.18155026800466723   -0.11799197166141431   -0.05335283625280566
0.18155026800466723   -0.11799197166141431   -0.05335283625280566
0.18155026800466723   -0.11799197166141431   -0.05335283625280566
0.18155026800466723   -0.11799197166141431   -0.05335283625280566
0.5469391687181308   0.053932079220492035   0.0576941309997556
0.5469391687181308   0.053932079220492035   0.0576941309997556
0.5469391687181308   0.053932079220492035   0.0576941309997556
0.5469391687181308   0.053932079220492035   0.0576941309997556
0.5414837164538403   -0.029014367938076407   -0.07023763836756994
0.5414837164538403   -0.029014367938076407   -0.07023763836756994
0.5414837164538403   -0.029014367938076407   -0.07023763836756994
0.5414837164538403   -0.029014367938076407   -0.07023763836756994
0.22922569818135738   0.009783671185383487   0.04305453065595461
0.22922569818135738   0.009783671185383487   0.04305453065595461
0.22922569818135738   0.009783671185383487   0.04305453065595461
0.22922569818135738   0.009783671185383487   0.04305453065595461
0.3552618201353864   -0.024410156521388393   -0.018775420344475467
0.3552618201353864   -0.024410156521388393   -0.018775420344475467
0.3552618201353864   -0.024410156521388393   -0.018775420344475467
0.3552618201353864   -0.024410156521388393   -0.018775420344475467
0.18665998862222763   -0.09827471251812259   -0.06171563343618805
0.18665998862222763   -0.09827471251812259   -0.06171563343618805
0.18665998862222763   -0.09827471251812259   -0.06171563343618805
0.18665998862222763   -0.09827471251812259   -0.06171563343618805
0.5876033768507322   0.08259796660319552   0.048748329075624694
0.5876033768507322   0.08259796660319552   0.048748329075624694
0.5876033768507322   0.08259796660319552   0.048748329075624694
0.5876033768507322   0.08259796660319552   0.048748329075624694
0.5710682346503743   -0.008438971651985955   -0.08424002960116034
0.5710682346503743   -0.008438971651985955   -0.08424002960116034
0.5710682346503743   -0.008438971651985955   -0.08424002960116034
0.5710682346503743   -0.008438971651985955   -0.08424002960116034
0.23704256931093637   0.024855464450831685   0.033573661322226125
0.23704256931093637   0.024855464450831685   0.033573661322226125
0.23704256931093637   0.024855464450831685   0.033573661322226125
0.23704256931093637   0.024855464450831685   0.033573661322226125
0.3851472974067455   -0.003662940913786189   -0.0022517702607104013
0.3851472974067455   -0.003662940913786189   -0.0022517702607104013
0.3851472974067455   -0.003662940913786189   -0.0022517702607104013
0.3851472974067455   -0.003662940913786189   -0.0022517702607104013
0.1948115090266066   -0.08115628832185724   -0.07156988732673379
0.1948115090266066   -0.08115628832185724   -0.07156988732673379
0.1948115090266066   -0.08115628832185724   -0.07156988732673379
0.1948115090266066   -0.08115628832185724   -0.07156988732673379
0.6170027959979028   0.10127628218389789   0.03571752330060601
0.6170027959979028   0.10127628218389789   0.03571752330060601
0.6170027959979028   0.10127628218389789   0.03571752330060601
0.6170027959979028   0.10127628218389789   0.03571752330060601
0.6164951615698655   0.036746192577344794   -0.0901776935842561
0.6164951615698655   0.036746192577344794   -0.0901776935842561
0.6164951615698655   0.036746192577344794   -0.0901776935842561
0.6164951615698655   0.036746192577344794   -0.0901776935842561
0.24504216739443302   0.0553478648521291   0.02667674573743683
0.24504216739443302   0.0553478648521291   0.02667674573743683
0.24504216739443302   0.0553478648521291   0.02667674573743683
0.24504216739443302   0.0553478648521291   0.02667674573743683
0.40005168810058117   0.019202845884143255   0.011968567151406477
0.40005168810058117   0.019202845884143255   0.011968567151406477
0.40005168810058117   0.019202845884143255   0.011968567151406477
0.40005168810058117   0.019202845884143255   0.011968567151406477
-0.7370390281455286   -0.012343840035784648   0.07198630228382867
-0.7370390281455286   -0.012343840035784648   0.07198630228382867
-0.7370390281455286   -0.012343840035784648   0.07198630228382867
-0.7370390281455286   -0.012343840035784648   0.07198630228382867
-0.5749568435209309   -0.07298590270608434   -0.0356105289676734
-0.5749568435209309   -0.07298590270608434   -0.0356105289676734
-0.5749568435209309   -0.07298590270608434   -0.0356105289676734
-0.5749568435209309   -0.07298590270608434   -0.0356105289676734
-0.5204353068818748   0.06183115341803033   0.061555020624508704
-0.5204353068818748   0.06183115341803033   0.061555020624508704
-0.5204353068818748   0.06183115341803033   0.061555020624508704
-0.5204353068818748   0.06183115341803033   0.061555020624508704
-0.7339285592128802   -0.07995027519983275   -0.048471637478135314
-0.7339285592128802   -0.07995027519983275   -0.048471637478135314
-0.7339285592128802   -0.07995027519983275   -0.048471637478135314
-0.7339285592128802   -0.07995027519983275   -0.048471637478135314
-0.6170369535152472   -0.016980232301316747   -0.009090842682476948
-0.6170369535152472   -0.016980232301316747   -0.009090842682476948
-0.6170369535152472   -0.016980232301316747   -0.009090842682476948
-0.6170369535152472   -0.016980232301316747   -0.009090842682476948
-0.6885588749067709   0.02965061454888765   0.06877589430369149
-0.6885588749067709   0.02965061454888765   0.06877589430369149
-0.6885588749067709   0.02965061454888765   0.06877589430369149
-0.6885588749067709   0.02965061454888765   0.06877589430369149
-0.5626523722596605   -0.04461711740235995   -0.043082035444021796
-0.5626523722596605   -0.04461711740235995   -0.043082035444021796
-0.5626523722596605   -0.04461711740235995   -0.043082035444021796
-0.5626523722596605   -0.04461711740235995   -0.043082035444021796
-0.5075263605641159   0.07786742913003417   0.05206353953723207
-0.5075263605641159   0.07786742913003417   0.05206353953723207
-0.5075263605641159   0.07786742913003417   0.05206353953723207
-0.5075263605641159   0.07786742913003417   0.05206353953723207
-0.7002391080227549   -0.061778135596472314   -0.06056026760933661
-0.7002391080227549   -0.061778135596472314   -0.06056026760933661
-0.7002391080227549   -0.061778135596472314   -0.06056026760933661
-0.7002391080227549   -0.061778135596472314   -0.06056026760933661
-0.5994256381917061   0.00400988257342344   0.004304157428163612
-0.5994256381917061   0.00400988257342344   0.004304157428163612
-0.5994256381917061   0.00400988257342344   0.004304157428163612
-0.5994256381917061   0.00400988257342344   0.004304157428163612
-0.6548355988786295   0.04910725171887259   0.0555718907959377
-0.6548355988786295   0.04910725171887259   0.0555718907959377
-0.6548355988786295   0.04910725171887259   0.0555718907959377
-0.6548355988786295   0.04910725171887259   0.0555718907959377
-0.549945868405651   -0.03003395688272105   -0.05213261365768418
-0.549945868405651   -0.03003395688272105   -0.05213261365768418
-0.549945868405651   -0.03003395688272105   -0.05213261365768418
-0.549945868405651   -0.03003395688272105   -0.05213261365768418
-0.4970709762349329   0.09783970062500671   0.04490216188408774
-0.4970709762349329   0.09783970062500671   0.04490216188408774
-0.4970709762349329   0.09783970062500671   0.04490216188408774
-0.4970709762349329   0.09783970062500671   0.04490216188408774
-0.6549785820632598   -0.03268522819420082   -0.07008429185774093
-0.6549785820632598   -0.03268522819420082   -0.07008429185774093
-0.6549785820632598   -0.03268522819420082   -0.07008429185774093
-0.6549785820632598   -0.03268522819420082   -0.07008429185774093
-0.5638819504789304   0.024706506894241143   0.02092342217954448
-0.5638819504789304   0.024706506894241143   0.02092342217954448
-0.5638819504789304   0.024706506894241143   0.02092342217954448
-0.5638819504789304   0.024706506894241143   0.02092342217954448
-0.5547967918671945   -0.04176055529075956   0.033964381885683695
-0.5547967918671945   -0.04176055529075956   0.033964381885683695
-0.5547967918671945   -0.04176055529075956   0.033964381885683695
-0.5547967918671945   -0.04176055529075956   0.033964381885683695
-0.4073531280757189   -0.05533641668533881   -0.010542961811366873
-0.4073531280757189   -0.05533641668533881   -0.010542961811366873
-0.4073531280757189   -0.05533641668533881   -0.010542961811366873
-0.4073531280757189   -0.05533641668533881   -0.010542961811366873
-0.376954317236317   0.02808836762074679   0.03146838910245307
-0.376954317236317   0.02808836762074679   0.03146838910245307
-0.376954317236317   0.02808836762074679   0.03146838910245307
-0.376954317236317   0.02808836762074679   0.03146838910245307
-0.5630012888582757   -0.05901791528794424   -0.030425820551514358
-0.5630012888582757   -0.05901791528794424   -0.030425820551514358
-0.5630012888582757   -0.05901791528794424   -0.030425820551514358
-0.5630012888582757   -0.05901791528794424   -0.030425820551514358
-0.4742141473532173   -0.0294832308991079   -0.01277526892950346
-0.4742141473532173   -0.0294832308991079   -0.01277526892950346
-0.4742141473532173   -0.0294832308991079   -0.01277526892950346
-0.4742141473532173   -0.0294832308991079   -0.01277526892950346
-0.5403525799138794   -0.005104167465627571   0.02890397634814359
-0.5403525799138794   -0.005104167465627571   0.02890397634814359
-0.5403525799138794   -0.005104167465627571   0.02890397634814359
-0.5403525799138794   -0.005104167465627571   0.02890397634814359
-0.39706031806602116   -0.023282672086883935   -0.01769057533843674
-0.39706031806602116   -0.023282672086883935   -0.01769057533843674
-0.39706031806602116   -0.023282672086883935   -0.01769057533843674
-0.39706031806602116   -0.023282672086883935   -0.01769057533843674
-0.365823101332952   0.06070689158248263   0.025169418889116543
-0.365823101332952   0.06070689158248263   0.025169418889116543
-0.365823101332952   0.06070689158248263   0.025169418889116543
-0.365823101332952   0.06070689158248263   0.025169418889116543
-0.546329145294644   -0.02765749034568006   -0.036425464639682534
-0.546329145294644   -0.02765749034568006   -0.036425464639682534
-0.546329145294644   -0.02765749034568006   -0.036425464639682534
-0.546329145294644   -0.02765749034568006   -0.036425464639682534
-0.45811755999158116   0.0019674940636448396   0.0013110681418215323
-0.45811755999158116   0.0019674940636448396   0.0013110681418215323
-0.45811755999158116   0.0019674940636448396   0.0013110681418215323
-0.45811755999158116   0.0019674940636448396   0.0013110681418215323
-0.5223511589202658   0.029607326387083216   0.026199650499433375
-0.5223511589202658   0.029607326387083216   0.026199650499433375
-0.5223511589202658   0.029607326387083216   0.026199650499433375
-0.5223511589202658   0.029607326387083216   0.026199650499433375
-0.3868656511163024   0.006377511440744582   -0.025713949885901
-0.3868656511163024   0.006377511440744582   -0.025713949885901
-0.3868656511163024   0.006377511440744582   -0.025713949885901
-0.3868656511163024   0.006377511440744582   -0.025713949885901
-0.3547273236848529   0.09611213099745841   0.019169922875495446
-0.3547273236848529   0.09611213099745841   0.019169922875495446
-0.3547273236848529   0.09611213099745841   0.019169922875495446
-0.3547273236848529   0.09611213099745841   0.019169922875495446
-0.5325666180221054   0.006594688148055278   -0.0413310345748198
-0.5325666180221054   0.006594688148055278   -0.0413310345748198
-0.5325666180221054   0.006594688148055278   -0.0413310345748198
-0.5325666180221054   0.006594688148055278   -0.0413310345748198
-0.4464773364799804   0.0327989032228726   0.015089180539830924
-0.4464773364799804   0.0327989032228726   0.015089180539830924
-0.4464773364799804   0.0327989032228726   0.015089180539830924
-0.4464773364799804   0.0327989032228726   0.015089180539830924
-0.4068639769140542   -0.06941867194262183   0.005985049254231907
-0.4068639769140542   -0.06941867194262183   0.005985049254231907
-0.4068639769140542   -0.06941867194262183   0.005985049254231907
-0.4068639769140542   -0.06941867194262183   0.005985049254231907
-0.24200837485097168   -0.02920086719932963   0.014945968571454624
-0.24200837485097168   -0.02920086719932963   0.014945968571454624
-0.24200837485097168   -0.02920086719932963   0.014945968571454624
-0.24200837485097168   -0.02920086719932963   0.014945968571454624
-0.23372294812156388   -0.0006283463941121684   0.0019280733229327923
-0.23372294812156388   -0.0006283463941121684   0.0019280733229327923
-0.23372294812156388   -0.0006283463941121684   0.0019280733229327923
-0.23372294812156388   -0.0006283463941121684   0.0019280733229327923
-0.395900797779979   -0.03165869464996597   -0.0035169513451443306
-0.395900797779979   -0.03165869464996597   -0.0035169513451443306
-0.395900797779979   -0.03165869464996597   -0.0035169513451443306
-0.395900797779979   -0.03165869464996597   -0.0035169513451443306
-0.32013253409261766   -0.03119581360732205   -0.009303831293174783
-0.32013253409261766   -0.03119581360732205   -0.009303831293174783
-0.32013253409261766   -0.03119581360732205   -0.009303831293174783
-0.32013253409261766   -0.03119581360732205   -0.009303831293174783
-0.39542760692194506   -0.03326402596646954   0.0004543342615271114
-0.39542760692194506   -0.03326402596646954   0.0004543342615271114
-0.39542760692194506   -0.03326402596646954   0.0004543342615271114
-0.39542760692194506   -0.03326402596646954   0.0004543342615271114
-0.23166744934908334   0.0035056745529055827   0.008071546238317736
-0.23166744934908334   0.0035056745529055827   0.008071546238317736
-0.23166744934908334   0.0035056745529055827   0.008071546238317736
-0.23166744934908334   0.0035056745529055827   0.008071546238317736
-0.22163184346568873   0.035845989784967155   -0.00321835989605224
-0.22163184346568873   0.035845989784967155   -0.00321835989605224
-0.22163184346568873   0.035845989784967155   -0.00321835989605224
-0.22163184346568873   0.035845989784967155   -0.00321835989605224
-0.384749218374685   0.0015146218714361115   -0.010268896608505503
-0.384749218374685   0.0015146218714361115   -0.010268896608505503
-0.384749218374685   0.0015146218714361115   -0.010268896608505503
-0.384749218374685   0.0015146218714361115   -0.010268896608505503
-0.30737853621350636   0.0015963635863652098   0.00435704505630969
-0.30737853621350636   0.0015963635863652098   0.00435704505630969
-0.30737853621350636   0.0015963635863652098   0.00435704505630969
-0.30737853621350636   0.0015963635863652098   0.00435704505630969
-0.38341235051077543   0.0030996443930459416   -0.005169579810571558
-0.38341235051077543   0.0030996443930459416   -0.005169579810571558
-0.38341235051077543   0.0030996443930459416   -0.005169579810571558
-0.38341235051077543   0.0030996443930459416   -0.005169579810571558
-0.22068185778506333   0.03654782080789189   0.0008297374841517505
-0.22068185778506333   0.03654782080789189   0.0008297374841517505
-0.22068185778506333   0.03654782080789189   0.0008297374841517505
-0.22068185778506333   0.03654782080789189   0.0008297374841517505
-0.21021139252340215   0.07265489457304886   -0.009088448472798938
-0.21021139252340215   0.07265489457304886   -0.009088448472798938
-0.21021139252340215   0.07265489457304886   -0.009088448472798938
-0.21021139252340215   0.07265489457304886   -0.009088448472798938
-0.3742921988962705   0.034943699621591176   -0.01748602180572531
-0.3742921988962705   0.034943699621591176   -0.01748602180572531
-0.3742921988962705   0.034943699621591176   -0.01748602180572531
-0.3742921988962705   0.034943699621591176   -0.01748602180572531
-0.2953149683099088   0.034506323873223985   0.017468087074562984
-0.2953149683099088   0.034506323873223985   0.017468087074562984
-0.2953149683099088   0.034506323873223985   0.017468087074562984
-0.2953149683099088   0.034506323873223985   0.017468087074562984
-0.2623071244382912   -0.0934046282524054   -0.02234401831207131
-0.2623071244382912   -0.0934046282524054   -0.02234401831207131
-0.2623071244382912   -0.0934046282524054   -0.02234401831207131
-0.2623071244382912   -0.0934046282524054   -0.02234401831207131
-0.08131766616457514   -0.0014513677611702504   0.039186477922736634
-0.08131766616457514   -0.0014513677611702504   0.039186477922736634
-0.08131766616457514   -0.0014513677611702504   0.039186477922736634
-0.08131766616457514   -0.0014513677611702504   0.039186477922736634
-0.09243645867340303   -0.02777280021711199   -0.028789194995496557
-0.09243645867340303   -0.02777280021711199   -0.028789194995496557
-0.09243645867340303   -0.02777280021711199   -0.028789194995496557
-0.09243645867340303   -0.02777280021711199   -0.028789194995496557
-0.23020936797053676   -0.003565263086211072   0.022432890770165317
-0.23020936797053676   -0.003565263086211072   0.022432890770165317
-0.23020936797053676   -0.003565263086211072   0.022432890770165317
-0.23020936797053676   -0.003565263086211072   0.022432890770165317
-0.16653685474800553   -0.030172104770561727   -0.00671444152734157
-0.16653685474800553   -0.030172104770561727   -0.00671444152734157
-0.16653685474800553   -0.030172104770561727   -0.00671444152734157
-0.16653685474800553   -0.030172104770561727   -0.00671444152734157
-0.2515334535201526   -0.05948743350015664   -0.028265366563970162
-0.2515334535201526   -0.05948743350015664   -0.028265366563970162
-0.2515334535201526   -0.05948743350015664   -0.028265366563970162
-0.2515334535201526   -0.05948743350015664   -0.028265366563970162
-0.06827909090348054   0.03098265241714022   0.033242191219865554
-0.06827909090348054   0.03098265241714022   0.033242191219865554
-0.06827909090348054   0.03098265241714022   0.033242191219865554
-0.06827909090348054   0.03098265241714022   0.033242191219865554
-0.07475232043808241   0.006730949503979414   -0.03241021961694847
-0.07475232043808241   0.006730949503979414   -0.03241021961694847
-0.07475232043808241   0.006730949503979414   -0.03241021961694847
-0.07475232043808241   0.006730949503979414   -0.03241021961694847
-0.21992039626414503   0.026220869959924654   0.01496399593670883
-0.21992039626414503   0.026220869959924654   0.01496399593670883
-0.21992039626414503   0.026220869959924654   0.01496399593670883
-0.21992039626414503   0.026220869959924654   0.01496399593670883
-0.15296822612664088   0.0003703507050568447   0.007207683288607257
-0.15296822612664088   0.0003703507050568447   0.007207683288607257
-0.15296822612664088   0.0003703507050568447   0.007207683288607257
-0.15296822612664088   0.0003703507050568447   0.007207683288607257
-0.2405675469837852   -0.026966857851737955   -0.03508402984983252
-0.2405675469837852   -0.026966857851737955   -0.03508402984983252
-0.2405675469837852   -0.026966857851737955   -0.03508402984983252
-0.2405675469837852   -0.026966857851737955   -0.03508402984983252
-0.051467671300395854   0.06255617573369332   0.028187799841772346
-0.051467671300395854   0.06255617573369332   0.028187799841772346
-0.051467671300395854   0.06255617573369332   0.028187799841772346
-0.051467671300395854   0.06255617573369332   0.028187799841772346
-0.05979399432561276   0.045260170575476696   -0.036308025461902815
-0.05979399432561276   0.045260170575476696   -0.036308025461902815
-0.05979399432561276   0.045260170575476696   -0.036308025461902815
-0.05979399432561276   0.045260170575476696   -0.036308025461902815
-0.20938721628585794   0.05992352138796384   0.00776380590000722
-0.20938721628585794   0.05992352138796384   0.00776380590000722
-0.20938721628585794   0.05992352138796384   0.00776380590000722
-0.20938721628585794   0.05992352138796384   0.00776380590000722
-0.13892446526496022   0.03220630857464911   0.02113112418734161
-0.13892446526496022   0.03220630857464911   0.02113112418734161
-0.13892446526496022   0.03220630857464911   0.02113112418734161
-0.13892446526496022   0.03220630857464911   0.02113112418734161
-0.11866685464667526   -0.10044176508517293   -0.04856906716376319
-0.11866685464667526   -0.10044176508517293   -0.04856906716376319
-0.11866685464667526   -0.10044176508517293   -0.04856906716376319
-0.11866685464667526   -0.10044176508517293   -0.04856906716376319
0.039997856023437   0.029674108019008244   0.059759784439326405
0.039997856023437   0.029674108019008244   0.059759784439326405
0.039997856023437   0.029674108019008244   0.059759784439326405
0.039997856023437   0.029674108019008244   0.059759784439326405
0.040292787477764956   -0.04947721802604797   -0.06431700469762557
0.040292787477764956   -0.04947721802604797   -0.06431700469762557
0.040292787477764956   -0.04947721802604797   -0.06431700469762557
0.040292787477764956   -0.04947721802604797   -0.06431700469762557
-0.06514251534749085   0.03099661648213723   0.04891110493481498
-0.06514251534749085   0.03099661648213723   0.04891110493481498
-0.06514251534749085   0.03099661648213723   0.04891110493481498
-0.06514251534749085   0.03099661648213723   0.04891110493481498
-0.02718135136471066   -0.021329436343385886   -0.011359396369061674
-0.02718135136471066   -0.021329436343385886   -0.011359396369061674
-0.02718135136471066   -0.021329436343385886   -0.011359396369061674
-0.02718135136471066   -0.021329436343385886   -0.011359396369061674
-0.10777071070436874   -0.07739430649703116   -0.05583894887040785
-0.10777071070436874   -0.07739430649703116   -0.05583894887040785
-0.10777071070436874   -0.07739430649703116   -0.05583894887040785
-0.10777071070436874   -0.07739430649703116   -0.05583894887040785
0.0859499454942409   0.061942667612723296   0.05254889974598286
0.0859499454942409   0.061942667612723296   0.05254889974598286
0.0859499454942409   0.061942667612723296   0.05254889974598286
0.0859499454942409   0.061942667612723296   0.05254889974598286
0.07415607852963446   -0.029717407033045682   -0.07640420531584348
0.07415607852963446   -0.029717407033045682   -0.07640420531584348
0.07415607852963446   -0.029717407033045682   -0.07640420531584348
0.07415607852963446   -0.029717407033045682   -0.07640420531584348
-0.052704004974588374   0.04533469106857263   0.03922761613593047
-0.052704004974588374   0.04533469106857263   0.03922761613593047
-0.052704004974588374   0.04533469106857263   0.03922761613593047
-0.052704004974588374   0.04533469106857263   0.03922761613593047
0.0006587008295095922   -0.0009983557745847432   0.0037269629708153095
0.0006587008295095922   -0.0009983557745847432   0.0037269629708153095
0.0006587008295095922   -0.0009983557745847432   0.0037269629708153095
0.0006587008295095922   -0.0009983557745847432   0.0037269629708153095
-0.09475969668045385   -0.061135792730716586   -0.06458035859410968
-0.09475969668045385   -0.061135792730716586   -0.06458035859410968
-0.09475969668045385   -0.061135792730716586   -0.06458035859410968
-0.09475969668045385   -0.061135792730716586   -0.06458035859410968
0.1192436937881386   0.07978500031887675   0.03953146362475476
0.1192436937881386   0.07978500031887675   0.03953146362475476
0.1192436937881386   0.07978500031887675   0.03953146362475476
0.1192436937881386   0.07978500031887675   0.03953146362475476
0.12161427087403438   0.008962342467054749   -0.08182296966753629
0.12161427087403438   0.008962342467054749   -0.08182296966753629
0.12161427087403438   0.008962342467054749   -0.08182296966753629
0.12161427087403438   0.008962342467054749   -0.08182296966753629
-0.041084032103746324   0.07062388640711874   0.031878069815787335
-0.041084032103746324   0.07062388640711874   0.031878069815787335
-0.041084032103746324   0.07062388640711874   0.031878069815787335
-0.041084032103746324   0.07062388640711874   0.031878069815787335
0.025749039132258837   0.020361983091757643   0.018474560799385493
0.025749039132258837   0.020361983091757643   0.018474560799385493
0.025749039132258837   0.020361983091757643   0.018474560799385493
0.025749039132258837   0.020361983091757643   0.018474560799385493
-0.24410726476426547   0.013961098051139868   0.06827489606178218
-0.24410726476426547   0.013961098051139868   0.06827489606178218
-0.24410726476426547   0.013961098051139868   0.06827489606178218
-0.24410726476426547   0.013961098051139868   0.06827489606178218
-0.29026143510254643   -0.08900256373611312   -0.04023489759049917
-0.29026143510254643   -0.08900256373611312   -0.04023489759049917
-0.29026143510254643   -0.08900256373611312   -0.04023489759049917
-0.29026143510254643   -0.08900256373611312   -0.04023489759049917
-0.23173748583217546   0.04136288707728561   0.055903100526751674
-0.23173748583217546   0.04136288707728561   0.055903100526751674
-0.23173748583217546   0.04136288707728561   0.055903100526751674
-0.23173748583217546   0.04136288707728561   0.055903100526751674
-0.23704803711496494   -0.05852256630533526   -0.051849678709010534
-0.23704803711496494   -0.05852256630533526   -0.051849678709010534
-0.23704803711496494   -0.05852256630533526   -0.051849678709010534
-0.23704803711496494   -0.05852256630533526   -0.051849678709010534
-0.24445060609970803   -0.018802599647220655   -0.018678205567957996
-0.24445060609970803   -0.018802599647220655   -0.018678205567957996
-0.24445060609970803   -0.018802599647220655   -0.018678205567957996
-0.24445060609970803   -0.018802599647220655   -0.018678205567957996
-0.19208927977652715   0.050830180432193346   0.06359136124564208
-0.19208927977652715   0.050830180432193346   0.06359136124564208
-0.19208927977652715   0.050830180432193346   0.06359136124564208
-0.19208927977652715   0.050830180432193346   0.06359136124564208
-0.27387827643957185   -0.06517189292920293   -0.0482660725037419
-0.27387827643957185   -0.06517189292920293   -0.0482660725037419
-0.27387827643957185   -0.06517189292920293   -0.0482660725037419
-0.27387827643957185   -0.06517189292920293   -0.0482660725037419
-0.21368619789604057   0.0570535672214235   0.04704533635345886
-0.21368619789604057   0.0570535672214235   0.04704533635345886
-0.21368619789604057   0.0570535672214235   0.04704533635345886
-0.21368619789604057   0.0570535672214235   0.04704533635345886
-0.19836799980054726   -0.040790059283312495   -0.06458640765455378
-0.19836799980054726   -0.040790059283312495   -0.06458640765455378
-0.19836799980054726   -0.040790059283312495   -0.06458640765455378
-0.19836799980054726   -0.040790059283312495   -0.06458640765455378
-0.21591535482383678   0.0012439551968674786   -0.0038895042280947603
-0.21591535482383678   0.0012439551968674786   -0.0038895042280947603
-0.21591535482383678   0.0012439551968674786   -0.0038895042280947603
-0.21591535482383678   0.0012439551968674786   -0.0038895042280947603
-0.15315017109116824   0.06991186719459327   0.05080080941443542
-0.15315017109116824   0.06991186719459327   0.05080080941443542
-0.15315017109116824   0.06991186719459327   0.05080080941443542
-0.15315017109116824   0.06991186719459327   0.05080080941443542
-0.256246699076455   -0.05099103172751254   -0.05771257059967704
-0.256246699076455   -0.05099103172751254   -0.05771257059967704
-0.256246699076455   -0.05099103172751254   -0.05771257059967704
-0.256246699076455   -0.05099103172751254   -0.05771257059967704
-0.19717210708036625   0.08101949080282236   0.04063282814448144
-0.19717210708036625   0.08101949080282236   0.04063282814448144
-0.19717210708036625   0.08101949080282236   0.04063282814448144
-0.19717210708036625   0.08101949080282236   0.04063282814448144
-0.14673707692700172   -0.007083075390240556   -0.07275779305394542
-0.14673707692700172   -0.007083075390240556   -0.07275779305394542
-0.14673707692700172   -0.007083075390240556   -0.07275779305394542
-0.14673707692700172   -0.007083075390240556   -0.07275779305394542
-0.1816103720426208   0.022189202287768765   0.011943731298462306
-0.1816103720426208   0.022189202287768765   0.011943731298462306
-0.1816103720426208   0.022189202287768765   0.011943731298462306
-0.1816103720426208   0.022189202287768765   0.011943731298462306
-0.2598430416053005   -0.01596242149754984   0.038816927657159585
-0.2598430416053005   -0.01596242149754984   0.038816927657159585
-0.2598430416053005   -0.01596242149754984   0.038816927657159585
-0.2598430416053005   -0.01596242149754984   0.038816927657159585
-0.3225991980409003   -0.0725988422198064   -0.0157196989997479
-0.3225991980409003   -0.0725988422198064   -0.0157196989997479
-0.3225991980409003   -0.0725988422198064   -0.0157196989997479
-0.3225991980409003   -0.0725988422198064   -0.0157196989997479
-0.2876044837334979   0.007334812423065849   0.025941012878758257
-0.2876044837334979   0.007334812423065849   0.025941012878758257
-0.2876044837334979   0.007334812423065849   0.025941012878758257
-0.2876044837334979   0.007334812423065849   0.025941012878758257
-0.26280944320574523   -0.03429151066657607   -0.023802288597231516
-0.26280944320574523   -0.03429151066657607   -0.023802288597231516
-0.26280944320574523   -0.03429151066657607   -0.023802288597231516
-0.26280944320574523   -0.03429151066657607   -0.023802288597231516
-0.2834165232521755   -0.026665611686681953   -0.013145273725905814
-0.2834165232521755   -0.026665611686681953   -0.013145273725905814
-0.2834165232521755   -0.026665611686681953   -0.013145273725905814
-0.2834165232521755   -0.026665611686681953   -0.013145273725905814
-0.24075649009153766   0.018292001530959577   0.03387896477626666
-0.24075649009153766   0.018292001530959577   0.03387896477626666
-0.24075649009153766   0.018292001530959577   0.03387896477626666
-0.24075649009153766   0.018292001530959577   0.03387896477626666
-0.3074502624563191   -0.04304152538308441   -0.022911542929199318
-0.3074502624563191   -0.04304152538308441   -0.022911542929199318
-0.3074502624563191   -0.04304152538308441   -0.022911542929199318
-0.3074502624563191   -0.04304152538308441   -0.022911542929199318
-0.27148632897862923   0.0385544971091074   0.019791656318239908
-0.27148632897862923   0.0385544971091074   0.019791656318239908
-0.27148632897862923   0.0385544971091074   0.019791656318239908
-0.27148632897862923   0.0385544971091074   0.019791656318239908
-0.24125524408672522   -0.004199366609340796   -0.029546960769200152
-0.24125524408672522   -0.004199366609340796   -0.029546960769200152
-0.24125524408672522   -0.004199366609340796   -0.029546960769200152
-0.24125524408672522   -0.004199366609340796   -0.029546960769200152
-0.2641625565419322   0.002468394951767948   0.0005052348483263313
-0.2641625565419322   0.002468394951767948   0.0005052348483263313
-0.2641625565419322   0.002468394951767948   0.0005052348483263313
-0.2641625565419322   0.002468394951767948   0.0005052348483263313
-0.21812975872302576   0.051369749820476165   0.030511349619480304
-0.21812975872302576   0.051369749820476165   0.030511349619480304
-0.21812975872302576   0.051369749820476165   0.030511349619480304
-0.21812975872302576   0.051369749820476165   0.030511349619480304
-0.2922591476513722   -0.014661952629753706   -0.030855987306617733
-0.2922591476513722   -0.014661952629753706   -0.030855987306617733
-0.2922591476513722   -0.014661952629753706   -0.030855987306617733
-0.2922591476513722   -0.014661952629753706   -0.030855987306617733
-0.25528993147047413   0.07310559450455066   0.013946810656025863
-0.25528993147047413   0.07310559450455066   0.013946810656025863
-0.25528993147047413   0.07310559450455066   0.013946810656025863
-0.25528993147047413   0.07310559450455066   0.013946810656025863
-0.22265481603404508   0.02919563485384158   -0.03495686067492424
-0.22265481603404508   0.02919563485384158   -0.03495686067492424
-0.22265481603404508   0.02919563485384158   -0.03495686067492424
-0.22265481603404508   0.02919563485384158   -0.03495686067492424
-0.2459594879619497   0.032551711757606266   0.014397311969209906
-0.2459594879619497   0.032551711757606266   0.014397311969209906
-0.2459594879619497   0.032551711757606266   0.014397311969209906
-0.2459594879619497   0.032551711757606266   0.014397311969209906
-0.31153761055292867   -0.0439150240082984   0.010904420228598489
-0.31153761055292867   -0.0439150240082984   0.010904420228598489
-0.31153761055292867   -0.0439150240082984   0.010904420228598489
-0.31153761055292867   -0.0439150240082984   0.010904420228598489
-0.3548327930406463   -0.0458366374481413   0.00950842632257844
-0.3548327930406463   -0.0458366374481413   0.00950842632257844
-0.3548327930406463   -0.0458366374481413   0.00950842632257844
-0.3548327930406463   -0.0458366374481413   0.00950842632257844
-0.3419157152078785   -0.020830576123474255   -0.003361441284755665
-0.3419157152078785   -0.020830576123474255   -0.003361441284755665
-0.3419157152078785   -0.020830576123474255   -0.003361441284755665
-0.3419157152078785   -0.020830576123474255   -0.003361441284755665
-0.2948829214500384   -0.006216406702722006   0.003100043421841352
-0.2948829214500384   -0.006216406702722006   0.003100043421841352
-0.2948829214500384   -0.006216406702722006   0.003100043421841352
-0.2948829214500384   -0.006216406702722006   0.003100043421841352
-0.3262809155481715   -0.027544339449459734   -0.008722868186638089
-0.3262809155481715   -0.027544339449459734   -0.008722868186638089
-0.3262809155481715   -0.027544339449459734   -0.008722868186638089
-0.3262809155481715   -0.027544339449459734   -0.008722868186638089
-0.29512103258562294   -0.00971727927818937   0.0054103603193825685
-0.29512103258562294   -0.00971727927818937   0.0054103603193825685
-0.29512103258562294   -0.00971727927818937   0.0054103603193825685
-0.29512103258562294   -0.00971727927818937   0.0054103603193825685
-0.33959658933932324   -0.015248688815031185   0.002652300749580271
-0.33959658933932324   -0.015248688815031185   0.002652300749580271
-0.33959658933932324   -0.015248688815031185   0.002652300749580271
-0.33959658933932324   -0.015248688815031185   0.002652300749580271
-0.32498423598856907   0.01381542548991882   -0.00852986090217715
-0.32498423598856907   0.01381542548991882   -0.00852986090217715
-0.32498423598856907   0.01381542548991882   -0.00852986090217715
-0.32498423598856907   0.01381542548991882   -0.00852986090217715
-0.2788191207580235   0.02521600336941604   -0.0035338088390401076
-0.2788191207580235   0.02521600336941604   -0.0035338088390401076
-0.2788191207580235   0.02521600336941604   -0.0035338088390401076
-0.2788191207580235   0.02521600336941604   -0.0035338088390401076
-0.3085930266977437   0.0034257534518815774   0.004754554683060047
-0.3085930266977437   0.0034257534518815774   0.004754554683060047
-0.3085930266977437   0.0034257534518815774   0.004754554683060047
-0.3085930266977437   0.0034257534518815774   0.004754554683060047
-0.27825564326086305   0.024805860515947076   -0.0003062784997726331
-0.27825564326086305   0.024805860515947076   -0.0003062784997726331
-0.27825564326086305   0.024805860515947076   -0.0003062784997726331
-0.27825564326086305   0.024805860515947076   -0.0003062784997726331
-0.3237324667723605   0.01604081505676133   -0.004496404387976646
-0.3237324667723605   0.01604081505676133   -0.004496404387976646
-0.3237324667723605   0.01604081505676133   -0.004496404387976646
-0.3237324667723605   0.01604081505676133   -0.004496404387976646
-0.30877195048971146   0.04867227564622584   -0.014363390089111076
-0.30877195048971146   0.04867227564622584   -0.014363390089111076
-0.30877195048971146   0.04867227564622584   -0.014363390089111076
-0.30877195048971146   0.04867227564622584   -0.014363390089111076
-0.2635086031487033   0.05677711220797149   -0.010818065438538915
-0.2635086031487033   0.05677711220797149   -0.010818065438538915
-0.2635086031487033   0.05677711220797149   -0.010818065438538915
-0.2635086031487033   0.05677711220797149   -0.010818065438538915
-0.29172318596332286   0.03445247071907051   0.01760131036744173
-0.29172318596332286   0.03445247071907051   0.01760131036744173
-0.29172318596332286   0.03445247071907051   0.01760131036744173
-0.29172318596332286   0.03445247071907051   0.01760131036744173
-0.36502942122039383   -0.06957773730145217   -0.017733614722854313
-0.36502942122039383   -0.06957773730145217   -0.017733614722854313
-0.36502942122039383   -0.06957773730145217   -0.017733614722854313
-0.36502942122039383   -0.06957773730145217   -0.017733614722854313
-0.3898123760186506   -0.01962593054333677   0.03361813809588868
-0.3898123760186506   -0.01962593054333677   0.03361813809588868
-0.3898123760186506   -0.01962593054333677   0.03361813809588868
-0.3898123760186506   -0.01962593054333677   0.03361813809588868
-0.39608864938909716   -0.047836652664523915   -0.03304477570283851
-0.39608864938909716   -0.047836652664523915   -0.03304477570283851
-0.39608864938909716   -0.047836652664523915   -0.03304477570283851
-0.39608864938909716   -0.047836652664523915   -0.03304477570283851
-0.3272335693900882   0.0208525942820027   0.02836611739871886
-0.3272335693900882   0.0208525942820027   0.02836611739871886
-0.3272335693900882   0.0208525942820027   0.02836611739871886
-0.3272335693900882   0.0208525942820027   0.02836611739871886
-0.368005348333658   -0.02716713087709989   -0.0054820512817100285
-0.368005348333658   -0.02716713087709989   -0.0054820512817100285
-0.368005348333658   -0.02716713087709989   -0.0054820512817100285
-0.368005348333658   -0.02716713087709989   -0.0054820512817100285
-0.34905980926486435   -0.03650368919811839   -0.023408798495043646
-0.34905980926486435   -0.03650368919811839   -0.023408798495043646
-0.34905980926486435   -0.03650368919811839   -0.023408798495043646
-0.34905980926486435   -0.03650368919811839   -0.023408798495043646
-0.37208036549276724   0.011701674837150441   0.02745831627713667
-0.37208036549276724   0.011701674837150441   0.02745831627713667
-0.37208036549276724   0.011701674837150441   0.02745831627713667
-0.37208036549276724   0.011701674837150441   0.02745831627713667
-0.3738998612657713   -0.014982834265569275   -0.0370750601891345
-0.3738998612657713   -0.014982834265569275   -0.0370750601891345
-0.3738998612657713   -0.014982834265569275   -0.0370750601891345
-0.3738998612657713   -0.014982834265569275   -0.0370750601891345
-0.31198811411406346   0.04920203366885764   0.02106414029140922
-0.31198811411406346   0.04920203366885764   0.02106414029140922
-0.31198811411406346   0.04920203366885764   0.02106414029140922
-0.31198811411406346   0.04920203366885764   0.02106414029140922
-0.34790857405353426   0.0026569149478683635   0.008429791978103618
-0.34790857405353426   0.0026569149478683635   0.008429791978103618
-0.34790857405353426   0.0026569149478683635   0.008429791978103618
-0.34790857405353426   0.0026569149478683635   0.008429791978103618
-0.3331379724220723   -0.005426723312460538   -0.030056394267320524
-0.3331379724220723   -0.005426723312460538   -0.030056394267320524
-0.3331379724220723   -0.005426723312460538   -0.030056394267320524
-0.3331379724220723   -0.005426723312460538   -0.030056394267320524
-0.35054479302457603   0.041851132648940484   0.022866314102335927
-0.35054479302457603   0.041851132648940484   0.022866314102335927
-0.35054479302457603   0.041851132648940484   0.022866314102335927
-0.35054479302457603   0.041851132648940484   0.022866314102335927
-0.3544828352563115   0.02121494041108521   -0.04068348001393241
-0.3544828352563115   0.02121494041108521   -0.04068348001393241
-0.3544828352563115   0.02121494041108521   -0.04068348001393241
-0.3544828352563115   0.02121494041108521   -0.04068348001393241
-0.29670067542424294   0.08080289167846857   0.013862369205988705
-0.29670067542424294   0.08080289167846857   0.013862369205988705
-0.29670067542424294   0.08080289167846857   0.013862369205988705
-0.29670067542424294   0.08080289167846857   0.013862369205988705
-0.33083936971380246   0.03225383582405239   0.0217323949010195
-0.33083936971380246   0.03225383582405239   0.0217323949010195
-0.33083936971380246   0.03225383582405239   0.0217323949010195
-0.33083936971380246   0.03225383582405239   0.0217323949010195
-0.4180501126339712   -0.08277228142095873   -0.04442419410310027
-0.4180501126339712   -0.08277228142095873   -0.04442419410310027
-0.4180501126339712   -0.08277228142095873   -0.04442419410310027
-0.4180501126339712   -0.08277228142095873   -0.04442419410310027
-0.46237656485708667   0.006380652506996723   0.06048517221287458
-0.46237656485708667   0.006380652506996723   0.06048517221287458
-0.46237656485708667   0.006380652506996723   0.06048517221287458
-0.46237656485708667   0.006380652506996723   0.06048517221287458
-0.45615823361418373   -0.06882291580892105   -0.0591708382537836
-0.45615823361418373   -0.06882291580892105   -0.0591708382537836
-0.45615823361418373   -0.06882291580892105   -0.0591708382537836
-0.45615823361418373   -0.06882291580892105   -0.0591708382537836
-0.3586320808890417   0.05218502575203003   0.05421638838088303
-0.3586320808890417   0.05218502575203003   0.05421638838088303
-0.3586320808890417   0.05218502575203003   0.05421638838088303
-0.3586320808890417   0.05218502575203003   0.05421638838088303
-0.40682089726456533   -0.01778215528409613   -0.002711111348395495
-0.40682089726456533   -0.01778215528409613   -0.002711111348395495
-0.40682089726456533   -0.01778215528409613   -0.002711111348395495
-0.40682089726456533   -0.01778215528409613   -0.002711111348395495
-0.40130696593908016   -0.056177580705500184   -0.05079543041178284
-0.40130696593908016   -0.056177580705500184   -0.05079543041178284
-0.40130696593908016   -0.056177580705500184   -0.05079543041178284
-0.40130696593908016   -0.056177580705500184   -0.05079543041178284
-0.41117674280507244   0.041846296407680755   0.055067403575167324
-0.41117674280507244   0.041846296407680755   0.055067403575167324
-0.41117674280507244   0.041846296407680755   0.055067403575167324
-0.41117674280507244   0.041846296407680755   0.055067403575167324
-0.41783718013252324   -0.04964258226103072   -0.07052557535412077
-0.41783718013252324   -0.04964258226103072   -0.07052557535412077
-0.41783718013252324   -0.04964258226103072   -0.07052557535412077
-0.41783718013252324   -0.04964258226103072   -0.07052557535412077
-0.34147367392068184   0.0656947688721832   0.044378273398560306
-0.34147367392068184   0.0656947688721832   0.044378273398560306
-0.34147367392068184   0.0656947688721832   0.044378273398560306
-0.34147367392068184   0.0656947688721832   0.044378273398560306
-0.3808824780541075   0.0022629280763514226   0.01063747953211349
-0.3808824780541075   0.0022629280763514226   0.01063747953211349
-0.3808824780541075   0.0022629280763514226   0.01063747953211349
-0.3808824780541075   0.0022629280763514226   0.01063747953211349
-0.3833202949188637   -0.04038841890959017   -0.058771643810577534
-0.3833202949188637   -0.04038841890959017   -0.058771643810577534
-0.3833202949188637   -0.04038841890959017   -0.058771643810577534
-0.3833202949188637   -0.04038841890959017   -0.058771643810577534
-0.37357316910333394   0.05885799555174978   0.042293901979045284
-0.37357316910333394   0.05885799555174978   0.042293901979045284
-0.37357316910333394   0.05885799555174978   0.042293901979045284
-0.37357316910333394   0.05885799555174978   0.042293901979045284
-0.36754035099329496   -0.016457771263551996   -0.0770738996480177
-0.36754035099329496   -0.016457771263551996   -0.0770738996480177
-0.36754035099329496   -0.016457771263551996   -0.0770738996480177
-0.36754035099329496   -0.016457771263551996   -0.0770738996480177
-0.326108144957209   0.0858512455888649   0.0365536663037946
-0.326108144957209   0.0858512455888649   0.0365536663037946
-0.326108144957209   0.0858512455888649   0.0365536663037946
-0.326108144957209   0.0858512455888649   0.0365536663037946
-0.3454008807663664   0.02229176755004307   0.026090868940213074
-0.3454008807663664   0.02229176755004307   0.026090868940213074
-0.3454008807663664   0.02229176755004307   0.026090868940213074
-0.3454008807663664   0.02229176755004307   0.026090868940213074
0.2529775339209664   0.04090020764431661   0.06603999028810609
0.2529775339209664   0.04090020764431661   0.06603999028810609
0.2529775339209664   0.04090020764431661   0.06603999028810609
0.2529775339209664   0.04090020764431661   0.06603999028810609
-0.006121613597387658   -0.10613229073733083   -0.0436153642880718
-0.006121613597387658   -0.10613229073733083   -0.0436153642880718
-0.006121613597387658   -0.10613229073733083   -0.0436153642880718
-0.006121613597387658   -0.10613229073733083   -0.0436153642880718
0.05630045071130957   0.020721526526694595   0.05102229762483357
0.05630045071130957   0.020721526526694595   0.05102229762483357
0.05630045071130957   0.020721526526694595   0.05102229762483357
0.05630045071130957   0.020721526526694595   0.05102229762483357
0.2639335097343761   -0.03718328052954228   -0.05458947847489733
0.2639335097343761   -0.03718328052954228   -0.05458947847489733
0.2639335097343761   -0.03718328052954228   -0.05458947847489733
0.2639335097343761   -0.03718328052954228   -0.05458947847489733
0.12909404822039186   -0.02062118099055776   -0.031458130536127504
0.12909404822039186   -0.02062118099055776   -0.031458130536127504
0.12909404822039186   -0.02062118099055776   -0.031458130536127504
0.12909404822039186   -0.02062118099055776   -0.031458130536127504
0.30879289643409435   0.07293365920426258   0.05959051528988877
0.30879289643409435   0.07293365920426258   0.05959051528988877
0.30879289643409435   0.07293365920426258   0.05959051528988877
0.30879289643409435   0.07293365920426258   0.05959051528988877
0.014199820107381009   -0.08663665711132   -0.052122671756790834
0.014199820107381009   -0.08663665711132   -0.052122671756790834
0.014199820107381009   -0.08663665711132   -0.052122671756790834
0.014199820107381009   -0.08663665711132   -0.052122671756790834
0.07906300019094252   0.03612993179951706   0.0425825477681042
0.07906300019094252   0.03612993179951706   0.0425825477681042
0.07906300019094252   0.03612993179951706   0.0425825477681042
0.07906300019094252   0.03612993179951706   0.0425825477681042
0.3075142726942558   -0.019776758881169712   -0.06829410210501714
0.3075142726942558   -0.019776758881169712   -0.06829410210501714
0.3075142726942558   -0.019776758881169712   -0.06829410210501714
0.3075142726942558   -0.019776758881169712   -0.06829410210501714
0.16842082868738678   -0.001409785957924868   -0.014784734463778697
0.16842082868738678   -0.001409785957924868   -0.014784734463778697
0.16842082868738678   -0.001409785957924868   -0.014784734463778697
0.16842082868738678   -0.001409785957924868   -0.014784734463778697
0.3528668997731065   0.09176054753661862   0.04693172687144805
0.3528668997731065   0.09176054753661862   0.04693172687144805
0.3528668997731065   0.09176054753661862   0.04693172687144805
0.3528668997731065   0.09176054753661862   0.04693172687144805
0.03640918270697946   -0.07270856502338426   -0.06184804282881358
0.03640918270697946   -0.07270856502338426   -0.06184804282881358
0.03640918270697946   -0.07270856502338426   -0.06184804282881358
0.03640918270697946   -0.07270856502338426   -0.06184804282881358
0.10115424954201871   0.06441657667526751   0.03684914080457447
0.10115424954201871   0.06441657667526751   0.03684914080457447
0.10115424954201871   0.06441657667526751   0.03684914080457447
0.10115424954201871   0.06441657667526751   0.03684914080457447
0.36536488273346807   0.019183744872660287   -0.07531755476257615
0.36536488273346807   0.019183744872660287   -0.07531755476257615
0.36536488273346807   0.019183744872660287   -0.07531755476257615
0.36536488273346807   0.019183744872660287   -0.07531755476257615
0.20143541431050094   0.02011898855149864   0.000981794833524687
0.20143541431050094   0.02011898855149864   0.000981794833524687
0.20143541431050094   0.02011898855149864   0.000981794833524687
0.20143541431050094   0.02011898855149864   0.000981794833524687
0.03499847472120036   0.011029324538387217   0.044823462029150246
0.03499847472120036   0.011029324538387217   0.044823462029150246
0.03499847472120036   0.011029324538387217   0.044823462029150246
0.03499847472120036   0.011029324538387217   0.044823462029150246
-0.2404836441626416   -0.09010665390684813   -0.020008243556240434
-0.2404836441626416   -0.09010665390684813   -0.020008243556240434
-0.2404836441626416   -0.09010665390684813   -0.020008243556240434
-0.2404836441626416   -0.09010665390684813   -0.020008243556240434
-0.20109221150442558   -0.013090951308914623   0.02048327648972541
-0.20109221150442558   -0.013090951308914623   0.02048327648972541
-0.20109221150442558   -0.013090951308914623   0.02048327648972541
-0.20109221150442558   -0.013090951308914623   0.02048327648972541
0.03670371567095201   -0.010346675636097815   -0.01589317541415803
0.03670371567095201   -0.010346675636097815   -0.01589317541415803
0.03670371567095201   -0.010346675636097815   -0.01589317541415803
0.03670371567095201   -0.010346675636097815   -0.01589317541415803
-0.09445153833325932   -0.02332127955448348   -0.015123216306219236
-0.09445153833325932   -0.02332127955448348   -0.015123216306219236
-0.09445153833325932   -0.02332127955448348   -0.015123216306219236
-0.09445153833325932   -0.02332127955448348   -0.015123216306219236
0.05843931683001314   0.04267194167419258   0.039766213070853436
0.05843931683001314   0.04267194167419258   0.039766213070853436
0.05843931683001314   0.04267194167419258   0.039766213070853436
0.05843931683001314   0.04267194167419258   0.039766213070853436
-0.22081973185664133   -0.06410148781236541   -0.027143788767902684
-0.22081973185664133   -0.06410148781236541   -0.027143788767902684
-0.22081973185664133   -0.06410148781236541   -0.027143788767902684
-0.22081973185664133   -0.06410148781236541   -0.027143788767902684
-0.1803364029812732   0.016789271431328114   0.01447738832869236
-0.1803364029812732   0.016789271431328114   0.01447738832869236
-0.1803364029812732   0.016789271431328114   0.01447738832869236
-0.1803364029812732   0.016789271431328114   0.01447738832869236
0.06262226179194319   0.018016366308532497   -0.021507578735907897
0.06262226179194319   0.018016366308532497   -0.021507578735907897
0.06262226179194319   0.018016366308532497   -0.021507578735907897
0.06262226179194319   0.018016366308532497   -0.021507578735907897
-0.07245203344417861   0.0030431778104425856   -0.0018358784030943114
-0.07245203344417861   0.0030431778104425856   -0.0018358784030943114
-0.07245203344417861   0.0030431778104425856   -0.0018358784030943114
-0.07245203344417861   0.0030431778104425856   -0.0018358784030943114
0.08527168528684294   0.07413882702386461   0.03561707802325874
0.08527168528684294   0.07413882702386461   0.03561707802325874
0.08527168528684294   0.07413882702386461   0.03561707802325874
0.08527168528684294   0.07413882702386461   0.03561707802325874
-0.20105346028324061   -0.03740082309107166   -0.034917803658744875
-0.20105346028324061   -0.03740082309107166   -0.034917803658744875
-0.20105346028324061   -0.03740082309107166   -0.034917803658744875
-0.20105346028324061   -0.03740082309107166   -0.034917803658744875
-0.15945724313478016   0.050576956659593435   0.008752175454570105
-0.15945724313478016   0.050576956659593435   0.008752175454570105
-0.15945724313478016   0.050576956659593435   0.008752175454570105
-0.15945724313478016   0.050576956659593435   0.008752175454570105
0.085442953705769   0.05017401160247686   -0.02746477330388345
0.085442953705769   0.05017401160247686   -0.02746477330388345
0.085442953705769   0.05017401160247686   -0.02746477330388345
0.085442953705769   0.05017401160247686   -0.02746477330388345
-0.04812615821935107   0.03214819923201614   0.012328560073463368
-0.04812615821935107   0.03214819923201614   0.012328560073463368
-0.04812615821935107   0.03214819923201614   0.012328560073463368
-0.04812615821935107   0.03214819923201614   0.012328560073463368
-0.2186929204811758   -0.017285503343261704   0.016124224287505946
-0.2186929204811758   -0.017285503343261704   0.016124224287505946
-0.2186929204811758   -0.017285503343261704   0.016124224287505946
-0.2186929204811758   -0.017285503343261704   0.016124224287505946
-0.4706025215780903   -0.06401109741929298   0.004153918988720709
-0.4706025215780903   -0.06401109741929298   0.004153918988720709
-0.4706025215780903   -0.06401109741929298   0.004153918988720709
-0.4706025215780903   -0.06401109741929298   0.004153918988720709
-0.45242704792932914   -0.04011860428755667   -0.008866818023041205
-0.45242704792932914   -0.04011860428755667   -0.008866818023041205
-0.45242704792932914   -0.04011860428755667   -0.008866818023041205
-0.45242704792932914   -0.04011860428755667   -0.008866818023041205
-0.19722912948528748   0.01670312092991913   0.010004614346583836
-0.19722912948528748   0.01670312092991913   0.010004614346583836
-0.19722912948528748   0.01670312092991913   0.010004614346583836
-0.19722912948528748   0.01670312092991913   0.010004614346583836
-0.33522710363784824   -0.02403551203837316   -0.008803064726509501
-0.33522710363784824   -0.02403551203837316   -0.008803064726509501
-0.33522710363784824   -0.02403551203837316   -0.008803064726509501
-0.33522710363784824   -0.02403551203837316   -0.008803064726509501
-0.1974877007279871   0.014771337141600817   0.01064354192140412
-0.1974877007279871   0.014771337141600817   0.01064354192140412
-0.1974877007279871   0.014771337141600817   0.01064354192140412
-0.1974877007279871   0.014771337141600817   0.01064354192140412
-0.45044622394263817   -0.03646456775524694   -0.002616734621895881
-0.45044622394263817   -0.03646456775524694   -0.002616734621895881
-0.45044622394263817   -0.03646456775524694   -0.002616734621895881
-0.45044622394263817   -0.03646456775524694   -0.002616734621895881
-0.43060246825345316   -0.007222637308239507   -0.013943664731888142
-0.43060246825345316   -0.007222637308239507   -0.013943664731888142
-0.43060246825345316   -0.007222637308239507   -0.013943664731888142
-0.43060246825345316   -0.007222637308239507   -0.013943664731888142
-0.17667876849372538   0.045875108942172706   0.0036797232555889
-0.17667876849372538   0.045875108942172706   0.0036797232555889
-0.17667876849372538   0.045875108942172706   0.0036797232555889
-0.17667876849372538   0.045875108942172706   0.0036797232555889
-0.312694085459255   0.0048598754671058675   0.0045826713494894825
-0.312694085459255   0.0048598754671058675   0.0045826713494894825
-0.312694085459255   0.0048598754671058675   0.0045826713494894825
-0.312694085459255   0.0048598754671058675   0.0045826713494894825
-0.17615114380407626   0.04741245971434577   0.004780495931661348
-0.17615114380407626   0.04741245971434577   0.004780495931661348
-0.17615114380407626   0.04741245971434577   0.004780495931661348
-0.17615114380407626   0.04741245971434577   0.004780495931661348
-0.4297538964903748   -0.007383791627685765   -0.009539651597053986
-0.4297538964903748   -0.007383791627685765   -0.009539651597053986
-0.4297538964903748   -0.007383791627685765   -0.009539651597053986
-0.4297538964903748   -0.007383791627685765   -0.009539651597053986
-0.4096588888105632   0.0257632268769932   -0.019737206431570432
-0.4096588888105632   0.0257632268769932   -0.019737206431570432
-0.4096588888105632   0.0257632268769932   -0.019737206431570432
-0.4096588888105632   0.0257632268769932   -0.019737206431570432
-0.15701723189651068   0.07513298472391447   -0.00360379641840166
-0.15701723189651068   0.07513298472391447   -0.00360379641840166
-0.15701723189651068   0.07513298472391447   -0.00360379641840166
-0.15701723189651068   0.07513298472391447   -0.00360379641840166
-0.29133592384875784   0.03367564627233943   0.017094611447543883
-0.29133592384875784   0.03367564627233943   0.017094611447543883
-0.29133592384875784   0.03367564627233943   0.017094611447543883
-0.29133592384875784   0.03367564627233943   0.017094611447543883
-0.4703525316962097   -0.04514919591854951   -0.01345803310261588
-0.4703525316962097   -0.04514919591854951   -0.01345803310261588
-0.4703525316962097   -0.04514919591854951   -0.01345803310261588
-0.4703525316962097   -0.04514919591854951   -0.01345803310261588
-0.6983213950116574   -0.03948571309914295   0.027877824596628777
-0.6983213950116574   -0.03948571309914295   0.027877824596628777
-0.6983213950116574   -0.03948571309914295   0.027877824596628777
-0.6983213950116574   -0.03948571309914295   0.027877824596628777
-0.6985327584793083   -0.06658397653447953   -0.03751754759447219
-0.6985327584793083   -0.06658397653447953   -0.03751754759447219
-0.6985327584793083   -0.06658397653447953   -0.03751754759447219
-0.6985327584793083   -0.06658397653447953   -0.03751754759447219
-0.4273038954462519   0.04251206367153376   0.0341182764332545
-0.4273038954462519   0.04251206367153376   0.0341182764332545
-0.4273038954462519   0.04251206367153376   0.0341182764332545
-0.4273038954462519   0.04251206367153376   0.0341182764332545
-0.5704207580965961   -0.024382928981288077   -0.003704776266962452
-0.5704207580965961   -0.024382928981288077   -0.003704776266962452
-0.5704207580965961   -0.024382928981288077   -0.003704776266962452
-0.5704207580965961   -0.024382928981288077   -0.003704776266962452
-0.4489645591133651   -0.012917852323792695   -0.018755125906981168
-0.4489645591133651   -0.012917852323792695   -0.018755125906981168
-0.4489645591133651   -0.012917852323792695   -0.018755125906981168
-0.4489645591133651   -0.012917852323792695   -0.018755125906981168
-0.6754486883051141   -0.00973065403207038   0.02104948077409597
-0.6754486883051141   -0.00973065403207038   0.02104948077409597
-0.6754486883051141   -0.00973065403207038   0.02104948077409597
-0.6754486883051141   -0.00973065403207038   0.02104948077409597
-0.6711933798308903   -0.0352008040045554   -0.0417447823588291
-0.6711933798308903   -0.0352008040045554   -0.0417447823588291
-0.6711933798308903   -0.0352008040045554   -0.0417447823588291
-0.6711933798308903   -0.0352008040045554   -0.0417447823588291
-0.4071261337486733   0.0690626445965212   0.027152725887250727
-0.4071261337486733   0.0690626445965212   0.027152725887250727
-0.4071261337486733   0.0690626445965212   0.027152725887250727
-0.4071261337486733   0.0690626445965212   0.027152725887250727
-0.5434000107251566   0.004743930300612473   0.010086876776455433
-0.5434000107251566   0.004743930300612473   0.010086876776455433
-0.5434000107251566   0.004743930300612473   0.010086876776455433
-0.5434000107251566   0.004743930300612473   0.010086876776455433
-0.4280689102758826   0.01672778662313061   -0.025226298775406834
-0.4280689102758826   0.01672778662313061   -0.025226298775406834
-0.4280689102758826   0.01672778662313061   -0.025226298775406834
-0.4280689102758826   0.01672778662313061   -0.025226298775406834
-0.6486497663097275   0.01873489096278838   0.017037590279640906
-0.6486497663097275   0.01873489096278838   0.017037590279640906
-0.6486497663097275   0.01873489096278838   0.017037590279640906
-0.6486497663097275   0.01873489096278838   0.017037590279640906
-0.646734791995107   -0.0009633207512642072   -0.044934576371811204
-0.646734791995107   -0.0009633207512642072   -0.044934576371811204
-0.646734791995107   -0.0009633207512642072   -0.044934576371811204
-0.646734791995107   -0.0009633207512642072   -0.044934576371811204
-0.38715812039539615   0.09839466714481594   0.020135195376442087
-0.38715812039539615   0.09839466714481594   0.020135195376442087
-0.38715812039539615   0.09839466714481594   0.020135195376442087
-0.38715812039539615   0.09839466714481594   0.020135195376442087
-0.5231648382718669   0.03191523519877493   0.02244967883586145
-0.5231648382718669   0.03191523519877493   0.02244967883586145
-0.5231648382718669   0.03191523519877493   0.02244967883586145
-0.5231648382718669   0.03191523519877493   0.02244967883586145
-0.7171484830001369   -0.06484952604430884   -0.040893802400603
-0.7171484830001369   -0.06484952604430884   -0.040893802400603
-0.7171484830001369   -0.06484952604430884   -0.040893802400603
-0.7171484830001369   -0.06484952604430884   -0.040893802400603
-0.9578839941610635   -0.016845089270329877   0.0603760119945115
-0.9578839941610635   -0.016845089270329877   0.0603760119945115
-0.9578839941610635   -0.016845089270329877   0.0603760119945115
-0.9578839941610635   -0.016845089270329877   0.0603760119945115
-0.9445186547513981   -0.0867494186980157   -0.0545692600069894
-0.9445186547513981   -0.0867494186980157   -0.0545692600069894
-0.9445186547513981   -0.0867494186980157   -0.0545692600069894
-0.9445186547513981   -0.0867494186980157   -0.0545692600069894
-0.651440898121716   0.0718389258871373   0.05951885177187233
-0.651440898121716   0.0718389258871373   0.05951885177187233
-0.651440898121716   0.0718389258871373   0.05951885177187233
-0.651440898121716   0.0718389258871373   0.05951885177187233
-0.7824970408982928   -0.013882596318023216   0.006490218529059205
-0.7824970408982928   -0.013882596318023216   0.006490218529059205
-0.7824970408982928   -0.013882596318023216   0.006490218529059205
-0.7824970408982928   -0.013882596318023216   0.006490218529059205
-0.6939576655422647   -0.03497381728628099   -0.04625224215744909
-0.6939576655422647   -0.03497381728628099   -0.04625224215744909
-0.6939576655422647   -0.03497381728628099   -0.04625224215744909
-0.6939576655422647   -0.03497381728628099   -0.04625224215744909
-0.9007103223799027   0.021354889426347223   0.056368093726108404
-0.9007103223799027   0.021354889426347223   0.056368093726108404
-0.9007103223799027   0.021354889426347223   0.056368093726108404
-0.9007103223799027   0.021354889426347223   0.056368093726108404
-0.9012678655569992   -0.06812889602723246   -0.06494585946220066
-0.9012678655569992   -0.06812889602723246   -0.06494585946220066
-0.9012678655569992   -0.06812889602723246   -0.06494585946220066
-0.9012678655569992   -0.06812889602723246   -0.06494585946220066
-0.6291746678591843   0.08408129818787066   0.04906667530727052
-0.6291746678591843   0.08408129818787066   0.04906667530727052
-0.6291746678591843   0.08408129818787066   0.04906667530727052
-0.6291746678591843   0.08408129818787066   0.04906667530727052
-0.7579640004663719   0.005657200080656843   0.01762960280687824
-0.7579640004663719   0.005657200080656843   0.01762960280687824
-0.7579640004663719   0.005657200080656843   0.01762960280687824
-0.7579640004663719   0.005657200080656843   0.01762960280687824
-0.6704161541885492   -0.019651061242859924   -0.05340839690881878
-0.6704161541885492   -0.019651061242859924   -0.05340839690881878
-0.6704161541885492   -0.019651061242859924   -0.05340839690881878
-0.6704161541885492   -0.019651061242859924   -0.05340839690881878
-0.8584464475201876   0.03718339511094934   0.04384893958366737
-0.8584464475201876   0.03718339511094934   0.04384893958366737
-0.8584464475201876   0.03718339511094934   0.04384893958366737
-0.8584464475201876   0.03718339511094934   0.04384893958366737
-0.8479869499622409   -0.04032014513907445   -0.07242448233090096
-0.8479869499622409   -0.04032014513907445   -0.07242448233090096
-0.8479869499622409   -0.04032014513907445   -0.07242448233090096
-0.8479869499622409   -0.04032014513907445   -0.07242448233090096
-0.6096073025553916   0.09886703769795896   0.040872512377542206
-0.6096073025553916   0.09886703769795896   0.040872512377542206
-0.6096073025553916   0.09886703769795896   0.040872512377542206
-0.6096073025553916   0.09886703769795896   0.040872512377542206
-0.7120460457130879   0.023962673870751794   0.03331816558895399
-0.7120460457130879   0.023962673870751794   0.03331816558895399
-0.7120460457130879   0.023962673870751794   0.03331816558895399
-0.7120460457130879   0.023962673870751794   0.03331816558895399
0.760443601130764   0.06909756692497043   0.06596870929528278
0.760443601130764   0.06909756692497043   0.06596870929528278
0.760443601130764   0.06909756692497043   0.06596870929528278
0.760443601130764   0.06909756692497043   0.06596870929528278
0.27851431728598797   -0.12641602138370311   -0.0434229573936741
0.27851431728598797   -0.12641602138370311   -0.0434229573936741
0.27851431728598797   -0.12641602138370311   -0.0434229573936741
0.27851431728598797   -0.12641602138370311   -0.0434229573936741
0.3439219619779291   -0.0007747214489173537   0.04746486468467426
0.3439219619779291   -0.0007747214489173537   0.04746486468467426
0.3439219619779291   -0.0007747214489173537   0.04746486468467426
0.3439219619779291   -0.0007747214489173537   0.04746486468467426
0.7742451860439532   -0.017541124728977175   -0.055437176673566464
0.7742451860439532   -0.017541124728977175   -0.055437176673566464
0.7742451860439532   -0.017541124728977175   -0.055437176673566464
0.7742451860439532   -0.017541124728977175   -0.055437176673566464
0.5061105098736176   -0.022877028233732916   -0.048865725713157226
0.5061105098736176   -0.022877028233732916   -0.048865725713157226
0.5061105098736176   -0.022877028233732916   -0.048865725713157226
0.5061105098736176   -0.022877028233732916   -0.048865725713157226
0.8195749149024394   0.09633080398085472   0.05733953890902446
0.8195749149024394   0.09633080398085472   0.05733953890902446
0.8195749149024394   0.09633080398085472   0.05733953890902446
0.8195749149024394   0.09633080398085472   0.05733953890902446
0.3018012879372602   -0.11143759534093406   -0.05247563162665784
0.3018012879372602   -0.11143759534093406   -0.05247563162665784
0.3018012879372602   -0.11143759534093406   -0.05247563162665784
0.3018012879372602   -0.11143759534093406   -0.05247563162665784
0.3697290131001379   0.014153238826890666   0.039141146029402676
0.3697290131001379   0.014153238826890666   0.039141146029402676
0.3697290131001379   0.014153238826890666   0.039141146029402676
0.3697290131001379   0.014153238826890666   0.039141146029402676
0.821298373810476   -0.0005746330745524941   -0.06983437267661863
0.821298373810476   -0.0005746330745524941   -0.06983437267661863
0.821298373810476   -0.0005746330745524941   -0.06983437267661863
0.821298373810476   -0.0005746330745524941   -0.06983437267661863
0.5552455837365176   -0.004550723130329698   -0.029597151247830005
0.5552455837365176   -0.004550723130329698   -0.029597151247830005
0.5552455837365176   -0.004550723130329698   -0.029597151247830005
0.5552455837365176   -0.004550723130329698   -0.029597151247830005
0.867131285155565   0.11463047852245604   0.0441250724518024
0.867131285155565   0.11463047852245604   0.0441250724518024
0.867131285155565   0.11463047852245604   0.0441250724518024
0.867131285155565   0.11463047852245604   0.0441250724518024
0.3273100096423347   -0.09763796488282377   -0.06116266754989509
0.3273100096423347   -0.09763796488282377   -0.06116266754989509
0.3273100096423347   -0.09763796488282377   -0.06116266754989509
0.3273100096423347   -0.09763796488282377   -0.06116266754989509
0.3955003290286401   0.047059088512759376   0.033923717142747264
0.3955003290286401   0.047059088512759376   0.033923717142747264
0.3955003290286401   0.047059088512759376   0.033923717142747264
0.3955003290286401   0.047059088512759376   0.033923717142747264
0.8830871546953853   0.04367385049983566   -0.07533189141073465
0.8830871546953853   0.04367385049983566   -0.07533189141073465
0.8830871546953853   0.04367385049983566   -0.07533189141073465
0.8830871546953853   0.04367385049983566   -0.07533189141073465
0.5855641864016171   0.01774450921566513   -0.012929350048507478
0.5855641864016171   0.01774450921566513   -0.012929350048507478
0.5855641864016171   0.01774450921566513   -0.012929350048507478
0.5855641864016171   0.01774450921566513   -0.012929350048507478
0.33076544232823796   0.03869011782445808   0.052726528609411114
0.33076544232823796   0.03869011782445808   0.052726528609411114
0.33076544232823796   0.03869011782445808   0.052726528609411114
0.33076544232823796   0.03869011782445808   0.052726528609411114
-0.1611540660883378   -0.11795264717401532   -0.02274740511798984
-0.1611540660883378   -0.11795264717401532   -0.02274740511798984
-0.1611540660883378   -0.11795264717401532   -0.02274740511798984
-0.1611540660883378   -0.11795264717401532   -0.02274740511798984
-0.11617180455678874   -0.03455005580161917   0.015965443985975925
-0.11617180455678874   -0.03455005580161917   0.015965443985975925
-0.11617180455678874   -0.03455005580161917   0.015965443985975925
-0.11617180455678874   -0.03455005580161917   0.015965443985975925
0.33338511774115065   0.0009762625648007117   -0.006970340512940029
0.33338511774115065   0.0009762625648007117   -0.006970340512940029
0.33338511774115065   0.0009762625648007117   -0.006970340512940029
0.33338511774115065   0.0009762625648007117   -0.006970340512940029
0.09235468155204025   -0.024933439509025695   -0.02082048101724009
0.09235468155204025   -0.024933439509025695   -0.02082048101724009
0.09235468155204025   -0.024933439509025695   -0.02082048101724009
0.09235468155204025   -0.024933439509025695   -0.02082048101724009
0.35727545702212543   0.06636485950693008   0.04709275894980807
0.35727545702212543   0.06636485950693008   0.04709275894980807
0.35727545702212543   0.06636485950693008   0.04709275894980807
0.35727545702212543   0.06636485950693008   0.04709275894980807
-0.13812869450576193   -0.09800520341174666   -0.030363858148764317
-0.13812869450576193   -0.09800520341174666   -0.030363858148764317
-0.13812869450576193   -0.09800520341174666   -0.030363858148764317
-0.13812869450576193   -0.09800520341174666   -0.030363858148764317
-0.0921297994020212   -0.006614199089562411   0.010091655467581943
-0.0921297994020212   -0.006614199089562411   0.010091655467581943
-0.0921297994020212   -0.006614199089562411   0.010091655467581943
-0.0921297994020212   -0.006614199089562411   0.010091655467581943
0.36167777782052124   0.026042519200027342   -0.013004310741813345
0.36167777782052124   0.026042519200027342   -0.013004310741813345
0.36167777782052124   0.026042519200027342   -0.013004310741813345
0.36167777782052124   0.026042519200027342   -0.013004310741813345
0.11558333531199844   -0.002858367113945815   -0.0082795269886289
0.11558333531199844   -0.002858367113945815   -0.0082795269886289
0.11558333531199844   -0.002858367113945815   -0.0082795269886289
0.11558333531199844   -0.002858367113945815   -0.0082795269886289
0.38652383551314157   0.09545991348684676   0.041808583434465044
0.38652383551314157   0.09545991348684676   0.041808583434465044
0.38652383551314157   0.09545991348684676   0.041808583434465044
0.38652383551314157   0.09545991348684676   0.041808583434465044
-0.11503813132518084   -0.07409386760692178   -0.036970335630856846
-0.11503813132518084   -0.07409386760692178   -0.036970335630856846
-0.11503813132518084   -0.07409386760692178   -0.036970335630856846
-0.11503813132518084   -0.07409386760692178   -0.036970335630856846
-0.06839007756245628   0.025749341156597664   0.004244905734945851
-0.06839007756245628   0.025749341156597664   0.004244905734945851
-0.06839007756245628   0.025749341156597664   0.004244905734945851
-0.06839007756245628   0.025749341156597664   0.004244905734945851
0.3867685950191879   0.05588957758850467   -0.018565441980258755
0.3867685950191879   0.05588957758850467   -0.018565441980258755
0.3867685950191879   0.05588957758850467   -0.018565441980258755
0.3867685950191879   0.05588957758850467   -0.018565441980258755
0.14427842468921323   0.02421333997109917   0.006361738688850778
0.14427842468921323   0.02421333997109917   0.006361738688850778
0.14427842468921323   0.02421333997109917   0.006361738688850778
0.14427842468921323   0.02421333997109917   0.006361738688850778
-0.12685216204541822   0.008391736895012582   0.02241773102757639
-0.12685216204541822   0.008391736895012582   0.02241773102757639
-0.12685216204541822   0.008391736895012582   0.02241773102757639
-0.12685216204541822   0.008391736895012582   0.02241773102757639
-0.5920946077281933   -0.10415073904421869   -0.003007446372739913
-0.5920946077281933   -0.10415073904421869   -0.003007446372739913
-0.5920946077281933   -0.10415073904421869   -0.003007446372739913
-0.5920946077281933   -0.10415073904421869   -0.003007446372739913
-0.5635873129871956   -0.06135166937669524   -0.013911153684580017
-0.5635873129871956   -0.06135166937669524   -0.013911153684580017
-0.5635873129871956   -0.06135166937669524   -0.013911153684580017
-0.5635873129871956   -0.06135166937669524   -0.013911153684580017
-0.10636920797055358   0.015523562645967208   0.01490480846956351
-0.10636920797055358   0.015523562645967208   0.01490480846956351
-0.10636920797055358   0.015523562645967208   0.01490480846956351
-0.10636920797055358   0.015523562645967208   0.01490480846956351
-0.34783644255090806   -0.03201916706130692   -0.012998500338094666
-0.34783644255090806   -0.03201916706130692   -0.012998500338094666
-0.34783644255090806   -0.03201916706130692   -0.012998500338094666
-0.34783644255090806   -0.03201916706130692   -0.012998500338094666
-0.1016197360141894   0.03721601911191056   0.016959711785442897
-0.1016197360141894   0.03721601911191056   0.016959711785442897
-0.1016197360141894   0.03721601911191056   0.016959711785442897
-0.1016197360141894   0.03721601911191056   0.016959711785442897
-0.5670448981511529   -0.0817522390502314   -0.01079850983083039
-0.5670448981511529   -0.0817522390502314   -0.01079850983083039
-0.5670448981511529   -0.0817522390502314   -0.01079850983083039
-0.5670448981511529   -0.0817522390502314   -0.01079850983083039
-0.5370891863557179   -0.03070146040837088   -0.018792705635136603
-0.5370891863557179   -0.03070146040837088   -0.018792705635136603
-0.5370891863557179   -0.03070146040837088   -0.018792705635136603
-0.5370891863557179   -0.03070146040837088   -0.018792705635136603
-0.0829686179002248   0.04084513836025823   0.008438225526743318
-0.0829686179002248   0.04084513836025823   0.008438225526743318
-0.0829686179002248   0.04084513836025823   0.008438225526743318
-0.0829686179002248   0.04084513836025823   0.008438225526743318
-0.32111008670848235   -0.0063746812900467575   -0.00019893578902476297
-0.32111008670848235   -0.0063746812900467575   -0.00019893578902476297
-0.32111008670848235   -0.0063746812900467575   -0.00019893578902476297
-0.32111008670848235   -0.0063746812900467575   -0.00019893578902476297
-0.07723699769571725   0.06717984286047034   0.010761622049068961
-0.07723699769571725   0.06717984286047034   0.010761622049068961
-0.07723699769571725   0.06717984286047034   0.010761622049068961
-0.07723699769571725   0.06717984286047034   0.010761622049068961
-0.5416209500766258   -0.055836308424983515   -0.016316676223064333
-0.5416209500766258   -0.055836308424983515   -0.016316676223064333
-0.5416209500766258   -0.055836308424983515   -0.016316676223064333
-0.5416209500766258   -0.055836308424983515   -0.016316676223064333
-0.512423267801549   -0.00015293404183680526   -0.024627354342119788
-0.512423267801549   -0.00015293404183680526   -0.024627354342119788
-0.512423267801549   -0.00015293404183680526   -0.024627354342119788
-0.512423267801549   -0.00015293404183680526   -0.024627354342119788
-0.06063352618161182   0.06670637073043711   0.002070633065328731
-0.06063352618161182   0.06670637073043711   0.002070633065328731
-0.06063352618161182   0.06670637073043711   0.002070633065328731
-0.06063352618161182   0.06670637073043711   0.002070633065328731
-0.29655929127067343   0.01917339823469562   0.01198058087396454
-0.29655929127067343   0.01917339823469562   0.01198058087396454
-0.29655929127067343   0.01917339823469562   0.01198058087396454
-0.29655929127067343   0.01917339823469562   0.01198058087396454
-0.5769367330019863   -0.022548423311431753   -0.008820388474486261
-0.5769367330019863   -0.022548423311431753   -0.008820388474486261
-0.5769367330019863   -0.022548423311431753   -0.008820388474486261
-0.5769367330019863   -0.022548423311431753   -0.008820388474486261
-1.0132317029936924   -0.08438856143546974   0.01953815526767634
-1.0132317029936924   -0.08438856143546974   0.01953815526767634
-1.0132317029936924   -0.08438856143546974   0.01953815526767634
-1.0132317029936924   -0.08438856143546974   0.01953815526767634
-0.9993771885978908   -0.08709738390166974   -0.041855668281124046
-0.9993771885978908   -0.08709738390166974   -0.041855668281124046
-0.9993771885978908   -0.08709738390166974   -0.041855668281124046
-0.9993771885978908   -0.08709738390166974   -0.041855668281124046
-0.5331928901153198   0.039255205282857336   0.03745408601525078
-0.5331928901153198   0.039255205282857336   0.03745408601525078
-0.5331928901153198   0.039255205282857336   0.03745408601525078
-0.5331928901153198   0.039255205282857336   0.03745408601525078
-0.7752836550287386   -0.03382110648384418   -0.004531663355684917
-0.7752836550287386   -0.03382110648384418   -0.004531663355684917
-0.7752836550287386   -0.03382110648384418   -0.004531663355684917
-0.7752836550287386   -0.03382110648384418   -0.004531663355684917
-0.5495067728633196   0.008563173677575947   -0.01342329611946682
-0.5495067728633196   0.008563173677575947   -0.01342329611946682
-0.5495067728633196   0.008563173677575947   -0.01342329611946682
-0.5495067728633196   0.008563173677575947   -0.01342329611946682
-0.9829953482716157   -0.05633739471811161   0.00929354416670198
-0.9829953482716157   -0.05633739471811161   0.00929354416670198
-0.9829953482716157   -0.05633739471811161   0.00929354416670198
-0.9829953482716157   -0.05633739471811161   0.00929354416670198
-0.9647508421587716   -0.05715188135520094   -0.04629519546126163
-0.9647508421587716   -0.05715188135520094   -0.04629519546126163
-0.9647508421587716   -0.05715188135520094   -0.04629519546126163
-0.9647508421587716   -0.05715188135520094   -0.04629519546126163
-0.5085234452172824   0.06339859256890426   0.029935947079770063
-0.5085234452172824   0.06339859256890426   0.029935947079770063
-0.5085234452172824   0.06339859256890426   0.029935947079770063
-0.5085234452172824   0.06339859256890426   0.029935947079770063
-0.7400577834835431   -0.005476523689335572   0.008304751153155106
-0.7400577834835431   -0.005476523689335572   0.008304751153155106
-0.7400577834835431   -0.005476523689335572   0.008304751153155106
-0.7400577834835431   -0.005476523689335572   0.008304751153155106
-0.5238378334424176   0.036368565987434404   -0.019605967464438885
-0.5238378334424176   0.036368565987434404   -0.019605967464438885
-0.5238378334424176   0.036368565987434404   -0.019605967464438885
-0.5238378334424176   0.036368565987434404   -0.019605967464438885
-0.9486246495954754   -0.02931005043557061   0.006493936435588786
-0.9486246495954754   -0.02931005043557061   0.006493936435588786
-0.9486246495954754   -0.02931005043557061   0.006493936435588786
-0.9486246495954754   -0.02931005043557061   0.006493936435588786
-0.933788742202661   -0.0246936801148189   -0.04867591911446723
-0.933788742202661   -0.0246936801148189   -0.04867591911446723
-0.933788742202661   -0.0246936801148189   -0.04867591911446723
-0.933788742202661   -0.0246936801148189   -0.04867591911446723
-0.4846303745096688   0.08994623125010426   0.024237946825344643
-0.4846303745096688   0.08994623125010426   0.024237946825344643
-0.4846303745096688   0.08994623125010426   0.024237946825344643
-0.4846303745096688   0.08994623125010426   0.024237946825344643
-0.7162294738415769   0.018755683894067204   0.0193781024069175
-0.7162294738415769   0.018755683894067204   0.0193781024069175
-0.7162294738415769   0.018755683894067204   0.0193781024069175
-0.7162294738415769   0.018755683894067204   0.0193781024069175
-1.0174863149052118   -0.048387874135949915   -0.03773559158944043
-1.0174863149052118   -0.048387874135949915   -0.03773559158944043
-1.0174863149052118   -0.048387874135949915   -0.03773559158944043
-1.0174863149052118   -0.048387874135949915   -0.03773559158944043
-1.4502259534242372   -0.05230360894341274   0.06538952417427259
-1.4502259534242372   -0.05230360894341274   0.06538952417427259
-1.4502259534242372   -0.05230360894341274   0.06538952417427259
-1.4502259534242372   -0.05230360894341274   0.06538952417427259
-1.4223682575193006   -0.10425070928267488   -0.05000196467960416
-1.4223682575193006   -0.10425070928267488   -0.05000196467960416
-1.4223682575193006   -0.10425070928267488   -0.05000196467960416
-1.4223682575193006   -0.10425070928267488   -0.05000196467960416
-0.9440724600234167   0.08110239545062642   0.06646819523894995
-0.9440724600234167   0.08110239545062642   0.06646819523894995
-0.9440724600234167   0.08110239545062642   0.06646819523894995
-0.9440724600234167   0.08110239545062642   0.06646819523894995
-1.1549340599145286   -0.014276486089000145   0.013390793537740954
-1.1549340599145286   -0.014276486089000145   0.013390793537740954
-1.1549340599145286   -0.014276486089000145   0.013390793537740954
-1.1549340599145286   -0.014276486089000145   0.013390793537740954
-0.9850104522907471   -0.015168857858714635   -0.0419505127883564
-0.9850104522907471   -0.015168857858714635   -0.0419505127883564
-0.9850104522907471   -0.015168857858714635   -0.0419505127883564
-0.9850104522907471   -0.015168857858714635   -0.0419505127883564
-1.3807539302816088   -0.007303121002978585   0.06112208322914725
-1.3807539302816088   -0.007303121002978585   0.06112208322914725
-1.3807539302816088   -0.007303121002978585   0.06112208322914725
-1.3807539302816088   -0.007303121002978585   0.06112208322914725
-1.3699657575183566   -0.08566775941957111   -0.05888752307076606
-1.3699657575183566   -0.08566775941957111   -0.05888752307076606
-1.3699657575183566   -0.08566775941957111   -0.05888752307076606
-1.3699657575183566   -0.08566775941957111   -0.05888752307076606
-0.9150145959092795   0.09256415070683874   0.05267000372415932
-0.9150145959092795   0.09256415070683874   0.05267000372415932
-0.9150145959092795   0.09256415070683874   0.05267000372415932
-0.9150145959092795   0.09256415070683874   0.05267000372415932
-1.1278964430347385   0.006007347500072924   0.024072486578163244
-1.1278964430347385   0.006007347500072924   0.024072486578163244
-1.1278964430347385   0.006007347500072924   0.024072486578163244
-1.1278964430347385   0.006007347500072924   0.024072486578163244
-0.9536450680929531   -0.00017479851484275555   -0.04774340797252774
-0.9536450680929531   -0.00017479851484275555   -0.04774340797252774
-0.9536450680929531   -0.00017479851484275555   -0.04774340797252774
-0.9536450680929531   -0.00017479851484275555   -0.04774340797252774
-1.330660957958914   0.007745517177870753   0.044223198128984384
-1.330660957958914   0.007745517177870753   0.044223198128984384
-1.330660957958914   0.007745517177870753   0.044223198128984384
-1.330660957958914   0.007745517177870753   0.044223198128984384
-1.3126891666947116   -0.06334488985426956   -0.06710526124428041
-1.3126891666947116   -0.06334488985426956   -0.06710526124428041
-1.3126891666947116   -0.06334488985426956   -0.06710526124428041
-1.3126891666947116   -0.06334488985426956   -0.06710526124428041
-0.8894776460770293   0.1033337784770669   0.04485210292180551
-0.8894776460770293   0.1033337784770669   0.04485210292180551
-0.8894776460770293   0.1033337784770669   0.04485210292180551
-0.8894776460770293   0.1033337784770669   0.04485210292180551
-1.070111237230201   0.022870104134081692   0.040215868342250535
-1.070111237230201   0.022870104134081692   0.040215868342250535
-1.070111237230201   0.022870104134081692   0.040215868342250535
-1.070111237230201   0.022870104134081692   0.040215868342250535
1.2765855686193237   0.09540692220747055   0.06762050922879716
1.2765855686193237   0.09540692220747055   0.06762050922879716
1.2765855686193237   0.09540692220747055   0.06762050922879716
1.2765855686193237   0.09540692220747055   0.06762050922879716
0.5631025717956892   -0.15032683419385506   -0.031077738224970203
0.5631025717956892   -0.15032683419385506   -0.031077738224970203
0.5631025717956892   -0.15032683419385506   -0.031077738224970203
0.5631025717956892   -0.15032683419385506   -0.031077738224970203
0.6278762379214408   -0.02643849251744504   0.046444932506668084
0.6278762379214408   -0.02643849251744504   0.046444932506668084
0.6278762379214408   -0.02643849251744504   0.046444932506668084
0.6278762379214408   -0.02643849251744504   0.046444932506668084
1.2906689573270467   -0.0023527019348041356   -0.04870828253380624
1.2906689573270467   -0.0023527019348041356   -0.04870828253380624
1.2906689573270467   -0.0023527019348041356   -0.04870828253380624
1.2906689573270467   -0.0023527019348041356   -0.04870828253380624
0.8845267552043619   -0.02681135011156116   -0.06918035940595235
0.8845267552043619   -0.02681135011156116   -0.06918035940595235
0.8845267552043619   -0.02681135011156116   -0.06918035940595235
0.8845267552043619   -0.02681135011156116   -0.06918035940595235
1.3356229915156144   0.11713642416241662   0.056572762311802825
1.3356229915156144   0.11713642416241662   0.056572762311802825
1.3356229915156144   0.11713642416241662   0.056572762311802825
1.3356229915156144   0.11713642416241662   0.056572762311802825
0.587239312650633   -0.14161050969690614   -0.04156767666790251
0.587239312650633   -0.14161050969690614   -0.04156767666790251
0.587239312650633   -0.14161050969690614   -0.04156767666790251
0.587239312650633   -0.14161050969690614   -0.04156767666790251
0.6532065047269361   -0.012716193954199623   0.037549692008624236
0.6532065047269361   -0.012716193954199623   0.037549692008624236
0.6532065047269361   -0.012716193954199623   0.037549692008624236
0.6532065047269361   -0.012716193954199623   0.037549692008624236
1.3349343933860685   0.012778243040785231   -0.06085927119344556
1.3349343933860685   0.012778243040785231   -0.06085927119344556
1.3349343933860685   0.012778243040785231   -0.06085927119344556
1.3349343933860685   0.012778243040785231   -0.06085927119344556
0.9401139061047947   -0.01064043916543217   -0.047057950984673094
0.9401139061047947   -0.01064043916543217   -0.047057950984673094
0.9401139061047947   -0.01064043916543217   -0.047057950984673094
0.9401139061047947   -0.01064043916543217   -0.047057950984673094
1.3796252417542534   0.13344354815599324   0.041929665532271204
1.3796252417542534   0.13344354815599324   0.041929665532271204
1.3796252417542534   0.13344354815599324   0.041929665532271204
1.3796252417542534   0.13344354815599324   0.041929665532271204
0.6122941185342075   -0.12960303689395125   -0.05012539601526714
0.6122941185342075   -0.12960303689395125   -0.05012539601526714
0.6122941185342075   -0.12960303689395125   -0.05012539601526714
0.6122941185342075   -0.12960303689395125   -0.05012539601526714
0.6761529419357417   0.023937592299087734   0.032921030345169376
0.6761529419357417   0.023937592299087734   0.032921030345169376
0.6761529419357417   0.023937592299087734   0.032921030345169376
0.6761529419357417   0.023937592299087734   0.032921030345169376
1.3893943233963855   0.057050664943029294   -0.06373196095055106
1.3893943233963855   0.057050664943029294   -0.06373196095055106
1.3893943233963855   0.057050664943029294   -0.06373196095055106
1.3893943233963855   0.057050664943029294   -0.06373196095055106
0.9608996384146798   0.01113050871969637   -0.03174538302984894
0.9608996384146798   0.01113050871969637   -0.03174538302984894
0.9608996384146798   0.01113050871969637   -0.03174538302984894
0.9608996384146798   0.01113050871969637   -0.03174538302984894
0.6229219376697028   0.05579207165952124   0.06190018529171375
0.6229219376697028   0.05579207165952124   0.06190018529171375
0.6229219376697028   0.05579207165952124   0.06190018529171375
0.6229219376697028   0.05579207165952124   0.06190018529171375
-0.07704143274625501   -0.18521624910806037   -0.01769818847056244
-0.07704143274625501   -0.18521624910806037   -0.01769818847056244
-0.07704143274625501   -0.18521624910806037   -0.01769818847056244
-0.07704143274625501   -0.18521624910806037   -0.01769818847056244
-0.021255947118446295   -0.06540972154413789   0.015740803801963944
-0.021255947118446295   -0.06540972154413789   0.015740803801963944
-0.021255947118446295   -0.06540972154413789   0.015740803801963944
-0.021255947118446295   -0.06540972154413789   0.015740803801963944
0.6176591796770509   -0.034148167852333045   0.003069316619606542
0.6176591796770509   -0.034148167852333045   0.003069316619606542
0.6176591796770509   -0.034148167852333045   0.003069316619606542
0.6176591796770509   -0.034148167852333045   0.003069316619606542
0.2778326461408533   -0.051623740275417024   -0.032968969828290035
0.2778326461408533   -0.051623740275417024   -0.032968969828290035
0.2778326461408533   -0.051623740275417024   -0.032968969828290035
0.2778326461408533   -0.051623740275417024   -0.032968969828290035
0.6501790935187824   0.07669439118175184   0.05482632679418381
0.6501790935187824   0.07669439118175184   0.05482632679418381
0.6501790935187824   0.07669439118175184   0.05482632679418381
0.6501790935187824   0.07669439118175184   0.05482632679418381
-0.05150062570821142   -0.1739770453262556   -0.02691526536474396
-0.05150062570821142   -0.1739770453262556   -0.02691526536474396
-0.05150062570821142   -0.1739770453262556   -0.02691526536474396
-0.05150062570821142   -0.1739770453262556   -0.02691526536474396
0.004573885408669584   -0.04085610149029814   0.00960647821841092
0.004573885408669584   -0.04085610149029814   0.00960647821841092
0.004573885408669584   -0.04085610149029814   0.00960647821841092
0.004573885408669584   -0.04085610149029814   0.00960647821841092
0.6441133237459645   -0.015634695284148514   -0.004997711566284667
0.6441133237459645   -0.015634695284148514   -0.004997711566284667
0.6441133237459645   -0.015634695284148514   -0.004997711566284667
0.6441133237459645   -0.015634695284148514   -0.004997711566284667
0.3002687751923703   -0.03654823943326008   -0.021371220396013926
0.3002687751923703   -0.03654823943326008   -0.021371220396013926
0.3002687751923703   -0.03654823943326008   -0.021371220396013926
0.3002687751923703   -0.03654823943326008   -0.021371220396013926
0.6783805471518592   0.10177056437538803   0.04893314580365218
0.6783805471518592   0.10177056437538803   0.04893314580365218
0.6783805471518592   0.10177056437538803   0.04893314580365218
0.6783805471518592   0.10177056437538803   0.04893314580365218
-0.028339804955724072   -0.15690782810833398   -0.03891024698552344
-0.028339804955724072   -0.15690782810833398   -0.03891024698552344
-0.028339804955724072   -0.15690782810833398   -0.03891024698552344
-0.028339804955724072   -0.15690782810833398   -0.03891024698552344
0.024849610741514594   -0.012099930843976248   0.003406000135071345
0.024849610741514594   -0.012099930843976248   0.003406000135071345
0.024849610741514594   -0.012099930843976248   0.003406000135071345
0.024849610741514594   -0.012099930843976248   0.003406000135071345
0.6639201686538407   0.007978612372745997   -0.012283856138001037
0.6639201686538407   0.007978612372745997   -0.012283856138001037
0.6639201686538407   0.007978612372745997   -0.012283856138001037
0.6639201686538407   0.007978612372745997   -0.012283856138001037
0.3277528762671394   -0.013998818816077674   -0.008928156582922554
0.3277528762671394   -0.013998818816077674   -0.008928156582922554
0.3277528762671394   -0.013998818816077674   -0.008928156582922554
0.3277528762671394   -0.013998818816077674   -0.008928156582922554
-0.027191825447683553   0.015581688724408689   0.030751910189825808
-0.027191825447683553   0.015581688724408689   0.030751910189825808
-0.027191825447683553   0.015581688724408689   0.030751910189825808
-0.027191825447683553   0.015581688724408689   0.030751910189825808
-0.7122429976344704   -0.23244233902406486   -0.014231478707433649
-0.7122429976344704   -0.23244233902406486   -0.014231478707433649
-0.7122429976344704   -0.23244233902406486   -0.014231478707433649
-0.7122429976344704   -0.23244233902406486   -0.014231478707433649
-0.6558148271823272   -0.10034457435546335   -0.014990257325815605
-0.6558148271823272   -0.10034457435546335   -0.014990257325815605
-0.6558148271823272   -0.10034457435546335   -0.014990257325815605
-0.6558148271823272   -0.10034457435546335   -0.014990257325815605
-0.024522866398626282   -0.07987690730304041   0.013873393159966527
-0.024522866398626282   -0.07987690730304041   0.013873393159966527
-0.024522866398626282   -0.07987690730304041   0.013873393159966527
-0.024522866398626282   -0.07987690730304041   0.013873393159966527
-0.3565572172356684   -0.0939492600812693   -0.029450897646585664
-0.3565572172356684   -0.0939492600812693   -0.029450897646585664
-0.3565572172356684   -0.0939492600812693   -0.029450897646585664
-0.3565572172356684   -0.0939492600812693   -0.029450897646585664
0.0014974193613488413   0.03911292445816278   0.024984990198638958
0.0014974193613488413   0.03911292445816278   0.024984990198638958
0.0014974193613488413   0.03911292445816278   0.024984990198638958
0.0014974193613488413   0.03911292445816278   0.024984990198638958
-0.6801919408133708   -0.217691233987735   -0.01952916584876194
-0.6801919408133708   -0.217691233987735   -0.01952916584876194
-0.6801919408133708   -0.217691233987735   -0.01952916584876194
-0.6801919408133708   -0.217691233987735   -0.01952916584876194
-0.6237771110618695   -0.07308656906042182   -0.02041181841501219
-0.6237771110618695   -0.07308656906042182   -0.02041181841501219
-0.6237771110618695   -0.07308656906042182   -0.02041181841501219
-0.6237771110618695   -0.07308656906042182   -0.02041181841501219
-0.0004590478717201099   -0.0620856241180365   0.005671334444198886
-0.0004590478717201099   -0.0620856241180365   0.005671334444198886
-0.0004590478717201099   -0.0620856241180365   0.005671334444198886
-0.0004590478717201099   -0.0620856241180365   0.005671334444198886
-0.3254563919061931   -0.07435256427057765   -0.016353683586475706
-0.3254563919061931   -0.07435256427057765   -0.016353683586475706
-0.3254563919061931   -0.07435256427057765   -0.016353683586475706
-0.3254563919061931   -0.07435256427057765   -0.016353683586475706
0.027750700345196624   0.06519020598845256   0.01944424542229351
0.027750700345196624   0.06519020598845256   0.01944424542229351
0.027750700345196624   0.06519020598845256   0.01944424542229351
0.027750700345196624   0.06519020598845256   0.01944424542229351
-0.6519965237252406   -0.20037206361336457   -0.03422338717892094
-0.6519965237252406   -0.20037206361336457   -0.03422338717892094
-0.6519965237252406   -0.20037206361336457   -0.03422338717892094
-0.6519965237252406   -0.20037206361336457   -0.03422338717892094
-0.6011370876009594   -0.047103121432393105   -0.026473266329413343
-0.6011370876009594   -0.047103121432393105   -0.026473266329413343
-0.6011370876009594   -0.047103121432393105   -0.026473266329413343
-0.6011370876009594   -0.047103121432393105   -0.026473266329413343
0.01534165162327706   -0.047867780210028535   -0.008365946090062124
0.01534165162327706   -0.047867780210028535   -0.008365946090062124
0.01534165162327706   -0.047867780210028535   -0.008365946090062124
0.01534165162327706   -0.047867780210028535   -0.008365946090062124
-0.30264507115110806   -0.05607484830344174   -0.008153272245647786
-0.30264507115110806   -0.05607484830344174   -0.008153272245647786
-0.30264507115110806   -0.05607484830344174   -0.008153272245647786
-0.30264507115110806   -0.05607484830344174   -0.008153272245647786
-0.6669558792392265   -0.019240560740984042   -0.000997665014299605
-0.6669558792392265   -0.019240560740984042   -0.000997665014299605
-0.6669558792392265   -0.019240560740984042   -0.000997665014299605
-0.6669558792392265   -0.019240560740984042   -0.000997665014299605
-1.3503828966913385   -0.24990332323882455   -0.011442881279865483
-1.3503828966913385   -0.24990332323882455   -0.011442881279865483
-1.3503828966913385   -0.24990332323882455   -0.011442881279865483
-1.3503828966913385   -0.24990332323882455   -0.011442881279865483
-1.2897877492190917   -0.128472554248968   -0.04458985254010394
-1.2897877492190917   -0.128472554248968   -0.04458985254010394
-1.2897877492190917   -0.128472554248968   -0.04458985254010394
-1.2897877492190917   -0.128472554248968   -0.04458985254010394
-0.6434618015152043   -0.08298577638908537   0.029416073043415484
-0.6434618015152043   -0.08298577638908537   0.029416073043415484
-0.6434618015152043   -0.08298577638908537   0.029416073043415484
-0.6434618015152043   -0.08298577638908537   0.029416073043415484
-0.9789975196046583   -0.11294644529177783   -0.020757817891419346
-0.9789975196046583   -0.11294644529177783   -0.020757817891419346
-0.9789975196046583   -0.11294644529177783   -0.020757817891419346
-0.9789975196046583   -0.11294644529177783   -0.020757817891419346
-0.6315632110199899   0.011062478104127998   -0.005139228973725922
-0.6315632110199899   0.011062478104127998   -0.005139228973725922
-0.6315632110199899   0.011062478104127998   -0.005139228973725922
-0.6315632110199899   0.011062478104127998   -0.005139228973725922
-1.302205299623633   -0.22303976865150638   -0.012110390160260522
-1.302205299623633   -0.22303976865150638   -0.012110390160260522
-1.302205299623633   -0.22303976865150638   -0.012110390160260522
-1.302205299623633   -0.22303976865150638   -0.012110390160260522
-1.2439897465534635   -0.10000982127447403   -0.051639820800940046
-1.2439897465534635   -0.10000982127447403   -0.051639820800940046
-1.2439897465534635   -0.10000982127447403   -0.051639820800940046
-1.2439897465534635   -0.10000982127447403   -0.051639820800940046
-0.6123496257761607   -0.0616154208359271   0.025254459789041672
-0.6123496257761607   -0.0616154208359271   0.025254459789041672
-0.6123496257761607   -0.0616154208359271   0.025254459789041672
-0.6123496257761607   -0.0616154208359271   0.025254459789041672
-0.9319299238988964   -0.0856387232450014   -0.006816882177695622
-0.9319299238988964   -0.0856387232450014   -0.006816882177695622
-0.9319299238988964   -0.0856387232450014   -0.006816882177695622
-0.9319299238988964   -0.0856387232450014   -0.006816882177695622
-0.599449685164851   0.037378252971139586   -0.009239510961484725
-0.599449685164851   0.037378252971139586   -0.009239510961484725
-0.599449685164851   0.037378252971139586   -0.009239510961484725
-0.599449685164851   0.037378252971139586   -0.009239510961484725
-1.2590954344007026   -0.20120924231746973   -0.02596883899412958
-1.2590954344007026   -0.20120924231746973   -0.02596883899412958
-1.2590954344007026   -0.20120924231746973   -0.02596883899412958
-1.2590954344007026   -0.20120924231746973   -0.02596883899412958
-1.2068349501102624   -0.0699994749490854   -0.053286008570071576
-1.2068349501102624   -0.0699994749490854   -0.053286008570071576
-1.2068349501102624   -0.0699994749490854   -0.053286008570071576
-1.2068349501102624   -0.0699994749490854   -0.053286008570071576
-0.5944778603463443   -0.04802917475688068   0.007748923268155114
-0.5944778603463443   -0.04802917475688068   0.007748923268155114
-0.5944778603463443   -0.04802917475688068   0.007748923268155114
-0.5944778603463443   -0.04802917475688068   0.007748923268155114
-0.9059711065121437   -0.06899169403616184   -0.0022660578832493228
-0.9059711065121437   -0.06899169403616184   -0.0022660578832493228
-0.9059711065121437   -0.06899169403616184   -0.0022660578832493228
-0.9059711065121437   -0.06899169403616184   -0.0022660578832493228
-1.3135357605806388   -0.04455465000214981   -0.03255587396304205
-1.3135357605806388   -0.04455465000214981   -0.03255587396304205
-1.3135357605806388   -0.04455465000214981   -0.03255587396304205
-1.3135357605806388   -0.04455465000214981   -0.03255587396304205
-1.9806575069533117   -0.16899324980182068   0.07485713569606813
-1.9806575069533117   -0.16899324980182068   0.07485713569606813
-1.9806575069533117   -0.16899324980182068   0.07485713569606813
-1.9806575069533117   -0.16899324980182068   0.07485713569606813
-1.9127068812693184   -0.13463262059120418   -0.04357246372430121
-1.9127068812693184   -0.13463262059120418   -0.04357246372430121
-1.9127068812693184   -0.13463262059120418   -0.04357246372430121
-1.9127068812693184   -0.13463262059120418   -0.04357246372430121
-1.234331168156645   0.03539364120693028   0.06882685731622265
-1.234331168156645   0.03539364120693028   0.06882685731622265
-1.234331168156645   0.03539364120693028   0.06882685731622265
-1.234331168156645   0.03539364120693028   0.06882685731622265
-1.5382604802505087   -0.053024532496819266   0.00738125217084766
-1.5382604802505087   -0.053024532496819266   0.00738125217084766
-1.5382604802505087   -0.053024532496819266   0.00738125217084766
-1.5382604802505087   -0.053024532496819266   0.00738125217084766
-1.2630327028535948   -0.003200605962929426   -0.03608656899865126
-1.2630327028535948   -0.003200605962929426   -0.03608656899865126
-1.2630327028535948   -0.003200605962929426   -0.03608656899865126
-1.2630327028535948   -0.003200605962929426   -0.03608656899865126
-1.8793764534175634   -0.09140948026653656   0.07985653520980693
-1.8793764534175634   -0.09140948026653656   0.07985653520980693
-1.8793764534175634   -0.09140948026653656   0.07985653520980693
-1.8793764534175634   -0.09140948026653656   0.07985653520980693
-1.8398110124752158   -0.11330716161768972   -0.05189014133251603
-1.8398110124752158   -0.11330716161768972   -0.05189014133251603
-1.8398110124752158   -0.11330716161768972   -0.05189014133251603
-1.8398110124752158   -0.11330716161768972   -0.05189014133251603
-1.1890396763907771   0.05664168376783835   0.06645902497017964
-1.1890396763907771   0.05664168376783835   0.06645902497017964
-1.1890396763907771   0.05664168376783835   0.06645902497017964
-1.1890396763907771   0.05664168376783835   0.06645902497017964
-1.4952453552782246   -0.021388952435168196   0.030643400856287112
-1.4952453552782246   -0.021388952435168196   0.030643400856287112
-1.4952453552782246   -0.021388952435168196   0.030643400856287112
-1.4952453552782246   -0.021388952435168196   0.030643400856287112
-1.218757035268851   0.013487037466353324   -0.03897312311869584
-1.218757035268851   0.013487037466353324   -0.03897312311869584
-1.218757035268851   0.013487037466353324   -0.03897312311869584
-1.218757035268851   0.013487037466353324   -0.03897312311869584
-1.809156266913227   -0.06921512863229584   0.05729155349202006
-1.809156266913227   -0.06921512863229584   0.05729155349202006
-1.809156266913227   -0.06921512863229584   0.05729155349202006
-1.809156266913227   -0.06921512863229584   0.05729155349202006
-1.7644202227893704   -0.09316740531697765   -0.06271123933607624
-1.7644202227893704   -0.09316740531697765   -0.06271123933607624
-1.7644202227893704   -0.09316740531697765   -0.06271123933607624
-1.7644202227893704   -0.09316740531697765   -0.06271123933607624
-1.1554836534168447   0.08206302856816394   0.05140797137976838
-1.1554836534168447   0.08206302856816394   0.05140797137976838
-1.1554836534168447   0.08206302856816394   0.05140797137976838
-1.1554836534168447   0.08206302856816394   0.05140797137976838
-1.4141745984398806   0.0056529160300212156   0.05395322194803884
-1.4141745984398806   0.0056529160300212156   0.05395322194803884
-1.4141745984398806   0.0056529160300212156   0.05395322194803884
-1.4141745984398806   0.0056529160300212156   0.05395322194803884
1.7431963041765615   0.10454271392908843   0.06317627000887485
1.7431963041765615   0.10454271392908843   0.06317627000887485
1.7431963041765615   0.10454271392908843   0.06317627000887485
1.7431963041765615   0.10454271392908843   0.06317627000887485
0.8309629668406067   -0.155605693827083   0.014117776398730103
0.8309629668406067   -0.155605693827083   0.014117776398730103
0.8309629668406067   -0.155605693827083   0.014117776398730103
0.8309629668406067   -0.155605693827083   0.014117776398730103
0.876803200835603   -0.06566525608539053   0.048594703204705464
0.876803200835603   -0.06566525608539053   0.048594703204705464
0.876803200835603   -0.06566525608539053   0.048594703204705464
0.876803200835603   -0.06566525608539053   0.048594703204705464
1.752375275568491   0.014917463863715952   -0.014073003197388606
1.752375275568491   0.014917463863715952   -0.014073003197388606
1.752375275568491   0.014917463863715952   -0.014073003197388606
1.752375275568491   0.014917463863715952   -0.014073003197388606
1.225558823926093   -0.033416920507506886   -0.08142739115256455
1.225558823926093   -0.033416920507506886   -0.08142739115256455
1.225558823926093   -0.033416920507506886   -0.08142739115256455
1.225558823926093   -0.033416920507506886   -0.08142739115256455
1.7854663606579542   0.11634034371738922   0.04995954239625314
1.7854663606579542   0.11634034371738922   0.04995954239625314
1.7854663606579542   0.11634034371738922   0.04995954239625314
1.7854663606579542   0.11634034371738922   0.04995954239625314
0.8516510563558405   -0.15914919532936325   0.016317920049865847
0.8516510563558405   -0.15914919532936325   0.016317920049865847
0.8516510563558405   -0.15914919532936325   0.016317920049865847
0.8516510563558405   -0.15914919532936325   0.016317920049865847
0.8941638976167617   -0.05580847231400632   0.03697764780190321
0.8941638976167617   -0.05580847231400632   0.03697764780190321
0.8941638976167617   -0.05580847231400632   0.03697764780190321
0.8941638976167617   -0.05580847231400632   0.03697764780190321
1.7830661476641616   0.026029661732337395   -0.004311772676398221
1.7830661476641616   0.026029661732337395   -0.004311772676398221
1.7830661476641616   0.026029661732337395   -0.004311772676398221
1.7830661476641616   0.026029661732337395   -0.004311772676398221
1.2760980815275915   -0.026423910948622453   -0.055630844623027045
1.2760980815275915   -0.026423910948622453   -0.055630844623027045
1.2760980815275915   -0.026423910948622453   -0.055630844623027045
1.2760980815275915   -0.026423910948622453   -0.055630844623027045
1.8110645942765895   0.12709846823432852   0.034611653883749566
1.8110645942765895   0.12709846823432852   0.034611653883749566
1.8110645942765895   0.12709846823432852   0.034611653883749566
1.8110645942765895   0.12709846823432852   0.034611653883749566
0.8716879537673541   -0.1513547760529773   0.020144232293836065
0.8716879537673541   -0.1513547760529773   0.020144232293836065
0.8716879537673541   -0.1513547760529773   0.020144232293836065
0.8716879537673541   -0.1513547760529773   0.020144232293836065
0.9197154933908867   -0.017377928751029725   0.03380390058465299
0.9197154933908867   -0.017377928751029725   0.03380390058465299
0.9197154933908867   -0.017377928751029725   0.03380390058465299
0.9197154933908867   -0.017377928751029725   0.03380390058465299
1.8149887645889498   0.05149743612094815   -0.0007152985725323024
1.8149887645889498   0.05149743612094815   -0.0007152985725323024
1.8149887645889498   0.05149743612094815   -0.0007152985725323024
1.8149887645889498   0.05149743612094815   -0.0007152985725323024
1.2823606512955008   -0.012177474423113843   -0.041588538390907176
1.2823606512955008   -0.012177474423113843   -0.041588538390907176
1.2823606512955008   -0.012177474423113843   -0.041588538390907176
1.2823606512955008   -0.012177474423113843   -0.041588538390907176
0.8769836085264063   0.022376212533917667   0.06623907846672777
0.8769836085264063   0.022376212533917667   0.06623907846672777
0.8769836085264063   0.022376212533917667   0.06623907846672777
0.8769836085264063   0.022376212533917667   0.06623907846672777
0.0460395209091877   -0.3098687682875355   0.031790939692823234
0.0460395209091877   -0.3098687682875355   0.031790939692823234
0.0460395209091877   -0.3098687682875355   0.031790939692823234
0.0460395209091877   -0.3098687682875355   0.031790939692823234
0.10576827746666329   -0.13120709472875544   0.029665584447882205
0.10576827746666329   -0.13120709472875544   0.029665584447882205
0.10576827746666329   -0.13120709472875544   0.029665584447882205
0.10576827746666329   -0.13120709472875544   0.029665584447882205
0.8544910902121308   -0.14881303819708752   0.020181932199034025
0.8544910902121308   -0.14881303819708752   0.020181932199034025
0.8544910902121308   -0.14881303819708752   0.020181932199034025
0.8544910902121308   -0.14881303819708752   0.020181932199034025
0.45552808587979543   -0.138871415694904   -0.0520459086042155
0.45552808587979543   -0.138871415694904   -0.0520459086042155
0.45552808587979543   -0.138871415694904   -0.0520459086042155
0.45552808587979543   -0.138871415694904   -0.0520459086042155
0.8977449836879567   0.03231900158512033   0.05531935979596755
0.8977449836879567   0.03231900158512033   0.05531935979596755
0.8977449836879567   0.03231900158512033   0.05531935979596755
0.8977449836879567   0.03231900158512033   0.05531935979596755
0.07393396898978473   -0.3009195495120038   0.04020649684673773
0.07393396898978473   -0.3009195495120038   0.04020649684673773
0.07393396898978473   -0.3009195495120038   0.04020649684673773
0.07393396898978473   -0.3009195495120038   0.04020649684673773
0.1297790800621442   -0.11320290076742472   0.02149550470109334
0.1297790800621442   -0.11320290076742472   0.02149550470109334
0.1297790800621442   -0.11320290076742472   0.02149550470109334
0.1297790800621442   -0.11320290076742472   0.02149550470109334
0.8750443737599741   -0.1393790553271719   0.024950611531130845
0.8750443737599741   -0.1393790553271719   0.024950611531130845
0.8750443737599741   -0.1393790553271719   0.024950611531130845
0.8750443737599741   -0.1393790553271719   0.024950611531130845
0.4759626958883542   -0.1319758156139307   -0.026024613588205278
0.4759626958883542   -0.1319758156139307   -0.026024613588205278
0.4759626958883542   -0.1319758156139307   -0.026024613588205278
0.4759626958883542   -0.1319758156139307   -0.026024613588205278
0.9171107833370353   0.04928754980431299   0.04661605428495206
0.9171107833370353   0.04928754980431299   0.04661605428495206
0.9171107833370353   0.04928754980431299   0.04661605428495206
0.9171107833370353   0.04928754980431299   0.04661605428495206
0.09869877813581618   -0.2908833982481863   0.04377449255021679
0.09869877813581618   -0.2908833982481863   0.04377449255021679
0.09869877813581618   -0.2908833982481863   0.04377449255021679
0.09869877813581618   -0.2908833982481863   0.04377449255021679
0.16663475614591794   -0.08617547159367892   0.01423113653773598
0.16663475614591794   -0.08617547159367892   0.01423113653773598
0.16663475614591794   -0.08617547159367892   0.01423113653773598
0.16663475614591794   -0.08617547159367892   0.01423113653773598
0.8975375030620364   -0.12504089764499451   0.03057691783436986
0.8975375030620364   -0.12504089764499451   0.03057691783436986
0.8975375030620364   -0.12504089764499451   0.03057691783436986
0.8975375030620364   -0.12504089764499451   0.03057691783436986
0.5118089498772693   -0.11527753913993558   0.004259286275703475
0.5118089498772693   -0.11527753913993558   0.004259286275703475
0.5118089498772693   -0.11527753913993558   0.004259286275703475
0.5118089498772693   -0.11527753913993558   0.004259286275703475
0.09839618073809003   -0.058939261248432   0.04264473179823147
0.09839618073809003   -0.058939261248432   0.04264473179823147
0.09839618073809003   -0.058939261248432   0.04264473179823147
0.09839618073809003   -0.058939261248432   0.04264473179823147
-0.7453278830102439   -0.5321938933458493   0.046076840583411355
-0.7453278830102439   -0.5321938933458493   0.046076840583411355
-0.7453278830102439   -0.5321938933458493   0.046076840583411355
-0.7453278830102439   -0.5321938933458493   0.046076840583411355
-0.6509115862049171   -0.20731737043711862   0.0030597972958662754
-0.6509115862049171   -0.20731737043711862   0.0030597972958662754
-0.6509115862049171   -0.20731737043711862   0.0030597972958662754
-0.6509115862049171   -0.20731737043711862   0.0030597972958662754
0.05218553369276312   -0.38704093754784963   0.01758570839747549
0.05218553369276312   -0.38704093754784963   0.01758570839747549
0.05218553369276312   -0.38704093754784963   0.01758570839747549
0.05218553369276312   -0.38704093754784963   0.01758570839747549
-0.321153706984263   -0.29849564274736995   -0.06245049549756992
-0.321153706984263   -0.29849564274736995   -0.06245049549756992
-0.321153706984263   -0.29849564274736995   -0.06245049549756992
-0.321153706984263   -0.29849564274736995   -0.06245049549756992
0.12353877063283153   -0.046314222848957136   0.03362517839892509
0.12353877063283153   -0.046314222848957136   0.03362517839892509
0.12353877063283153   -0.046314222848957136   0.03362517839892509
0.12353877063283153   -0.046314222848957136   0.03362517839892509
-0.7057347584882929   -0.5315140204793176   0.05314058592119163
-0.7057347584882929   -0.5315140204793176   0.05314058592119163
-0.7057347584882929   -0.5315140204793176   0.05314058592119163
-0.7057347584882929   -0.5315140204793176   0.05314058592119163
-0.6144919773908051   -0.18603818977503522   -5.8564321709600464e-05
-0.6144919773908051   -0.18603818977503522   -5.8564321709600464e-05
-0.6144919773908051   -0.18603818977503522   -5.8564321709600464e-05
-0.6144919773908051   -0.18603818977503522   -5.8564321709600464e-05
0.07749919823574629   -0.3785085481638748   0.02540174296555582
0.07749919823574629   -0.3785085481638748   0.02540174296555582
0.07749919823574629   -0.3785085481638748   0.02540174296555582
0.07749919823574629   -0.3785085481638748   0.02540174296555582
-0.28426379095652105   -0.28828665423683897   -0.023276598207866858
-0.28426379095652105   -0.28828665423683897   -0.023276598207866858
-0.28426379095652105   -0.28828665423683897   -0.023276598207866858
-0.28426379095652105   -0.28828665423683897   -0.023276598207866858
0.14652595424899872   -0.02951457967428655   0.021541554542229842
0.14652595424899872   -0.02951457967428655   0.021541554542229842
0.14652595424899872   -0.02951457967428655   0.021541554542229842
0.14652595424899872   -0.02951457967428655   0.021541554542229842
-0.6686019720421789   -0.5201153969027432   0.06346866954913914
-0.6686019720421789   -0.5201153969027432   0.06346866954913914
-0.6686019720421789   -0.5201153969027432   0.06346866954913914
-0.6686019720421789   -0.5201153969027432   0.06346866954913914
-0.5543922911961732   -0.16152813036040953   -0.006933754022516805
-0.5543922911961732   -0.16152813036040953   -0.006933754022516805
-0.5543922911961732   -0.16152813036040953   -0.006933754022516805
-0.5543922911961732   -0.16152813036040953   -0.006933754022516805
0.11701307901754651   -0.3547222942283351   0.0346695735305331
0.11701307901754651   -0.3547222942283351   0.0346695735305331
0.11701307901754651   -0.3547222942283351   0.0346695735305331
0.11701307901754651   -0.3547222942283351   0.0346695735305331
-0.23639334772283835   -0.2654572493696954   0.017713541863683104
-0.23639334772283835   -0.2654572493696954   0.017713541863683104
-0.23639334772283835   -0.2654572493696954   0.017713541863683104
-0.23639334772283835   -0.2654572493696954   0.017713541863683104
-0.6653473524587027   -0.10654209844772679   0.02032769844298751
-0.6653473524587027   -0.10654209844772679   0.02032769844298751
-0.6653473524587027   -0.10654209844772679   0.02032769844298751
-0.6653473524587027   -0.10654209844772679   0.02032769844298751
-1.6579447865002699   -0.8283282795977075   -0.03892547891752471
-1.6579447865002699   -0.8283282795977075   -0.03892547891752471
-1.6579447865002699   -0.8283282795977075   -0.03892547891752471
-1.6579447865002699   -0.8283282795977075   -0.03892547891752471
-1.5021452020165198   -0.2697589652473658   -0.04576647074660999
-1.5021452020165198   -0.2697589652473658   -0.04576647074660999
-1.5021452020165198   -0.2697589652473658   -0.04576647074660999
-1.5021452020165198   -0.2697589652473658   -0.04576647074660999
-0.7457564053137213   -0.6924263195642981   0.013944650879024578
-0.7457564053137213   -0.6924263195642981   0.013944650879024578
-0.7457564053137213   -0.6924263195642981   0.013944650879024578
-0.7457564053137213   -0.6924263195642981   0.013944650879024578
-1.1415111927212866   -0.4899547921922549   -0.06561015996956171
-1.1415111927212866   -0.4899547921922549   -0.06561015996956171
-1.1415111927212866   -0.4899547921922549   -0.06561015996956171
-1.1415111927212866   -0.4899547921922549   -0.06561015996956171
-0.6223248466360931   -0.08075531256781064   0.01943143727067809
-0.6223248466360931   -0.08075531256781064   0.01943143727067809
-0.6223248466360931   -0.08075531256781064   0.01943143727067809
-0.6223248466360931   -0.08075531256781064   0.01943143727067809
-1.6217951886503041   -0.8776484001999992   -0.036126968962898354
-1.6217951886503041   -0.8776484001999992   -0.036126968962898354
-1.6217951886503041   -0.8776484001999992   -0.036126968962898354
-1.6217951886503041   -0.8776484001999992   -0.036126968962898354
-1.4536499732631243   -0.24425485054446605   -0.046642341266750986
-1.4536499732631243   -0.24425485054446605   -0.046642341266750986
-1.4536499732631243   -0.24425485054446605   -0.046642341266750986
-1.4536499732631243   -0.24425485054446605   -0.046642341266750986
-0.7104389003185418   -0.686944941988691   0.021113573253266738
-0.7104389003185418   -0.686944941988691   0.021113573253266738
-0.7104389003185418   -0.686944941988691   0.021113573253266738
-0.7104389003185418   -0.686944941988691   0.021113573253266738
-1.0906017641678565   -0.4766579650018899   -0.04596207914188949
-1.0906017641678565   -0.4766579650018899   -0.04596207914188949
-1.0906017641678565   -0.4766579650018899   -0.04596207914188949
-1.0906017641678565   -0.4766579650018899   -0.04596207914188949
-0.588065712120977   -0.06050217967683906   0.006536751929236886
-0.588065712120977   -0.06050217967683906   0.006536751929236886
-0.588065712120977   -0.06050217967683906   0.006536751929236886
-0.588065712120977   -0.06050217967683906   0.006536751929236886
-1.5759273502222295   -0.8706018016178574   -0.03168227498887671
-1.5759273502222295   -0.8706018016178574   -0.03168227498887671
-1.5759273502222295   -0.8706018016178574   -0.03168227498887671
-1.5759273502222295   -0.8706018016178574   -0.03168227498887671
-1.377987210205469   -0.2168561442923485   -0.05287657455005902
-1.377987210205469   -0.2168561442923485   -0.05287657455005902
-1.377987210205469   -0.2168561442923485   -0.05287657455005902
-1.377987210205469   -0.2168561442923485   -0.05287657455005902
-0.6340278309093714   -0.6175384667542961   0.05089888380539004
-0.6340278309093714   -0.6175384667542961   0.05089888380539004
-0.6340278309093714   -0.6175384667542961   0.05089888380539004
-0.6340278309093714   -0.6175384667542961   0.05089888380539004
-1.0338275608494836   -0.43196473025320264   -0.025496131299247493
-1.0338275608494836   -0.43196473025320264   -0.025496131299247493
-1.0338275608494836   -0.43196473025320264   -0.025496131299247493
-1.0338275608494836   -0.43196473025320264   -0.025496131299247493
-1.5047763755647532   -0.09089232619238702   -0.01051937764526091
-1.5047763755647532   -0.09089232619238702   -0.01051937764526091
-1.5047763755647532   -0.09089232619238702   -0.01051937764526091
-1.5047763755647532   -0.09089232619238702   -0.01051937764526091
-2.6549879004218218   -0.5255782873087149   0.027096463878247046
-2.6549879004218218   -0.5255782873087149   0.027096463878247046
-2.6549879004218218   -0.5255782873087149   0.027096463878247046
-2.6549879004218218   -0.5255782873087149   0.027096463878247046
-2.5505370266404466   -0.2527884641763265   -0.05587781111625925
-2.5505370266404466   -0.2527884641763265   -0.05587781111625925
-2.5505370266404466   -0.2527884641763265   -0.05587781111625925
-2.5505370266404466   -0.2527884641763265   -0.05587781111625925
-1.4716198124913384   -0.2724197168099034   0.1095212284418216
-1.4716198124913384   -0.2724197168099034   0.1095212284418216
-1.4716198124913384   -0.2724197168099034   0.1095212284418216
-1.4716198124913384   -0.2724197168099034   0.1095212284418216
-1.9626332763726018   -0.3048030509114887   0.02802642593932365
-1.9626332763726018   -0.3048030509114887   0.02802642593932365
-1.9626332763726018   -0.3048030509114887   0.02802642593932365
-1.9626332763726018   -0.3048030509114887   0.02802642593932365
-1.4429798145558608   -0.02003429939523549   0.00033580070454813926
-1.4429798145558608   -0.02003429939523549   0.00033580070454813926
-1.4429798145558608   -0.02003429939523549   0.00033580070454813926
-1.4429798145558608   -0.02003429939523549   0.00033580070454813926
-2.5891056569841657   -0.515102513999228   0.013593086988025749
-2.5891056569841657   -0.515102513999228   0.013593086988025749
-2.5891056569841657   -0.515102513999228   0.013593086988025749
-2.5891056569841657   -0.515102513999228   0.013593086988025749
-2.49305830765394   -0.2316389952038277   -0.07092573862492582
-2.49305830765394   -0.2316389952038277   -0.07092573862492582
-2.49305830765394   -0.2316389952038277   -0.07092573862492582
-2.49305830765394   -0.2316389952038277   -0.07092573862492582
-1.4217001085545466   -0.25880799613714445   0.12766012786882447
-1.4217001085545466   -0.25880799613714445   0.12766012786882447
-1.4217001085545466   -0.25880799613714445   0.12766012786882447
-1.4217001085545466   -0.25880799613714445   0.12766012786882447
-1.9323417165571173   -0.2510430706832892   0.02696519561321388
-1.9323417165571173   -0.2510430706832892   0.02696519561321388
-1.9323417165571173   -0.2510430706832892   0.02696519561321388
-1.9323417165571173   -0.2510430706832892   0.02696519561321388
-1.39850895255613   -0.0013186617620962737   -0.013873426514140363
-1.39850895255613   -0.0013186617620962737   -0.013873426514140363
-1.39850895255613   -0.0013186617620962737   -0.013873426514140363
-1.39850895255613   -0.0013186617620962737   -0.013873426514140363
-2.5198777470764684   -0.492756613002981   0.05609468206156354
-2.5198777470764684   -0.492756613002981   0.05609468206156354
-2.5198777470764684   -0.492756613002981   0.05609468206156354
-2.5198777470764684   -0.492756613002981   0.05609468206156354
-2.3736933679356538   -0.18772403834245077   -0.07931764865449592
-2.3736933679356538   -0.18772403834245077   -0.07931764865449592
-2.3736933679356538   -0.18772403834245077   -0.07931764865449592
-2.3736933679356538   -0.18772403834245077   -0.07931764865449592
-1.3440386417691164   -0.24067141973829137   0.1406815430776595
-1.3440386417691164   -0.24067141973829137   0.1406815430776595
-1.3440386417691164   -0.24067141973829137   0.1406815430776595
-1.3440386417691164   -0.24067141973829137   0.1406815430776595
-1.8168121762150595   -0.19192929849071097   0.05536294795672544
-1.8168121762150595   -0.19192929849071097   0.05536294795672544
-1.8168121762150595   -0.19192929849071097   0.05536294795672544
-1.8168121762150595   -0.19192929849071097   0.05536294795672544
1.9093415409345815   0.06261855951310752   0.02686046900570782
1.9093415409345815   0.06261855951310752   0.02686046900570782
1.9093415409345815   0.06261855951310752   0.02686046900570782
1.9093415409345815   0.06261855951310752   0.02686046900570782
0.9748352583704579   -0.05137565961797441   0.019746650172667413
0.9748352583704579   -0.05137565961797441   0.019746650172667413
0.9748352583704579   -0.05137565961797441   0.019746650172667413
0.9748352583704579   -0.05137565961797441   0.019746650172667413
0.9367679157332053   -0.1376139859118023   0.03887710776030595
0.9367679157332053   -0.1376139859118023   0.03887710776030595
0.9367679157332053   -0.1376139859118023   0.03887710776030595
0.9367679157332053   -0.1376139859118023   0.03887710776030595
1.8954841119052968   0.10679386322141055   0.014283910192170846
1.8954841119052968   0.10679386322141055   0.014283910192170846
1.8954841119052968   0.10679386322141055   0.014283910192170846
1.8954841119052968   0.10679386322141055   0.014283910192170846
1.3529418637052626   -0.019200662425403914   -0.04996368242087065
1.3529418637052626   -0.019200662425403914   -0.04996368242087065
1.3529418637052626   -0.019200662425403914   -0.04996368242087065
1.3529418637052626   -0.019200662425403914   -0.04996368242087065
1.8850556399233664   0.0483793500624623   0.020556063441467737
1.8850556399233664   0.0483793500624623   0.020556063441467737
1.8850556399233664   0.0483793500624623   0.020556063441467737
1.8850556399233664   0.0483793500624623   0.020556063441467737
0.9440826725097015   -0.08231318795828815   0.020150093689272702
0.9440826725097015   -0.08231318795828815   0.020150093689272702
0.9440826725097015   -0.08231318795828815   0.020150093689272702
0.9440826725097015   -0.08231318795828815   0.020150093689272702
0.9124895767396569   -0.14079188049873292   0.03215708709275518
0.9124895767396569   -0.14079188049873292   0.03215708709275518
0.9124895767396569   -0.14079188049873292   0.03215708709275518
0.9124895767396569   -0.14079188049873292   0.03215708709275518
1.8732996504445196   0.10216989605644361   0.02473216719686168
1.8732996504445196   0.10216989605644361   0.02473216719686168
1.8732996504445196   0.10216989605644361   0.02473216719686168
1.8732996504445196   0.10216989605644361   0.02473216719686168
1.348918378979107   -0.02648613542505629   -0.05783016133581359
1.348918378979107   -0.02648613542505629   -0.05783016133581359
1.348918378979107   -0.02648613542505629   -0.05783016133581359
1.348918378979107   -0.02648613542505629   -0.05783016133581359
1.857761999776589   0.043061623894024625   0.0061521860196108585
1.857761999776589   0.043061623894024625   0.0061521860196108585
1.857761999776589   0.043061623894024625   0.0061521860196108585
1.857761999776589   0.043061623894024625   0.0061521860196108585
0.9224335739550906   -0.08727726178881356   0.028362454460004557
0.9224335739550906   -0.08727726178881356   0.028362454460004557
0.9224335739550906   -0.08727726178881356   0.028362454460004557
0.9224335739550906   -0.08727726178881356   0.028362454460004557
0.8868773263437223   -0.12842831188505188   0.027767399642694784
0.8868773263437223   -0.12842831188505188   0.027767399642694784
0.8868773263437223   -0.12842831188505188   0.027767399642694784
0.8868773263437223   -0.12842831188505188   0.027767399642694784
1.8391152946254974   0.10333024972583099   0.035577693035738975
1.8391152946254974   0.10333024972583099   0.035577693035738975
1.8391152946254974   0.10333024972583099   0.035577693035738975
1.8391152946254974   0.10333024972583099   0.035577693035738975
1.298244957084117   -0.026686797079705504   -0.07807355426024216
1.298244957084117   -0.026686797079705504   -0.07807355426024216
1.298244957084117   -0.026686797079705504   -0.07807355426024216
1.298244957084117   -0.026686797079705504   -0.07807355426024216
0.9661821395628236   -0.1226477943267239   0.04775319084324531
0.9661821395628236   -0.1226477943267239   0.04775319084324531
0.9661821395628236   -0.1226477943267239   0.04775319084324531
0.9661821395628236   -0.1226477943267239   0.04775319084324531
0.18749491042346178   -0.11505412823760151   0.010205718166410693
0.18749491042346178   -0.11505412823760151   0.010205718166410693
0.18749491042346178   -0.11505412823760151   0.010205718166410693
0.18749491042346178   -0.11505412823760151   0.010205718166410693
0.12184716418208748   -0.2891593390019882   0.05109435420451265
0.12184716418208748   -0.2891593390019882   0.05109435420451265
0.12184716418208748   -0.2891593390019882   0.05109435420451265
0.12184716418208748   -0.2891593390019882   0.05109435420451265
0.9714329623787683   0.03770586014866198   0.03688249492765675
0.9714329623787683   0.03770586014866198   0.03688249492765675
0.9714329623787683   0.03770586014866198   0.03688249492765675
0.9714329623787683   0.03770586014866198   0.03688249492765675
0.553104599796024   -0.12277939269917584   -0.0021274204218807435
0.553104599796024   -0.12277939269917584   -0.0021274204218807435
0.553104599796024   -0.12277939269917584   -0.0021274204218807435
0.553104599796024   -0.12277939269917584   -0.0021274204218807435
0.9389252973942418   -0.12796048097477974   0.04001051112846202
0.9389252973942418   -0.12796048097477974   0.04001051112846202
0.9389252973942418   -0.12796048097477974   0.04001051112846202
0.9389252973942418   -0.12796048097477974   0.04001051112846202
0.14614434529863343   -0.1317034817465379   0.015124402531792133
0.14614434529863343   -0.1317034817465379   0.015124402531792133
0.14614434529863343   -0.1317034817465379   0.015124402531792133
0.14614434529863343   -0.1317034817465379   0.015124402531792133
0.0924402168736454   -0.29174133098487676   0.045743390128935274
0.0924402168736454   -0.29174133098487676   0.045743390128935274
0.0924402168736454   -0.29174133098487676   0.045743390128935274
0.0924402168736454   -0.29174133098487676   0.045743390128935274
0.9490437513365287   0.030442610443404877   0.04369346913497678
0.9490437513365287   0.030442610443404877   0.04369346913497678
0.9490437513365287   0.030442610443404877   0.04369346913497678
0.9490437513365287   0.030442610443404877   0.04369346913497678
0.5131631008213834   -0.13085902317787293   -0.026510517274908135
0.5131631008213834   -0.13085902317787293   -0.026510517274908135
0.5131631008213834   -0.13085902317787293   -0.026510517274908135
0.5131631008213834   -0.13085902317787293   -0.026510517274908135
0.9148793572358256   -0.12978279926939032   0.03309690834424854
0.9148793572358256   -0.12978279926939032   0.03309690834424854
0.9148793572358256   -0.12978279926939032   0.03309690834424854
0.9148793572358256   -0.12978279926939032   0.03309690834424854
0.11768145531746908   -0.1404390769289725   0.020647328292149464
0.11768145531746908   -0.1404390769289725   0.020647328292149464
0.11768145531746908   -0.1404390769289725   0.020647328292149464
0.11768145531746908   -0.1404390769289725   0.020647328292149464
0.059535184908280275   -0.29159693138724   0.035799067276898494
0.059535184908280275   -0.29159693138724   0.035799067276898494
0.059535184908280275   -0.29159693138724   0.035799067276898494
0.059535184908280275   -0.29159693138724   0.035799067276898494
0.9236341841390775   0.030887789899885165   0.05223558683454127
0.9236341841390775   0.030887789899885165   0.05223558683454127
0.9236341841390775   0.030887789899885165   0.05223558683454127
0.9236341841390775   0.030887789899885165   0.05223558683454127
0.4887727596695018   -0.12985152498337732   -0.0472487660487659
0.4887727596695018   -0.12985152498337732   -0.0472487660487659
0.4887727596695018   -0.12985152498337732   -0.0472487660487659
0.4887727596695018   -0.12985152498337732   -0.0472487660487659
0.14613096501633668   -0.35454259939881594   0.042874462291997734
0.14613096501633668   -0.35454259939881594   0.042874462291997734
0.14613096501633668   -0.35454259939881594   0.042874462291997734
0.14613096501633668   -0.35454259939881594   0.042874462291997734
-0.5694231497730154   -0.1785096417571413   0.0006221214987181777
-0.5694231497730154   -0.1785096417571413   0.0006221214987181777
-0.5694231497730154   -0.1785096417571413   0.0006221214987181777
-0.5694231497730154   -0.1785096417571413   0.0006221214987181777
-0.6881896387624605   -0.5269213126020436   0.058559005581729204
-0.6881896387624605   -0.5269213126020436   0.058559005581729204
-0.6881896387624605   -0.5269213126020436   0.058559005581729204
-0.6881896387624605   -0.5269213126020436   0.058559005581729204
0.16810959033392453   -0.030076944861928204   0.023324090823637907
0.16810959033392453   -0.030076944861928204   0.023324090823637907
0.16810959033392453   -0.030076944861928204   0.023324090823637907
0.16810959033392453   -0.030076944861928204   0.023324090823637907
-0.23269057030065646   -0.2686745185551122   0.01010579369265465
-0.23269057030065646   -0.2686745185551122   0.01010579369265465
-0.23269057030065646   -0.2686745185551122   0.01010579369265465
-0.23269057030065646   -0.2686745185551122   0.01010579369265465
0.10068029765322627   -0.3746991582696737   0.03079984082789207
0.10068029765322627   -0.3746991582696737   0.03079984082789207
0.10068029765322627   -0.3746991582696737   0.03079984082789207
0.10068029765322627   -0.3746991582696737   0.03079984082789207
-0.6322513014030489   -0.19379005451557524   0.005119434292314776
-0.6322513014030489   -0.19379005451557524   0.005119434292314776
-0.6322513014030489   -0.19379005451557524   0.005119434292314776
-0.6322513014030489   -0.19379005451557524   0.005119434292314776
-0.729149397381271   -0.5353817952423933   0.047684103189980856
-0.729149397381271   -0.5353817952423933   0.047684103189980856
-0.729149397381271   -0.5353817952423933   0.047684103189980856
-0.729149397381271   -0.5353817952423933   0.047684103189980856
0.1405557563152065   -0.03813968727712525   0.03271944362898928
0.1405557563152065   -0.03813968727712525   0.03271944362898928
0.1405557563152065   -0.03813968727712525   0.03271944362898928
0.1405557563152065   -0.03813968727712525   0.03271944362898928
-0.28387408213745435   -0.2850079333229115   -0.02408131120658722
-0.28387408213745435   -0.2850079333229115   -0.02408131120658722
-0.28387408213745435   -0.2850079333229115   -0.02408131120658722
-0.28387408213745435   -0.2850079333229115   -0.02408131120658722
0.06935608342996873   -0.3812510344441714   0.01983242636985029
0.06935608342996873   -0.3812510344441714   0.01983242636985029
0.06935608342996873   -0.3812510344441714   0.01983242636985029
0.06935608342996873   -0.3812510344441714   0.01983242636985029
-0.671619373691433   -0.2059400972707472   0.005892523667519221
-0.671619373691433   -0.2059400972707472   0.005892523667519221
-0.671619373691433   -0.2059400972707472   0.005892523667519221
-0.671619373691433   -0.2059400972707472   0.005892523667519221
-0.7735399971335257   -0.531735411856638   0.0401570615400908
-0.7735399971335257   -0.531735411856638   0.0401570615400908
-0.7735399971335257   -0.531735411856638   0.0401570615400908
-0.7735399971335257   -0.531735411856638   0.0401570615400908
0.10989861552799371   -0.04263273894318599   0.038652027931411696
0.10989861552799371   -0.04263273894318599   0.038652027931411696
0.10989861552799371   -0.04263273894318599   0.038652027931411696
0.10989861552799371   -0.04263273894318599   0.038652027931411696
-0.325402099101215   -0.2912149761532   -0.05823369171711775
-0.325402099101215   -0.2912149761532   -0.05823369171711775
-0.325402099101215   -0.2912149761532   -0.05823369171711775
-0.325402099101215   -0.2912149761532   -0.05823369171711775
-0.6452098926513461   -0.6078003766453601   0.05097914199528797
-0.6452098926513461   -0.6078003766453601   0.05097914199528797
-0.6452098926513461   -0.6078003766453601   0.05097914199528797
-0.6452098926513461   -0.6078003766453601   0.05097914199528797
-1.4299163957578216   -0.22223865876858268   -0.03310903727184869
-1.4299163957578216   -0.22223865876858268   -0.03310903727184869
-1.4299163957578216   -0.22223865876858268   -0.03310903727184869
-1.4299163957578216   -0.22223865876858268   -0.03310903727184869
-1.6374729206886294   -0.8826996278981413   -0.045705375415283356
-1.6374729206886294   -0.8826996278981413   -0.045705375415283356
-1.6374729206886294   -0.8826996278981413   -0.045705375415283356
-1.6374729206886294   -0.8826996278981413   -0.045705375415283356
-0.6004522002850496   -0.04982779531750338   0.02015268068423891
-0.6004522002850496   -0.04982779531750338   0.02015268068423891
-0.6004522002850496   -0.04982779531750338   0.02015268068423891
-0.6004522002850496   -0.04982779531750338   0.02015268068423891
-1.0679301315071847   -0.42351878082349165   -0.03643221683434564
-1.0679301315071847   -0.42351878082349165   -0.03643221683434564
-1.0679301315071847   -0.42351878082349165   -0.03643221683434564
-1.0679301315071847   -0.42351878082349165   -0.03643221683434564
-0.7287617601100653   -0.6883840862091996   0.017161172450861156
-0.7287617601100653   -0.6883840862091996   0.017161172450861156
-0.7287617601100653   -0.6883840862091996   0.017161172450861156
-0.7287617601100653   -0.6883840862091996   0.017161172450861156
-1.505889054883447   -0.2408690310262776   -0.029616643261235014
-1.505889054883447   -0.2408690310262776   -0.029616643261235014
-1.505889054883447   -0.2408690310262776   -0.029616643261235014
-1.505889054883447   -0.2408690310262776   -0.029616643261235014
-1.6861943401467214   -0.8968897588014758   -0.05285507098247716
-1.6861943401467214   -0.8968897588014758   -0.05285507098247716
-1.6861943401467214   -0.8968897588014758   -0.05285507098247716
-1.6861943401467214   -0.8968897588014758   -0.05285507098247716
-0.6382075099525312   -0.06306204866187676   0.030073793753158017
-0.6382075099525312   -0.06306204866187676   0.030073793753158017
-0.6382075099525312   -0.06306204866187676   0.030073793753158017
-0.6382075099525312   -0.06306204866187676   0.030073793753158017
-1.1274721133982235   -0.46925346551183045   -0.051593799385919806
-1.1274721133982235   -0.46925346551183045   -0.051593799385919806
-1.1274721133982235   -0.46925346551183045   -0.051593799385919806
-1.1274721133982235   -0.46925346551183045   -0.051593799385919806
-0.7706408803112949   -0.7018658949820024   0.006710788279463309
-0.7706408803112949   -0.7018658949820024   0.006710788279463309
-0.7706408803112949   -0.7018658949820024   0.006710788279463309
-0.7706408803112949   -0.7018658949820024   0.006710788279463309
-1.553988025897629   -0.25831296859102404   -0.030400289947480404
-1.553988025897629   -0.25831296859102404   -0.030400289947480404
-1.553988025897629   -0.25831296859102404   -0.030400289947480404
-1.553988025897629   -0.25831296859102404   -0.030400289947480404
-1.7277474899501082   -0.8583826706726018   -0.05960247674540131
-1.7277474899501082   -0.8583826706726018   -0.05960247674540131
-1.7277474899501082   -0.8583826706726018   -0.05960247674540131
-1.7277474899501082   -0.8583826706726018   -0.05960247674540131
-0.6860042876329165   -0.0817528026224014   0.027852999808890902
-0.6860042876329165   -0.0817528026224014   0.027852999808890902
-0.6860042876329165   -0.0817528026224014   0.027852999808890902
-0.6860042876329165   -0.0817528026224014   0.027852999808890902
-1.1823169255542034   -0.48484353318485984   -0.0660894763491363
-1.1823169255542034   -0.48484353318485984   -0.0660894763491363
-1.1823169255542034   -0.48484353318485984   -0.0660894763491363
-1.1823169255542034   -0.48484353318485984   -0.0660894763491363
-1.4047384144157926   -0.25569936729101694   0.12624157796070806
-1.4047384144157926   -0.25569936729101694   0.12624157796070806
-1.4047384144157926   -0.25569936729101694   0.12624157796070806
-1.4047384144157926   -0.25569936729101694   0.12624157796070806
-2.4733729572184187   -0.18505021593404058   -0.043900569005746404
-2.4733729572184187   -0.18505021593404058   -0.043900569005746404
-2.4733729572184187   -0.18505021593404058   -0.043900569005746404
-2.4733729572184187   -0.18505021593404058   -0.043900569005746404
-2.6247885656883336   -0.5180284536253429   0.03464629756161908
-2.6247885656883336   -0.5180284536253429   0.03464629756161908
-2.6247885656883336   -0.5180284536253429   0.03464629756161908
-2.6247885656883336   -0.5180284536253429   0.03464629756161908
-1.445125021141622   0.02086460418041025   0.012469890241189843
-1.445125021141622   0.02086460418041025   0.012469890241189843
-1.445125021141622   0.02086460418041025   0.012469890241189843
-1.445125021141622   0.02086460418041025   0.012469890241189843
-1.892379861628801   -0.1819699482461488   0.03802874817266343
-1.892379861628801   -0.1819699482461488   0.03802874817266343
-1.892379861628801   -0.1819699482461488   0.03802874817266343
-1.892379861628801   -0.1819699482461488   0.03802874817266343
-1.4842794253601672   -0.27445282533854976   0.1120152986674185
-1.4842794253601672   -0.27445282533854976   0.1120152986674185
-1.4842794253601672   -0.27445282533854976   0.1120152986674185
-1.4842794253601672   -0.27445282533854976   0.1120152986674185
-2.5790133787714318   -0.21609024140802296   -0.0384159800711668
-2.5790133787714318   -0.21609024140802296   -0.0384159800711668
-2.5790133787714318   -0.21609024140802296   -0.0384159800711668
-2.5790133787714318   -0.21609024140802296   -0.0384159800711668
-2.6890274377699392   -0.5400829591956714   -0.01138735820841763
-2.6890274377699392   -0.5400829591956714   -0.01138735820841763
-2.6890274377699392   -0.5400829591956714   -0.01138735820841763
-2.6890274377699392   -0.5400829591956714   -0.01138735820841763
-1.4904729719982286   0.006018026197861737   0.02284398476063619
-1.4904729719982286   0.006018026197861737   0.02284398476063619
-1.4904729719982286   0.006018026197861737   0.02284398476063619
-1.4904729719982286   0.006018026197861737   0.02284398476063619
-2.0055652527716763   -0.24022596251049866   0.01565787594826773
-2.0055652527716763   -0.24022596251049866   0.01565787594826773
-2.0055652527716763   -0.24022596251049866   0.01565787594826773
-2.0055652527716763   -0.24022596251049866   0.01565787594826773
-1.5353772059390476   -0.2885060607807743   0.09284690203517626
-1.5353772059390476   -0.2885060607807743   0.09284690203517626
-1.5353772059390476   -0.2885060607807743   0.09284690203517626
-1.5353772059390476   -0.2885060607807743   0.09284690203517626
-2.6308218798153513   -0.232257548203259   -0.028184979427844606
-2.6308218798153513   -0.232257548203259   -0.028184979427844606
-2.6308218798153513   -0.232257548203259   -0.028184979427844606
-2.6308218798153513   -0.232257548203259   -0.028184979427844606
-2.744905712549396   -0.5490136043712129   -0.0001623093066683845
-2.744905712549396   -0.5490136043712129   -0.0001623093066683845
-2.744905712549396   -0.5490136043712129   -0.0001623093066683845
-2.744905712549396   -0.5490136043712129   -0.0001623093066683845
-1.5541549096915614   -0.05937597761434049   0.009353731489070552
-1.5541549096915614   -0.05937597761434049   0.009353731489070552
-1.5541549096915614   -0.05937597761434049   0.009353731489070552
-1.5541549096915614   -0.05937597761434049   0.009353731489070552
-2.0299702799927926   -0.29024718663096405   0.02471500890475248
-2.0299702799927926   -0.29024718663096405   0.02471500890475248
-2.0299702799927926   -0.29024718663096405   0.02471500890475248
-2.0299702799927926   -0.29024718663096405   0.02471500890475248
1.6723823688548496   0.0769222814915812   -0.036310754763884845
1.6723823688548496   0.0769222814915812   -0.036310754763884845
1.6723823688548496   0.0769222814915812   -0.036310754763884845
1.6723823688548496   0.0769222814915812   -0.036310754763884845
0.8417618238458302   -0.01696538459404834   0.01786206395215295
0.8417618238458302   -0.01696538459404834   0.01786206395215295
0.8417618238458302   -0.01696538459404834   0.01786206395215295
0.8417618238458302   -0.01696538459404834   0.01786206395215295
0.7882043741948198   -0.12393723469467932   -0.032091841677801575
0.7882043741948198   -0.12393723469467932   -0.032091841677801575
0.7882043741948198   -0.12393723469467932   -0.032091841677801575
0.7882043741948198   -0.12393723469467932   -0.032091841677801575
1.6530162933455472   0.1207296942802695   0.02089840360522712
1.6530162933455472   0.1207296942802695   0.02089840360522712
1.6530162933455472   0.1207296942802695   0.02089840360522712
1.6530162933455472   0.1207296942802695   0.02089840360522712
1.1739019649409497   0.0028799311727485954   -0.04534535858190701
1.1739019649409497   0.0028799311727485954   -0.04534535858190701
1.1739019649409497   0.0028799311727485954   -0.04534535858190701
1.1739019649409497   0.0028799311727485954   -0.04534535858190701
1.625900336603435   0.04269165746466186   -0.03664334328971114
1.625900336603435   0.04269165746466186   -0.03664334328971114
1.625900336603435   0.04269165746466186   -0.03664334328971114
1.625900336603435   0.04269165746466186   -0.03664334328971114
0.813814371362803   -0.047405157453199315   0.01942606692062717
0.813814371362803   -0.047405157453199315   0.01942606692062717
0.813814371362803   -0.047405157453199315   0.01942606692062717
0.813814371362803   -0.047405157453199315   0.01942606692062717
0.7593672115249436   -0.13086364307296677   -0.026503089530614574
0.7593672115249436   -0.13086364307296677   -0.026503089530614574
0.7593672115249436   -0.13086364307296677   -0.026503089530614574
0.7593672115249436   -0.13086364307296677   -0.026503089530614574
1.6129569807743196   0.11091534129414196   0.03054981678737414
1.6129569807743196   0.11091534129414196   0.03054981678737414
1.6129569807743196   0.11091534129414196   0.03054981678737414
1.6129569807743196   0.11091534129414196   0.03054981678737414
1.158153719501478   -0.01174969137757298   -0.054131659413294606
1.158153719501478   -0.01174969137757298   -0.054131659413294606
1.158153719501478   -0.01174969137757298   -0.054131659413294606
1.158153719501478   -0.01174969137757298   -0.054131659413294606
1.5856410870349182   0.03389073984337748   -0.029005050458867962
1.5856410870349182   0.03389073984337748   -0.029005050458867962
1.5856410870349182   0.03389073984337748   -0.029005050458867962
1.5856410870349182   0.03389073984337748   -0.029005050458867962
0.7845937816814672   -0.05592836520507996   0.024694483384116776
0.7845937816814672   -0.05592836520507996   0.024694483384116776
0.7845937816814672   -0.05592836520507996   0.024694483384116776
0.7845937816814672   -0.05592836520507996   0.024694483384116776
0.7314376208799319   -0.1289552920727946   -0.018172342211823386
0.7314376208799319   -0.1289552920727946   -0.018172342211823386
0.7314376208799319   -0.1289552920727946   -0.018172342211823386
0.7314376208799319   -0.1289552920727946   -0.018172342211823386
1.563355894650883   0.10424588712640165   0.03974993351463775
1.563355894650883   0.10424588712640165   0.03974993351463775
1.563355894650883   0.10424588712640165   0.03974993351463775
1.563355894650883   0.10424588712640165   0.03974993351463775
1.1008647933463591   -0.02050251642738002   -0.07110079210346
1.1008647933463591   -0.02050251642738002   -0.07110079210346
1.1008647933463591   -0.02050251642738002   -0.07110079210346
1.1008647933463591   -0.02050251642738002   -0.07110079210346
0.8463306745453997   0.016183389603910414   0.007557543252032353
0.8463306745453997   0.016183389603910414   0.007557543252032353
0.8463306745453997   0.016183389603910414   0.007557543252032353
0.8463306745453997   0.016183389603910414   0.007557543252032353
0.08142186983141791   -0.05070720963958841   -0.001923724117851102
0.08142186983141791   -0.05070720963958841   -0.001923724117851102
0.08142186983141791   -0.05070720963958841   -0.001923724117851102
0.08142186983141791   -0.05070720963958841   -0.001923724117851102
0.030954165330491605   -0.16394241592443468   -0.030880088389549972
0.030954165330491605   -0.16394241592443468   -0.030880088389549972
0.030954165330491605   -0.16394241592443468   -0.030880088389549972
0.030954165330491605   -0.16394241592443468   -0.030880088389549972
0.8473395341411981   0.09773003369113918   0.04191668966826405
0.8473395341411981   0.09773003369113918   0.04191668966826405
0.8473395341411981   0.09773003369113918   0.04191668966826405
0.8473395341411981   0.09773003369113918   0.04191668966826405
0.4432256879439101   -0.023033285839218084   -0.017571262458135974
0.4432256879439101   -0.023033285839218084   -0.017571262458135974
0.4432256879439101   -0.023033285839218084   -0.017571262458135974
0.4432256879439101   -0.023033285839218084   -0.017571262458135974
0.8226332564843428   0.0031604058327263373   0.012954929242403886
0.8226332564843428   0.0031604058327263373   0.012954929242403886
0.8226332564843428   0.0031604058327263373   0.012954929242403886
0.8226332564843428   0.0031604058327263373   0.012954929242403886
0.05659734734590939   -0.06843588370745878   0.0018292894705629996
0.05659734734590939   -0.06843588370745878   0.0018292894705629996
0.05659734734590939   -0.06843588370745878   0.0018292894705629996
0.05659734734590939   -0.06843588370745878   0.0018292894705629996
0.0031492702511198983   -0.17177266961078422   -0.021488450050559837
0.0031492702511198983   -0.17177266961078422   -0.021488450050559837
0.0031492702511198983   -0.17177266961078422   -0.021488450050559837
0.0031492702511198983   -0.17177266961078422   -0.021488450050559837
0.81681494960426   0.08363728644453529   0.046234671348465484
0.81681494960426   0.08363728644453529   0.046234671348465484
0.81681494960426   0.08363728644453529   0.046234671348465484
0.81681494960426   0.08363728644453529   0.046234671348465484
0.4112279203224944   -0.03600431641978591   -0.024878594253119016
0.4112279203224944   -0.03600431641978591   -0.024878594253119016
0.4112279203224944   -0.03600431641978591   -0.024878594253119016
0.4112279203224944   -0.03600431641978591   -0.024878594253119016
0.7934968307106912   -0.005624329036438058   0.018905692361599766
0.7934968307106912   -0.005624329036438058   0.018905692361599766
0.7934968307106912   -0.005624329036438058   0.018905692361599766
0.7934968307106912   -0.005624329036438058   0.018905692361599766
0.026335150036990076   -0.08264329323750871   0.005311572505515543
0.026335150036990076   -0.08264329323750871   0.005311572505515543
0.026335150036990076   -0.08264329323750871   0.005311572505515543
0.026335150036990076   -0.08264329323750871   0.005311572505515543
-0.026700606986311534   -0.17255681192567818   -0.014652631167947787
-0.026700606986311534   -0.17255681192567818   -0.014652631167947787
-0.026700606986311534   -0.17255681192567818   -0.014652631167947787
-0.026700606986311534   -0.17255681192567818   -0.014652631167947787
0.7860179443328902   0.07467416168730102   0.05109982129287796
0.7860179443328902   0.07467416168730102   0.05109982129287796
0.7860179443328902   0.07467416168730102   0.05109982129287796
0.7860179443328902   0.07467416168730102   0.05109982129287796
0.3861915920973023   -0.04117868040641669   -0.03115876308933929
0.3861915920973023   -0.04117868040641669   -0.03115876308933929
0.3861915920973023   -0.04117868040641669   -0.03115876308933929
0.3861915920973023   -0.04117868040641669   -0.03115876308933929
0.0829889866551607   -0.04759225724916201   0.0027969076104383817
0.0829889866551607   -0.04759225724916201   0.0027969076104383817
0.0829889866551607   -0.04759225724916201   0.0027969076104383817
0.0829889866551607   -0.04759225724916201   0.0027969076104383817
-0.6535334203971633   -0.07553093565300616   -0.020562954372748864
-0.6535334203971633   -0.07553093565300616   -0.020562954372748864
-0.6535334203971633   -0.07553093565300616   -0.020562954372748864
-0.6535334203971633   -0.07553093565300616   -0.020562954372748864
-0.7096398180920543   -0.2173286473693454   -0.035185013287530445
-0.7096398180920543   -0.2173286473693454   -0.035185013287530445
-0.7096398180920543   -0.2173286473693454   -0.035185013287530445
-0.7096398180920543   -0.2173286473693454   -0.035185013287530445
0.08904661926646329   0.0715809147239984   0.024058850641875337
0.08904661926646329   0.0715809147239984   0.024058850641875337
0.08904661926646329   0.0715809147239984   0.024058850641875337
0.08904661926646329   0.0715809147239984   0.024058850641875337
-0.29866649569053944   -0.06399845055862528   -0.01744103925818715
-0.29866649569053944   -0.06399845055862528   -0.01744103925818715
-0.29866649569053944   -0.06399845055862528   -0.01744103925818715
-0.29866649569053944   -0.06399845055862528   -0.01744103925818715
0.062096448194750076   -0.053138841210847707   0.0140277512181535
0.062096448194750076   -0.053138841210847707   0.0140277512181535
0.062096448194750076   -0.053138841210847707   0.0140277512181535
0.062096448194750076   -0.053138841210847707   0.0140277512181535
-0.6806271246919156   -0.0905463691060637   -0.016903824550117776
-0.6806271246919156   -0.0905463691060637   -0.016903824550117776
-0.6806271246919156   -0.0905463691060637   -0.016903824550117776
-0.6806271246919156   -0.0905463691060637   -0.016903824550117776
-0.7422473074436825   -0.22590472912212523   -0.023302701837121572
-0.7422473074436825   -0.22590472912212523   -0.023302701837121572
-0.7422473074436825   -0.22590472912212523   -0.023302701837121572
-0.7422473074436825   -0.22590472912212523   -0.023302701837121572
0.05854118032768483   0.056494331594225636   0.027204099127254973
0.05854118032768483   0.056494331594225636   0.027204099127254973
0.05854118032768483   0.056494331594225636   0.027204099127254973
0.05854118032768483   0.056494331594225636   0.027204099127254973
-0.3256417695003644   -0.07298280063694187   -0.020920423844656165
-0.3256417695003644   -0.07298280063694187   -0.020920423844656165
-0.3256417695003644   -0.07298280063694187   -0.020920423844656165
-0.3256417695003644   -0.07298280063694187   -0.020920423844656165
0.033225028356122385   -0.06227182285167188   0.01938949371534025
0.033225028356122385   -0.06227182285167188   0.01938949371534025
0.033225028356122385   -0.06227182285167188   0.01938949371534025
0.033225028356122385   -0.06227182285167188   0.01938949371534025
-0.7164984674967323   -0.10670588670084097   -0.013757344523660932
-0.7164984674967323   -0.10670588670084097   -0.013757344523660932
-0.7164984674967323   -0.10670588670084097   -0.013757344523660932
-0.7164984674967323   -0.10670588670084097   -0.013757344523660932
-0.7784284783980785   -0.23217168633189048   -0.02071561508603855
-0.7784284783980785   -0.23217168633189048   -0.02071561508603855
-0.7784284783980785   -0.23217168633189048   -0.02071561508603855
-0.7784284783980785   -0.23217168633189048   -0.02071561508603855
0.025545019321670068   0.04361373619693936   0.03040495224934077
0.025545019321670068   0.04361373619693936   0.03040495224934077
0.025545019321670068   0.04361373619693936   0.03040495224934077
0.025545019321670068   0.04361373619693936   0.03040495224934077
-0.36068786578629   -0.08373933329189626   -0.029302111277136465
-0.36068786578629   -0.08373933329189626   -0.029302111277136465
-0.36068786578629   -0.08373933329189626   -0.029302111277136465
-0.36068786578629   -0.08373933329189626   -0.029302111277136465
-0.6435231838683175   -0.05628895867718235   0.01024625129564877
-0.6435231838683175   -0.05628895867718235   0.01024625129564877
-0.6435231838683175   -0.05628895867718235   0.01024625129564877
-0.6435231838683175   -0.05628895867718235   0.01024625129564877
-1.370850919640893   -0.08839619149971883   -0.036240647076656626
-1.370850919640893   -0.08839619149971883   -0.036240647076656626
-1.370850919640893   -0.08839619149971883   -0.036240647076656626
-1.370850919640893   -0.08839619149971883   -0.036240647076656626
-1.434629671713282   -0.2277235602935987   -0.03514867276794398
-1.434629671713282   -0.2277235602935987   -0.03514867276794398
-1.434629671713282   -0.2277235602935987   -0.03514867276794398
-1.434629671713282   -0.2277235602935987   -0.03514867276794398
-0.6468395482861322   0.054671400993889535   0.006816287378836501
-0.6468395482861322   0.054671400993889535   0.006816287378836501
-0.6468395482861322   0.054671400993889535   0.006816287378836501
-0.6468395482861322   0.054671400993889535   0.006816287378836501
-1.0155244351603   -0.07575375465883591   -0.014654177302452033
-1.0155244351603   -0.07575375465883591   -0.014654177302452033
-1.0155244351603   -0.07575375465883591   -0.014654177302452033
-1.0155244351603   -0.07575375465883591   -0.014654177302452033
-0.6666634804900072   -0.06218915168723667   0.024557179040591206
-0.6666634804900072   -0.06218915168723667   0.024557179040591206
-0.6666634804900072   -0.06218915168723667   0.024557179040591206
-0.6666634804900072   -0.06218915168723667   0.024557179040591206
-1.4107624751049646   -0.10681974320802101   -0.036716506811944966
-1.4107624751049646   -0.10681974320802101   -0.036716506811944966
-1.4107624751049646   -0.10681974320802101   -0.036716506811944966
-1.4107624751049646   -0.10681974320802101   -0.036716506811944966
-1.4797409943591506   -0.24231890550422533   -0.024677006051965274
-1.4797409943591506   -0.24231890550422533   -0.024677006051965274
-1.4797409943591506   -0.24231890550422533   -0.024677006051965274
-1.4797409943591506   -0.24231890550422533   -0.024677006051965274
-0.6831090646409038   0.038145601477786034   0.008338181576854516
-0.6831090646409038   0.038145601477786034   0.008338181576854516
-0.6831090646409038   0.038145601477786034   0.008338181576854516
-0.6831090646409038   0.038145601477786034   0.008338181576854516
-1.0440479190190433   -0.08383604021478905   -0.014697455257403604
-1.0440479190190433   -0.08383604021478905   -0.014697455257403604
-1.0440479190190433   -0.08383604021478905   -0.014697455257403604
-1.0440479190190433   -0.08383604021478905   -0.014697455257403604
-0.7026817146026031   -0.07687295141107914   0.025493484657218034
-0.7026817146026031   -0.07687295141107914   0.025493484657218034
-0.7026817146026031   -0.07687295141107914   0.025493484657218034
-0.7026817146026031   -0.07687295141107914   0.025493484657218034
-1.457458475937346   -0.12459048415525562   -0.030992835291911762
-1.457458475937346   -0.12459048415525562   -0.030992835291911762
-1.457458475937346   -0.12459048415525562   -0.030992835291911762
-1.457458475937346   -0.12459048415525562   -0.030992835291911762
-1.530787164012761   -0.2615619610735508   -0.026409916067011444
-1.530787164012761   -0.2615619610735508   -0.026409916067011444
-1.530787164012761   -0.2615619610735508   -0.026409916067011444
-1.530787164012761   -0.2615619610735508   -0.026409916067011444
-0.7223064032350851   0.017750690606823577   0.00997238379020142
-0.7223064032350851   0.017750690606823577   0.00997238379020142
-0.7223064032350851   0.017750690606823577   0.00997238379020142
-0.7223064032350851   0.017750690606823577   0.00997238379020142
-1.0946870720280923   -0.10356762989544077   -0.02389384056715612
-1.0946870720280923   -0.10356762989544077   -0.02389384056715612
-1.0946870720280923   -0.10356762989544077   -0.02389384056715612
-1.0946870720280923   -0.10356762989544077   -0.02389384056715612
-1.3244354846550683   0.0625045497086068   0.044935786644139886
-1.3244354846550683   0.0625045497086068   0.044935786644139886
-1.3244354846550683   0.0625045497086068   0.044935786644139886
-1.3244354846550683   0.0625045497086068   0.044935786644139886
-2.0535563727116743   -0.10231428512516955   -0.02759957585855119
-2.0535563727116743   -0.10231428512516955   -0.02759957585855119
-2.0535563727116743   -0.10231428512516955   -0.02759957585855119
-2.0535563727116743   -0.10231428512516955   -0.02759957585855119
-2.1040566079825673   -0.10418869003162307   0.046135006021907385
-2.1040566079825673   -0.10418869003162307   0.046135006021907385
-2.1040566079825673   -0.10418869003162307   0.046135006021907385
-2.1040566079825673   -0.10418869003162307   0.046135006021907385
-1.3757317345242255   0.04262918719759057   -0.011011734313860475
-1.3757317345242255   0.04262918719759057   -0.011011734313860475
-1.3757317345242255   0.04262918719759057   -0.011011734313860475
-1.3757317345242255   0.04262918719759057   -0.011011734313860475
-1.634544353361198   0.0012348222950584464   0.04148827609407209
-1.634544353361198   0.0012348222950584464   0.04148827609407209
-1.634544353361198   0.0012348222950584464   0.04148827609407209
-1.634544353361198   0.0012348222950584464   0.04148827609407209
-1.3614139711451834   0.04646174173938228   0.05674452803955009
-1.3614139711451834   0.04646174173938228   0.05674452803955009
-1.3614139711451834   0.04646174173938228   0.05674452803955009
-1.3614139711451834   0.04646174173938228   0.05674452803955009
-2.1174321025435643   -0.1070789757553709   -0.017852181059328995
-2.1174321025435643   -0.1070789757553709   -0.017852181059328995
-2.1174321025435643   -0.1070789757553709   -0.017852181059328995
-2.1174321025435643   -0.1070789757553709   -0.017852181059328995
-2.1678054269825626   -0.12146721878905226   0.06275021481040009
-2.1678054269825626   -0.12146721878905226   0.06275021481040009
-2.1678054269825626   -0.12146721878905226   0.06275021481040009
-2.1678054269825626   -0.12146721878905226   0.06275021481040009
-1.4224671734848036   0.03088890888486484   -0.011515716069335588
-1.4224671734848036   0.03088890888486484   -0.011515716069335588
-1.4224671734848036   0.03088890888486484   -0.011515716069335588
-1.4224671734848036   0.03088890888486484   -0.011515716069335588
-1.716790705988826   -0.01898676756190487   0.022690771469631776
-1.716790705988826   -0.01898676756190487   0.022690771469631776
-1.716790705988826   -0.01898676756190487   0.022690771469631776
-1.716790705988826   -0.01898676756190487   0.022690771469631776
-1.4093787543322243   0.02885927541218386   0.05595601316624248
-1.4093787543322243   0.02885927541218386   0.05595601316624248
-1.4093787543322243   0.02885927541218386   0.05595601316624248
-1.4093787543322243   0.02885927541218386   0.05595601316624248
-2.183358733414472   -0.1219024725956912   -0.014581063542508793
-2.183358733414472   -0.1219024725956912   -0.014581063542508793
-2.183358733414472   -0.1219024725956912   -0.014581063542508793
-2.183358733414472   -0.1219024725956912   -0.014581063542508793
-2.2584340961815412   -0.19120181648150975   0.054503723643265764
-2.2584340961815412   -0.19120181648150975   0.054503723643265764
-2.2584340961815412   -0.19120181648150975   0.054503723643265764
-2.2584340961815412   -0.19120181648150975   0.054503723643265764
-1.476351125949496   -0.004948681967472779   -0.010843004856785965
-1.476351125949496   -0.004948681967472779   -0.010843004856785965
-1.476351125949496   -0.004948681967472779   -0.010843004856785965
-1.476351125949496   -0.004948681967472779   -0.010843004856785965
-1.7517983051385813   -0.04445081186581812   0.006159645676096975
-1.7517983051385813   -0.04445081186581812   0.006159645676096975
-1.7517983051385813   -0.04445081186581812   0.006159645676096975
-1.7517983051385813   -0.04445081186581812   0.006159645676096975
1.3552875779223408   0.07250906017055153   -0.048291466301358166
1.3552875779223408   0.07250906017055153   -0.048291466301358166
1.3552875779223408   0.07250906017055153   -0.048291466301358166
1.3552875779223408   0.07250906017055153   -0.048291466301358166
0.6718454443565545   -0.0007130289258108213   0.017490958911109265
0.6718454443565545   -0.0007130289258108213   0.017490958911109265
0.6718454443565545   -0.0007130289258108213   0.017490958911109265
0.6718454443565545   -0.0007130289258108213   0.017490958911109265
0.614066246673794   -0.10010082363314102   -0.04430413929007244
0.614066246673794   -0.10010082363314102   -0.04430413929007244
0.614066246673794   -0.10010082363314102   -0.04430413929007244
0.614066246673794   -0.10010082363314102   -0.04430413929007244
1.3297765175270748   0.10957899253331424   0.021936859815780356
1.3297765175270748   0.10957899253331424   0.021936859815780356
1.3297765175270748   0.10957899253331424   0.021936859815780356
1.3297765175270748   0.10957899253331424   0.021936859815780356
0.9414203078347051   0.008314253572414304   -0.030983308173497065
0.9414203078347051   0.008314253572414304   -0.030983308173497065
0.9414203078347051   0.008314253572414304   -0.030983308173497065
0.9414203078347051   0.008314253572414304   -0.030983308173497065
1.3015598598591147   0.036954366386498544   -0.046521802377195144
1.3015598598591147   0.036954366386498544   -0.046521802377195144
1.3015598598591147   0.036954366386498544   -0.046521802377195144
1.3015598598591147   0.036954366386498544   -0.046521802377195144
0.6410740553291542   -0.028685046498925726   0.01931912685250132
0.6410740553291542   -0.028685046498925726   0.01931912685250132
0.6410740553291542   -0.028685046498925726   0.01931912685250132
0.6410740553291542   -0.028685046498925726   0.01931912685250132
0.5851679090955307   -0.1084550783411751   -0.03851320971042244
0.5851679090955307   -0.1084550783411751   -0.03851320971042244
0.5851679090955307   -0.1084550783411751   -0.03851320971042244
0.5851679090955307   -0.1084550783411751   -0.03851320971042244
1.2865523783231891   0.09809477488162907   0.02999844831867087
1.2865523783231891   0.09809477488162907   0.02999844831867087
1.2865523783231891   0.09809477488162907   0.02999844831867087
1.2865523783231891   0.09809477488162907   0.02999844831867087
0.918823032832736   -0.00674598321913189   -0.040690738754880926
0.918823032832736   -0.00674598321913189   -0.040690738754880926
0.918823032832736   -0.00674598321913189   -0.040690738754880926
0.918823032832736   -0.00674598321913189   -0.040690738754880926
1.2589384704648603   0.026672010547102304   -0.03664832663842622
1.2589384704648603   0.026672010547102304   -0.03664832663842622
1.2589384704648603   0.026672010547102304   -0.03664832663842622
1.2589384704648603   0.026672010547102304   -0.03664832663842622
0.6116967650453817   -0.03811736591511364   0.02379335761276493
0.6116967650453817   -0.03811736591511364   0.02379335761276493
0.6116967650453817   -0.03811736591511364   0.02379335761276493
0.6116967650453817   -0.03811736591511364   0.02379335761276493
0.5587822229004633   -0.11091173436752433   -0.03146450220457249
0.5587822229004633   -0.11091173436752433   -0.03146450220457249
0.5587822229004633   -0.11091173436752433   -0.03146450220457249
0.5587822229004633   -0.11091173436752433   -0.03146450220457249
1.2378240984588251   0.08804202776003664   0.03733705915579722
1.2378240984588251   0.08804202776003664   0.03733705915579722
1.2378240984588251   0.08804202776003664   0.03733705915579722
1.2378240984588251   0.08804202776003664   0.03733705915579722
0.8661083490948808   -0.017110621515439656   -0.05525969659697461
0.8661083490948808   -0.017110621515439656   -0.05525969659697461
0.8661083490948808   -0.017110621515439656   -0.05525969659697461
0.8661083490948808   -0.017110621515439656   -0.05525969659697461
0.6834042696548539   0.07082368870335674   0.003748367773438715
0.6834042696548539   0.07082368870335674   0.003748367773438715
0.6834042696548539   0.07082368870335674   0.003748367773438715
0.6834042696548539   0.07082368870335674   0.003748367773438715
0.023326642406161793   -0.022409497484384745   -0.0027949393657036754
0.023326642406161793   -0.022409497484384745   -0.0027949393657036754
0.023326642406161793   -0.022409497484384745   -0.0027949393657036754
0.023326642406161793   -0.022409497484384745   -0.0027949393657036754
-0.02022524954890941   -0.09019646061848673   -0.03015099818969661
-0.02022524954890941   -0.09019646061848673   -0.03015099818969661
-0.02022524954890941   -0.09019646061848673   -0.03015099818969661
-0.02022524954890941   -0.09019646061848673   -0.03015099818969661
0.6702260564483381   0.09923699902905606   0.03715708692043936
0.6702260564483381   0.09923699902905606   0.03715708692043936
0.6702260564483381   0.09923699902905606   0.03715708692043936
0.6702260564483381   0.09923699902905606   0.03715708692043936
0.33389805548330975   0.014136282073225995   -0.003818628973581928
0.33389805548330975   0.014136282073225995   -0.003818628973581928
0.33389805548330975   0.014136282073225995   -0.003818628973581928
0.33389805548330975   0.014136282073225995   -0.003818628973581928
0.6549477694726961   0.05239072753170325   0.007611923539586295
0.6549477694726961   0.05239072753170325   0.007611923539586295
0.6549477694726961   0.05239072753170325   0.007611923539586295
0.6549477694726961   0.05239072753170325   0.007611923539586295
-0.0046755937001408225   -0.0430788202479964   0.000479640683656005
-0.0046755937001408225   -0.0430788202479964   0.000479640683656005
-0.0046755937001408225   -0.0430788202479964   0.000479640683656005
-0.0046755937001408225   -0.0430788202479964   0.000479640683656005
-0.0476003287315293   -0.1037055388468773   -0.02606417677280806
-0.0476003287315293   -0.1037055388468773   -0.02606417677280806
-0.0476003287315293   -0.1037055388468773   -0.02606417677280806
-0.0476003287315293   -0.1037055388468773   -0.02606417677280806
0.6392154034742558   0.08215398171726188   0.04111520212475915
0.6392154034742558   0.08215398171726188   0.04111520212475915
0.6392154034742558   0.08215398171726188   0.04111520212475915
0.6392154034742558   0.08215398171726188   0.04111520212475915
0.3004583248456097   -0.002699661702440015   -0.013385299884631968
0.3004583248456097   -0.002699661702440015   -0.013385299884631968
0.3004583248456097   -0.002699661702440015   -0.013385299884631968
0.3004583248456097   -0.002699661702440015   -0.013385299884631968
0.6245097303239531   0.03823122661406965   0.011509591476444262
0.6245097303239531   0.03823122661406965   0.011509591476444262
0.6245097303239531   0.03823122661406965   0.011509591476444262
0.6245097303239531   0.03823122661406965   0.011509591476444262
-0.03286831222890576   -0.059756440391363144   0.0036468072847954756
-0.03286831222890576   -0.059756440391363144   0.0036468072847954756
-0.03286831222890576   -0.059756440391363144   0.0036468072847954756
-0.03286831222890576   -0.059756440391363144   0.0036468072847954756
-0.07469783294737685   -0.11183565741260335   -0.02073349692637677
-0.07469783294737685   -0.11183565741260335   -0.02073349692637677
-0.07469783294737685   -0.11183565741260335   -0.02073349692637677
-0.07469783294737685   -0.11183565741260335   -0.02073349692637677
0.6097213357787563   0.06774798573074768   0.04457134208861212
0.6097213357787563   0.06774798573074768   0.04457134208861212
0.6097213357787563   0.06774798573074768   0.04457134208861212
0.6097213357787563   0.06774798573074768   0.04457134208861212
0.2757349841072506   -0.013466810461197146   -0.020435979749875363
0.2757349841072506   -0.013466810461197146   -0.020435979749875363
0.2757349841072506   -0.013466810461197146   -0.020435979749875363
0.2757349841072506   -0.013466810461197146   -0.020435979749875363
0.045747722847073166   0.07151506411772728   0.015385901236743087
0.045747722847073166   0.07151506411772728   0.015385901236743087
0.045747722847073166   0.07151506411772728   0.015385901236743087
0.045747722847073166   0.07151506411772728   0.015385901236743087
-0.6050796826177575   -0.039184372955043165   -0.02081584452452265
-0.6050796826177575   -0.039184372955043165   -0.02081584452452265
-0.6050796826177575   -0.039184372955043165   -0.02081584452452265
-0.6050796826177575   -0.039184372955043165   -0.02081584452452265
-0.6390578602240359   -0.08267091910831345   -0.01909583902918483
-0.6390578602240359   -0.08267091910831345   -0.01909583902918483
-0.6390578602240359   -0.08267091910831345   -0.01909583902918483
-0.6390578602240359   -0.08267091910831345   -0.01909583902918483
0.023699531038549194   0.08126242189288213   0.018014022236227566
0.023699531038549194   0.08126242189288213   0.018014022236227566
0.023699531038549194   0.08126242189288213   0.018014022236227566
0.023699531038549194   0.08126242189288213   0.018014022236227566
-0.2933044371507989   0.00910560089949529   0.0011177085364801088
-0.2933044371507989   0.00910560089949529   0.0011177085364801088
-0.2933044371507989   0.00910560089949529   0.0011177085364801088
-0.2933044371507989   0.00910560089949529   0.0011177085364801088
0.019037162871142384   0.056633478312478565   0.01933112497959707
0.019037162871142384   0.056633478312478565   0.01933112497959707
0.019037162871142384   0.056633478312478565   0.01933112497959707
0.019037162871142384   0.056633478312478565   0.01933112497959707
-0.6336487591191927   -0.05729524259047357   -0.01742601002280904
-0.6336487591191927   -0.05729524259047357   -0.01742601002280904
-0.6336487591191927   -0.05729524259047357   -0.01742601002280904
-0.6336487591191927   -0.05729524259047357   -0.01742601002280904
-0.6684357703615393   -0.09751368160587098   -0.01585901618400399
-0.6684357703615393   -0.09751368160587098   -0.01585901618400399
-0.6684357703615393   -0.09751368160587098   -0.01585901618400399
-0.6684357703615393   -0.09751368160587098   -0.01585901618400399
-0.004536313701027788   0.06368924899978724   0.021861110533034953
-0.004536313701027788   0.06368924899978724   0.021861110533034953
-0.004536313701027788   0.06368924899978724   0.021861110533034953
-0.004536313701027788   0.06368924899978724   0.021861110533034953
-0.3214504929946014   -0.005420705328432918   -0.006072644590480451
-0.3214504929946014   -0.005420705328432918   -0.006072644590480451
-0.3214504929946014   -0.005420705328432918   -0.006072644590480451
-0.3214504929946014   -0.005420705328432918   -0.006072644590480451
-0.008518629328197767   0.04230775509749382   0.023331026299478478
-0.008518629328197767   0.04230775509749382   0.023331026299478478
-0.008518629328197767   0.04230775509749382   0.023331026299478478
-0.008518629328197767   0.04230775509749382   0.023331026299478478
-0.6638121413825042   -0.07549087435171176   -0.014763678542983612
-0.6638121413825042   -0.07549087435171176   -0.014763678542983612
-0.6638121413825042   -0.07549087435171176   -0.014763678542983612
-0.6638121413825042   -0.07549087435171176   -0.014763678542983612
-0.6976147409837181   -0.10919488613560874   -0.010478399108011635
-0.6976147409837181   -0.10919488613560874   -0.010478399108011635
-0.6976147409837181   -0.10919488613560874   -0.010478399108011635
-0.6976147409837181   -0.10919488613560874   -0.010478399108011635
-0.03378884106954249   0.04713484621270911   0.02484095883748258
-0.03378884106954249   0.04713484621270911   0.02484095883748258
-0.03378884106954249   0.04713484621270911   0.02484095883748258
-0.03378884106954249   0.04713484621270911   0.02484095883748258
-0.35173533471113394   -0.020194047125490763   -0.013929917259840056
-0.35173533471113394   -0.020194047125490763   -0.013929917259840056
-0.35173533471113394   -0.020194047125490763   -0.013929917259840056
-0.35173533471113394   -0.020194047125490763   -0.013929917259840056
-0.5705684771684162   0.0845163236362921   0.02803948613086022
-0.5705684771684162   0.0845163236362921   0.02803948613086022
-0.5705684771684162   0.0845163236362921   0.02803948613086022
-0.5705684771684162   0.0845163236362921   0.02803948613086022
-1.212645512853825   -0.05388352024122159   -0.03410878289447881
-1.212645512853825   -0.05388352024122159   -0.03410878289447881
-1.212645512853825   -0.05388352024122159   -0.03410878289447881
-1.212645512853825   -0.05388352024122159   -0.03410878289447881
-1.2391371114341772   -0.06624489431100064   -0.0054676259975691074
-1.2391371114341772   -0.06624489431100064   -0.0054676259975691074
-1.2391371114341772   -0.06624489431100064   -0.0054676259975691074
-1.2391371114341772   -0.06624489431100064   -0.0054676259975691074
-0.6066087377951052   0.06146969581345185   -0.0009908418062928095
-0.6066087377951052   0.06146969581345185   -0.0009908418062928095
-0.6066087377951052   0.06146969581345185   -0.0009908418062928095
-0.6066087377951052   0.06146969581345185   -0.0009908418062928095
-0.9006870689795382   0.009247255916546154   0.006565664545995588
-0.9006870689795382   0.009247255916546154   0.006565664545995588
-0.9006870689795382   0.009247255916546154   0.006565664545995588
-0.9006870689795382   0.009247255916546154   0.006565664545995588
-0.5985586408337004   0.06925849397620437   0.031470844837978885
-0.5985586408337004   0.06925849397620437   0.031470844837978885
-0.5985586408337004   0.06925849397620437   0.031470844837978885
-0.5985586408337004   0.06925849397620437   0.031470844837978885
-1.2461730330131344   -0.07301951709129717   -0.033872611112070045
-1.2461730330131344   -0.07301951709129717   -0.033872611112070045
-1.2461730330131344   -0.07301951709129717   -0.033872611112070045
-1.2461730330131344   -0.07301951709129717   -0.033872611112070045
-1.2753164649329503   -0.08293352721163486   -0.004850061578264862
-1.2753164649329503   -0.08293352721163486   -0.004850061578264862
-1.2753164649329503   -0.08293352721163486   -0.004850061578264862
-1.2753164649329503   -0.08293352721163486   -0.004850061578264862
-0.6363340006298912   0.04470013389601954   0.0024360169723498665
-0.6363340006298912   0.04470013389601954   0.0024360169723498665
-0.6363340006298912   0.04470013389601954   0.0024360169723498665
-0.6363340006298912   0.04470013389601954   0.0024360169723498665
-0.9260174541859382   -0.004040666474766141   0.0006675187148487
-0.9260174541859382   -0.004040666474766141   0.0006675187148487
-0.9260174541859382   -0.004040666474766141   0.0006675187148487
-0.9260174541859382   -0.004040666474766141   0.0006675187148487
-0.6275171163355029   0.0548670577429646   0.03635351459734643
-0.6275171163355029   0.0548670577429646   0.03635351459734643
-0.6275171163355029   0.0548670577429646   0.03635351459734643
-0.6275171163355029   0.0548670577429646   0.03635351459734643
-1.2820732609129417   -0.09104036274419469   -0.030527205945670752
-1.2820732609129417   -0.09104036274419469   -0.030527205945670752
-1.2820732609129417   -0.09104036274419469   -0.030527205945670752
-1.2820732609129417   -0.09104036274419469   -0.030527205945670752
-1.3086284754450719   -0.10080202944343247   0.003530855748907699
-1.3086284754450719   -0.10080202944343247   0.003530855748907699
-1.3086284754450719   -0.10080202944343247   0.003530855748907699
-1.3086284754450719   -0.10080202944343247   0.003530855748907699
-0.6678350304672749   0.02474612402350196   0.004479143315104996
-0.6678350304672749   0.02474612402350196   0.004479143315104996
-0.6678350304672749   0.02474612402350196   0.004479143315104996
-0.6678350304672749   0.02474612402350196   0.004479143315104996
-0.9655565459280891   -0.02269019101796413   -0.0072620455763043115
-0.9655565459280891   -0.02269019101796413   -0.0072620455763043115
-0.9655565459280891   -0.02269019101796413   -0.0072620455763043115
-0.9655565459280891   -0.02269019101796413   -0.0072620455763043115
-1.1696284803239976   0.08784148368896788   0.03925137582445973
-1.1696284803239976   0.08784148368896788   0.03925137582445973
-1.1696284803239976   0.08784148368896788   0.03925137582445973
-1.1696284803239976   0.08784148368896788   0.03925137582445973
-1.7900522428869823   -0.08280074871854687   -0.03145557243096499
-1.7900522428869823   -0.08280074871854687   -0.03145557243096499
-1.7900522428869823   -0.08280074871854687   -0.03145557243096499
-1.7900522428869823   -0.08280074871854687   -0.03145557243096499
-1.8146227136080544   -0.03626735329058539   0.033396542329088744
-1.8146227136080544   -0.03626735329058539   0.033396542329088744
-1.8146227136080544   -0.03626735329058539   0.033396542329088744
-1.8146227136080544   -0.03626735329058539   0.033396542329088744
-1.2209642188902157   0.03678980205395971   -0.017637859642720688
-1.2209642188902157   0.03678980205395971   -0.017637859642720688
-1.2209642188902157   0.03678980205395971   -0.017637859642720688
-1.2209642188902157   0.03678980205395971   -0.017637859642720688
-1.4325835616068825   0.018279575050072383   0.0329144271769765
-1.4325835616068825   0.018279575050072383   0.0329144271769765
-1.4325835616068825   0.018279575050072383   0.0329144271769765
-1.4325835616068825   0.018279575050072383   0.0329144271769765
-1.197889058798328   0.08942134814972857   0.045106394720932266
-1.197889058798328   0.08942134814972857   0.045106394720932266
-1.197889058798328   0.08942134814972857   0.045106394720932266
-1.197889058798328   0.08942134814972857   0.045106394720932266
-1.8363358976901303   -0.08753692337653957   -0.02389980799530239
-1.8363358976901303   -0.08753692337653957   -0.02389980799530239
-1.8363358976901303   -0.08753692337653957   -0.02389980799530239
-1.8363358976901303   -0.08753692337653957   -0.02389980799530239
-1.859557919570865   -0.04499834060544089   0.04613878256519689
-1.859557919570865   -0.04499834060544089   0.04613878256519689
-1.859557919570865   -0.04499834060544089   0.04613878256519689
-1.859557919570865   -0.04499834060544089   0.04613878256519689
-1.2554687844914167   0.027152226172695415   -0.01569741275492681
-1.2554687844914167   0.027152226172695415   -0.01569741275492681
-1.2554687844914167   0.027152226172695415   -0.01569741275492681
-1.2554687844914167   0.027152226172695415   -0.01569741275492681
-1.4943941141633623   0.009017779023808348   0.021151514278095654
-1.4943941141633623   0.009017779023808348   0.021151514278095654
-1.4943941141633623   0.009017779023808348   0.021151514278095654
-1.4943941141633623   0.009017779023808348   0.021151514278095654
-1.229982373660439   0.08288865464844691   0.05599821292421016
-1.229982373660439   0.08288865464844691   0.05599821292421016
-1.229982373660439   0.08288865464844691   0.05599821292421016
-1.229982373660439   0.08288865464844691   0.05599821292421016
-1.8837285827847559   -0.09941902146409948   -0.020293852645561883
-1.8837285827847559   -0.09941902146409948   -0.020293852645561883
-1.8837285827847559   -0.09941902146409948   -0.020293852645561883
-1.8837285827847559   -0.09941902146409948   -0.020293852645561883
-1.9205052105370495   -0.0824342404200038   0.04588328746811238
-1.9205052105370495   -0.0824342404200038   0.04588328746811238
-1.9205052105370495   -0.0824342404200038   0.04588328746811238
-1.9205052105370495   -0.0824342404200038   0.04588328746811238
-1.2924711686635848   -0.001738270700108402   -0.014746369086981695
-1.2924711686635848   -0.001738270700108402   -0.014746369086981695
-1.2924711686635848   -0.001738270700108402   -0.014746369086981695
-1.2924711686635848   -0.001738270700108402   -0.014746369086981695
-1.5124013302061068   -0.004309393022928043   0.017252982370969838
-1.5124013302061068   -0.004309393022928043   0.017252982370969838
-1.5124013302061068   -0.004309393022928043   0.017252982370969838
-1.5124013302061068   -0.004309393022928043   0.017252982370969838
1.0273814844307712   0.05708791483831466   -0.049040362342479944
1.0273814844307712   0.05708791483831466   -0.049040362342479944
1.0273814844307712   0.05708791483831466   -0.049040362342479944
1.0273814844307712   0.05708791483831466   -0.049040362342479944
0.48855343826819325   0.009792605965790208   0.018696108987328326
0.48855343826819325   0.009792605965790208   0.018696108987328326
0.48855343826819325   0.009792605965790208   0.018696108987328326
0.48855343826819325   0.009792605965790208   0.018696108987328326
0.434070083778256   -0.0832645496494489   -0.04657441734927804
0.434070083778256   -0.0832645496494489   -0.04657441734927804
0.434070083778256   -0.0832645496494489   -0.04657441734927804
0.434070083778256   -0.0832645496494489   -0.04657441734927804
1.0051300140605035   0.09442830961544534   0.023119141256711027
1.0051300140605035   0.09442830961544534   0.023119141256711027
1.0051300140605035   0.09442830961544534   0.023119141256711027
1.0051300140605035   0.09442830961544534   0.023119141256711027
0.7006287898559682   0.009474887471063592   -0.0207181461979769
0.7006287898559682   0.009474887471063592   -0.0207181461979769
0.7006287898559682   0.009474887471063592   -0.0207181461979769
0.7006287898559682   0.009474887471063592   -0.0207181461979769
0.9774409528574313   0.025454113839667142   -0.046351968982872783
0.9774409528574313   0.025454113839667142   -0.046351968982872783
0.9774409528574313   0.025454113839667142   -0.046351968982872783
0.9774409528574313   0.025454113839667142   -0.046351968982872783
0.4612135974425252   -0.014835901412474622   0.020714502735089572
0.4612135974425252   -0.014835901412474622   0.020714502735089572
0.4612135974425252   -0.014835901412474622   0.020714502735089572
0.4612135974425252   -0.014835901412474622   0.020714502735089572
0.40861743398959055   -0.09143639715828131   -0.03972246754728213
0.40861743398959055   -0.09143639715828131   -0.03972246754728213
0.40861743398959055   -0.09143639715828131   -0.03972246754728213
0.40861743398959055   -0.09143639715828131   -0.03972246754728213
0.9655536487453946   0.08274823675531542   0.030409108873258824
0.9655536487453946   0.08274823675531542   0.030409108873258824
0.9655536487453946   0.08274823675531542   0.030409108873258824
0.9655536487453946   0.08274823675531542   0.030409108873258824
0.6778475382735359   -0.004695608232926529   -0.029090481225108177
0.6778475382735359   -0.004695608232926529   -0.029090481225108177
0.6778475382735359   -0.004695608232926529   -0.029090481225108177
0.6778475382735359   -0.004695608232926529   -0.029090481225108177
0.9385103227622206   0.015062347706869789   -0.03712163199415664
0.9385103227622206   0.015062347706869789   -0.03712163199415664
0.9385103227622206   0.015062347706869789   -0.03712163199415664
0.9385103227622206   0.015062347706869789   -0.03712163199415664
0.434971761266544   -0.024439506816055195   0.025052278495256354
0.434971761266544   -0.024439506816055195   0.025052278495256354
0.434971761266544   -0.024439506816055195   0.025052278495256354
0.434971761266544   -0.024439506816055195   0.025052278495256354
0.3856786487082688   -0.09647065887037615   -0.03308092424571054
0.3856786487082688   -0.09647065887037615   -0.03308092424571054
0.3856786487082688   -0.09647065887037615   -0.03308092424571054
0.3856786487082688   -0.09647065887037615   -0.03308092424571054
0.9209242272865088   0.07010230006019869   0.03612647541598615
0.9209242272865088   0.07010230006019869   0.03612647541598615
0.9209242272865088   0.07010230006019869   0.03612647541598615
0.9209242272865088   0.07010230006019869   0.03612647541598615
0.6328062024758436   -0.015403724768740579   -0.04148056936300395
0.6328062024758436   -0.015403724768740579   -0.04148056936300395
0.6328062024758436   -0.015403724768740579   -0.04148056936300395
0.6328062024758436   -0.015403724768740579   -0.04148056936300395
0.4967142830118766   0.07223800520350646   -0.002945066531962472
0.4967142830118766   0.07223800520350646   -0.002945066531962472
0.4967142830118766   0.07223800520350646   -0.002945066531962472
0.4967142830118766   0.07223800520350646   -0.002945066531962472
-0.03245619047166506   -0.007049927429963329   -0.00025570035175372856
-0.03245619047166506   -0.007049927429963329   -0.00025570035175372856
-0.03245619047166506   -0.007049927429963329   -0.00025570035175372856
-0.03245619047166506   -0.007049927429963329   -0.00025570035175372856
-0.07083708009600662   -0.06232937764350525   -0.029611659897961072
-0.07083708009600662   -0.06232937764350525   -0.029611659897961072
-0.07083708009600662   -0.06232937764350525   -0.029611659897961072
-0.07083708009600662   -0.06232937764350525   -0.029611659897961072
0.48379440996149614   0.08583073482053231   0.03295192909693733
0.48379440996149614   0.08583073482053231   0.03295192909693733
0.48379440996149614   0.08583073482053231   0.03295192909693733
0.48379440996149614   0.08583073482053231   0.03295192909693733
0.21592436465857817   0.021178960256016722   0.0015401045818744753
0.21592436465857817   0.021178960256016722   0.0015401045818744753
0.21592436465857817   0.021178960256016722   0.0015401045818744753
0.21592436465857817   0.021178960256016722   0.0015401045818744753
0.4707647789316002   0.05220018991268314   0.0014343188553126943
0.4707647789316002   0.05220018991268314   0.0014343188553126943
0.4707647789316002   0.05220018991268314   0.0014343188553126943
0.4707647789316002   0.05220018991268314   0.0014343188553126943
-0.057584382049731445   -0.028475765719265633   0.002798218409175198
-0.057584382049731445   -0.028475765719265633   0.002798218409175198
-0.057584382049731445   -0.028475765719265633   0.002798218409175198
-0.057584382049731445   -0.028475765719265633   0.002798218409175198
-0.09481144870615515   -0.07777164833058503   -0.02448609593406459
-0.09481144870615515   -0.07777164833058503   -0.02448609593406459
-0.09481144870615515   -0.07777164833058503   -0.02448609593406459
-0.09481144870615515   -0.07777164833058503   -0.02448609593406459
0.45553172330445496   0.06738939473232114   0.03602318713643467
0.45553172330445496   0.06738939473232114   0.03602318713643467
0.45553172330445496   0.06738939473232114   0.03602318713643467
0.45553172330445496   0.06738939473232114   0.03602318713643467
0.1863770537492792   0.002943242447907203   -0.00761498053212818
0.1863770537492792   0.002943242447907203   -0.00761498053212818
0.1863770537492792   0.002943242447907203   -0.00761498053212818
0.1863770537492792   0.002943242447907203   -0.00761498053212818
0.4429339350297175   0.03563281308534728   0.004790827409724278
0.4429339350297175   0.03563281308534728   0.004790827409724278
0.4429339350297175   0.03563281308534728   0.004790827409724278
0.4429339350297175   0.03563281308534728   0.004790827409724278
-0.08239693079162605   -0.04619833704381901   0.00601318235181488
-0.08239693079162605   -0.04619833704381901   0.00601318235181488
-0.08239693079162605   -0.04619833704381901   0.00601318235181488
-0.08239693079162605   -0.04619833704381901   0.00601318235181488
-0.11847218272955112   -0.09073908555838375   -0.01967049584873772
-0.11847218272955112   -0.09073908555838375   -0.01967049584873772
-0.11847218272955112   -0.09073908555838375   -0.01967049584873772
-0.11847218272955112   -0.09073908555838375   -0.01967049584873772
0.42943726870079263   0.05034019625101103   0.03890132059551932
0.42943726870079263   0.05034019625101103   0.03890132059551932
0.42943726870079263   0.05034019625101103   0.03890132059551932
0.42943726870079263   0.05034019625101103   0.03890132059551932
0.16371598091595507   -0.010876429682512352   -0.015241016173250766
0.16371598091595507   -0.010876429682512352   -0.015241016173250766
0.16371598091595507   -0.010876429682512352   -0.015241016173250766
0.16371598091595507   -0.010876429682512352   -0.015241016173250766
-0.01137885987164831   0.08611263795229744   0.011968387266071126
-0.01137885987164831   0.08611263795229744   0.011968387266071126
-0.01137885987164831   0.08611263795229744   0.011968387266071126
-0.01137885987164831   0.08611263795229744   0.011968387266071126
-0.5423711279108984   -0.02354468269433567   -0.01798954565111492
-0.5423711279108984   -0.02354468269433567   -0.01798954565111492
-0.5423711279108984   -0.02354468269433567   -0.01798954565111492
-0.5423711279108984   -0.02354468269433567   -0.01798954565111492
-0.5671070387320292   -0.043311025770575676   -0.014046646310483111
-0.5671070387320292   -0.043311025770575676   -0.014046646310483111
-0.5671070387320292   -0.043311025770575676   -0.014046646310483111
-0.5671070387320292   -0.043311025770575676   -0.014046646310483111
-0.03571202621011637   0.06931759491786356   0.014366636970121386
-0.03571202621011637   0.06931759491786356   0.014366636970121386
-0.03571202621011637   0.06931759491786356   0.014366636970121386
-0.03571202621011637   0.06931759491786356   0.014366636970121386
-0.2884569876897135   0.022290548711592514   0.005657938834862975
-0.2884569876897135   0.022290548711592514   0.005657938834862975
-0.2884569876897135   0.022290548711592514   0.005657938834862975
-0.2884569876897135   0.022290548711592514   0.005657938834862975
-0.035234793233234335   0.06923902662146579   0.016831370150929358
-0.035234793233234335   0.06923902662146579   0.016831370150929358
-0.035234793233234335   0.06923902662146579   0.016831370150929358
-0.035234793233234335   0.06923902662146579   0.016831370150929358
-0.5671215733151618   -0.04276975908042857   -0.01466058591629376
-0.5671215733151618   -0.04276975908042857   -0.01466058591629376
-0.5671215733151618   -0.04276975908042857   -0.01466058591629376
-0.5671215733151618   -0.04276975908042857   -0.01466058591629376
-0.591663982854426   -0.06002344602901208   -0.009574695457563405
-0.591663982854426   -0.06002344602901208   -0.009574695457563405
-0.591663982854426   -0.06002344602901208   -0.009574695457563405
-0.591663982854426   -0.06002344602901208   -0.009574695457563405
-0.06070722964833167   0.050328790825966266   0.017934560198501533
-0.06070722964833167   0.050328790825966266   0.017934560198501533
-0.06070722964833167   0.050328790825966266   0.017934560198501533
-0.06070722964833167   0.050328790825966266   0.017934560198501533
-0.31326672005754885   0.005800506158635227   -0.001769159040546385
-0.31326672005754885   0.005800506158635227   -0.001769159040546385
-0.31326672005754885   0.005800506158635227   -0.001769159040546385
-0.31326672005754885   0.005800506158635227   -0.001769159040546385
-0.05973431999185163   0.0524191712469909   0.020708728059877113
-0.05973431999185163   0.0524191712469909   0.020708728059877113
-0.05973431999185163   0.0524191712469909   0.020708728059877113
-0.05973431999185163   0.0524191712469909   0.020708728059877113
-0.5925015410630726   -0.06197847500220323   -0.011807457527604984
-0.5925015410630726   -0.06197847500220323   -0.011807457527604984
-0.5925015410630726   -0.06197847500220323   -0.011807457527604984
-0.5925015410630726   -0.06197847500220323   -0.011807457527604984
-0.6159312359081852   -0.0752913427479911   -0.005147591127375695
-0.6159312359081852   -0.0752913427479911   -0.005147591127375695
-0.6159312359081852   -0.0752913427479911   -0.005147591127375695
-0.6159312359081852   -0.0752913427479911   -0.005147591127375695
-0.08580479283442483   0.031963408930410775   0.020963959138101083
-0.08580479283442483   0.031963408930410775   0.020963959138101083
-0.08580479283442483   0.031963408930410775   0.020963959138101083
-0.08580479283442483   0.031963408930410775   0.020963959138101083
-0.3392133623826554   -0.010828213628132577   -0.010040598856820952
-0.3392133623826554   -0.010828213628132577   -0.010040598856820952
-0.3392133623826554   -0.010828213628132577   -0.010040598856820952
-0.3392133623826554   -0.010828213628132577   -0.010040598856820952
-0.5090980065190981   0.0988450111061074   0.02598636750743933
-0.5090980065190981   0.0988450111061074   0.02598636750743933
-0.5090980065190981   0.0988450111061074   0.02598636750743933
-0.5090980065190981   0.0988450111061074   0.02598636750743933
-1.0406408365669653   -0.040395808225675345   -0.03242702286649743
-1.0406408365669653   -0.040395808225675345   -0.03242702286649743
-1.0406408365669653   -0.040395808225675345   -0.03242702286649743
-1.0406408365669653   -0.040395808225675345   -0.03242702286649743
-1.0541581269498093   -0.027259306238871545   0.0029135370867943225
-1.0541581269498093   -0.027259306238871545   0.0029135370867943225
-1.0541581269498093   -0.027259306238871545   0.0029135370867943225
-1.0541581269498093   -0.027259306238871545   0.0029135370867943225
-0.5465094366171432   0.04978217445572963   -0.0041518359623508305
-0.5465094366171432   0.04978217445572963   -0.0041518359623508305
-0.5465094366171432   0.04978217445572963   -0.0041518359623508305
-0.5465094366171432   0.04978217445572963   -0.0041518359623508305
-0.7824852595393655   0.021238208073669773   0.009587995934686067
-0.7824852595393655   0.021238208073669773   0.009587995934686067
-0.7824852595393655   0.021238208073669773   0.009587995934686067
-0.7824852595393655   0.021238208073669773   0.009587995934686067
-0.5329971153362226   0.08252381470507825   0.030668130192895326
-0.5329971153362226   0.08252381470507825   0.030668130192895326
-0.5329971153362226   0.08252381470507825   0.030668130192895326
-0.5329971153362226   0.08252381470507825   0.030668130192895326
-1.067545869625831   -0.059876367883312354   -0.03140811464887307
-1.067545869625831   -0.059876367883312354   -0.03140811464887307
-1.067545869625831   -0.059876367883312354   -0.03140811464887307
-1.067545869625831   -0.059876367883312354   -0.03140811464887307
-1.0827541012619117   -0.04415424363913292   0.004584229928608088
-1.0827541012619117   -0.04415424363913292   0.004584229928608088
-1.0827541012619117   -0.04415424363913292   0.004584229928608088
-1.0827541012619117   -0.04415424363913292   0.004584229928608088
-0.5714103927941575   0.03219517234231831   -0.0005253635275435237
-0.5714103927941575   0.03219517234231831   -0.0005253635275435237
-0.5714103927941575   0.03219517234231831   -0.0005253635275435237
-0.5714103927941575   0.03219517234231831   -0.0005253635275435237
-0.8034613921359828   0.006531004041168964   0.0026755700976715396
-0.8034613921359828   0.006531004041168964   0.0026755700976715396
-0.8034613921359828   0.006531004041168964   0.0026755700976715396
-0.8034613921359828   0.006531004041168964   0.0026755700976715396
-0.5573335452769609   0.067019859043572   0.03503418735718179
-0.5573335452769609   0.067019859043572   0.03503418735718179
-0.5573335452769609   0.067019859043572   0.03503418735718179
-0.5573335452769609   0.067019859043572   0.03503418735718179
-1.0961067503116626   -0.07825473187294152   -0.028078527086337624
-1.0961067503116626   -0.07825473187294152   -0.028078527086337624
-1.0961067503116626   -0.07825473187294152   -0.028078527086337624
-1.0961067503116626   -0.07825473187294152   -0.028078527086337624
-1.1086909123063373   -0.06234313931503513   0.00988870846148205
-1.1086909123063373   -0.06234313931503513   0.00988870846148205
-1.1086909123063373   -0.06234313931503513   0.00988870846148205
-1.1086909123063373   -0.06234313931503513   0.00988870846148205
-0.5970091127289497   0.012070799067628951   0.0021008829531860077
-0.5970091127289497   0.012070799067628951   0.0021008829531860077
-0.5970091127289497   0.012070799067628951   0.0021008829531860077
-0.5970091127289497   0.012070799067628951   0.0021008829531860077
-0.8354231933019584   -0.011920554836943958   -0.006103544669745817
-0.8354231933019584   -0.011920554836943958   -0.006103544669745817
-0.8354231933019584   -0.011920554836943958   -0.006103544669745817
-0.8354231933019584   -0.011920554836943958   -0.006103544669745817
-1.001002012034597   0.08864555854338052   0.036725733026286775
-1.001002012034597   0.08864555854338052   0.036725733026286775
-1.001002012034597   0.08864555854338052   0.036725733026286775
-1.001002012034597   0.08864555854338052   0.036725733026286775
-1.5145341344724432   -0.06988729423652351   -0.03571734569166185
-1.5145341344724432   -0.06988729423652351   -0.03571734569166185
-1.5145341344724432   -0.06988729423652351   -0.03571734569166185
-1.5145341344724432   -0.06988729423652351   -0.03571734569166185
-1.5313666727469541   -0.014994560959056213   0.03384277914893835
-1.5313666727469541   -0.014994560959056213   0.03384277914893835
-1.5313666727469541   -0.014994560959056213   0.03384277914893835
-1.5313666727469541   -0.014994560959056213   0.03384277914893835
-1.0484431196048973   0.02511465450119227   -0.02088538692870999
-1.0484431196048973   0.02511465450119227   -0.02088538692870999
-1.0484431196048973   0.02511465450119227   -0.02088538692870999
-1.0484431196048973   0.02511465450119227   -0.02088538692870999
-1.2174817489337326   0.019922768214557462   0.029822799138048958
-1.2174817489337326   0.019922768214557462   0.029822799138048958
-1.2174817489337326   0.019922768214557462   0.029822799138048958
-1.2174817489337326   0.019922768214557462   0.029822799138048958
-1.0229666043911692   0.08853272134211435   0.04307912229900607
-1.0229666043911692   0.08853272134211435   0.04307912229900607
-1.0229666043911692   0.08853272134211435   0.04307912229900607
-1.0229666043911692   0.08853272134211435   0.04307912229900607
-1.556413817113573   -0.07798325695286668   -0.028404246690329107
-1.556413817113573   -0.07798325695286668   -0.028404246690329107
-1.556413817113573   -0.07798325695286668   -0.028404246690329107
-1.556413817113573   -0.07798325695286668   -0.028404246690329107
-1.5688032318622727   -0.0239087070639325   0.04233236843278981
-1.5688032318622727   -0.0239087070639325   0.04233236843278981
-1.5688032318622727   -0.0239087070639325   0.04233236843278981
-1.5688032318622727   -0.0239087070639325   0.04233236843278981
-1.0753243387571125   0.015472778093282513   -0.017893979279810387
-1.0753243387571125   0.015472778093282513   -0.017893979279810387
-1.0753243387571125   0.015472778093282513   -0.017893979279810387
-1.0753243387571125   0.015472778093282513   -0.017893979279810387
-1.2697881353994032   0.009975790047223432   0.018144993736250267
-1.2697881353994032   0.009975790047223432   0.018144993736250267
-1.2697881353994032   0.009975790047223432   0.018144993736250267
-1.2697881353994032   0.009975790047223432   0.018144993736250267
-1.048299836019863   0.08188813409827944   0.05081317840143984
-1.048299836019863   0.08188813409827944   0.05081317840143984
-1.048299836019863   0.08188813409827944   0.05081317840143984
-1.048299836019863   0.08188813409827944   0.05081317840143984
-1.595118254752281   -0.08961458322168592   -0.02353686985948382
-1.595118254752281   -0.08961458322168592   -0.02353686985948382
-1.595118254752281   -0.08961458322168592   -0.02353686985948382
-1.595118254752281   -0.08961458322168592   -0.02353686985948382
-1.618212927788281   -0.055623679352451216   0.04156834677606193
-1.618212927788281   -0.055623679352451216   0.04156834677606193
-1.618212927788281   -0.055623679352451216   0.04156834677606193
-1.618212927788281   -0.055623679352451216   0.04156834677606193
-1.1037111184497068   -0.011339172692535066   -0.016216288877865158
-1.1037111184497068   -0.011339172692535066   -0.016216288877865158
-1.1037111184497068   -0.011339172692535066   -0.016216288877865158
-1.1037111184497068   -0.011339172692535066   -0.016216288877865158
-1.2832606168317315   -0.002400807613231304   0.014252241642733324
-1.2832606168317315   -0.002400807613231304   0.014252241642733324
-1.2832606168317315   -0.002400807613231304   0.014252241642733324
-1.2832606168317315   -0.002400807613231304   0.014252241642733324
0.7057412582141914   0.039960514364996064   -0.04765216896264068
0.7057412582141914   0.039960514364996064   -0.04765216896264068
0.7057412582141914   0.039960514364996064   -0.04765216896264068
0.7057412582141914   0.039960514364996064   -0.04765216896264068
0.3014505118587159   0.01924409772266441   0.020445571638992285
0.3014505118587159   0.01924409772266441   0.020445571638992285
0.3014505118587159   0.01924409772266441   0.020445571638992285
0.3014505118587159   0.01924409772266441   0.020445571638992285
0.2523390705207879   -0.06964037968218975   -0.04443336169174873
0.2523390705207879   -0.06964037968218975   -0.04443336169174873
0.2523390705207879   -0.06964037968218975   -0.04443336169174873
0.2523390705207879   -0.06964037968218975   -0.04443336169174873
0.6891938727815539   0.08016518257240762   0.024841732013616655
0.6891938727815539   0.08016518257240762   0.024841732013616655
0.6891938727815539   0.08016518257240762   0.024841732013616655
0.6891938727815539   0.08016518257240762   0.024841732013616655
0.461380901706821   0.01022989977083269   -0.012605571157620229
0.461380901706821   0.01022989977083269   -0.012605571157620229
0.461380901706821   0.01022989977083269   -0.012605571157620229
0.461380901706821   0.01022989977083269   -0.012605571157620229
0.6617492138284796   0.012237537734861581   -0.04445391791421456
0.6617492138284796   0.012237537734861581   -0.04445391791421456
0.6617492138284796   0.012237537734861581   -0.04445391791421456
0.6617492138284796   0.012237537734861581   -0.04445391791421456
0.2792680728642526   -0.0022283914542483296   0.022799661797638024
0.2792680728642526   -0.0022283914542483296   0.022799661797638024
0.2792680728642526   -0.0022283914542483296   0.022799661797638024
0.2792680728642526   -0.0022283914542483296   0.022799661797638024
0.2314212904756556   -0.07772438786296045   -0.037821655948381515
0.2314212904756556   -0.07772438786296045   -0.037821655948381515
0.2314212904756556   -0.07772438786296045   -0.037821655948381515
0.2314212904756556   -0.07772438786296045   -0.037821655948381515
0.6547777711665861   0.06869437821238356   0.03201930719764292
0.6547777711665861   0.06869437821238356   0.03201930719764292
0.6547777711665861   0.06869437821238356   0.03201930719764292
0.6547777711665861   0.06869437821238356   0.03201930719764292
0.43976021433038237   -0.0031051412090960656   -0.02052489872619442
0.43976021433038237   -0.0031051412090960656   -0.02052489872619442
0.43976021433038237   -0.0031051412090960656   -0.02052489872619442
0.43976021433038237   -0.0031051412090960656   -0.02052489872619442
0.6277824976434881   0.0018830402659904266   -0.03614572247145963
0.6277824976434881   0.0018830402659904266   -0.03614572247145963
0.6277824976434881   0.0018830402659904266   -0.03614572247145963
0.6277824976434881   0.0018830402659904266   -0.03614572247145963
0.2576553337943436   -0.011674280120977917   0.02729845290307808
0.2576553337943436   -0.011674280120977917   0.02729845290307808
0.2576553337943436   -0.011674280120977917   0.02729845290307808
0.2576553337943436   -0.011674280120977917   0.02729845290307808
0.21272415109231   -0.08506758197616061   -0.03152285857161154
0.21272415109231   -0.08506758197616061   -0.03152285857161154
0.21272415109231   -0.08506758197616061   -0.03152285857161154
0.21272415109231   -0.08506758197616061   -0.03152285857161154
0.6145996489826328   0.053614015429707215   0.03654800525490061
0.6145996489826328   0.053614015429707215   0.03654800525490061
0.6145996489826328   0.053614015429707215   0.03654800525490061
0.6145996489826328   0.053614015429707215   0.03654800525490061
0.4031682157337655   -0.014046440568064936   -0.03140177268525089
0.4031682157337655   -0.014046440568064936   -0.03140177268525089
0.4031682157337655   -0.014046440568064936   -0.03140177268525089
0.4031682157337655   -0.014046440568064936   -0.03140177268525089
0.3034915730057763   0.05847480029605528   -0.00857982519910205
0.3034915730057763   0.05847480029605528   -0.00857982519910205
0.3034915730057763   0.05847480029605528   -0.00857982519910205
0.3034915730057763   0.05847480029605528   -0.00857982519910205
-0.09316470667517902   0.005041301684848839   0.002767833487479109
-0.09316470667517902   0.005041301684848839   0.002767833487479109
-0.09316470667517902   0.005041301684848839   0.002767833487479109
-0.09316470667517902   0.005041301684848839   0.002767833487479109
-0.12673951978437703   -0.048340534472594246   -0.027370487622822303
-0.12673951978437703   -0.048340534472594246   -0.027370487622822303
-0.12673951978437703   -0.048340534472594246   -0.027370487622822303
-0.12673951978437703   -0.048340534472594246   -0.027370487622822303
0.2950904920625086   0.0702988484995431   0.029384517835126554
0.2950904920625086   0.0702988484995431   0.029384517835126554
0.2950904920625086   0.0702988484995431   0.029384517835126554
0.2950904920625086   0.0702988484995431   0.029384517835126554
0.09259310570541021   0.02033021039756548   0.0035514337784568395
0.09259310570541021   0.02033021039756548   0.0035514337784568395
0.09259310570541021   0.02033021039756548   0.0035514337784568395
0.09259310570541021   0.02033021039756548   0.0035514337784568395
0.28181547381117406   0.037921847322232596   -0.004613572244239213
0.28181547381117406   0.037921847322232596   -0.004613572244239213
0.28181547381117406   0.037921847322232596   -0.004613572244239213
0.28181547381117406   0.037921847322232596   -0.004613572244239213
-0.11366115467569556   -0.01616018643793708   0.005840989885929806
-0.11366115467569556   -0.01616018643793708   0.005840989885929806
-0.11366115467569556   -0.01616018643793708   0.005840989885929806
-0.11366115467569556   -0.01616018643793708   0.005840989885929806
-0.14619457382119874   -0.06458982862536412   -0.02214663252633796
-0.14619457382119874   -0.06458982862536412   -0.02214663252633796
-0.14619457382119874   -0.06458982862536412   -0.02214663252633796
-0.14619457382119874   -0.06458982862536412   -0.02214663252633796
0.27122930871703277   0.051547050113752026   0.031946997281794134
0.27122930871703277   0.051547050113752026   0.031946997281794134
0.27122930871703277   0.051547050113752026   0.031946997281794134
0.27122930871703277   0.051547050113752026   0.031946997281794134
0.06859954341612119   0.0019520829261349473   -0.00527687983046316
0.06859954341612119   0.0019520829261349473   -0.00527687983046316
0.06859954341612119   0.0019520829261349473   -0.00527687983046316
0.06859954341612119   0.0019520829261349473   -0.00527687983046316
0.2583739547780555   0.02049721594990444   -0.0012799382492494193
0.2583739547780555   0.02049721594990444   -0.0012799382492494193
0.2583739547780555   0.02049721594990444   -0.0012799382492494193
0.2583739547780555   0.02049721594990444   -0.0012799382492494193
-0.13383631372347038   -0.03403708830276593   0.009091927639707521
-0.13383631372347038   -0.03403708830276593   0.009091927639707521
-0.13383631372347038   -0.03403708830276593   0.009091927639707521
-0.13383631372347038   -0.03403708830276593   0.009091927639707521
-0.16539084862048617   -0.07986966468061164   -0.017319866741315283
-0.16539084862048617   -0.07986966468061164   -0.017319866741315283
-0.16539084862048617   -0.07986966468061164   -0.017319866741315283
-0.16539084862048617   -0.07986966468061164   -0.017319866741315283
0.24969670120454876   0.033525606336759814   0.03474670367666666
0.24969670120454876   0.033525606336759814   0.03474670367666666
0.24969670120454876   0.033525606336759814   0.03474670367666666
0.24969670120454876   0.033525606336759814   0.03474670367666666
0.04933812999370467   -0.013302984176247007   -0.013074944849672056
0.04933812999370467   -0.013302984176247007   -0.013074944849672056
0.04933812999370467   -0.013302984176247007   -0.013074944849672056
0.04933812999370467   -0.013302984176247007   -0.013074944849672056
-0.07853698877553865   0.07417466599755436   0.006773058672975472
-0.07853698877553865   0.07417466599755436   0.006773058672975472
-0.07853698877553865   0.07417466599755436   0.006773058672975472
-0.07853698877553865   0.07417466599755436   0.006773058672975472
-0.4819242168021983   -0.012179944294594361   -0.014654681745495845
-0.4819242168021983   -0.012179944294594361   -0.014654681745495845
-0.4819242168021983   -0.012179944294594361   -0.014654681745495845
-0.4819242168021983   -0.012179944294594361   -0.014654681745495845
-0.5011204325537328   -0.02879532057609059   -0.010789534156032808
-0.5011204325537328   -0.02879532057609059   -0.010789534156032808
-0.5011204325537328   -0.02879532057609059   -0.010789534156032808
-0.5011204325537328   -0.02879532057609059   -0.010789534156032808
-0.09859847234248909   0.05360116258081316   0.011393052533209963
-0.09859847234248909   0.05360116258081316   0.011393052533209963
-0.09859847234248909   0.05360116258081316   0.011393052533209963
-0.09859847234248909   0.05360116258081316   0.011393052533209963
-0.2893382321859712   0.02136192244592236   0.00572244383782276
-0.2893382321859712   0.02136192244592236   0.00572244383782276
-0.2893382321859712   0.02136192244592236   0.00572244383782276
-0.2893382321859712   0.02136192244592236   0.00572244383782276
-0.09799787242564945   0.05632211768364743   0.011675097014573824
-0.09799787242564945   0.05632211768364743   0.011675097014573824
-0.09799787242564945   0.05632211768364743   0.011675097014573824
-0.09799787242564945   0.05632211768364743   0.011675097014573824
-0.501776415132431   -0.03157165834078324   -0.011293109284830218
-0.501776415132431   -0.03157165834078324   -0.011293109284830218
-0.501776415132431   -0.03157165834078324   -0.011293109284830218
-0.501776415132431   -0.03157165834078324   -0.011293109284830218
-0.520776741112977   -0.046499538581893055   -0.0061375753761496905
-0.520776741112977   -0.046499538581893055   -0.0061375753761496905
-0.520776741112977   -0.046499538581893055   -0.0061375753761496905
-0.520776741112977   -0.046499538581893055   -0.0061375753761496905
-0.11901400681728772   0.0343032642688769   0.014863109598974168
-0.11901400681728772   0.0343032642688769   0.014863109598974168
-0.11901400681728772   0.0343032642688769   0.014863109598974168
-0.11901400681728772   0.0343032642688769   0.014863109598974168
-0.3095472003053579   0.004123702283061956   -0.0018666826099715643
-0.3095472003053579   0.004123702283061956   -0.0018666826099715643
-0.3095472003053579   0.004123702283061956   -0.0018666826099715643
-0.3095472003053579   0.004123702283061956   -0.0018666826099715643
-0.11799265714683296   0.038449514775492875   0.015823607444635877
-0.11799265714683296   0.038449514775492875   0.015823607444635877
-0.11799265714683296   0.038449514775492875   0.015823607444635877
-0.11799265714683296   0.038449514775492875   0.015823607444635877
-0.5221129603290999   -0.05096065863417659   -0.008357551404481002
-0.5221129603290999   -0.05096065863417659   -0.008357551404481002
-0.5221129603290999   -0.05096065863417659   -0.008357551404481002
-0.5221129603290999   -0.05096065863417659   -0.008357551404481002
-0.5401011577569573   -0.06341145109885854   -0.0016139760857130075
-0.5401011577569573   -0.06341145109885854   -0.0016139760857130075
-0.5401011577569573   -0.06341145109885854   -0.0016139760857130075
-0.5401011577569573   -0.06341145109885854   -0.0016139760857130075
-0.13925745085012983   0.015551949629101603   0.017925507800749134
-0.13925745085012983   0.015551949629101603   0.017925507800749134
-0.13925745085012983   0.015551949629101603   0.017925507800749134
-0.13925745085012983   0.015551949629101603   0.017925507800749134
-0.33058931581171463   -0.013133446680034036   -0.010093300686063435
-0.33058931581171463   -0.013133446680034036   -0.010093300686063435
-0.33058931581171463   -0.013133446680034036   -0.010093300686063435
-0.33058931581171463   -0.013133446680034036   -0.010093300686063435
-0.4546716072904924   0.08764093875550552   0.02178748276293413
-0.4546716072904924   0.08764093875550552   0.02178748276293413
-0.4546716072904924   0.08764093875550552   0.02178748276293413
-0.4546716072904924   0.08764093875550552   0.02178748276293413
-0.863831803654731   -0.02931399421785677   -0.02982010891881997
-0.863831803654731   -0.02931399421785677   -0.02982010891881997
-0.863831803654731   -0.02931399421785677   -0.02982010891881997
-0.863831803654731   -0.02931399421785677   -0.02982010891881997
-0.8710435623581826   -0.012895796641592877   0.0069924342920759525
-0.8710435623581826   -0.012895796641592877   0.0069924342920759525
-0.8710435623581826   -0.012895796641592877   0.0069924342920759525
-0.8710435623581826   -0.012895796641592877   0.0069924342920759525
-0.4874859477165756   0.0349321737692565   -0.006344604315601132
-0.4874859477165756   0.0349321737692565   -0.006344604315601132
-0.4874859477165756   0.0349321737692565   -0.006344604315601132
-0.4874859477165756   0.0349321737692565   -0.006344604315601132
-0.6652859358229154   0.02028619225507508   0.008307647380806311
-0.6652859358229154   0.02028619225507508   0.008307647380806311
-0.6652859358229154   0.02028619225507508   0.008307647380806311
-0.6652859358229154   0.02028619225507508   0.008307647380806311
-0.47377270469299443   0.07049220412278606   0.02666158044878264
-0.47377270469299443   0.07049220412278606   0.02666158044878264
-0.47377270469299443   0.07049220412278606   0.02666158044878264
-0.47377270469299443   0.07049220412278606   0.02666158044878264
-0.8853569226675183   -0.049055944280877145   -0.028414219615326725
-0.8853569226675183   -0.049055944280877145   -0.028414219615326725
-0.8853569226675183   -0.049055944280877145   -0.028414219615326725
-0.8853569226675183   -0.049055944280877145   -0.028414219615326725
-0.8942158742313708   -0.030431478789874344   0.009146862248706561
-0.8942158742313708   -0.030431478789874344   0.009146862248706561
-0.8942158742313708   -0.030431478789874344   0.009146862248706561
-0.8942158742313708   -0.030431478789874344   0.009146862248706561
-0.5073527870884755   0.017147256810283534   -0.0026646006458261665
-0.5073527870884755   0.017147256810283534   -0.0026646006458261665
-0.5073527870884755   0.017147256810283534   -0.0026646006458261665
-0.5073527870884755   0.017147256810283534   -0.0026646006458261665
-0.6822959271337955   0.004657009776145277   0.0006996015084858101
-0.6822959271337955   0.004657009776145277   0.0006996015084858101
-0.6822959271337955   0.004657009776145277   0.0006996015084858101
-0.6822959271337955   0.004657009776145277   0.0006996015084858101
-0.4931462233314904   0.05421347827519883   0.03130199667419187
-0.4931462233314904   0.05421347827519883   0.03130199667419187
-0.4931462233314904   0.05421347827519883   0.03130199667419187
-0.4931462233314904   0.05421347827519883   0.03130199667419187
-0.9084753124670695   -0.06755057473350187   -0.025031232986159176
-0.9084753124670695   -0.06755057473350187   -0.025031232986159176
-0.9084753124670695   -0.06755057473350187   -0.025031232986159176
-0.9084753124670695   -0.06755057473350187   -0.025031232986159176
-0.9148465306181449   -0.049116633807767124   0.014001136465400806
-0.9148465306181449   -0.049116633807767124   0.014001136465400806
-0.9148465306181449   -0.049116633807767124   0.014001136465400806
-0.9148465306181449   -0.049116633807767124   0.014001136465400806
-0.5275672893458864   -0.0025831663735172566   0.00022708124429341933
-0.5275672893458864   -0.0025831663735172566   0.00022708124429341933
-0.5275672893458864   -0.0025831663735172566   0.00022708124429341933
-0.5275672893458864   -0.0025831663735172566   0.00022708124429341933
-0.7078376444347868   -0.01349002721408929   -0.00813332341144083
-0.7078376444347868   -0.01349002721408929   -0.00813332341144083
-0.7078376444347868   -0.01349002721408929   -0.00813332341144083
-0.7078376444347868   -0.01349002721408929   -0.00813332341144083
-0.8289101733947947   0.08122981395827791   0.03424423420472732
-0.8289101733947947   0.08122981395827791   0.03424423420472732
-0.8289101733947947   0.08122981395827791   0.03424423420472732
-0.8289101733947947   0.08122981395827791   0.03424423420472732
-1.2231430879116083   -0.05632859434813636   -0.03870650824825825
-1.2231430879116083   -0.05632859434813636   -0.03870650824825825
-1.2231430879116083   -0.05632859434813636   -0.03870650824825825
-1.2231430879116083   -0.05632859434813636   -0.03870650824825825
-1.2349379155413476   -0.0012201624083160723   0.033935324460198354
-1.2349379155413476   -0.0012201624083160723   0.033935324460198354
-1.2349379155413476   -0.0012201624083160723   0.033935324460198354
-1.2349379155413476   -0.0012201624083160723   0.033935324460198354
-0.8721208395308723   0.01193780753124632   -0.023227555744227607
-0.8721208395308723   0.01193780753124632   -0.023227555744227607
-0.8721208395308723   0.01193780753124632   -0.023227555744227607
-0.8721208395308723   0.01193780753124632   -0.023227555744227607
-0.9940216217539684   0.018832064572076035   0.02517351711165925
-0.9940216217539684   0.018832064572076035   0.02517351711165925
-0.9940216217539684   0.018832064572076035   0.02517351711165925
-0.9940216217539684   0.018832064572076035   0.02517351711165925
-0.846220797470067   0.07781524061009248   0.04039522148096071
-0.846220797470067   0.07781524061009248   0.04039522148096071
-0.846220797470067   0.07781524061009248   0.04039522148096071
-0.846220797470067   0.07781524061009248   0.04039522148096071
-1.2613506453602248   -0.06761028324523155   -0.03173820379726436
-1.2613506453602248   -0.06761028324523155   -0.03173820379726436
-1.2613506453602248   -0.06761028324523155   -0.03173820379726436
-1.2613506453602248   -0.06761028324523155   -0.03173820379726436
-1.2676794466216943   -0.010866241524945586   0.04276603049363088
-1.2676794466216943   -0.010866241524945586   0.04276603049363088
-1.2676794466216943   -0.010866241524945586   0.04276603049363088
-1.2676794466216943   -0.010866241524945586   0.04276603049363088
-0.8934799832529494   0.0021854010226353415   -0.01979056267171081
-0.8934799832529494   0.0021854010226353415   -0.01979056267171081
-0.8934799832529494   0.0021854010226353415   -0.01979056267171081
-0.8934799832529494   0.0021854010226353415   -0.01979056267171081
-1.0381962313391782   0.007746381888626919   0.013198620693403829
-1.0381962313391782   0.007746381888626919   0.013198620693403829
-1.0381962313391782   0.007746381888626919   0.013198620693403829
-1.0381962313391782   0.007746381888626919   0.013198620693403829
-0.8663682201781386   0.0703612736750317   0.047592380049961844
-0.8663682201781386   0.0703612736750317   0.047592380049961844
-0.8663682201781386   0.0703612736750317   0.047592380049961844
-0.8663682201781386   0.0703612736750317   0.047592380049961844
-1.2951613859192124   -0.07941229040004694   -0.026097617118859023
-1.2951613859192124   -0.07941229040004694   -0.026097617118859023
-1.2951613859192124   -0.07941229040004694   -0.026097617118859023
-1.2951613859192124   -0.07941229040004694   -0.026097617118859023
-1.3114806635808438   -0.04106990722850143   0.04289958357344018
-1.3114806635808438   -0.04106990722850143   0.04289958357344018
-1.3114806635808438   -0.04106990722850143   0.04289958357344018
-1.3114806635808438   -0.04106990722850143   0.04289958357344018
-0.9158305978692526   -0.022536382065026728   -0.017499451532900757
-0.9158305978692526   -0.022536382065026728   -0.017499451532900757
-0.9158305978692526   -0.022536382065026728   -0.017499451532900757
-0.9158305978692526   -0.022536382065026728   -0.017499451532900757
-1.0506696802075728   -0.004906934531324625   0.007506950434866433
-1.0506696802075728   -0.004906934531324625   0.007506950434866433
-1.0506696802075728   -0.004906934531324625   0.007506950434866433
-1.0506696802075728   -0.004906934531324625   0.007506950434866433
0.38864113389630056   0.0232632680695831   -0.0466491986639989
0.38864113389630056   0.0232632680695831   -0.0466491986639989
0.38864113389630056   0.0232632680695831   -0.0466491986639989
0.38864113389630056   0.0232632680695831   -0.0466491986639989
0.11311636198826604   0.02801470399873018   0.022304550085188286
0.11311636198826604   0.02801470399873018   0.022304550085188286
0.11311636198826604   0.02801470399873018   0.022304550085188286
0.11311636198826604   0.02801470399873018   0.022304550085188286
0.0696979998849962   -0.056930300489254335   -0.04113981039813561
0.0696979998849962   -0.056930300489254335   -0.04113981039813561
0.0696979998849962   -0.056930300489254335   -0.04113981039813561
0.0696979998849962   -0.056930300489254335   -0.04113981039813561
0.37795495748333735   0.0661962734711818   0.02683620062060155
0.37795495748333735   0.0661962734711818   0.02683620062060155
0.37795495748333735   0.0661962734711818   0.02683620062060155
0.37795495748333735   0.0661962734711818   0.02683620062060155
0.2234937421681848   0.01104203755494064   -0.0051666922022172365
0.2234937421681848   0.01104203755494064   -0.0051666922022172365
0.2234937421681848   0.01104203755494064   -0.0051666922022172365
0.2234937421681848   0.01104203755494064   -0.0051666922022172365
0.3505768859986517   -0.001081781544354496   -0.04277610178729194
0.3505768859986517   -0.001081781544354496   -0.04277610178729194
0.3505768859986517   -0.001081781544354496   -0.04277610178729194
0.3505768859986517   -0.001081781544354496   -0.04277610178729194
0.09622172894354927   0.009493412100149291   0.025055122305227055
0.09622172894354927   0.009493412100149291   0.025055122305227055
0.09622172894354927   0.009493412100149291   0.025055122305227055
0.09622172894354927   0.009493412100149291   0.025055122305227055
0.05330845206579356   -0.06499235818911514   -0.03494505570902734
0.05330845206579356   -0.06499235818911514   -0.03494505570902734
0.05330845206579356   -0.06499235818911514   -0.03494505570902734
0.05330845206579356   -0.06499235818911514   -0.03494505570902734
0.3484941518223165   0.055071952512459485   0.03448098212518239
0.3484941518223165   0.055071952512459485   0.03448098212518239
0.3484941518223165   0.055071952512459485   0.03448098212518239
0.3484941518223165   0.055071952512459485   0.03448098212518239
0.20293628711487668   -0.0015534420812734623   -0.0133350955071601
0.20293628711487668   -0.0015534420812734623   -0.0133350955071601
0.20293628711487668   -0.0015534420812734623   -0.0133350955071601
0.20293628711487668   -0.0015534420812734623   -0.0133350955071601
0.3212706929141995   -0.011436475715181277   -0.03512788418776394
0.3212706929141995   -0.011436475715181277   -0.03512788418776394
0.3212706929141995   -0.011436475715181277   -0.03512788418776394
0.3212706929141995   -0.011436475715181277   -0.03512788418776394
0.07938727658287693   0.00037143564749181   0.0300852730397836
0.07938727658287693   0.00037143564749181   0.0300852730397836
0.07938727658287693   0.00037143564749181   0.0300852730397836
0.07938727658287693   0.00037143564749181   0.0300852730397836
0.03865518721902379   -0.07470606463704053   -0.029107933315198405
0.03865518721902379   -0.07470606463704053   -0.029107933315198405
0.03865518721902379   -0.07470606463704053   -0.029107933315198405
0.03865518721902379   -0.07470606463704053   -0.029107933315198405
0.3120097561194388   0.03728340888518146   0.03828742597382463
0.3120097561194388   0.03728340888518146   0.03828742597382463
0.3120097561194388   0.03728340888518146   0.03828742597382463
0.3120097561194388   0.03728340888518146   0.03828742597382463
0.17449118886486317   -0.012765915003848168   -0.023326951645538364
0.17449118886486317   -0.012765915003848168   -0.023326951645538364
0.17449118886486317   -0.012765915003848168   -0.023326951645538364
0.17449118886486317   -0.012765915003848168   -0.023326951645538364
0.10878815853639871   0.04217829616215388   -0.01350005933757346
0.10878815853639871   0.04217829616215388   -0.01350005933757346
0.10878815853639871   0.04217829616215388   -0.01350005933757346
0.10878815853639871   0.04217829616215388   -0.01350005933757346
-0.1575643453164363   0.013557921895312158   0.0054083836270970905
-0.1575643453164363   0.013557921895312158   0.0054083836270970905
-0.1575643453164363   0.013557921895312158   0.0054083836270970905
-0.1575643453164363   0.013557921895312158   0.0054083836270970905
-0.1855339534152874   -0.03650604104432293   -0.024015484406376915
-0.1855339534152874   -0.03650604104432293   -0.024015484406376915
-0.1855339534152874   -0.03650604104432293   -0.024015484406376915
-0.1855339534152874   -0.03650604104432293   -0.024015484406376915
0.10488594477499832   0.05234507309986011   0.0255245404627615
0.10488594477499832   0.05234507309986011   0.0255245404627615
0.10488594477499832   0.05234507309986011   0.0255245404627615
0.10488594477499832   0.05234507309986011   0.0255245404627615
-0.03328664128240513   0.017138022384245624   0.0043559424516873505
-0.03328664128240513   0.017138022384245624   0.0043559424516873505
-0.03328664128240513   0.017138022384245624   0.0043559424516873505
-0.03328664128240513   0.017138022384245624   0.0043559424516873505
0.09167879452376218   0.02175531490504197   -0.009921452598602
0.09167879452376218   0.02175531490504197   -0.009921452598602
0.09167879452376218   0.02175531490504197   -0.009921452598602
0.09167879452376218   0.02175531490504197   -0.009921452598602
-0.1730559969571373   -0.006645476642590999   0.008513733482641572
-0.1730559969571373   -0.006645476642590999   0.008513733482641572
-0.1730559969571373   -0.006645476642590999   0.008513733482641572
-0.1730559969571373   -0.006645476642590999   0.008513733482641572
-0.20019501672851217   -0.05288954529074884   -0.01881165429519587
-0.20019501672851217   -0.05288954529074884   -0.01881165429519587
-0.20019501672851217   -0.05288954529074884   -0.01881165429519587
-0.20019501672851217   -0.05288954529074884   -0.01881165429519587
0.08565022409163191   0.033941089430196386   0.027830356800853863
0.08565022409163191   0.033941089430196386   0.027830356800853863
0.08565022409163191   0.033941089430196386   0.027830356800853863
0.08565022409163191   0.033941089430196386   0.027830356800853863
-0.0514045892675477   -0.0005398444326913387   -0.004115769336283931
-0.0514045892675477   -0.0005398444326913387   -0.004115769336283931
-0.0514045892675477   -0.0005398444326913387   -0.004115769336283931
-0.0514045892675477   -0.0005398444326913387   -0.004115769336283931
0.07283271401780166   0.004179259074943917   -0.006495363213045943
0.07283271401780166   0.004179259074943917   -0.006495363213045943
0.07283271401780166   0.004179259074943917   -0.006495363213045943
0.07283271401780166   0.004179259074943917   -0.006495363213045943
-0.18832144059412292   -0.024071648874942647   0.011738329960944201
-0.18832144059412292   -0.024071648874942647   0.011738329960944201
-0.18832144059412292   -0.024071648874942647   0.011738329960944201
-0.18832144059412292   -0.024071648874942647   0.011738329960944201
-0.2147436648223586   -0.0691335756123461   -0.014108840041986152
-0.2147436648223586   -0.0691335756123461   -0.014108840041986152
-0.2147436648223586   -0.0691335756123461   -0.014108840041986152
-0.2147436648223586   -0.0691335756123461   -0.014108840041986152
0.0688081051420191   0.01587953336718675   0.03107105829555179
0.0688081051420191   0.01587953336718675   0.03107105829555179
0.0688081051420191   0.01587953336718675   0.03107105829555179
0.0688081051420191   0.01587953336718675   0.03107105829555179
-0.0670781200581368   -0.016360067036317708   -0.012113601106118262
-0.0670781200581368   -0.016360067036317708   -0.012113601106118262
-0.0670781200581368   -0.016360067036317708   -0.012113601106118262
-0.0670781200581368   -0.016360067036317708   -0.012113601106118262
-0.14941724327310635   0.057660624923445813   0.002041190815613037
-0.14941724327310635   0.057660624923445813   0.002041190815613037
-0.14941724327310635   0.057660624923445813   0.002041190815613037
-0.14941724327310635   0.057660624923445813   0.002041190815613037
-0.42462586648507666   -0.005105331234064522   -0.011680977895018329
-0.42462586648507666   -0.005105331234064522   -0.011680977895018329
-0.42462586648507666   -0.005105331234064522   -0.011680977895018329
-0.42462586648507666   -0.005105331234064522   -0.011680977895018329
-0.4378340832501848   -0.017921565981877857   -0.006984979372549445
-0.4378340832501848   -0.017921565981877857   -0.006984979372549445
-0.4378340832501848   -0.017921565981877857   -0.006984979372549445
-0.4378340832501848   -0.017921565981877857   -0.006984979372549445
-0.16491393659617948   0.03445973137729163   0.008118827267544346
-0.16491393659617948   0.03445973137729163   0.008118827267544346
-0.16491393659617948   0.03445973137729163   0.008118827267544346
-0.16491393659617948   0.03445973137729163   0.008118827267544346
-0.2934989406055296   0.01690769969935503   0.004512558588456585
-0.2934989406055296   0.01690769969935503   0.004512558588456585
-0.2934989406055296   0.01690769969935503   0.004512558588456585
-0.2934989406055296   0.01690769969935503   0.004512558588456585
-0.16413085795812896   0.03959572109838474   0.006898230736707686
-0.16413085795812896   0.03959572109838474   0.006898230736707686
-0.16413085795812896   0.03959572109838474   0.006898230736707686
-0.16413085795812896   0.03959572109838474   0.006898230736707686
-0.4392560626195711   -0.023696456434306137   -0.008319985767052836
-0.4392560626195711   -0.023696456434306137   -0.008319985767052836
-0.4392560626195711   -0.023696456434306137   -0.008319985767052836
-0.4392560626195711   -0.023696456434306137   -0.008319985767052836
-0.45243202276816324   -0.0358072298644408   -0.002271345116708184
-0.45243202276816324   -0.0358072298644408   -0.002271345116708184
-0.45243202276816324   -0.0358072298644408   -0.002271345116708184
-0.45243202276816324   -0.0358072298644408   -0.002271345116708184
-0.18038883664750593   0.015794533288332357   0.011535167530752326
-0.18038883664750593   0.015794533288332357   0.011535167530752326
-0.18038883664750593   0.015794533288332357   0.011535167530752326
-0.18038883664750593   0.015794533288332357   0.011535167530752326
-0.3087287376867602   -8.139408547711002e-05   -0.0030812409011588757
-0.3087287376867602   -8.139408547711002e-05   -0.0030812409011588757
-0.3087287376867602   -8.139408547711002e-05   -0.0030812409011588757
-0.3087287376867602   -8.139408547711002e-05   -0.0030812409011588757
-0.17933862652439017   0.02148489057882374   0.011095860855841496
-0.17933862652439017   0.02148489057882374   0.011095860855841496
-0.17933862652439017   0.02148489057882374   0.011095860855841496
-0.17933862652439017   0.02148489057882374   0.011095860855841496
-0.45439035494244945   -0.042405709206102996   -0.005464526646480939
-0.45439035494244945   -0.042405709206102996   -0.005464526646480939
-0.45439035494244945   -0.042405709206102996   -0.005464526646480939
-0.45439035494244945   -0.042405709206102996   -0.005464526646480939
-0.46674867572800455   -0.05307282235220268   0.0022928727721330585
-0.46674867572800455   -0.05307282235220268   0.0022928727721330585
-0.46674867572800455   -0.05307282235220268   0.0022928727721330585
-0.46674867572800455   -0.05307282235220268   0.0022928727721330585
-0.1956001221489385   -0.0021846880935011623   0.014659985806269381
-0.1956001221489385   -0.0021846880935011623   0.014659985806269381
-0.1956001221489385   -0.0021846880935011623   0.014659985806269381
-0.1956001221489385   -0.0021846880935011623   0.014659985806269381
-0.32475399560840973   -0.01711042339538292   -0.011326718039577514
-0.32475399560840973   -0.01711042339538292   -0.011326718039577514
-0.32475399560840973   -0.01711042339538292   -0.011326718039577514
-0.32475399560840973   -0.01711042339538292   -0.011326718039577514
-0.40319218885175667   0.07237863861167121   0.018003440425845597
-0.40319218885175667   0.07237863861167121   0.018003440425845597
-0.40319218885175667   0.07237863861167121   0.018003440425845597
-0.40319218885175667   0.07237863861167121   0.018003440425845597
-0.6858915056741507   -0.02043685098952358   -0.02663798635027604
-0.6858915056741507   -0.02043685098952358   -0.02663798635027604
-0.6858915056741507   -0.02043685098952358   -0.02663798635027604
-0.6858915056741507   -0.02043685098952358   -0.02663798635027604
-0.6871971003331158   -0.001528343513662933   0.011063961886341844
-0.6871971003331158   -0.001528343513662933   0.011063961886341844
-0.6871971003331158   -0.001528343513662933   0.011063961886341844
-0.6871971003331158   -0.001528343513662933   0.011063961886341844
-0.4309862964039537   0.01772032209058773   -0.008387933213863472
-0.4309862964039537   0.01772032209058773   -0.008387933213863472
-0.4309862964039537   0.01772032209058773   -0.008387933213863472
-0.4309862964039537   0.01772032209058773   -0.008387933213863472
-0.549000207789713   0.016998548820421608   0.005934891061989252
-0.549000207789713   0.016998548820421608   0.005934891061989252
-0.549000207789713   0.016998548820421608   0.005934891061989252
-0.549000207789713   0.016998548820421608   0.005934891061989252
-0.4173156408699147   0.05481024109257798   0.022875425454345275
-0.4173156408699147   0.05481024109257798   0.022875425454345275
-0.4173156408699147   0.05481024109257798   0.022875425454345275
-0.4173156408699147   0.05481024109257798   0.022875425454345275
-0.702093881193442   -0.03984438784193586   -0.025103898087023686
-0.702093881193442   -0.03984438784193586   -0.025103898087023686
-0.702093881193442   -0.03984438784193586   -0.025103898087023686
-0.702093881193442   -0.03984438784193586   -0.025103898087023686
-0.7051697787756708   -0.01916285603556933   0.013601826812104749
-0.7051697787756708   -0.01916285603556933   0.013601826812104749
-0.7051697787756708   -0.01916285603556933   0.013601826812104749
-0.7051697787756708   -0.01916285603556933   0.013601826812104749
-0.44566096141956063   0.0005320050017050548   -0.004755273239848683
-0.44566096141956063   0.0005320050017050548   -0.004755273239848683
-0.44566096141956063   0.0005320050017050548   -0.004755273239848683
-0.44566096141956063   0.0005320050017050548   -0.004755273239848683
-0.5619377241351835   0.0011686009064811875   -0.0020256273772146366
-0.5619377241351835   0.0011686009064811875   -0.0020256273772146366
-0.5619377241351835   0.0011686009064811875   -0.0020256273772146366
-0.5619377241351835   0.0011686009064811875   -0.0020256273772146366
-0.431627034539559   0.03834550056800476   0.027600865593863468
-0.431627034539559   0.03834550056800476   0.027600865593863468
-0.431627034539559   0.03834550056800476   0.027600865593863468
-0.431627034539559   0.03834550056800476   0.027600865593863468
-0.7199683054440363   -0.05774095139023362   -0.02181271117506636
-0.7199683054440363   -0.05774095139023362   -0.02181271117506636
-0.7199683054440363   -0.05774095139023362   -0.02181271117506636
-0.7199683054440363   -0.05774095139023362   -0.02181271117506636
-0.7206921602285062   -0.03754838991379475   0.018525834425495262
-0.7206921602285062   -0.03754838991379475   0.018525834425495262
-0.7206921602285062   -0.03754838991379475   0.018525834425495262
-0.7206921602285062   -0.03754838991379475   0.018525834425495262
-0.46051994335985774   -0.01785582104216786   -0.0017804666971755652
-0.46051994335985774   -0.01785582104216786   -0.0017804666971755652
-0.46051994335985774   -0.01785582104216786   -0.0017804666971755652
-0.46051994335985774   -0.01785582104216786   -0.0017804666971755652
-0.5811962312739912   -0.01608885172269009   -0.010705098949867146
-0.5811962312739912   -0.01608885172269009   -0.010705098949867146
-0.5811962312739912   -0.01608885172269009   -0.010705098949867146
-0.5811962312739912   -0.01608885172269009   -0.010705098949867146
-0.655848827023676   0.0712493922180149   0.031889163694565736
-0.655848827023676   0.0712493922180149   0.031889163694565736
-0.655848827023676   0.0712493922180149   0.031889163694565736
-0.655848827023676   0.0712493922180149   0.031889163694565736
-0.9232927059067081   -0.04251689950445364   -0.040397982476201036
-0.9232927059067081   -0.04251689950445364   -0.040397982476201036
-0.9232927059067081   -0.04251689950445364   -0.040397982476201036
-0.9232927059067081   -0.04251689950445364   -0.040397982476201036
-0.9300402694675731   0.011703528702903004   0.03352048005075664
-0.9300402694675731   0.011703528702903004   0.03352048005075664
-0.9300402694675731   0.011703528702903004   0.03352048005075664
-0.9300402694675731   0.011703528702903004   0.03352048005075664
-0.6944470079147517   -0.002043502445846751   -0.024670417089660876
-0.6944470079147517   -0.002043502445846751   -0.024670417089660876
-0.6944470079147517   -0.002043502445846751   -0.024670417089660876
-0.6944470079147517   -0.002043502445846751   -0.024670417089660876
-0.7664756969754655   0.017059856568314907   0.018581979367660394
-0.7664756969754655   0.017059856568314907   0.018581979367660394
-0.7664756969754655   0.017059856568314907   0.018581979367660394
-0.7664756969754655   0.017059856568314907   0.018581979367660394
-0.6685947376861059   0.06483168780882442   0.03771574379889647
-0.6685947376861059   0.06483168780882442   0.03771574379889647
-0.6685947376861059   0.06483168780882442   0.03771574379889647
-0.6685947376861059   0.06483168780882442   0.03771574379889647
-0.9571979972150789   -0.05647711907063088   -0.034087510913223484
-0.9571979972150789   -0.05647711907063088   -0.034087510913223484
-0.9571979972150789   -0.05647711907063088   -0.034087510913223484
-0.9571979972150789   -0.05647711907063088   -0.034087510913223484
-0.9580366245607673   0.0017932465601546987   0.04280530632370397
-0.9580366245607673   0.0017932465601546987   0.04280530632370397
-0.9580366245607673   0.0017932465601546987   0.04280530632370397
-0.9580366245607673   0.0017932465601546987   0.04280530632370397
-0.7106177850406237   -0.011634382716802977   -0.021166677831433646
-0.7106177850406237   -0.011634382716802977   -0.021166677831433646
-0.7106177850406237   -0.011634382716802977   -0.021166677831433646
-0.7106177850406237   -0.011634382716802977   -0.021166677831433646
-0.8022815571673864   0.005342509695945991   0.006727514420862758
-0.8022815571673864   0.005342509695945991   0.006727514420862758
-0.8022815571673864   0.005342509695945991   0.006727514420862758
-0.8022815571673864   0.005342509695945991   0.006727514420862758
-0.6836713436284397   0.05707622565368006   0.04485492085900317
-0.6836713436284397   0.05707622565368006   0.04485492085900317
-0.6836713436284397   0.05707622565368006   0.04485492085900317
-0.6836713436284397   0.05707622565368006   0.04485492085900317
-0.9862175350970167   -0.06815183093438978   -0.028154168862974872
-0.9862175350970167   -0.06815183093438978   -0.028154168862974872
-0.9862175350970167   -0.06815183093438978   -0.028154168862974872
-0.9862175350970167   -0.06815183093438978   -0.028154168862974872
-0.9967480635991014   -0.026381753978522715   0.04419115462946804
-0.9967480635991014   -0.026381753978522715   0.04419115462946804
-0.9967480635991014   -0.026381753978522715   0.04419115462946804
-0.9967480635991014   -0.026381753978522715   0.04419115462946804
-0.727306129153654   -0.033633595395918675   -0.0184588047181269
-0.727306129153654   -0.033633595395918675   -0.0184588047181269
-0.727306129153654   -0.033633595395918675   -0.0184588047181269
-0.727306129153654   -0.033633595395918675   -0.0184588047181269
-0.8139205596463139   -0.00712653842902089   -0.00031614012322475626
-0.8139205596463139   -0.00712653842902089   -0.00031614012322475626
-0.8139205596463139   -0.00712653842902089   -0.00031614012322475626
-0.8139205596463139   -0.00712653842902089   -0.00031614012322475626
0.07120337016627913   0.0058547096977977385   -0.046582429597487006
0.07120337016627913   0.0058547096977977385   -0.046582429597487006
0.07120337016627913   0.0058547096977977385   -0.046582429597487006
0.07120337016627913   0.0058547096977977385   -0.046582429597487006
-0.07516512124015734   0.03489920015558831   0.023805366091023787
-0.07516512124015734   0.03489920015558831   0.023805366091023787
-0.07516512124015734   0.03489920015558831   0.023805366091023787
-0.07516512124015734   0.03489920015558831   0.023805366091023787
-0.11312934046070162   -0.044893054669392085   -0.03752614213822893
-0.11312934046070162   -0.044893054669392085   -0.03752614213822893
-0.11312934046070162   -0.044893054669392085   -0.03752614213822893
-0.11312934046070162   -0.044893054669392085   -0.03752614213822893
0.0654514711467602   0.04946567191725704   0.02921934466473873
0.0654514711467602   0.04946567191725704   0.02921934466473873
0.0654514711467602   0.04946567191725704   0.02921934466473873
0.0654514711467602   0.04946567191725704   0.02921934466473873
-0.01455056189951734   0.010857549370450224   0.0040401776173226815
-0.01455056189951734   0.010857549370450224   0.0040401776173226815
-0.01455056189951734   0.010857549370450224   0.0040401776173226815
-0.01455056189951734   0.010857549370450224   0.0040401776173226815
0.03829546511946261   -0.015434889863843239   -0.041660123690648934
0.03829546511946261   -0.015434889863843239   -0.041660123690648934
0.03829546511946261   -0.015434889863843239   -0.041660123690648934
0.03829546511946261   -0.015434889863843239   -0.041660123690648934
-0.08757545066660039   0.018405390878511837   0.02694486128437329
-0.08757545066660039   0.018405390878511837   0.02694486128437329
-0.08757545066660039   0.018405390878511837   0.02694486128437329
-0.08757545066660039   0.018405390878511837   0.02694486128437329
-0.12564549677602765   -0.053016223629155514   -0.031820249984548424
-0.12564549677602765   -0.053016223629155514   -0.031820249984548424
-0.12564549677602765   -0.053016223629155514   -0.031820249984548424
-0.12564549677602765   -0.053016223629155514   -0.031820249984548424
0.039700851745300025   0.03843730569930051   0.04008787047736103
0.039700851745300025   0.03843730569930051   0.04008787047736103
0.039700851745300025   0.03843730569930051   0.04008787047736103
0.039700851745300025   0.03843730569930051   0.04008787047736103
-0.034845988499441545   -0.0013144882608732283   -0.005337124448680288
-0.034845988499441545   -0.0013144882608732283   -0.005337124448680288
-0.034845988499441545   -0.0013144882608732283   -0.005337124448680288
-0.034845988499441545   -0.0013144882608732283   -0.005337124448680288
0.011913606871035976   -0.02601880211813705   -0.034392246076519736
0.011913606871035976   -0.02601880211813705   -0.034392246076519736
0.011913606871035976   -0.02601880211813705   -0.034392246076519736
0.011913606871035976   -0.02601880211813705   -0.034392246076519736
-0.10008289213213652   0.009215243957909371   0.03376130564784186
-0.10008289213213652   0.009215243957909371   0.03376130564784186
-0.10008289213213652   0.009215243957909371   0.03376130564784186
-0.10008289213213652   0.009215243957909371   0.03376130564784186
-0.13710839523695822   -0.06547430861624905   -0.026383010176930836
-0.13710839523695822   -0.06547430861624905   -0.026383010176930836
-0.13710839523695822   -0.06547430861624905   -0.026383010176930836
-0.13710839523695822   -0.06547430861624905   -0.026383010176930836
0.003938331848759595   0.015339031630165903   0.04571609063341932
0.003938331848759595   0.015339031630165903   0.04571609063341932
0.003938331848759595   0.015339031630165903   0.04571609063341932
0.003938331848759595   0.015339031630165903   0.04571609063341932
-0.05670037395787409   -0.013558022547227662   -0.016161060812308344
-0.05670037395787409   -0.013558022547227662   -0.016161060812308344
-0.05670037395787409   -0.013558022547227662   -0.016161060812308344
-0.05670037395787409   -0.013558022547227662   -0.016161060812308344
-0.08598796856581924   0.023091322036397233   -0.018500992418094588
-0.08598796856581924   0.023091322036397233   -0.018500992418094588
-0.08598796856581924   0.023091322036397233   -0.018500992418094588
-0.08598796856581924   0.023091322036397233   -0.018500992418094588
-0.22293350418442628   0.009383800040398772   0.006200688004609933
-0.22293350418442628   0.009383800040398772   0.006200688004609933
-0.22293350418442628   0.009383800040398772   0.006200688004609933
-0.22293350418442628   0.009383800040398772   0.006200688004609933
-0.24253346370064502   -0.026149084972481487   -0.01952684142330319
-0.24253346370064502   -0.026149084972481487   -0.01952684142330319
-0.24253346370064502   -0.026149084972481487   -0.01952684142330319
-0.24253346370064502   -0.026149084972481487   -0.01952684142330319
-0.08842728756798184   0.022431645718030534   0.018659421937947333
-0.08842728756798184   0.022431645718030534   0.018659421937947333
-0.08842728756798184   0.022431645718030534   0.018659421937947333
-0.08842728756798184   0.022431645718030534   0.018659421937947333
-0.15964914886381656   0.006731680114053409   0.0035965681961321987
-0.15964914886381656   0.006731680114053409   0.0035965681961321987
-0.15964914886381656   0.006731680114053409   0.0035965681961321987
-0.15964914886381656   0.006731680114053409   0.0035965681961321987
-0.09900192617997591   0.0034218047795953853   -0.0152039301835879
-0.09900192617997591   0.0034218047795953853   -0.0152039301835879
-0.09900192617997591   0.0034218047795953853   -0.0152039301835879
-0.09900192617997591   0.0034218047795953853   -0.0152039301835879
-0.2332763413506215   -0.0084567602960169   0.009066445650349805
-0.2332763413506215   -0.0084567602960169   0.009066445650349805
-0.2332763413506215   -0.0084567602960169   0.009066445650349805
-0.2332763413506215   -0.0084567602960169   0.009066445650349805
-0.2522809439180672   -0.04209546630013088   -0.014421253841052587
-0.2522809439180672   -0.04209546630013088   -0.014421253841052587
-0.2522809439180672   -0.04209546630013088   -0.014421253841052587
-0.2522809439180672   -0.04209546630013088   -0.014421253841052587
-0.10350865862441658   0.004808813022702661   0.021038904121648216
-0.10350865862441658   0.004808813022702661   0.021038904121648216
-0.10350865862441658   0.004808813022702661   0.021038904121648216
-0.10350865862441658   0.004808813022702661   0.021038904121648216
-0.17196203370040528   -0.009279577578760599   -0.0044397895812952545
-0.17196203370040528   -0.009279577578760599   -0.0044397895812952545
-0.17196203370040528   -0.009279577578760599   -0.0044397895812952545
-0.17196203370040528   -0.009279577578760599   -0.0044397895812952545
-0.11370397343548433   -0.013767994014667712   -0.011360862896319695
-0.11370397343548433   -0.013767994014667712   -0.011360862896319695
-0.11370397343548433   -0.013767994014667712   -0.011360862896319695
-0.11370397343548433   -0.013767994014667712   -0.011360862896319695
-0.24350040200887063   -0.024933432164631553   0.012319421569431197
-0.24350040200887063   -0.024933432164631553   0.012319421569431197
-0.24350040200887063   -0.024933432164631553   0.012319421569431197
-0.24350040200887063   -0.024933432164631553   0.012319421569431197
-0.2620926644856642   -0.058494947110349346   -0.009900574464445401
-0.2620926644856642   -0.058494947110349346   -0.009900574464445401
-0.2620926644856642   -0.058494947110349346   -0.009900574464445401
-0.2620926644856642   -0.058494947110349346   -0.009900574464445401
-0.11612339537937308   -0.013035396426723007   0.02610307692146807
-0.11612339537937308   -0.013035396426723007   0.02610307692146807
-0.11612339537937308   -0.013035396426723007   0.02610307692146807
-0.11612339537937308   -0.013035396426723007   0.02610307692146807
-0.1842533974742443   -0.02510323885328479   -0.012609385814335792
-0.1842533974742443   -0.02510323885328479   -0.012609385814335792
-0.1842533974742443   -0.02510323885328479   -0.012609385814335792
-0.1842533974742443   -0.02510323885328479   -0.012609385814335792
-0.21884330589456547   0.03799539363491994   -0.001959914140607189
-0.21884330589456547   0.03799539363491994   -0.001959914140607189
-0.21884330589456547   0.03799539363491994   -0.001959914140607189
-0.21884330589456547   0.03799539363491994   -0.001959914140607189
-0.36931382193022055   -0.012682293756939356   -0.010454505989413363
-0.36931382193022055   -0.012682293756939356   -0.010454505989413363
-0.36931382193022055   -0.012682293756939356   -0.010454505989413363
-0.36931382193022055   -0.012682293756939356   -0.010454505989413363
-0.3732068460865976   -0.00926858071666957   -0.002229823711843531
-0.3732068460865976   -0.00926858071666957   -0.002229823711843531
-0.3732068460865976   -0.00926858071666957   -0.002229823711843531
-0.3732068460865976   -0.00926858071666957   -0.002229823711843531
-0.23237601560648347   0.0022299069690869533   0.002881407105936132
-0.23237601560648347   0.0022299069690869533   0.002881407105936132
-0.23237601560648347   0.0022299069690869533   0.002881407105936132
-0.23237601560648347   0.0022299069690869533   0.002881407105936132
-0.2978092741313117   0.004274566707759192   0.0012423089759315206
-0.2978092741313117   0.004274566707759192   0.0012423089759315206
-0.2978092741313117   0.004274566707759192   0.0012423089759315206
-0.2978092741313117   0.004274566707759192   0.0012423089759315206
-0.2287000922889851   0.020647434098103823   0.0028434965644109737
-0.2287000922889851   0.020647434098103823   0.0028434965644109737
-0.2287000922889851   0.020647434098103823   0.0028434965644109737
-0.2287000922889851   0.020647434098103823   0.0028434965644109737
-0.37815092063068934   -0.028954259072279852   -0.007264518076691954
-0.37815092063068934   -0.028954259072279852   -0.007264518076691954
-0.37815092063068934   -0.028954259072279852   -0.007264518076691954
-0.37815092063068934   -0.028954259072279852   -0.007264518076691954
-0.38234822296805987   -0.02640021124156955   0.00252083120179673
-0.38234822296805987   -0.02640021124156955   0.00252083120179673
-0.38234822296805987   -0.02640021124156955   0.00252083120179673
-0.38234822296805987   -0.02640021124156955   0.00252083120179673
-0.24271059014051577   -0.014613249337500356   0.005948298084074256
-0.24271059014051577   -0.014613249337500356   0.005948298084074256
-0.24271059014051577   -0.014613249337500356   0.005948298084074256
-0.24271059014051577   -0.014613249337500356   0.005948298084074256
-0.30771659474966173   -0.01130624468879847   -0.006137989634918281
-0.30771659474966173   -0.01130624468879847   -0.006137989634918281
-0.30771659474966173   -0.01130624468879847   -0.006137989634918281
-0.30771659474966173   -0.01130624468879847   -0.006137989634918281
-0.23892449572024496   0.003194560114349744   0.007070960733578272
-0.23892449572024496   0.003194560114349744   0.007070960733578272
-0.23892449572024496   0.003194560114349744   0.007070960733578272
-0.23892449572024496   0.003194560114349744   0.007070960733578272
-0.3876634006807634   -0.045737103985852304   -0.004718164617437872
-0.3876634006807634   -0.045737103985852304   -0.004718164617437872
-0.3876634006807634   -0.045737103985852304   -0.004718164617437872
-0.3876634006807634   -0.045737103985852304   -0.004718164617437872
-0.3912504943081904   -0.04283108564821567   0.007078370191948725
-0.3912504943081904   -0.04283108564821567   0.007078370191948725
-0.3912504943081904   -0.04283108564821567   0.007078370191948725
-0.3912504943081904   -0.04283108564821567   0.007078370191948725
-0.2526377695374996   -0.030499734442172674   0.009378687608197175
-0.2526377695374996   -0.030499734442172674   0.009378687608197175
-0.2526377695374996   -0.030499734442172674   0.009378687608197175
-0.2526377695374996   -0.030499734442172674   0.009378687608197175
-0.31837761228202577   -0.02698231380389702   -0.014157756890789507
-0.31837761228202577   -0.02698231380389702   -0.014157756890789507
-0.31837761228202577   -0.02698231380389702   -0.014157756890789507
-0.31837761228202577   -0.02698231380389702   -0.014157756890789507
-0.35066987190545396   0.054959719258140444   0.015123231119347401
-0.35066987190545396   0.054959719258140444   0.015123231119347401
-0.35066987190545396   0.054959719258140444   0.015123231119347401
-0.35066987190545396   0.054959719258140444   0.015123231119347401
-0.5099676562437566   -0.021120990309885748   -0.023441767877158036
-0.5099676562437566   -0.021120990309885748   -0.023441767877158036
-0.5099676562437566   -0.021120990309885748   -0.023441767877158036
-0.5099676562437566   -0.021120990309885748   -0.023441767877158036
-0.5031502136964485   0.008088180961980718   0.015615278435565615
-0.5031502136964485   0.008088180961980718   0.015615278435565615
-0.5031502136964485   0.008088180961980718   0.015615278435565615
-0.5031502136964485   0.008088180961980718   0.015615278435565615
-0.3744593719521106   -0.007344897094728575   -0.010416136661349211
-0.3744593719521106   -0.007344897094728575   -0.010416136661349211
-0.3744593719521106   -0.007344897094728575   -0.010416136661349211
-0.3744593719521106   -0.007344897094728575   -0.010416136661349211
-0.43304948488322054   0.008703387264607954   0.002103805078801896
-0.43304948488322054   0.008703387264607954   0.002103805078801896
-0.43304948488322054   0.008703387264607954   0.002103805078801896
-0.43304948488322054   0.008703387264607954   0.002103805078801896
-0.3593786040960278   0.03770667358318244   0.019936131941153547
-0.3593786040960278   0.03770667358318244   0.019936131941153547
-0.3593786040960278   0.03770667358318244   0.019936131941153547
-0.3593786040960278   0.03770667358318244   0.019936131941153547
-0.5200831053429646   -0.038815513506363614   -0.02214548532868578
-0.5200831053429646   -0.038815513506363614   -0.02214548532868578
-0.5200831053429646   -0.038815513506363614   -0.02214548532868578
-0.5200831053429646   -0.038815513506363614   -0.02214548532868578
-0.5153987576916379   -0.00877468621707253   0.018449066938309985
-0.5153987576916379   -0.00877468621707253   0.018449066938309985
-0.5153987576916379   -0.00877468621707253   0.018449066938309985
-0.5153987576916379   -0.00877468621707253   0.018449066938309985
-0.3835213929360036   -0.022664557630160634   -0.007080672249330972
-0.3835213929360036   -0.022664557630160634   -0.007080672249330972
-0.3835213929360036   -0.022664557630160634   -0.007080672249330972
-0.3835213929360036   -0.022664557630160634   -0.007080672249330972
-0.44136763113627714   -0.0063096407380724   -0.0058962525951327775
-0.44136763113627714   -0.0063096407380724   -0.0058962525951327775
-0.44136763113627714   -0.0063096407380724   -0.0058962525951327775
-0.44136763113627714   -0.0063096407380724   -0.0058962525951327775
-0.36827206936766627   0.02188426304374906   0.02461712491844631
-0.36827206936766627   0.02188426304374906   0.02461712491844631
-0.36827206936766627   0.02188426304374906   0.02461712491844631
-0.36827206936766627   0.02188426304374906   0.02461712491844631
-0.5321106433773884   -0.054786069008398   -0.019098978699132966
-0.5321106433773884   -0.054786069008398   -0.019098978699132966
-0.5321106433773884   -0.054786069008398   -0.019098978699132966
-0.5321106433773884   -0.054786069008398   -0.019098978699132966
-0.525354796038387   -0.025765689626690222   0.023505043058772598
-0.525354796038387   -0.025765689626690222   0.023505043058772598
-0.525354796038387   -0.025765689626690222   0.023505043058772598
-0.525354796038387   -0.025765689626690222   0.023505043058772598
-0.3926176359921509   -0.038355694161273726   -0.004232729714799578
-0.3926176359921509   -0.038355694161273726   -0.004232729714799578
-0.3926176359921509   -0.038355694161273726   -0.004232729714799578
-0.3926176359921509   -0.038355694161273726   -0.004232729714799578
-0.4538956619750868   -0.02163056199712242   -0.01409865482605446
-0.4538956619750868   -0.02163056199712242   -0.01409865482605446
-0.4538956619750868   -0.02163056199712242   -0.01409865482605446
-0.4538956619750868   -0.02163056199712242   -0.01409865482605446
-0.48315874868633285   0.05957153696240228   0.02991024263767269
-0.48315874868633285   0.05957153696240228   0.02991024263767269
-0.48315874868633285   0.05957153696240228   0.02991024263767269
-0.48315874868633285   0.05957153696240228   0.02991024263767269
-0.6222748682739   -0.031158927939374942   -0.03916774231504245
-0.6222748682739   -0.031158927939374942   -0.03916774231504245
-0.6222748682739   -0.031158927939374942   -0.03916774231504245
-0.6222748682739   -0.031158927939374942   -0.03916774231504245
-0.6227775218362267   0.023818921912028668   0.032972218621191304
-0.6227775218362267   0.023818921912028668   0.032972218621191304
-0.6227775218362267   0.023818921912028668   0.032972218621191304
-0.6227775218362267   0.023818921912028668   0.032972218621191304
-0.516182825099058   -0.017499161691056572   -0.02396043592445268
-0.516182825099058   -0.017499161691056572   -0.02396043592445268
-0.516182825099058   -0.017499161691056572   -0.02396043592445268
-0.516182825099058   -0.017499161691056572   -0.02396043592445268
-0.5383828833990559   0.014102425752872794   0.010445730642640344
-0.5383828833990559   0.014102425752872794   0.010445730642640344
-0.5383828833990559   0.014102425752872794   0.010445730642640344
-0.5383828833990559   0.014102425752872794   0.010445730642640344
-0.4906944122302064   0.050697994545615035   0.0352844721831336
-0.4906944122302064   0.050697994545615035   0.0352844721831336
-0.4906944122302064   0.050697994545615035   0.0352844721831336
-0.4906944122302064   0.050697994545615035   0.0352844721831336
-0.6501910055517526   -0.046303305171322376   -0.033972972873071786
-0.6501910055517526   -0.046303305171322376   -0.033972972873071786
-0.6501910055517526   -0.046303305171322376   -0.033972972873071786
-0.6501910055517526   -0.046303305171322376   -0.033972972873071786
-0.6450544128006004   0.014207242973168638   0.04247807837843158
-0.6450544128006004   0.014207242973168638   0.04247807837843158
-0.6450544128006004   0.014207242973168638   0.04247807837843158
-0.6450544128006004   0.014207242973168638   0.04247807837843158
-0.5267921071775125   -0.026306819761517067   -0.02098554694662626
-0.5267921071775125   -0.026306819761517067   -0.02098554694662626
-0.5267921071775125   -0.026306819761517067   -0.02098554694662626
-0.5267921071775125   -0.026306819761517067   -0.02098554694662626
-0.5649139654926977   0.002419522654084544   -0.0006621939198487928
-0.5649139654926977   0.002419522654084544   -0.0006621939198487928
-0.5649139654926977   0.002419522654084544   -0.0006621939198487928
-0.5649139654926977   0.002419522654084544   -0.0006621939198487928
-0.5002452459150386   0.04313487382953829   0.04230706577468756
-0.5002452459150386   0.04313487382953829   0.04230706577468756
-0.5002452459150386   0.04313487382953829   0.04230706577468756
-0.5002452459150386   0.04313487382953829   0.04230706577468756
-0.6735615045802271   -0.05719468113503341   -0.028655456411493325
-0.6735615045802271   -0.05719468113503341   -0.028655456411493325
-0.6735615045802271   -0.05719468113503341   -0.028655456411493325
-0.6735615045802271   -0.05719468113503341   -0.028655456411493325
-0.6779600093504257   -0.011090697913538838   0.04490956289051315
-0.6779600093504257   -0.011090697913538838   0.04490956289051315
-0.6779600093504257   -0.011090697913538838   0.04490956289051315
-0.6779600093504257   -0.011090697913538838   0.04490956289051315
-0.5374458110107354   -0.04458910250462053   -0.01812661892504668
-0.5374458110107354   -0.04458910250462053   -0.01812661892504668
-0.5374458110107354   -0.04458910250462053   -0.01812661892504668
-0.5374458110107354   -0.04458910250462053   -0.01812661892504668
-0.5750790250022224   -0.00916158355420403   -0.008539841994287003
-0.5750790250022224   -0.00916158355420403   -0.008539841994287003
-0.5750790250022224   -0.00916158355420403   -0.008539841994287003
-0.5750790250022224   -0.00916158355420403   -0.008539841994287003
-0.2616407012392267   -0.017057743647512842   -0.04950377292541262
-0.2616407012392267   -0.017057743647512842   -0.04950377292541262
-0.2616407012392267   -0.017057743647512842   -0.04950377292541262
-0.2616407012392267   -0.017057743647512842   -0.04950377292541262
-0.2598350629125217   0.037854835411562635   0.022255843264648772
-0.2598350629125217   0.037854835411562635   0.022255843264648772
-0.2598350629125217   0.037854835411562635   0.022255843264648772
-0.2598350629125217   0.037854835411562635   0.022255843264648772
-0.2925175895791114   -0.034688544460877054   -0.0335826765000601
-0.2925175895791114   -0.034688544460877054   -0.0335826765000601
-0.2925175895791114   -0.034688544460877054   -0.0335826765000601
-0.2925175895791114   -0.034688544460877054   -0.0335826765000601
-0.2671149733544231   0.01994462671956928   0.03340373986722529
-0.2671149733544231   0.01994462671956928   0.03340373986722529
-0.2671149733544231   0.01994462671956928   0.03340373986722529
-0.2671149733544231   0.01994462671956928   0.03340373986722529
-0.2567055686534652   0.0064164593103270134   0.0227066755388239
-0.2567055686534652   0.0064164593103270134   0.0227066755388239
-0.2567055686534652   0.0064164593103270134   0.0227066755388239
-0.2567055686534652   0.0064164593103270134   0.0227066755388239
-0.29337412192881457   -0.03644399240653131   -0.04150338387862821
-0.29337412192881457   -0.03644399240653131   -0.04150338387862821
-0.29337412192881457   -0.03644399240653131   -0.04150338387862821
-0.29337412192881457   -0.03644399240653131   -0.04150338387862821
-0.2695108734458964   0.018447642224047614   0.02831471748109036
-0.2695108734458964   0.018447642224047614   0.02831471748109036
-0.2695108734458964   0.018447642224047614   0.02831471748109036
-0.2695108734458964   0.018447642224047614   0.02831471748109036
-0.3023794035420376   -0.0436830426530411   -0.028433615997024743
-0.3023794035420376   -0.0436830426530411   -0.028433615997024743
-0.3023794035420376   -0.0436830426530411   -0.028433615997024743
-0.3023794035420376   -0.0436830426530411   -0.028433615997024743
-0.29246701102291445   0.007709565007694492   0.06213999838888166
-0.29246701102291445   0.007709565007694492   0.06213999838888166
-0.29246701102291445   0.007709565007694492   0.06213999838888166
-0.29246701102291445   0.007709565007694492   0.06213999838888166
-0.2800488559895524   -0.009032261032532511   0.009093895608918398
-0.2800488559895524   -0.009032261032532511   0.009093895608918398
-0.2800488559895524   -0.009032261032532511   0.009093895608918398
-0.2800488559895524   -0.009032261032532511   0.009093895608918398
-0.322613198782366   -0.04851612798486736   -0.03236524741581238
-0.322613198782366   -0.04851612798486736   -0.03236524741581238
-0.322613198782366   -0.04851612798486736   -0.03236524741581238
-0.322613198782366   -0.04851612798486736   -0.03236524741581238
-0.2799448742802549   0.004830991841849659   0.03522499581699797
-0.2799448742802549   0.004830991841849659   0.03522499581699797
-0.2799448742802549   0.004830991841849659   0.03522499581699797
-0.2799448742802549   0.004830991841849659   0.03522499581699797
-0.3104586444976924   -0.06116141717622771   -0.02238917705209673
-0.3104586444976924   -0.06116141717622771   -0.02238917705209673
-0.3104586444976924   -0.06116141717622771   -0.02238917705209673
-0.3104586444976924   -0.06116141717622771   -0.02238917705209673
-0.33186130185926016   -0.03272372455568335   0.05814636008240249
-0.33186130185926016   -0.03272372455568335   0.05814636008240249
-0.33186130185926016   -0.03272372455568335   0.05814636008240249
-0.33186130185926016   -0.03272372455568335   0.05814636008240249
-0.3003308562272149   -0.02729005869649887   -0.012495049267209216
-0.3003308562272149   -0.02729005869649887   -0.012495049267209216
-0.3003308562272149   -0.02729005869649887   -0.012495049267209216
-0.3003308562272149   -0.02729005869649887   -0.012495049267209216
-0.2785666336129872   -0.00807699867621603   -0.025470176149903066
-0.2785666336129872   -0.00807699867621603   -0.025470176149903066
-0.2785666336129872   -0.00807699867621603   -0.025470176149903066
-0.2785666336129872   -0.00807699867621603   -0.025470176149903066
-0.2829972116938114   -0.03479660654076799   -0.001485928090184203
-0.2829972116938114   -0.03479660654076799   -0.001485928090184203
-0.2829972116938114   -0.03479660654076799   -0.001485928090184203
-0.2829972116938114   -0.03479660654076799   -0.001485928090184203
-0.28510025235669706   -0.023184079119670513   -0.012746237461857988
-0.28510025235669706   -0.023184079119670513   -0.012746237461857988
-0.28510025235669706   -0.023184079119670513   -0.012746237461857988
-0.28510025235669706   -0.023184079119670513   -0.012746237461857988
-0.28839386984171994   -0.04718811422539686   -0.0004645080485827782
-0.28839386984171994   -0.04718811422539686   -0.0004645080485827782
-0.28839386984171994   -0.04718811422539686   -0.0004645080485827782
-0.28839386984171994   -0.04718811422539686   -0.0004645080485827782
-0.2813543803467455   -0.029542174410620663   -0.000967022704962346
-0.2813543803467455   -0.029542174410620663   -0.000967022704962346
-0.2813543803467455   -0.029542174410620663   -0.000967022704962346
-0.2813543803467455   -0.029542174410620663   -0.000967022704962346
-0.2884136915171296   -0.025706554657995276   -0.022045175993033978
-0.2884136915171296   -0.025706554657995276   -0.022045175993033978
-0.2884136915171296   -0.025706554657995276   -0.022045175993033978
-0.2884136915171296   -0.025706554657995276   -0.022045175993033978
-0.2868975567373491   -0.04648276474313723   0.001565926258344564
-0.2868975567373491   -0.04648276474313723   0.001565926258344564
-0.2868975567373491   -0.04648276474313723   0.001565926258344564
-0.2868975567373491   -0.04648276474313723   0.001565926258344564
-0.2899186174021052   -0.03832821985137135   -0.008236301471017839
-0.2899186174021052   -0.03832821985137135   -0.008236301471017839
-0.2899186174021052   -0.03832821985137135   -0.008236301471017839
-0.2899186174021052   -0.03832821985137135   -0.008236301471017839
-0.29890441906099224   -0.061240180131750595   0.006498443886911552
-0.29890441906099224   -0.061240180131750595   0.006498443886911552
-0.29890441906099224   -0.061240180131750595   0.006498443886911552
-0.29890441906099224   -0.061240180131750595   0.006498443886911552
-0.2878688070128532   -0.041782907117405454   -0.007988881480452547
-0.2878688070128532   -0.041782907117405454   -0.007988881480452547
-0.2878688070128532   -0.041782907117405454   -0.007988881480452547
-0.2878688070128532   -0.041782907117405454   -0.007988881480452547
-0.29960741334504365   -0.041891716898978894   -0.016364990766117124
-0.29960741334504365   -0.041891716898978894   -0.016364990766117124
-0.29960741334504365   -0.041891716898978894   -0.016364990766117124
-0.29960741334504365   -0.041891716898978894   -0.016364990766117124
-0.29153896014048747   -0.06000002010657731   0.005333785092273156
-0.29153896014048747   -0.06000002010657731   0.005333785092273156
-0.29153896014048747   -0.06000002010657731   0.005333785092273156
-0.29153896014048747   -0.06000002010657731   0.005333785092273156
-0.2942493567677382   -0.05463535487351339   -0.0037707539241186856
-0.2942493567677382   -0.05463535487351339   -0.0037707539241186856
-0.2942493567677382   -0.05463535487351339   -0.0037707539241186856
-0.2942493567677382   -0.05463535487351339   -0.0037707539241186856
-0.3069531665879965   -0.07906695305577152   0.013043748375925413
-0.3069531665879965   -0.07906695305577152   0.013043748375925413
-0.3069531665879965   -0.07906695305577152   0.013043748375925413
-0.3069531665879965   -0.07906695305577152   0.013043748375925413
-0.29680860389961344   -0.05655183507462744   -0.016912633089630855
-0.29680860389961344   -0.05655183507462744   -0.016912633089630855
-0.29680860389961344   -0.05655183507462744   -0.016912633089630855
-0.29680860389961344   -0.05655183507462744   -0.016912633089630855
-0.275216894002802   0.007293169826039614   -0.00467411600193696
-0.275216894002802   0.007293169826039614   -0.00467411600193696
-0.275216894002802   0.007293169826039614   -0.00467411600193696
-0.275216894002802   0.007293169826039614   -0.00467411600193696
-0.31193038722767064   -0.05922658269729261   -0.014965397846020134
-0.31193038722767064   -0.05922658269729261   -0.014965397846020134
-0.31193038722767064   -0.05922658269729261   -0.014965397846020134
-0.31193038722767064   -0.05922658269729261   -0.014965397846020134
-0.29923344408480584   -0.01093568175161793   0.003910891980734065
-0.29923344408480584   -0.01093568175161793   0.003910891980734065
-0.29923344408480584   -0.01093568175161793   0.003910891980734065
-0.29923344408480584   -0.01093568175161793   0.003910891980734065
-0.2925422724203681   -0.06392066497712146   -0.00921975192276618
-0.2925422724203681   -0.06392066497712146   -0.00921975192276618
-0.2925422724203681   -0.06392066497712146   -0.00921975192276618
-0.2925422724203681   -0.06392066497712146   -0.00921975192276618
-0.2945244157685431   -0.03270281873113537   -0.0066448875317988735
-0.2945244157685431   -0.03270281873113537   -0.0066448875317988735
-0.2945244157685431   -0.03270281873113537   -0.0066448875317988735
-0.2945244157685431   -0.03270281873113537   -0.0066448875317988735
-0.2794763504201921   -0.007773835662205478   -3.697123680203654e-05
-0.2794763504201921   -0.007773835662205478   -3.697123680203654e-05
-0.2794763504201921   -0.007773835662205478   -3.697123680203654e-05
-0.2794763504201921   -0.007773835662205478   -3.697123680203654e-05
-0.31394998964436194   -0.06873313462591721   -0.011874382942751184
-0.31394998964436194   -0.06873313462591721   -0.011874382942751184
-0.31394998964436194   -0.06873313462591721   -0.011874382942751184
-0.31394998964436194   -0.06873313462591721   -0.011874382942751184
-0.3027068731836371   -0.026124100955733878   0.00839032303602798
-0.3027068731836371   -0.026124100955733878   0.00839032303602798
-0.3027068731836371   -0.026124100955733878   0.00839032303602798
-0.3027068731836371   -0.026124100955733878   0.00839032303602798
-0.2970524930925515   -0.07588782642546317   -0.006346073349161194
-0.2970524930925515   -0.07588782642546317   -0.006346073349161194
-0.2970524930925515   -0.07588782642546317   -0.006346073349161194
-0.2970524930925515   -0.07588782642546317   -0.006346073349161194
-0.29820966999105725   -0.044269383016945926   -0.012666373640347953
-0.29820966999105725   -0.044269383016945926   -0.012666373640347953
-0.29820966999105725   -0.044269383016945926   -0.012666373640347953
-0.29820966999105725   -0.044269383016945926   -0.012666373640347953
-0.284354848631275   -0.0232340801217622   0.004488402653524282
-0.284354848631275   -0.0232340801217622   0.004488402653524282
-0.284354848631275   -0.0232340801217622   0.004488402653524282
-0.284354848631275   -0.0232340801217622   0.004488402653524282
-0.3172484320136386   -0.0806217616281605   -0.009819810441560717
-0.3172484320136386   -0.0806217616281605   -0.009819810441560717
-0.3172484320136386   -0.0806217616281605   -0.009819810441560717
-0.3172484320136386   -0.0806217616281605   -0.009819810441560717
-0.3055414459021647   -0.04040153938505688   0.012773339258441227
-0.3055414459021647   -0.04040153938505688   0.012773339258441227
-0.3055414459021647   -0.04040153938505688   0.012773339258441227
-0.3055414459021647   -0.04040153938505688   0.012773339258441227
-0.30042299544129164   -0.08735940351568916   -0.0019148986497099845
-0.30042299544129164   -0.08735940351568916   -0.0019148986497099845
-0.30042299544129164   -0.08735940351568916   -0.0019148986497099845
-0.30042299544129164   -0.08735940351568916   -0.0019148986497099845
-0.30259665605964264   -0.056364433132703944   -0.01928182674092311
-0.30259665605964264   -0.056364433132703944   -0.01928182674092311
-0.30259665605964264   -0.056364433132703944   -0.01928182674092311
-0.30259665605964264   -0.056364433132703944   -0.01928182674092311
-0.2880173202260324   0.030860084468388685   0.014513269996489879
-0.2880173202260324   0.030860084468388685   0.014513269996489879
-0.2880173202260324   0.030860084468388685   0.014513269996489879
-0.2880173202260324   0.030860084468388685   0.014513269996489879
-0.34090385610882334   -0.04424734711577375   -0.02087647182741427
-0.34090385610882334   -0.04424734711577375   -0.02087647182741427
-0.34090385610882334   -0.04424734711577375   -0.02087647182741427
-0.34090385610882334   -0.04424734711577375   -0.02087647182741427
-0.3225839771017374   0.009130460844024524   0.020085258182027846
-0.3225839771017374   0.009130460844024524   0.020085258182027846
-0.3225839771017374   0.009130460844024524   0.020085258182027846
-0.3225839771017374   0.009130460844024524   0.020085258182027846
-0.31020795605359025   -0.04926812878588368   -0.012629220828922373
-0.31020795605359025   -0.04926812878588368   -0.012629220828922373
-0.31020795605359025   -0.04926812878588368   -0.012629220828922373
-0.31020795605359025   -0.04926812878588368   -0.012629220828922373
-0.3153932955285477   -0.01305180765410615   -0.00396794768234098
-0.3153932955285477   -0.01305180765410615   -0.00396794768234098
-0.3153932955285477   -0.01305180765410615   -0.00396794768234098
-0.3153932955285477   -0.01305180765410615   -0.00396794768234098
-0.29097978389740214   0.01523579173476073   0.019007719431373596
-0.29097978389740214   0.01523579173476073   0.019007719431373596
-0.29097978389740214   0.01523579173476073   0.019007719431373596
-0.29097978389740214   0.01523579173476073   0.019007719431373596
-0.34400509876328506   -0.057566409181979424   -0.02032348009970629
-0.34400509876328506   -0.057566409181979424   -0.02032348009970629
-0.34400509876328506   -0.057566409181979424   -0.02032348009970629
-0.34400509876328506   -0.057566409181979424   -0.02032348009970629
-0.32858178593069365   -0.005705130758566865   0.02277685510332794
-0.32858178593069365   -0.005705130758566865   0.02277685510332794
-0.32858178593069365   -0.005705130758566865   0.02277685510332794
-0.32858178593069365   -0.005705130758566865   0.02277685510332794
-0.313235720599319   -0.060327593991300055   -0.01005042100681916
-0.313235720599319   -0.060327593991300055   -0.01005042100681916
-0.313235720599319   -0.060327593991300055   -0.01005042100681916
-0.313235720599319   -0.060327593991300055   -0.01005042100681916
-0.3184318066991083   -0.02559230222212871   -0.01103105793970475
-0.3184318066991083   -0.02559230222212871   -0.01103105793970475
-0.3184318066991083   -0.02559230222212871   -0.01103105793970475
-0.3184318066991083   -0.02559230222212871   -0.01103105793970475
-0.2942285218544413   0.0012847889843931593   0.023373189741875713
-0.2942285218544413   0.0012847889843931593   0.023373189741875713
-0.2942285218544413   0.0012847889843931593   0.023373189741875713
-0.2942285218544413   0.0012847889843931593   0.023373189741875713
-0.3494890518031541   -0.0692175808618429   -0.018247024155698274
-0.3494890518031541   -0.0692175808618429   -0.018247024155698274
-0.3494890518031541   -0.0692175808618429   -0.018247024155698274
-0.3494890518031541   -0.0692175808618429   -0.018247024155698274
-0.33255861448980617   -0.01994126639774188   0.0277803876005149
-0.33255861448980617   -0.01994126639774188   0.0277803876005149
-0.33255861448980617   -0.01994126639774188   0.0277803876005149
-0.33255861448980617   -0.01994126639774188   0.0277803876005149
-0.3158439696816104   -0.07143854447860411   -0.007702274545243844
-0.3158439696816104   -0.07143854447860411   -0.007702274545243844
-0.3158439696816104   -0.07143854447860411   -0.007702274545243844
-0.3158439696816104   -0.07143854447860411   -0.007702274545243844
-0.32373583751955987   -0.03742011821953489   -0.0178775481329252
-0.32373583751955987   -0.03742011821953489   -0.0178775481329252
-0.32373583751955987   -0.03742011821953489   -0.0178775481329252
-0.32373583751955987   -0.03742011821953489   -0.0178775481329252
-0.31322522601909886   0.044282012729730036   0.02898731877569666
-0.31322522601909886   0.044282012729730036   0.02898731877569666
-0.31322522601909886   0.044282012729730036   0.02898731877569666
-0.31322522601909886   0.044282012729730036   0.02898731877569666
-0.33536539589643166   -0.026774016543553422   -0.03023381222416714
-0.33536539589643166   -0.026774016543553422   -0.03023381222416714
-0.33536539589643166   -0.026774016543553422   -0.03023381222416714
-0.33536539589643166   -0.026774016543553422   -0.03023381222416714
-0.32790145697437745   0.031392650234702474   0.03221725557967735
-0.32790145697437745   0.031392650234702474   0.03221725557967735
-0.32790145697437745   0.031392650234702474   0.03221725557967735
-0.32790145697437745   0.031392650234702474   0.03221725557967735
-0.33896564169068377   -0.03421103699837949   -0.018481566920307498
-0.33896564169068377   -0.03421103699837949   -0.018481566920307498
-0.33896564169068377   -0.03421103699837949   -0.018481566920307498
-0.33896564169068377   -0.03421103699837949   -0.018481566920307498
-0.31766173711420376   0.007878711966510493   0.001280402499425709
-0.31766173711420376   0.007878711966510493   0.001280402499425709
-0.31766173711420376   0.007878711966510493   0.001280402499425709
-0.31766173711420376   0.007878711966510493   0.001280402499425709
-0.314873542964712   0.03425696655244541   0.033510923158726544
-0.314873542964712   0.03425696655244541   0.033510923158726544
-0.314873542964712   0.03425696655244541   0.033510923158726544
-0.314873542964712   0.03425696655244541   0.033510923158726544
-0.3537829388222799   -0.03886473643804924   -0.026932766987075453
-0.3537829388222799   -0.03886473643804924   -0.026932766987075453
-0.3537829388222799   -0.03886473643804924   -0.026932766987075453
-0.3537829388222799   -0.03886473643804924   -0.026932766987075453
-0.3423414509792745   0.023074938211034804   0.04147258671789508
-0.3423414509792745   0.023074938211034804   0.04147258671789508
-0.3423414509792745   0.023074938211034804   0.04147258671789508
-0.3423414509792745   0.023074938211034804   0.04147258671789508
-0.3435121403093801   -0.0407237008134512   -0.016856346735219747
-0.3435121403093801   -0.0407237008134512   -0.016856346735219747
-0.3435121403093801   -0.0407237008134512   -0.016856346735219747
-0.3435121403093801   -0.0407237008134512   -0.016856346735219747
-0.3332223777704877   -0.002195535230820167   -0.007067464690770946
-0.3332223777704877   -0.002195535230820167   -0.007067464690770946
-0.3332223777704877   -0.002195535230820167   -0.007067464690770946
-0.3332223777704877   -0.002195535230820167   -0.007067464690770946
-0.3184598467659024   0.0275775214532281   0.04010389871548947
-0.3184598467659024   0.0275775214532281   0.04010389871548947
-0.3184598467659024   0.0275775214532281   0.04010389871548947
-0.3184598467659024   0.0275775214532281   0.04010389871548947
-0.3697219932027041   -0.04755453273559514   -0.02480065345261539
-0.3697219932027041   -0.04755453273559514   -0.02480065345261539
-0.3697219932027041   -0.04755453273559514   -0.02480065345261539
-0.3697219932027041   -0.04755453273559514   -0.02480065345261539
-0.36776312513619025   0.0018347808293386059   0.044310111870188476
-0.36776312513619025   0.0018347808293386059   0.044310111870188476
-0.36776312513619025   0.0018347808293386059   0.044310111870188476
-0.36776312513619025   0.0018347808293386059   0.044310111870188476
-0.34766434437346455   -0.05304246809844573   -0.014647060117080925
-0.34766434437346455   -0.05304246809844573   -0.014647060117080925
-0.34766434437346455   -0.05304246809844573   -0.014647060117080925
-0.34766434437346455   -0.05304246809844573   -0.014647060117080925
-0.3405980712380887   -0.011472571721454716   -0.014588858306328393
-0.3405980712380887   -0.011472571721454716   -0.014588858306328393
-0.3405980712380887   -0.011472571721454716   -0.014588858306328393
-0.3405980712380887   -0.011472571721454716   -0.014588858306328393
-0.6696005285056366   -0.06121446423060034   -0.06332518935305136
-0.6696005285056366   -0.06121446423060034   -0.06332518935305136
-0.6696005285056366   -0.06121446423060034   -0.06332518935305136
-0.6696005285056366   -0.06121446423060034   -0.06332518935305136
-0.42507794825692136   0.036172924188812794   0.014918784266902359
-0.42507794825692136   0.036172924188812794   0.014918784266902359
-0.42507794825692136   0.036172924188812794   0.014918784266902359
-0.42507794825692136   0.036172924188812794   0.014918784266902359
-0.446396122326022   -0.028247727279446175   -0.02827688115625303
-0.446396122326022   -0.028247727279446175   -0.02827688115625303
-0.446396122326022   -0.028247727279446175   -0.02827688115625303
-0.446396122326022   -0.028247727279446175   -0.02827688115625303
-0.7120472099384151   -0.08035648695173354   0.07090210114835556
-0.7120472099384151   -0.08035648695173354   0.07090210114835556
-0.7120472099384151   -0.08035648695173354   0.07090210114835556
-0.7120472099384151   -0.08035648695173354   0.07090210114835556
-0.5177934022657661   -0.019756358028303056   0.06879520758656035
-0.5177934022657661   -0.019756358028303056   0.06879520758656035
-0.5177934022657661   -0.019756358028303056   0.06879520758656035
-0.5177934022657661   -0.019756358028303056   0.06879520758656035
-0.7374574916950076   -0.0900881531993832   -0.04641764138695245
-0.7374574916950076   -0.0900881531993832   -0.04641764138695245
-0.7374574916950076   -0.0900881531993832   -0.04641764138695245
-0.7374574916950076   -0.0900881531993832   -0.04641764138695245
-0.4388608145277919   -0.036391034990158166   0.017542965545609215
-0.4388608145277919   -0.036391034990158166   0.017542965545609215
-0.4388608145277919   -0.036391034990158166   0.017542965545609215
-0.4388608145277919   -0.036391034990158166   0.017542965545609215
-0.45328703499252754   -0.04094630012355573   -0.020319303297756393
-0.45328703499252754   -0.04094630012355573   -0.020319303297756393
-0.45328703499252754   -0.04094630012355573   -0.020319303297756393
-0.45328703499252754   -0.04094630012355573   -0.020319303297756393
-0.7347719045648239   -0.11226336186758881   0.001716399185603082
-0.7347719045648239   -0.11226336186758881   0.001716399185603082
-0.7347719045648239   -0.11226336186758881   0.001716399185603082
-0.7347719045648239   -0.11226336186758881   0.001716399185603082
-0.5733722664811391   -0.06773852176126319   0.015908048871842974
-0.5733722664811391   -0.06773852176126319   0.015908048871842974
-0.5733722664811391   -0.06773852176126319   0.015908048871842974
-0.5733722664811391   -0.06773852176126319   0.015908048871842974
-0.740503254226061   -0.10180535459028675   -0.03739835639787812
-0.740503254226061   -0.10180535459028675   -0.03739835639787812
-0.740503254226061   -0.10180535459028675   -0.03739835639787812
-0.740503254226061   -0.10180535459028675   -0.03739835639787812
-0.45296651920260006   -0.05681514127216683   -0.002847883199510848
-0.45296651920260006   -0.05681514127216683   -0.002847883199510848
-0.45296651920260006   -0.05681514127216683   -0.002847883199510848
-0.45296651920260006   -0.05681514127216683   -0.002847883199510848
-0.4536295793547157   -0.07166904248386224   -0.014811952063036404
-0.4536295793547157   -0.07166904248386224   -0.014811952063036404
-0.4536295793547157   -0.07166904248386224   -0.014811952063036404
-0.4536295793547157   -0.07166904248386224   -0.014811952063036404
-0.752430544197797   -0.17141695945853247   0.011200060717829193
-0.752430544197797   -0.17141695945853247   0.011200060717829193
-0.752430544197797   -0.17141695945853247   0.011200060717829193
-0.752430544197797   -0.17141695945853247   0.011200060717829193
-0.5728001496124888   -0.09310605939725705   0.0012094637500182238
-0.5728001496124888   -0.09310605939725705   0.0012094637500182238
-0.5728001496124888   -0.09310605939725705   0.0012094637500182238
-0.5728001496124888   -0.09310605939725705   0.0012094637500182238
-0.45900923600316335   -0.0778456431997499   -0.04071908707574194
-0.45900923600316335   -0.0778456431997499   -0.04071908707574194
-0.45900923600316335   -0.0778456431997499   -0.04071908707574194
-0.45900923600316335   -0.0778456431997499   -0.04071908707574194
-0.3156388325277747   -0.20430625294228966   -0.03828895873493182
-0.3156388325277747   -0.20430625294228966   -0.03828895873493182
-0.3156388325277747   -0.20430625294228966   -0.03828895873493182
-0.3156388325277747   -0.20430625294228966   -0.03828895873493182
-0.2772257752225293   -0.04535005998895521   -0.0024423314855651626
-0.2772257752225293   -0.04535005998895521   -0.0024423314855651626
-0.2772257752225293   -0.04535005998895521   -0.0024423314855651626
-0.2772257752225293   -0.04535005998895521   -0.0024423314855651626
-0.488061971608614   -0.21661770800621719   -0.04823614684244216
-0.488061971608614   -0.21661770800621719   -0.04823614684244216
-0.488061971608614   -0.21661770800621719   -0.04823614684244216
-0.488061971608614   -0.21661770800621719   -0.04823614684244216
-0.38052363697888697   -0.1443563506956864   -0.011100287777746364
-0.38052363697888697   -0.1443563506956864   -0.011100287777746364
-0.38052363697888697   -0.1443563506956864   -0.011100287777746364
-0.38052363697888697   -0.1443563506956864   -0.011100287777746364
-0.45868163263261275   -0.08728599763965762   -0.030666162328993815
-0.45868163263261275   -0.08728599763965762   -0.030666162328993815
-0.45868163263261275   -0.08728599763965762   -0.030666162328993815
-0.45868163263261275   -0.08728599763965762   -0.030666162328993815
-0.30846425596806315   -0.17653991212504708   -0.027444883077142497
-0.30846425596806315   -0.17653991212504708   -0.027444883077142497
-0.30846425596806315   -0.17653991212504708   -0.027444883077142497
-0.30846425596806315   -0.17653991212504708   -0.027444883077142497
-0.280397253671614   -0.05875617486170152   0.0004113048477786414
-0.280397253671614   -0.05875617486170152   0.0004113048477786414
-0.280397253671614   -0.05875617486170152   0.0004113048477786414
-0.280397253671614   -0.05875617486170152   0.0004113048477786414
-0.4898252766383625   -0.2154875764766804   -0.028469235173809355
-0.4898252766383625   -0.2154875764766804   -0.028469235173809355
-0.4898252766383625   -0.2154875764766804   -0.028469235173809355
-0.4898252766383625   -0.2154875764766804   -0.028469235173809355
-0.3763103242506376   -0.1353127632253498   -0.011793562923187218
-0.3763103242506376   -0.1353127632253498   -0.011793562923187218
-0.3763103242506376   -0.1353127632253498   -0.011793562923187218
-0.3763103242506376   -0.1353127632253498   -0.011793562923187218
-0.46573524167369884   -0.10050613399758992   -0.023000502829578565
-0.46573524167369884   -0.10050613399758992   -0.023000502829578565
-0.46573524167369884   -0.10050613399758992   -0.023000502829578565
-0.46573524167369884   -0.10050613399758992   -0.023000502829578565
-0.30833829199052876   -0.17758862069504328   -0.02046144091345742
-0.30833829199052876   -0.17758862069504328   -0.02046144091345742
-0.30833829199052876   -0.17758862069504328   -0.02046144091345742
-0.30833829199052876   -0.17758862069504328   -0.02046144091345742
-0.2803083791079865   -0.0754487126780592   0.004490162784477034
-0.2803083791079865   -0.0754487126780592   0.004490162784477034
-0.2803083791079865   -0.0754487126780592   0.004490162784477034
-0.2803083791079865   -0.0754487126780592   0.004490162784477034
-0.48862296698992214   -0.21902649018366235   -0.042421442539274365
-0.48862296698992214   -0.21902649018366235   -0.042421442539274365
-0.48862296698992214   -0.21902649018366235   -0.042421442539274365
-0.48862296698992214   -0.21902649018366235   -0.042421442539274365
-0.38200444506793535   -0.14554264325577987   -0.021910169130385262
-0.38200444506793535   -0.14554264325577987   -0.021910169130385262
-0.38200444506793535   -0.14554264325577987   -0.021910169130385262
-0.38200444506793535   -0.14554264325577987   -0.021910169130385262
-0.2778482641375392   -0.05012129371272337   -0.003521076013320643
-0.2778482641375392   -0.05012129371272337   -0.003521076013320643
-0.2778482641375392   -0.05012129371272337   -0.003521076013320643
-0.2778482641375392   -0.05012129371272337   -0.003521076013320643
-0.23329104639690681   -0.1563655181694706   -0.026992431894060132
-0.23329104639690681   -0.1563655181694706   -0.026992431894060132
-0.23329104639690681   -0.1563655181694706   -0.026992431894060132
-0.23329104639690681   -0.1563655181694706   -0.026992431894060132
-0.20105728678312412   -0.041634176779843636   0.010727703426378863
-0.20105728678312412   -0.041634176779843636   0.010727703426378863
-0.20105728678312412   -0.041634176779843636   0.010727703426378863
-0.20105728678312412   -0.041634176779843636   0.010727703426378863
-0.3076146380090271   -0.16992819680357074   -0.029808508603438724
-0.3076146380090271   -0.16992819680357074   -0.029808508603438724
-0.3076146380090271   -0.16992819680357074   -0.029808508603438724
-0.3076146380090271   -0.16992819680357074   -0.029808508603438724
-0.25383255259986803   -0.10596490265736389   -0.012449482398791947
-0.25383255259986803   -0.10596490265736389   -0.012449482398791947
-0.25383255259986803   -0.10596490265736389   -0.012449482398791947
-0.25383255259986803   -0.10596490265736389   -0.012449482398791947
-0.2794431825734871   -0.05936065189087827   0.0004812236615687072
-0.2794431825734871   -0.05936065189087827   0.0004812236615687072
-0.2794431825734871   -0.05936065189087827   0.0004812236615687072
-0.2794431825734871   -0.05936065189087827   0.0004812236615687072
-0.23087709876820361   -0.1538500782420769   -0.02615545503679294
-0.23087709876820361   -0.1538500782420769   -0.02615545503679294
-0.23087709876820361   -0.1538500782420769   -0.02615545503679294
-0.23087709876820361   -0.1538500782420769   -0.02615545503679294
-0.20113492239392428   -0.05265421471812656   0.013904414488894658
-0.20113492239392428   -0.05265421471812656   0.013904414488894658
-0.20113492239392428   -0.05265421471812656   0.013904414488894658
-0.20113492239392428   -0.05265421471812656   0.013904414488894658
-0.3085897963074818   -0.17262131206104075   -0.026686271132225024
-0.3085897963074818   -0.17262131206104075   -0.026686271132225024
-0.3085897963074818   -0.17262131206104075   -0.026686271132225024
-0.3085897963074818   -0.17262131206104075   -0.026686271132225024
-0.2533844050596441   -0.1101086398609673   -0.016155642120642112
-0.2533844050596441   -0.1101086398609673   -0.016155642120642112
-0.2533844050596441   -0.1101086398609673   -0.016155642120642112
-0.2533844050596441   -0.1101086398609673   -0.016155642120642112
-0.28179990296409696   -0.07053309752100695   0.005174981044665378
-0.28179990296409696   -0.07053309752100695   0.005174981044665378
-0.28179990296409696   -0.07053309752100695   0.005174981044665378
-0.28179990296409696   -0.07053309752100695   0.005174981044665378
-0.2288314731811887   -0.15564908670203992   -0.021583467463514038
-0.2288314731811887   -0.15564908670203992   -0.021583467463514038
-0.2288314731811887   -0.15564908670203992   -0.021583467463514038
-0.2288314731811887   -0.15564908670203992   -0.021583467463514038
-0.1987735593382363   -0.06317357633469346   0.01736480115221315
-0.1987735593382363   -0.06317357633469346   0.01736480115221315
-0.1987735593382363   -0.06317357633469346   0.01736480115221315
-0.1987735593382363   -0.06317357633469346   0.01736480115221315
-0.3049231512025779   -0.17480976812473364   -0.01922264224180538
-0.3049231512025779   -0.17480976812473364   -0.01922264224180538
-0.3049231512025779   -0.17480976812473364   -0.01922264224180538
-0.3049231512025779   -0.17480976812473364   -0.01922264224180538
-0.2526331959831392   -0.11556977112693348   -0.01872960995751759
-0.2526331959831392   -0.11556977112693348   -0.01872960995751759
-0.2526331959831392   -0.11556977112693348   -0.01872960995751759
-0.2526331959831392   -0.11556977112693348   -0.01872960995751759
-0.19419530859065373   -0.0069218295442589825   0.019042568511989974
-0.19419530859065373   -0.0069218295442589825   0.019042568511989974
-0.19419530859065373   -0.0069218295442589825   0.019042568511989974
-0.19419530859065373   -0.0069218295442589825   0.019042568511989974
-0.1838481133861261   -0.08281709944201637   -0.016179401164292326
-0.1838481133861261   -0.08281709944201637   -0.016179401164292326
-0.1838481133861261   -0.08281709944201637   -0.016179401164292326
-0.1838481133861261   -0.08281709944201637   -0.016179401164292326
-0.15853027960888302   -0.011997090366679217   0.022048294822392712
-0.15853027960888302   -0.011997090366679217   0.022048294822392712
-0.15853027960888302   -0.011997090366679217   0.022048294822392712
-0.15853027960888302   -0.011997090366679217   0.022048294822392712
-0.21629739821739954   -0.09565535991714759   -0.011451670607694265
-0.21629739821739954   -0.09565535991714759   -0.011451670607694265
-0.21629739821739954   -0.09565535991714759   -0.011451670607694265
-0.21629739821739954   -0.09565535991714759   -0.011451670607694265
-0.18884418124240096   -0.04888820166749373   -0.006754986154688613
-0.18884418124240096   -0.04888820166749373   -0.006754986154688613
-0.18884418124240096   -0.04888820166749373   -0.006754986154688613
-0.18884418124240096   -0.04888820166749373   -0.006754986154688613
-0.19431733887438923   -0.019171256621847543   0.02196452281205729
-0.19431733887438923   -0.019171256621847543   0.02196452281205729
-0.19431733887438923   -0.019171256621847543   0.02196452281205729
-0.19431733887438923   -0.019171256621847543   0.02196452281205729
-0.1822662721563953   -0.09023712686648122   -0.018391631415366663
-0.1822662721563953   -0.09023712686648122   -0.018391631415366663
-0.1822662721563953   -0.09023712686648122   -0.018391631415366663
-0.1822662721563953   -0.09023712686648122   -0.018391631415366663
-0.15876573167080524   -0.022683309347079548   0.02370101328576965
-0.15876573167080524   -0.022683309347079548   0.02370101328576965
-0.15876573167080524   -0.022683309347079548   0.02370101328576965
-0.15876573167080524   -0.022683309347079548   0.02370101328576965
-0.21623312970936523   -0.10148682602485862   -0.012754010781581704
-0.21623312970936523   -0.10148682602485862   -0.012754010781581704
-0.21623312970936523   -0.10148682602485862   -0.012754010781581704
-0.21623312970936523   -0.10148682602485862   -0.012754010781581704
-0.18802322664452334   -0.05746796671529865   -0.011467428012777663
-0.18802322664452334   -0.05746796671529865   -0.011467428012777663
-0.18802322664452334   -0.05746796671529865   -0.011467428012777663
-0.18802322664452334   -0.05746796671529865   -0.011467428012777663
-0.19429332965988388   -0.02953116576154661   0.024989329202513004
-0.19429332965988388   -0.02953116576154661   0.024989329202513004
-0.19429332965988388   -0.02953116576154661   0.024989329202513004
-0.19429332965988388   -0.02953116576154661   0.024989329202513004
-0.18176894825023854   -0.09570238614034227   -0.018295992818126612
-0.18176894825023854   -0.09570238614034227   -0.018295992818126612
-0.18176894825023854   -0.09570238614034227   -0.018295992818126612
-0.18176894825023854   -0.09570238614034227   -0.018295992818126612
-0.15741432274046016   -0.03271861730779531   0.027467714367649936
-0.15741432274046016   -0.03271861730779531   0.027467714367649936
-0.15741432274046016   -0.03271861730779531   0.027467714367649936
-0.15741432274046016   -0.03271861730779531   0.027467714367649936
-0.21281802395003155   -0.10731678163715147   -0.008714316604305133
-0.21281802395003155   -0.10731678163715147   -0.008714316604305133
-0.21281802395003155   -0.10731678163715147   -0.008714316604305133
-0.21281802395003155   -0.10731678163715147   -0.008714316604305133
-0.18746429990020003   -0.06485071635070577   -0.014746342344905003
-0.18746429990020003   -0.06485071635070577   -0.014746342344905003
-0.18746429990020003   -0.06485071635070577   -0.014746342344905003
-0.18746429990020003   -0.06485071635070577   -0.014746342344905003
-0.15380434976705165   0.021524515520807266   0.02969780196825628
-0.15380434976705165   0.021524515520807266   0.02969780196825628
-0.15380434976705165   0.021524515520807266   0.02969780196825628
-0.15380434976705165   0.021524515520807266   0.02969780196825628
-0.10250599980604265   -0.027269486811237902   -0.009966382716566887
-0.10250599980604265   -0.027269486811237902   -0.009966382716566887
-0.10250599980604265   -0.027269486811237902   -0.009966382716566887
-0.10250599980604265   -0.027269486811237902   -0.009966382716566887
-0.08955775601798828   0.025232663887781885   0.02932905183778859
-0.08955775601798828   0.025232663887781885   0.02932905183778859
-0.08955775601798828   0.025232663887781885   0.02932905183778859
-0.08955775601798828   0.025232663887781885   0.02932905183778859
-0.1699090432899289   -0.04167870557738845   -0.005163908372127498
-0.1699090432899289   -0.04167870557738845   -0.005163908372127498
-0.1699090432899289   -0.04167870557738845   -0.005163908372127498
-0.1699090432899289   -0.04167870557738845   -0.005163908372127498
-0.12716148025953794   -0.002673003262176423   -0.005346694553222595
-0.12716148025953794   -0.002673003262176423   -0.005346694553222595
-0.12716148025953794   -0.002673003262176423   -0.005346694553222595
-0.12716148025953794   -0.002673003262176423   -0.005346694553222595
-0.15135912660748094   0.013489977745721516   0.03241699171699472
-0.15135912660748094   0.013489977745721516   0.03241699171699472
-0.15135912660748094   0.013489977745721516   0.03241699171699472
-0.15135912660748094   0.013489977745721516   0.03241699171699472
-0.10828828430901304   -0.0301166310439087   -0.008974294685652235
-0.10828828430901304   -0.0301166310439087   -0.008974294685652235
-0.10828828430901304   -0.0301166310439087   -0.008974294685652235
-0.10828828430901304   -0.0301166310439087   -0.008974294685652235
-0.09352986153577378   0.02002310774987618   0.03689541730781086
-0.09352986153577378   0.02002310774987618   0.03689541730781086
-0.09352986153577378   0.02002310774987618   0.03689541730781086
-0.09352986153577378   0.02002310774987618   0.03689541730781086
-0.16916314647878522   -0.04437149099555117   -0.006597879105658638
-0.16916314647878522   -0.04437149099555117   -0.006597879105658638
-0.16916314647878522   -0.04437149099555117   -0.006597879105658638
-0.16916314647878522   -0.04437149099555117   -0.006597879105658638
-0.13097371293334406   -0.008361449273985574   -0.007571931185789409
-0.13097371293334406   -0.008361449273985574   -0.007571931185789409
-0.13097371293334406   -0.008361449273985574   -0.007571931185789409
-0.13097371293334406   -0.008361449273985574   -0.007571931185789409
-0.14973133079483422   0.00886806008350912   0.03732164823503601
-0.14973133079483422   0.00886806008350912   0.03732164823503601
-0.14973133079483422   0.00886806008350912   0.03732164823503601
-0.14973133079483422   0.00886806008350912   0.03732164823503601
-0.11429207146011151   -0.03454683756957086   -0.012345686994423155
-0.11429207146011151   -0.03454683756957086   -0.012345686994423155
-0.11429207146011151   -0.03454683756957086   -0.012345686994423155
-0.11429207146011151   -0.03454683756957086   -0.012345686994423155
-0.10700335138919366   0.005697852930485192   0.03839355204330276
-0.10700335138919366   0.005697852930485192   0.03839355204330276
-0.10700335138919366   0.005697852930485192   0.03839355204330276
-0.10700335138919366   0.005697852930485192   0.03839355204330276
-0.16682934608693462   -0.04679868709593332   -0.005527332576584333
-0.16682934608693462   -0.04679868709593332   -0.005527332576584333
-0.16682934608693462   -0.04679868709593332   -0.005527332576584333
-0.16682934608693462   -0.04679868709593332   -0.005527332576584333
-0.13282158002969705   -0.01248439519598529   -0.01116080342215218
-0.13282158002969705   -0.01248439519598529   -0.01116080342215218
-0.13282158002969705   -0.01248439519598529   -0.01116080342215218
-0.13282158002969705   -0.01248439519598529   -0.01116080342215218
-1.5816910477892145   -0.22450471497637092   -0.13185631202673095
-1.5816910477892145   -0.22450471497637092   -0.13185631202673095
-1.5816910477892145   -0.22450471497637092   -0.13185631202673095
-1.5816910477892145   -0.22450471497637092   -0.13185631202673095
-0.5494357486239682   -0.8686847561811265   -0.10312638863520193
-0.5494357486239682   -0.8686847561811265   -0.10312638863520193
-0.5494357486239682   -0.8686847561811265   -0.10312638863520193
-0.5494357486239682   -0.8686847561811265   -0.10312638863520193
-0.4240325243180965   -0.03682845126454162   0.0005275939639965387
-0.4240325243180965   -0.03682845126454162   0.0005275939639965387
-0.4240325243180965   -0.03682845126454162   0.0005275939639965387
-0.4240325243180965   -0.03682845126454162   0.0005275939639965387
-1.6899839609664176   -1.0201619131964041   -0.5420291748325643
-1.6899839609664176   -1.0201619131964041   -0.5420291748325643
-1.6899839609664176   -1.0201619131964041   -0.5420291748325643
-1.6899839609664176   -1.0201619131964041   -0.5420291748325643
-1.0347369328353637   -0.5073825335696975   -0.07394983841809966
-1.0347369328353637   -0.5073825335696975   -0.07394983841809966
-1.0347369328353637   -0.5073825335696975   -0.07394983841809966
-1.0347369328353637   -0.5073825335696975   -0.07394983841809966
-1.4697741628233671   -0.28192559768428394   -0.17921649962944436
-1.4697741628233671   -0.28192559768428394   -0.17921649962944436
-1.4697741628233671   -0.28192559768428394   -0.17921649962944436
-1.4697741628233671   -0.28192559768428394   -0.17921649962944436
-0.5935090939234738   -0.7243315382389903   -0.15935216708843852
-0.5935090939234738   -0.7243315382389903   -0.15935216708843852
-0.5935090939234738   -0.7243315382389903   -0.15935216708843852
-0.5935090939234738   -0.7243315382389903   -0.15935216708843852
-0.43273831609165897   -0.048948739129065555   0.01625592440505444
-0.43273831609165897   -0.048948739129065555   0.01625592440505444
-0.43273831609165897   -0.048948739129065555   0.01625592440505444
-0.43273831609165897   -0.048948739129065555   0.01625592440505444
-1.5815419988768742   -0.9105292816646409   -0.49841425610830303
-1.5815419988768742   -0.9105292816646409   -0.49841425610830303
-1.5815419988768742   -0.9105292816646409   -0.49841425610830303
-1.5815419988768742   -0.9105292816646409   -0.49841425610830303
-0.9746765294087373   -0.45769240689663687   0.039320078969645775
-0.9746765294087373   -0.45769240689663687   0.039320078969645775
-0.9746765294087373   -0.45769240689663687   0.039320078969645775
-0.9746765294087373   -0.45769240689663687   0.039320078969645775
-1.3801932957310505   -0.26844243695560177   -0.133757585088235
-1.3801932957310505   -0.26844243695560177   -0.133757585088235
-1.3801932957310505   -0.26844243695560177   -0.133757585088235
-1.3801932957310505   -0.26844243695560177   -0.133757585088235
-0.5776972448633336   -0.6346458094639569   -0.12284164911842382
-0.5776972448633336   -0.6346458094639569   -0.12284164911842382
-0.5776972448633336   -0.6346458094639569   -0.12284164911842382
-0.5776972448633336   -0.6346458094639569   -0.12284164911842382
-0.4976409652331131   -0.1278989631660391   -0.025999536784387853
-0.4976409652331131   -0.1278989631660391   -0.025999536784387853
-0.4976409652331131   -0.1278989631660391   -0.025999536784387853
-0.4976409652331131   -0.1278989631660391   -0.025999536784387853
-1.441519581530042   -0.7659334509464952   -0.44149060649530747
-1.441519581530042   -0.7659334509464952   -0.44149060649530747
-1.441519581530042   -0.7659334509464952   -0.44149060649530747
-1.441519581530042   -0.7659334509464952   -0.44149060649530747
-0.9029397742063738   -0.3969321078009203   0.1673210837027269
-0.9029397742063738   -0.3969321078009203   0.1673210837027269
-0.9029397742063738   -0.3969321078009203   0.1673210837027269
-0.9029397742063738   -0.3969321078009203   0.1673210837027269
-0.4058652734033422   -0.22123791926088088   -0.032720849452320455
-0.4058652734033422   -0.22123791926088088   -0.032720849452320455
-0.4058652734033422   -0.22123791926088088   -0.032720849452320455
-0.4058652734033422   -0.22123791926088088   -0.032720849452320455
-0.1881441540597506   -0.27579094120049924   -0.04651030240987263
-0.1881441540597506   -0.27579094120049924   -0.04651030240987263
-0.1881441540597506   -0.27579094120049924   -0.04651030240987263
-0.1881441540597506   -0.27579094120049924   -0.04651030240987263
-0.16565118650116553   -0.14163995562965573   0.004241829932916663
-0.16565118650116553   -0.14163995562965573   0.004241829932916663
-0.16565118650116553   -0.14163995562965573   0.004241829932916663
-0.16565118650116553   -0.14163995562965573   0.004241829932916663
-0.49722473319387106   -0.4027622228053813   0.000500321125966513
-0.49722473319387106   -0.4027622228053813   0.000500321125966513
-0.49722473319387106   -0.4027622228053813   0.000500321125966513
-0.49722473319387106   -0.4027622228053813   0.000500321125966513
-0.2668545574261548   -0.1952003453581703   0.08567433012666448
-0.2668545574261548   -0.1952003453581703   0.08567433012666448
-0.2668545574261548   -0.1952003453581703   0.08567433012666448
-0.2668545574261548   -0.1952003453581703   0.08567433012666448
-0.4621817111940988   -0.20600315407578104   -0.021043637604776615
-0.4621817111940988   -0.20600315407578104   -0.021043637604776615
-0.4621817111940988   -0.20600315407578104   -0.021043637604776615
-0.4621817111940988   -0.20600315407578104   -0.021043637604776615
-0.21478207066790966   -0.35248688652622856   -0.030565660004231214
-0.21478207066790966   -0.35248688652622856   -0.030565660004231214
-0.21478207066790966   -0.35248688652622856   -0.030565660004231214
-0.21478207066790966   -0.35248688652622856   -0.030565660004231214
-0.17905817667449433   -0.1467619233414883   0.004391930538283007
-0.17905817667449433   -0.1467619233414883   0.004391930538283007
-0.17905817667449433   -0.1467619233414883   0.004391930538283007
-0.17905817667449433   -0.1467619233414883   0.004391930538283007
-0.5216907621537876   -0.39777737662328944   -0.079677668411361
-0.5216907621537876   -0.39777737662328944   -0.079677668411361
-0.5216907621537876   -0.39777737662328944   -0.079677668411361
-0.5216907621537876   -0.39777737662328944   -0.079677668411361
-0.3184683187723386   -0.2502429120380642   0.0389849126208981
-0.3184683187723386   -0.2502429120380642   0.0389849126208981
-0.3184683187723386   -0.2502429120380642   0.0389849126208981
-0.3184683187723386   -0.2502429120380642   0.0389849126208981
-0.47708867716839737   -0.21511277797455508   -0.0393318421331479
-0.47708867716839737   -0.21511277797455508   -0.0393318421331479
-0.47708867716839737   -0.21511277797455508   -0.0393318421331479
-0.47708867716839737   -0.21511277797455508   -0.0393318421331479
-0.22235331392609897   -0.3281195742564376   -0.03072610480479073
-0.22235331392609897   -0.3281195742564376   -0.03072610480479073
-0.22235331392609897   -0.3281195742564376   -0.03072610480479073
-0.22235331392609897   -0.3281195742564376   -0.03072610480479073
-0.19977722318826313   -0.1514784932482029   0.006472798336363925
-0.19977722318826313   -0.1514784932482029   0.006472798336363925
-0.19977722318826313   -0.1514784932482029   0.006472798336363925
-0.19977722318826313   -0.1514784932482029   0.006472798336363925
-0.5580490308588911   -0.3866299863788103   -0.06930884170050582
-0.5580490308588911   -0.3866299863788103   -0.06930884170050582
-0.5580490308588911   -0.3866299863788103   -0.06930884170050582
-0.5580490308588911   -0.3866299863788103   -0.06930884170050582
-0.3334032461421939   -0.2358836584469538   0.041222283785961884
-0.3334032461421939   -0.2358836584469538   0.041222283785961884
-0.3334032461421939   -0.2358836584469538   0.041222283785961884
-0.3334032461421939   -0.2358836584469538   0.041222283785961884
-0.1481512181952499   -0.1320053158399161   0.009668751552047855
-0.1481512181952499   -0.1320053158399161   0.009668751552047855
-0.1481512181952499   -0.1320053158399161   0.009668751552047855
-0.1481512181952499   -0.1320053158399161   0.009668751552047855
-0.0908922561893184   -0.08668151026396262   -0.022739105104764262
-0.0908922561893184   -0.08668151026396262   -0.022739105104764262
-0.0908922561893184   -0.08668151026396262   -0.022739105104764262
-0.0908922561893184   -0.08668151026396262   -0.022739105104764262
-0.08801090681931456   -0.11810250928528128   0.00971619779829604
-0.08801090681931456   -0.11810250928528128   0.00971619779829604
-0.08801090681931456   -0.11810250928528128   0.00971619779829604
-0.08801090681931456   -0.11810250928528128   0.00971619779829604
-0.16392196557823918   -0.11853695384053078   -0.01021506724157658
-0.16392196557823918   -0.11853695384053078   -0.01021506724157658
-0.16392196557823918   -0.11853695384053078   -0.01021506724157658
-0.16392196557823918   -0.11853695384053078   -0.01021506724157658
-0.10361449014948015   -0.09598894333146617   0.04299186189667144
-0.10361449014948015   -0.09598894333146617   0.04299186189667144
-0.10361449014948015   -0.09598894333146617   0.04299186189667144
-0.10361449014948015   -0.09598894333146617   0.04299186189667144
-0.16265940621857386   -0.13288607798462437   0.010446853700839902
-0.16265940621857386   -0.13288607798462437   0.010446853700839902
-0.16265940621857386   -0.13288607798462437   0.010446853700839902
-0.16265940621857386   -0.13288607798462437   0.010446853700839902
-0.09072187064697998   -0.10520178960918841   -0.01673934101612396
-0.09072187064697998   -0.10520178960918841   -0.01673934101612396
-0.09072187064697998   -0.10520178960918841   -0.01673934101612396
-0.09072187064697998   -0.10520178960918841   -0.01673934101612396
-0.08905847121157065   -0.12164805790710803   0.008648674541527426
-0.08905847121157065   -0.12164805790710803   0.008648674541527426
-0.08905847121157065   -0.12164805790710803   0.008648674541527426
-0.08905847121157065   -0.12164805790710803   0.008648674541527426
-0.17415176478663913   -0.13824642653433167   0.020408493170402407
-0.17415176478663913   -0.13824642653433167   0.020408493170402407
-0.17415176478663913   -0.13824642653433167   0.020408493170402407
-0.17415176478663913   -0.13824642653433167   0.020408493170402407
-0.11276845437269159   -0.10697628993769552   0.036356471688381686
-0.11276845437269159   -0.10697628993769552   0.036356471688381686
-0.11276845437269159   -0.10697628993769552   0.036356471688381686
-0.11276845437269159   -0.10697628993769552   0.036356471688381686
-0.175327463723571   -0.1378123974396094   0.014095969391020913
-0.175327463723571   -0.1378123974396094   0.014095969391020913
-0.175327463723571   -0.1378123974396094   0.014095969391020913
-0.175327463723571   -0.1378123974396094   0.014095969391020913
-0.09545394186793293   -0.12965325659512442   -0.015323480052267576
-0.09545394186793293   -0.12965325659512442   -0.015323480052267576
-0.09545394186793293   -0.12965325659512442   -0.015323480052267576
-0.09545394186793293   -0.12965325659512442   -0.015323480052267576
-0.09017738548775017   -0.12558401359405125   0.01216036469677136
-0.09017738548775017   -0.12558401359405125   0.01216036469677136
-0.09017738548775017   -0.12558401359405125   0.01216036469677136
-0.09017738548775017   -0.12558401359405125   0.01216036469677136
-0.20384423432802548   -0.16995031381396544   0.00460956320331854
-0.20384423432802548   -0.16995031381396544   0.00460956320331854
-0.20384423432802548   -0.16995031381396544   0.00460956320331854
-0.20384423432802548   -0.16995031381396544   0.00460956320331854
-0.12602442337077532   -0.12190828564084134   0.0170907734802065
-0.12602442337077532   -0.12190828564084134   0.0170907734802065
-0.12602442337077532   -0.12190828564084134   0.0170907734802065
-0.12602442337077532   -0.12190828564084134   0.0170907734802065
-0.07441812443750265   -0.052587677284469045   0.025537720674820873
-0.07441812443750265   -0.052587677284469045   0.025537720674820873
-0.07441812443750265   -0.052587677284469045   0.025537720674820873
-0.07441812443750265   -0.052587677284469045   0.025537720674820873
-0.05239522924812927   -0.000515899320955011   -0.005119018355876007
-0.05239522924812927   -0.000515899320955011   -0.005119018355876007
-0.05239522924812927   -0.000515899320955011   -0.005119018355876007
-0.05239522924812927   -0.000515899320955011   -0.005119018355876007
-0.049708544421526925   -0.056880071388572484   0.015835918239316286
-0.049708544421526925   -0.056880071388572484   0.015835918239316286
-0.049708544421526925   -0.056880071388572484   0.015835918239316286
-0.049708544421526925   -0.056880071388572484   0.015835918239316286
-0.06907080398551242   -0.010539403922303344   -0.003146393395671213
-0.06907080398551242   -0.010539403922303344   -0.003146393395671213
-0.06907080398551242   -0.010539403922303344   -0.003146393395671213
-0.06907080398551242   -0.010539403922303344   -0.003146393395671213
-0.056761368413216405   -0.028937810899758422   0.012666291048381753
-0.056761368413216405   -0.028937810899758422   0.012666291048381753
-0.056761368413216405   -0.028937810899758422   0.012666291048381753
-0.056761368413216405   -0.028937810899758422   0.012666291048381753
-0.07351392885403812   -0.05999051354588216   0.0240890918852791
-0.07351392885403812   -0.05999051354588216   0.0240890918852791
-0.07351392885403812   -0.05999051354588216   0.0240890918852791
-0.07351392885403812   -0.05999051354588216   0.0240890918852791
-0.04398072636847082   -0.006144268580463271   -0.006260794303512444
-0.04398072636847082   -0.006144268580463271   -0.006260794303512444
-0.04398072636847082   -0.006144268580463271   -0.006260794303512444
-0.04398072636847082   -0.006144268580463271   -0.006260794303512444
-0.045602151184826106   -0.06188760888873518   0.01461109637449638
-0.045602151184826106   -0.06188760888873518   0.01461109637449638
-0.045602151184826106   -0.06188760888873518   0.01461109637449638
-0.045602151184826106   -0.06188760888873518   0.01461109637449638
-0.06964017500931653   -0.0203543819896303   0.004446479635320353
-0.06964017500931653   -0.0203543819896303   0.004446479635320353
-0.06964017500931653   -0.0203543819896303   0.004446479635320353
-0.06964017500931653   -0.0203543819896303   0.004446479635320353
-0.05213963940932377   -0.03318381618655383   0.01505388352395599
-0.05213963940932377   -0.03318381618655383   0.01505388352395599
-0.05213963940932377   -0.03318381618655383   0.01505388352395599
-0.05213963940932377   -0.03318381618655383   0.01505388352395599
-0.07394753654648771   -0.06497320603666663   0.027528495996500715
-0.07394753654648771   -0.06497320603666663   0.027528495996500715
-0.07394753654648771   -0.06497320603666663   0.027528495996500715
-0.07394753654648771   -0.06497320603666663   0.027528495996500715
-0.04170408846868338   -0.017678083662727315   -0.01010811527079787
-0.04170408846868338   -0.017678083662727315   -0.01010811527079787
-0.04170408846868338   -0.017678083662727315   -0.01010811527079787
-0.04170408846868338   -0.017678083662727315   -0.01010811527079787
-0.0382114092170925   -0.06743895513165625   0.01606820119023961
-0.0382114092170925   -0.06743895513165625   0.01606820119023961
-0.0382114092170925   -0.06743895513165625   0.01606820119023961
-0.0382114092170925   -0.06743895513165625   0.01606820119023961
-0.07517260722359706   -0.04421932981011564   0.005819572233601376
-0.07517260722359706   -0.04421932981011564   0.005819572233601376
-0.07517260722359706   -0.04421932981011564   0.005819572233601376
-0.07517260722359706   -0.04421932981011564   0.005819572233601376
-0.05023019263934379   -0.04185448342608021   0.012964901552195474
-0.05023019263934379   -0.04185448342608021   0.012964901552195474
-0.05023019263934379   -0.04185448342608021   0.012964901552195474
-0.05023019263934379   -0.04185448342608021   0.012964901552195474
-0.04797065326567515   -0.009226290427301316   0.025714252662740873
-0.04797065326567515   -0.009226290427301316   0.025714252662740873
-0.04797065326567515   -0.009226290427301316   0.025714252662740873
-0.04797065326567515   -0.009226290427301316   0.025714252662740873
-0.008561480155575037   0.005515088409813478   -0.0005193772386090853
-0.008561480155575037   0.005515088409813478   -0.0005193772386090853
-0.008561480155575037   0.005515088409813478   -0.0005193772386090853
-0.008561480155575037   0.005515088409813478   -0.0005193772386090853
0.0026245540887792976   -0.002954665981554485   0.015922692228334187
0.0026245540887792976   -0.002954665981554485   0.015922692228334187
0.0026245540887792976   -0.002954665981554485   0.015922692228334187
0.0026245540887792976   -0.002954665981554485   0.015922692228334187
-0.04107115600069756   0.004078177330907708   -0.001935388376017074
-0.04107115600069756   0.004078177330907708   -0.001935388376017074
-0.04107115600069756   0.004078177330907708   -0.001935388376017074
-0.04107115600069756   0.004078177330907708   -0.001935388376017074
-0.024138095510282995   -0.001830381816957603   -0.001977516070093532
-0.024138095510282995   -0.001830381816957603   -0.001977516070093532
-0.024138095510282995   -0.001830381816957603   -0.001977516070093532
-0.024138095510282995   -0.001830381816957603   -0.001977516070093532
-0.0379316450062416   -0.008901979550658232   0.026742323477828674
-0.0379316450062416   -0.008901979550658232   0.026742323477828674
-0.0379316450062416   -0.008901979550658232   0.026742323477828674
-0.0379316450062416   -0.008901979550658232   0.026742323477828674
0.0009144091274722304   0.011454856933161627   -0.00703755549291726
0.0009144091274722304   0.011454856933161627   -0.00703755549291726
0.0009144091274722304   0.011454856933161627   -0.00703755549291726
0.0009144091274722304   0.011454856933161627   -0.00703755549291726
0.008243565406382145   -0.0036453046918169365   0.019626340527845152
0.008243565406382145   -0.0036453046918169365   0.019626340527845152
0.008243565406382145   -0.0036453046918169365   0.019626340527845152
0.008243565406382145   -0.0036453046918169365   0.019626340527845152
-0.03610611680917983   0.0030505650329618016   -0.0028469056689692314
-0.03610611680917983   0.0030505650329618016   -0.0028469056689692314
-0.03610611680917983   0.0030505650329618016   -0.0028469056689692314
-0.03610611680917983   0.0030505650329618016   -0.0028469056689692314
-0.01588070379265022   -0.0004573103547261554   0.002521435425546578
-0.01588070379265022   -0.0004573103547261554   0.002521435425546578
-0.01588070379265022   -0.0004573103547261554   0.002521435425546578
-0.01588070379265022   -0.0004573103547261554   0.002521435425546578
-0.03239122404071885   -0.00995158837129017   0.02872971157758765
-0.03239122404071885   -0.00995158837129017   0.02872971157758765
-0.03239122404071885   -0.00995158837129017   0.02872971157758765
-0.03239122404071885   -0.00995158837129017   0.02872971157758765
0.0058092191309316865   0.010637395205443002   -0.0068280907466747465
0.0058092191309316865   0.010637395205443002   -0.0068280907466747465
0.0058092191309316865   0.010637395205443002   -0.0068280907466747465
0.0058092191309316865   0.010637395205443002   -0.0068280907466747465
0.013953507527672333   -0.005723011035714095   0.019068194109904874
0.013953507527672333   -0.005723011035714095   0.019068194109904874
0.013953507527672333   -0.005723011035714095   0.019068194109904874
0.013953507527672333   -0.005723011035714095   0.019068194109904874
-0.02797584762736562   0.003028253647672197   -0.0032211996404544144
-0.02797584762736562   0.003028253647672197   -0.0032211996404544144
-0.02797584762736562   0.003028253647672197   -0.0032211996404544144
-0.02797584762736562   0.003028253647672197   -0.0032211996404544144
-0.008516593277070446   0.0003755871095665207   0.006465820708937613
-0.008516593277070446   0.0003755871095665207   0.006465820708937613
-0.008516593277070446   0.0003755871095665207   0.006465820708937613
-0.008516593277070446   0.0003755871095665207   0.006465820708937613
              </DataArray>   
             <DataArray type="Float64" NumberOfComponents="3" Name="Displacements" format="ascii">   
0.0   0.0   0.0
-0.004405735388641192   -0.0028923810056726298   -0.001475988437464087
0.0   0.0   0.0
0.0   0.0   0.0
-0.004405735388641192   -0.0028923810056726298   -0.001475988437464087
-0.0028033668433049084   -0.002599609190832724   -0.001084437868696342
0.0   0.0   0.0
-0.0027478725150555014   -0.002729954154857067   -0.0009085514639415239
0.0   0.0   0.0
0.0   0.0   0.0
-0.0027478725150555014   -0.002729954154857067   -0.0009085514639415239
0.0   0.0   0.0
0.0   0.0   0.0
-0.0027478725150555014   -0.002729954154857067   -0.0009085514639415239
-0.004610745293984525   -0.0030813290160393936   -0.0011850494901673933
-0.004405735388641192   -0.0028923810056726298   -0.001475988437464087
0.0   0.0   0.0
-0.0027478725150555014   -0.002729954154857067   -0.0009085514639415239
-0.004405735388641192   -0.0028923810056726298   -0.001475988437464087
0.0   0.0   0.0
0.0   0.0   0.0
-0.004610745293984525   -0.0030813290160393936   -0.0011850494901673933
0.0   0.0   0.0
0.0   0.0   0.0
-0.004610745293984525   -0.0030813290160393936   -0.0011850494901673933
-0.0027478725150555014   -0.002729954154857067   -0.0009085514639415239
0.0   0.0   0.0
-0.002755564903117744   -0.0027967584716909522   -0.000732924930688369
0.0   0.0   0.0
0.0   0.0   0.0
-0.002755564903117744   -0.0027967584716909522   -0.000732924930688369
0.0   0.0   0.0
0.0   0.0   0.0
-0.002755564903117744   -0.0027967584716909522   -0.000732924930688369
-0.004754695528893969   -0.00317321286175756   -0.0009062971012110091
-0.004610745293984525   -0.0030813290160393936   -0.0011850494901673933
0.0   0.0   0.0
-0.002755564903117744   -0.0027967584716909522   -0.000732924930688369
-0.004610745293984525   -0.0030813290160393936   -0.0011850494901673933
0.0   0.0   0.0
0.0   0.0   0.0
-0.004754695528893969   -0.00317321286175756   -0.0009062971012110091
0.0   0.0   0.0
0.0   0.0   0.0
-0.004754695528893969   -0.00317321286175756   -0.0009062971012110091
-0.002755564903117744   -0.0027967584716909522   -0.000732924930688369
0.0   0.0   0.0
-0.0027540521511831588   -0.0028139335206444323   -0.0005513328894103045
0.0   0.0   0.0
0.0   0.0   0.0
-0.0027540521511831588   -0.0028139335206444323   -0.0005513328894103045
0.0   0.0   0.0
0.0   0.0   0.0
-0.0027540521511831588   -0.0028139335206444323   -0.0005513328894103045
-0.005064860656327253   -0.003242820907541316   -0.0005829127153729215
-0.004754695528893969   -0.00317321286175756   -0.0009062971012110091
0.0   0.0   0.0
-0.0027540521511831588   -0.0028139335206444323   -0.0005513328894103045
-0.004754695528893969   -0.00317321286175756   -0.0009062971012110091
0.0   0.0   0.0
0.0   0.0   0.0
-0.0028033668433049084   -0.002599609190832724   -0.001084437868696342
0.0   0.0   0.0
0.0   0.0   0.0
-0.0028033668433049084   -0.002599609190832724   -0.001084437868696342
-0.0012767344503457968   -0.0024922456582690982   -0.0008248702840580074
0.0   0.0   0.0
-0.0012278894814982395   -0.002577078424575593   -0.0007418291580786375
0.0   0.0   0.0
0.0   0.0   0.0
-0.0012278894814982395   -0.002577078424575593   -0.0007418291580786375
0.0   0.0   0.0
0.0   0.0   0.0
-0.0012278894814982395   -0.002577078424575593   -0.0007418291580786375
-0.0027478725150555014   -0.002729954154857067   -0.0009085514639415239
-0.0028033668433049084   -0.002599609190832724   -0.001084437868696342
0.0   0.0   0.0
-0.0012278894814982395   -0.002577078424575593   -0.0007418291580786375
-0.0028033668433049084   -0.002599609190832724   -0.001084437868696342
0.0   0.0   0.0
0.0   0.0   0.0
-0.0027478725150555014   -0.002729954154857067   -0.0009085514639415239
0.0   0.0   0.0
0.0   0.0   0.0
-0.0027478725150555014   -0.002729954154857067   -0.0009085514639415239
-0.0012278894814982395   -0.002577078424575593   -0.0007418291580786375
0.0   0.0   0.0
-0.0012004333025697133   -0.002609415903289579   -0.0006609630206726693
0.0   0.0   0.0
0.0   0.0   0.0
-0.0012004333025697133   -0.002609415903289579   -0.0006609630206726693
0.0   0.0   0.0
0.0   0.0   0.0
-0.0012004333025697133   -0.002609415903289579   -0.0006609630206726693
-0.002755564903117744   -0.0027967584716909522   -0.000732924930688369
-0.0027478725150555014   -0.002729954154857067   -0.0009085514639415239
0.0   0.0   0.0
-0.0012004333025697133   -0.002609415903289579   -0.0006609630206726693
-0.0027478725150555014   -0.002729954154857067   -0.0009085514639415239
0.0   0.0   0.0
0.0   0.0   0.0
-0.002755564903117744   -0.0027967584716909522   -0.000732924930688369
0.0   0.0   0.0
0.0   0.0   0.0
-0.002755564903117744   -0.0027967584716909522   -0.000732924930688369
-0.0012004333025697133   -0.002609415903289579   -0.0006609630206726693
0.0   0.0   0.0
-0.0011754228686813115   -0.0025959304512367513   -0.0005773687986609363
0.0   0.0   0.0
0.0   0.0   0.0
-0.0011754228686813115   -0.0025959304512367513   -0.0005773687986609363
0.0   0.0   0.0
0.0   0.0   0.0
-0.0011754228686813115   -0.0025959304512367513   -0.0005773687986609363
-0.0027540521511831588   -0.0028139335206444323   -0.0005513328894103045
-0.002755564903117744   -0.0027967584716909522   -0.000732924930688369
0.0   0.0   0.0
-0.0011754228686813115   -0.0025959304512367513   -0.0005773687986609363
-0.002755564903117744   -0.0027967584716909522   -0.000732924930688369
0.0   0.0   0.0
0.0   0.0   0.0
-0.0012767344503457968   -0.0024922456582690982   -0.0008248702840580074
0.0   0.0   0.0
0.0   0.0   0.0
-0.0012767344503457968   -0.0024922456582690982   -0.0008248702840580074
0.00016559757602249163   -0.002506010783201257   -0.0006594923615675343
0.0   0.0   0.0
0.00019680170751962893   -0.002549971225722851   -0.000670966228089848
0.0   0.0   0.0
0.0   0.0   0.0
0.00019680170751962893   -0.002549971225722851   -0.000670966228089848
0.0   0.0   0.0
0.0   0.0   0.0
0.00019680170751962893   -0.002549971225722851   -0.000670966228089848
-0.0012278894814982395   -0.002577078424575593   -0.0007418291580786375
-0.0012767344503457968   -0.0024922456582690982   -0.0008248702840580074
0.0   0.0   0.0
0.00019680170751962893   -0.002549971225722851   -0.000670966228089848
-0.0012767344503457968   -0.0024922456582690982   -0.0008248702840580074
0.0   0.0   0.0
0.0   0.0   0.0
-0.0012278894814982395   -0.002577078424575593   -0.0007418291580786375
0.0   0.0   0.0
0.0   0.0   0.0
-0.0012278894814982395   -0.002577078424575593   -0.0007418291580786375
0.00019680170751962893   -0.002549971225722851   -0.000670966228089848
0.0   0.0   0.0
0.00022143753304541486   -0.0025463187224732775   -0.0006813360233859048
0.0   0.0   0.0
0.0   0.0   0.0
0.00022143753304541486   -0.0025463187224732775   -0.0006813360233859048
0.0   0.0   0.0
0.0   0.0   0.0
0.00022143753304541486   -0.0025463187224732775   -0.0006813360233859048
-0.0012004333025697133   -0.002609415903289579   -0.0006609630206726693
-0.0012278894814982395   -0.002577078424575593   -0.0007418291580786375
0.0   0.0   0.0
0.00022143753304541486   -0.0025463187224732775   -0.0006813360233859048
-0.0012278894814982395   -0.002577078424575593   -0.0007418291580786375
0.0   0.0   0.0
0.0   0.0   0.0
-0.0012004333025697133   -0.002609415903289579   -0.0006609630206726693
0.0   0.0   0.0
0.0   0.0   0.0
-0.0012004333025697133   -0.002609415903289579   -0.0006609630206726693
0.00022143753304541486   -0.0025463187224732775   -0.0006813360233859048
0.0   0.0   0.0
0.0002545661997386008   -0.0024911497358015245   -0.0006920005248111464
0.0   0.0   0.0
0.0   0.0   0.0
0.0002545661997386008   -0.0024911497358015245   -0.0006920005248111464
0.0   0.0   0.0
0.0   0.0   0.0
0.0002545661997386008   -0.0024911497358015245   -0.0006920005248111464
-0.0011754228686813115   -0.0025959304512367513   -0.0005773687986609363
-0.0012004333025697133   -0.002609415903289579   -0.0006609630206726693
0.0   0.0   0.0
0.0002545661997386008   -0.0024911497358015245   -0.0006920005248111464
-0.0012004333025697133   -0.002609415903289579   -0.0006609630206726693
0.0   0.0   0.0
0.0   0.0   0.0
0.00016559757602249163   -0.002506010783201257   -0.0006594923615675343
0.0   0.0   0.0
0.0   0.0   0.0
0.00016559757602249163   -0.002506010783201257   -0.0006594923615675343
0.0017312757451773558   -0.0026278475406234267   -0.0005777428512297543
0.0   0.0   0.0
0.0017343995133992543   -0.0026418103612119784   -0.0006886681745354225
0.0   0.0   0.0
0.0   0.0   0.0
0.0017343995133992543   -0.0026418103612119784   -0.0006886681745354225
0.0   0.0   0.0
0.0   0.0   0.0
0.0017343995133992543   -0.0026418103612119784   -0.0006886681745354225
0.00019680170751962893   -0.002549971225722851   -0.000670966228089848
0.00016559757602249163   -0.002506010783201257   -0.0006594923615675343
0.0   0.0   0.0
0.0017343995133992543   -0.0026418103612119784   -0.0006886681745354225
0.00016559757602249163   -0.002506010783201257   -0.0006594923615675343
0.0   0.0   0.0
0.0   0.0   0.0
0.00019680170751962893   -0.002549971225722851   -0.000670966228089848
0.0   0.0   0.0
0.0   0.0   0.0
0.00019680170751962893   -0.002549971225722851   -0.000670966228089848
0.0017343995133992543   -0.0026418103612119784   -0.0006886681745354225
0.0   0.0   0.0
0.0017270103434988415   -0.0026040866310243806   -0.0007950931852815967
0.0   0.0   0.0
0.0   0.0   0.0
0.0017270103434988415   -0.0026040866310243806   -0.0007950931852815967
0.0   0.0   0.0
0.0   0.0   0.0
0.0017270103434988415   -0.0026040866310243806   -0.0007950931852815967
0.00022143753304541486   -0.0025463187224732775   -0.0006813360233859048
0.00019680170751962893   -0.002549971225722851   -0.000670966228089848
0.0   0.0   0.0
0.0017270103434988415   -0.0026040866310243806   -0.0007950931852815967
0.00019680170751962893   -0.002549971225722851   -0.000670966228089848
0.0   0.0   0.0
0.0   0.0   0.0
0.00022143753304541486   -0.0025463187224732775   -0.0006813360233859048
0.0   0.0   0.0
0.0   0.0   0.0
0.00022143753304541486   -0.0025463187224732775   -0.0006813360233859048
0.0017270103434988415   -0.0026040866310243806   -0.0007950931852815967
0.0   0.0   0.0
0.001760494822253635   -0.002503134949199824   -0.0008995013175313747
0.0   0.0   0.0
0.0   0.0   0.0
0.001760494822253635   -0.002503134949199824   -0.0008995013175313747
0.0   0.0   0.0
0.0   0.0   0.0
0.001760494822253635   -0.002503134949199824   -0.0008995013175313747
0.0002545661997386008   -0.0024911497358015245   -0.0006920005248111464
0.00022143753304541486   -0.0025463187224732775   -0.0006813360233859048
0.0   0.0   0.0
0.001760494822253635   -0.002503134949199824   -0.0008995013175313747
0.00022143753304541486   -0.0025463187224732775   -0.0006813360233859048
0.0   0.0   0.0
0.0   0.0   0.0
0.0017312757451773558   -0.0026278475406234267   -0.0005777428512297543
0.0   0.0   0.0
0.0   0.0   0.0
0.0017312757451773558   -0.0026278475406234267   -0.0005777428512297543
0.003908841569843204   -0.0029367214306787555   -0.0005452314576935786
0.0   0.0   0.0
0.0036710918380026725   -0.0029045985456671594   -0.0007967532701710129
0.0   0.0   0.0
0.0   0.0   0.0
0.0036710918380026725   -0.0029045985456671594   -0.0007967532701710129
0.0   0.0   0.0
0.0   0.0   0.0
0.0036710918380026725   -0.0029045985456671594   -0.0007967532701710129
0.0017343995133992543   -0.0026418103612119784   -0.0006886681745354225
0.0017312757451773558   -0.0026278475406234267   -0.0005777428512297543
0.0   0.0   0.0
0.0036710918380026725   -0.0029045985456671594   -0.0007967532701710129
0.0017312757451773558   -0.0026278475406234267   -0.0005777428512297543
0.0   0.0   0.0
0.0   0.0   0.0
0.0017343995133992543   -0.0026418103612119784   -0.0006886681745354225
0.0   0.0   0.0
0.0   0.0   0.0
0.0017343995133992543   -0.0026418103612119784   -0.0006886681745354225
0.0036710918380026725   -0.0029045985456671594   -0.0007967532701710129
0.0   0.0   0.0
0.0035614735515202924   -0.0028442107799777384   -0.0010094569616135023
0.0   0.0   0.0
0.0   0.0   0.0
0.0035614735515202924   -0.0028442107799777384   -0.0010094569616135023
0.0   0.0   0.0
0.0   0.0   0.0
0.0035614735515202924   -0.0028442107799777384   -0.0010094569616135023
0.0017270103434988415   -0.0026040866310243806   -0.0007950931852815967
0.0017343995133992543   -0.0026418103612119784   -0.0006886681745354225
0.0   0.0   0.0
0.0035614735515202924   -0.0028442107799777384   -0.0010094569616135023
0.0017343995133992543   -0.0026418103612119784   -0.0006886681745354225
0.0   0.0   0.0
0.0   0.0   0.0
0.0017270103434988415   -0.0026040866310243806   -0.0007950931852815967
0.0   0.0   0.0
0.0   0.0   0.0
0.0017270103434988415   -0.0026040866310243806   -0.0007950931852815967
0.0035614735515202924   -0.0028442107799777384   -0.0010094569616135023
0.0   0.0   0.0
0.0033982554894504647   -0.002689748362477822   -0.0012345653532350401
0.0   0.0   0.0
0.0   0.0   0.0
0.0033982554894504647   -0.002689748362477822   -0.0012345653532350401
0.0   0.0   0.0
0.0   0.0   0.0
0.0033982554894504647   -0.002689748362477822   -0.0012345653532350401
0.001760494822253635   -0.002503134949199824   -0.0008995013175313747
0.0017270103434988415   -0.0026040866310243806   -0.0007950931852815967
0.0   0.0   0.0
0.0033982554894504647   -0.002689748362477822   -0.0012345653532350401
0.0017270103434988415   -0.0026040866310243806   -0.0007950931852815967
0.0   0.0   0.0
-0.004405735388641192   -0.0028923810056726298   -0.001475988437464087
-0.008227678802220249   -0.008071275122060635   -0.0019886077380295644
-0.0028033668433049084   -0.002599609190832724   -0.001084437868696342
-0.004610745293984525   -0.0030813290160393936   -0.0011850494901673933
-0.008227678802220249   -0.008071275122060635   -0.0019886077380295644
-0.005251349594142668   -0.007808014360534384   -0.0016369906820555015
-0.0028033668433049084   -0.002599609190832724   -0.001084437868696342
-0.0052574256535430925   -0.007941350457978918   -0.0014743482817093686
-0.004610745293984525   -0.0030813290160393936   -0.0011850494901673933
-0.0027478725150555014   -0.002729954154857067   -0.0009085514639415239
-0.0052574256535430925   -0.007941350457978918   -0.0014743482817093686
-0.0028033668433049084   -0.002599609190832724   -0.001084437868696342
-0.004610745293984525   -0.0030813290160393936   -0.0011850494901673933
-0.0052574256535430925   -0.007941350457978918   -0.0014743482817093686
-0.008474015793541814   -0.008257344971833667   -0.0017245219196038767
-0.008227678802220249   -0.008071275122060635   -0.0019886077380295644
-0.004610745293984525   -0.0030813290160393936   -0.0011850494901673933
-0.0052574256535430925   -0.007941350457978918   -0.0014743482817093686
-0.008227678802220249   -0.008071275122060635   -0.0019886077380295644
-0.0028033668433049084   -0.002599609190832724   -0.001084437868696342
-0.004610745293984525   -0.0030813290160393936   -0.0011850494901673933
-0.008474015793541814   -0.008257344971833667   -0.0017245219196038767
-0.0027478725150555014   -0.002729954154857067   -0.0009085514639415239
-0.004754695528893969   -0.00317321286175756   -0.0009062971012110091
-0.008474015793541814   -0.008257344971833667   -0.0017245219196038767
-0.0052574256535430925   -0.007941350457978918   -0.0014743482817093686
-0.0027478725150555014   -0.002729954154857067   -0.0009085514639415239
-0.0052779939290792215   -0.008022645338643964   -0.0013180640609983998
-0.004754695528893969   -0.00317321286175756   -0.0009062971012110091
-0.002755564903117744   -0.0027967584716909522   -0.000732924930688369
-0.0052779939290792215   -0.008022645338643964   -0.0013180640609983998
-0.0027478725150555014   -0.002729954154857067   -0.0009085514639415239
-0.004754695528893969   -0.00317321286175756   -0.0009062971012110091
-0.0052779939290792215   -0.008022645338643964   -0.0013180640609983998
-0.008645114803276068   -0.008362440883529852   -0.0014659484860302
-0.008474015793541814   -0.008257344971833667   -0.0017245219196038767
-0.004754695528893969   -0.00317321286175756   -0.0009062971012110091
-0.0052779939290792215   -0.008022645338643964   -0.0013180640609983998
-0.008474015793541814   -0.008257344971833667   -0.0017245219196038767
-0.0027478725150555014   -0.002729954154857067   -0.0009085514639415239
-0.004754695528893969   -0.00317321286175756   -0.0009062971012110091
-0.008645114803276068   -0.008362440883529852   -0.0014659484860302
-0.002755564903117744   -0.0027967584716909522   -0.000732924930688369
-0.005064860656327253   -0.003242820907541316   -0.0005829127153729215
-0.008645114803276068   -0.008362440883529852   -0.0014659484860302
-0.0052779939290792215   -0.008022645338643964   -0.0013180640609983998
-0.002755564903117744   -0.0027967584716909522   -0.000732924930688369
-0.005262126620083885   -0.008064852130672692   -0.0011717851589343202
-0.005064860656327253   -0.003242820907541316   -0.0005829127153729215
-0.0027540521511831588   -0.0028139335206444323   -0.0005513328894103045
-0.005262126620083885   -0.008064852130672692   -0.0011717851589343202
-0.002755564903117744   -0.0027967584716909522   -0.000732924930688369
-0.005064860656327253   -0.003242820907541316   -0.0005829127153729215
-0.005262126620083885   -0.008064852130672692   -0.0011717851589343202
-0.008847341154503939   -0.008423585243134787   -0.0012307135372035458
-0.008645114803276068   -0.008362440883529852   -0.0014659484860302
-0.005064860656327253   -0.003242820907541316   -0.0005829127153729215
-0.005262126620083885   -0.008064852130672692   -0.0011717851589343202
-0.008645114803276068   -0.008362440883529852   -0.0014659484860302
-0.002755564903117744   -0.0027967584716909522   -0.000732924930688369
-0.0028033668433049084   -0.002599609190832724   -0.001084437868696342
-0.005251349594142668   -0.007808014360534384   -0.0016369906820555015
-0.0012767344503457968   -0.0024922456582690982   -0.0008248702840580074
-0.0027478725150555014   -0.002729954154857067   -0.0009085514639415239
-0.005251349594142668   -0.007808014360534384   -0.0016369906820555015
-0.002436833082374904   -0.0076855143230152405   -0.0013969790743283686
-0.0012767344503457968   -0.0024922456582690982   -0.0008248702840580074
-0.0024156817615468133   -0.007770358822221836   -0.0013136213231767474
-0.0027478725150555014   -0.002729954154857067   -0.0009085514639415239
-0.0012278894814982395   -0.002577078424575593   -0.0007418291580786375
-0.0024156817615468133   -0.007770358822221836   -0.0013136213231767474
-0.0012767344503457968   -0.0024922456582690982   -0.0008248702840580074
-0.0027478725150555014   -0.002729954154857067   -0.0009085514639415239
-0.0024156817615468133   -0.007770358822221836   -0.0013136213231767474
-0.0052574256535430925   -0.007941350457978918   -0.0014743482817093686
-0.005251349594142668   -0.007808014360534384   -0.0016369906820555015
-0.0027478725150555014   -0.002729954154857067   -0.0009085514639415239
-0.0024156817615468133   -0.007770358822221836   -0.0013136213231767474
-0.005251349594142668   -0.007808014360534384   -0.0016369906820555015
-0.0012767344503457968   -0.0024922456582690982   -0.0008248702840580074
-0.0027478725150555014   -0.002729954154857067   -0.0009085514639415239
-0.0052574256535430925   -0.007941350457978918   -0.0014743482817093686
-0.0012278894814982395   -0.002577078424575593   -0.0007418291580786375
-0.002755564903117744   -0.0027967584716909522   -0.000732924930688369
-0.0052574256535430925   -0.007941350457978918   -0.0014743482817093686
-0.0024156817615468133   -0.007770358822221836   -0.0013136213231767474
-0.0012278894814982395   -0.002577078424575593   -0.0007418291580786375
-0.002396923864902222   -0.0078115132281992355   -0.001238061675465568
-0.002755564903117744   -0.0027967584716909522   -0.000732924930688369
-0.0012004333025697133   -0.002609415903289579   -0.0006609630206726693
-0.002396923864902222   -0.0078115132281992355   -0.001238061675465568
-0.0012278894814982395   -0.002577078424575593   -0.0007418291580786375
-0.002755564903117744   -0.0027967584716909522   -0.000732924930688369
-0.002396923864902222   -0.0078115132281992355   -0.001238061675465568
-0.0052779939290792215   -0.008022645338643964   -0.0013180640609983998
-0.0052574256535430925   -0.007941350457978918   -0.0014743482817093686
-0.002755564903117744   -0.0027967584716909522   -0.000732924930688369
-0.002396923864902222   -0.0078115132281992355   -0.001238061675465568
-0.0052574256535430925   -0.007941350457978918   -0.0014743482817093686
-0.0012278894814982395   -0.002577078424575593   -0.0007418291580786375
-0.002755564903117744   -0.0027967584716909522   -0.000732924930688369
-0.0052779939290792215   -0.008022645338643964   -0.0013180640609983998
-0.0012004333025697133   -0.002609415903289579   -0.0006609630206726693
-0.0027540521511831588   -0.0028139335206444323   -0.0005513328894103045
-0.0052779939290792215   -0.008022645338643964   -0.0013180640609983998
-0.002396923864902222   -0.0078115132281992355   -0.001238061675465568
-0.0012004333025697133   -0.002609415903289579   -0.0006609630206726693
-0.002368991162468717   -0.007810528507063822   -0.0011722849617190308
-0.0027540521511831588   -0.0028139335206444323   -0.0005513328894103045
-0.0011754228686813115   -0.0025959304512367513   -0.0005773687986609363
-0.002368991162468717   -0.007810528507063822   -0.0011722849617190308
-0.0012004333025697133   -0.002609415903289579   -0.0006609630206726693
-0.0027540521511831588   -0.0028139335206444323   -0.0005513328894103045
-0.002368991162468717   -0.007810528507063822   -0.0011722849617190308
-0.005262126620083885   -0.008064852130672692   -0.0011717851589343202
-0.0052779939290792215   -0.008022645338643964   -0.0013180640609983998
-0.0027540521511831588   -0.0028139335206444323   -0.0005513328894103045
-0.002368991162468717   -0.007810528507063822   -0.0011722849617190308
-0.0052779939290792215   -0.008022645338643964   -0.0013180640609983998
-0.0012004333025697133   -0.002609415903289579   -0.0006609630206726693
-0.0012767344503457968   -0.0024922456582690982   -0.0008248702840580074
-0.002436833082374904   -0.0076855143230152405   -0.0013969790743283686
0.00016559757602249163   -0.002506010783201257   -0.0006594923615675343
-0.0012278894814982395   -0.002577078424575593   -0.0007418291580786375
-0.002436833082374904   -0.0076855143230152405   -0.0013969790743283686
0.00027713331407037   -0.0076891692921541915   -0.001245280853748617
0.00016559757602249163   -0.002506010783201257   -0.0006594923615675343
0.0003031090060293552   -0.007729334625276612   -0.0012397376804325485
-0.0012278894814982395   -0.002577078424575593   -0.0007418291580786375
0.00019680170751962893   -0.002549971225722851   -0.000670966228089848
0.0003031090060293552   -0.007729334625276612   -0.0012397376804325485
0.00016559757602249163   -0.002506010783201257   -0.0006594923615675343
-0.0012278894814982395   -0.002577078424575593   -0.0007418291580786375
0.0003031090060293552   -0.007729334625276612   -0.0012397376804325485
-0.0024156817615468133   -0.007770358822221836   -0.0013136213231767474
-0.002436833082374904   -0.0076855143230152405   -0.0013969790743283686
-0.0012278894814982395   -0.002577078424575593   -0.0007418291580786375
0.0003031090060293552   -0.007729334625276612   -0.0012397376804325485
-0.002436833082374904   -0.0076855143230152405   -0.0013969790743283686
0.00016559757602249163   -0.002506010783201257   -0.0006594923615675343
-0.0012278894814982395   -0.002577078424575593   -0.0007418291580786375
-0.0024156817615468133   -0.007770358822221836   -0.0013136213231767474
0.00019680170751962893   -0.002549971225722851   -0.000670966228089848
-0.0012004333025697133   -0.002609415903289579   -0.0006609630206726693
-0.0024156817615468133   -0.007770358822221836   -0.0013136213231767474
0.0003031090060293552   -0.007729334625276612   -0.0012397376804325485
0.00019680170751962893   -0.002549971225722851   -0.000670966228089848
0.00032062746157309895   -0.007726833590226852   -0.0012430447422444699
-0.0012004333025697133   -0.002609415903289579   -0.0006609630206726693
0.00022143753304541486   -0.0025463187224732775   -0.0006813360233859048
0.00032062746157309895   -0.007726833590226852   -0.0012430447422444699
0.00019680170751962893   -0.002549971225722851   -0.000670966228089848
-0.0012004333025697133   -0.002609415903289579   -0.0006609630206726693
0.00032062746157309895   -0.007726833590226852   -0.0012430447422444699
-0.002396923864902222   -0.0078115132281992355   -0.001238061675465568
-0.0024156817615468133   -0.007770358822221836   -0.0013136213231767474
-0.0012004333025697133   -0.002609415903289579   -0.0006609630206726693
0.00032062746157309895   -0.007726833590226852   -0.0012430447422444699
-0.0024156817615468133   -0.007770358822221836   -0.0013136213231767474
0.00019680170751962893   -0.002549971225722851   -0.000670966228089848
-0.0012004333025697133   -0.002609415903289579   -0.0006609630206726693
-0.002396923864902222   -0.0078115132281992355   -0.001238061675465568
0.00022143753304541486   -0.0025463187224732775   -0.0006813360233859048
-0.0011754228686813115   -0.0025959304512367513   -0.0005773687986609363
-0.002396923864902222   -0.0078115132281992355   -0.001238061675465568
0.00032062746157309895   -0.007726833590226852   -0.0012430447422444699
0.00022143753304541486   -0.0025463187224732775   -0.0006813360233859048
0.0003394126212942373   -0.007680364833916731   -0.0012553418195786592
-0.0011754228686813115   -0.0025959304512367513   -0.0005773687986609363
0.0002545661997386008   -0.0024911497358015245   -0.0006920005248111464
0.0003394126212942373   -0.007680364833916731   -0.0012553418195786592
0.00022143753304541486   -0.0025463187224732775   -0.0006813360233859048
-0.0011754228686813115   -0.0025959304512367513   -0.0005773687986609363
0.0003394126212942373   -0.007680364833916731   -0.0012553418195786592
-0.002368991162468717   -0.007810528507063822   -0.0011722849617190308
-0.002396923864902222   -0.0078115132281992355   -0.001238061675465568
-0.0011754228686813115   -0.0025959304512367513   -0.0005773687986609363
0.0003394126212942373   -0.007680364833916731   -0.0012553418195786592
-0.002396923864902222   -0.0078115132281992355   -0.001238061675465568
0.00022143753304541486   -0.0025463187224732775   -0.0006813360233859048
0.00016559757602249163   -0.002506010783201257   -0.0006594923615675343
0.00027713331407037   -0.0076891692921541915   -0.001245280853748617
0.0017312757451773558   -0.0026278475406234267   -0.0005777428512297543
0.00019680170751962893   -0.002549971225722851   -0.000670966228089848
0.00027713331407037   -0.0076891692921541915   -0.001245280853748617
0.0031532490559524795   -0.007814428103407338   -0.0011745900376763276
0.0017312757451773558   -0.0026278475406234267   -0.0005777428512297543
0.003168033076053027   -0.007813992943276563   -0.0012493839472158426
0.00019680170751962893   -0.002549971225722851   -0.000670966228089848
0.0017343995133992543   -0.0026418103612119784   -0.0006886681745354225
0.003168033076053027   -0.007813992943276563   -0.0012493839472158426
0.0017312757451773558   -0.0026278475406234267   -0.0005777428512297543
0.00019680170751962893   -0.002549971225722851   -0.000670966228089848
0.003168033076053027   -0.007813992943276563   -0.0012493839472158426
0.0003031090060293552   -0.007729334625276612   -0.0012397376804325485
0.00027713331407037   -0.0076891692921541915   -0.001245280853748617
0.00019680170751962893   -0.002549971225722851   -0.000670966228089848
0.003168033076053027   -0.007813992943276563   -0.0012493839472158426
0.00027713331407037   -0.0076891692921541915   -0.001245280853748617
0.0017312757451773558   -0.0026278475406234267   -0.0005777428512297543
0.00019680170751962893   -0.002549971225722851   -0.000670966228089848
0.0003031090060293552   -0.007729334625276612   -0.0012397376804325485
0.0017343995133992543   -0.0026418103612119784   -0.0006886681745354225
0.00022143753304541486   -0.0025463187224732775   -0.0006813360233859048
0.0003031090060293552   -0.007729334625276612   -0.0012397376804325485
0.003168033076053027   -0.007813992943276563   -0.0012493839472158426
0.0017343995133992543   -0.0026418103612119784   -0.0006886681745354225
0.0031535615400467413   -0.007771724878324746   -0.0013341908097917144
0.00022143753304541486   -0.0025463187224732775   -0.0006813360233859048
0.0017270103434988415   -0.0026040866310243806   -0.0007950931852815967
0.0031535615400467413   -0.007771724878324746   -0.0013341908097917144
0.0017343995133992543   -0.0026418103612119784   -0.0006886681745354225
0.00022143753304541486   -0.0025463187224732775   -0.0006813360233859048
0.0031535615400467413   -0.007771724878324746   -0.0013341908097917144
0.00032062746157309895   -0.007726833590226852   -0.0012430447422444699
0.0003031090060293552   -0.007729334625276612   -0.0012397376804325485
0.00022143753304541486   -0.0025463187224732775   -0.0006813360233859048
0.0031535615400467413   -0.007771724878324746   -0.0013341908097917144
0.0003031090060293552   -0.007729334625276612   -0.0012397376804325485
0.0017343995133992543   -0.0026418103612119784   -0.0006886681745354225
0.00022143753304541486   -0.0025463187224732775   -0.0006813360233859048
0.00032062746157309895   -0.007726833590226852   -0.0012430447422444699
0.0017270103434988415   -0.0026040866310243806   -0.0007950931852815967
0.0002545661997386008   -0.0024911497358015245   -0.0006920005248111464
0.00032062746157309895   -0.007726833590226852   -0.0012430447422444699
0.0031535615400467413   -0.007771724878324746   -0.0013341908097917144
0.0017270103434988415   -0.0026040866310243806   -0.0007950931852815967
0.003145329349704783   -0.007676073146512553   -0.00142587233558526
0.0002545661997386008   -0.0024911497358015245   -0.0006920005248111464
0.001760494822253635   -0.002503134949199824   -0.0008995013175313747
0.003145329349704783   -0.007676073146512553   -0.00142587233558526
0.0017270103434988415   -0.0026040866310243806   -0.0007950931852815967
0.0002545661997386008   -0.0024911497358015245   -0.0006920005248111464
0.003145329349704783   -0.007676073146512553   -0.00142587233558526
0.0003394126212942373   -0.007680364833916731   -0.0012553418195786592
0.00032062746157309895   -0.007726833590226852   -0.0012430447422444699
0.0002545661997386008   -0.0024911497358015245   -0.0006920005248111464
0.003145329349704783   -0.007676073146512553   -0.00142587233558526
0.00032062746157309895   -0.007726833590226852   -0.0012430447422444699
0.0017270103434988415   -0.0026040866310243806   -0.0007950931852815967
0.0017312757451773558   -0.0026278475406234267   -0.0005777428512297543
0.0031532490559524795   -0.007814428103407338   -0.0011745900376763276
0.003908841569843204   -0.0029367214306787555   -0.0005452314576935786
0.0017343995133992543   -0.0026418103612119784   -0.0006886681745354225
0.0031532490559524795   -0.007814428103407338   -0.0011745900376763276
0.006624119129273021   -0.008047223290467503   -0.0011557366751843224
0.003908841569843204   -0.0029367214306787555   -0.0005452314576935786
0.006489614831581041   -0.008025166274309162   -0.0013240273124251732
0.0017343995133992543   -0.0026418103612119784   -0.0006886681745354225
0.0036710918380026725   -0.0029045985456671594   -0.0007967532701710129
0.006489614831581041   -0.008025166274309162   -0.0013240273124251732
0.003908841569843204   -0.0029367214306787555   -0.0005452314576935786
0.0017343995133992543   -0.0026418103612119784   -0.0006886681745354225
0.006489614831581041   -0.008025166274309162   -0.0013240273124251732
0.003168033076053027   -0.007813992943276563   -0.0012493839472158426
0.0031532490559524795   -0.007814428103407338   -0.0011745900376763276
0.0017343995133992543   -0.0026418103612119784   -0.0006886681745354225
0.006489614831581041   -0.008025166274309162   -0.0013240273124251732
0.0031532490559524795   -0.007814428103407338   -0.0011745900376763276
0.003908841569843204   -0.0029367214306787555   -0.0005452314576935786
0.0017343995133992543   -0.0026418103612119784   -0.0006886681745354225
0.003168033076053027   -0.007813992943276563   -0.0012493839472158426
0.0036710918380026725   -0.0029045985456671594   -0.0007967532701710129
0.0017270103434988415   -0.0026040866310243806   -0.0007950931852815967
0.003168033076053027   -0.007813992943276563   -0.0012493839472158426
0.006489614831581041   -0.008025166274309162   -0.0013240273124251732
0.0036710918380026725   -0.0029045985456671594   -0.0007967532701710129
0.0063693884155669326   -0.007960013797460804   -0.0015133837620839887
0.0017270103434988415   -0.0026040866310243806   -0.0007950931852815967
0.0035614735515202924   -0.0028442107799777384   -0.0010094569616135023
0.0063693884155669326   -0.007960013797460804   -0.0015133837620839887
0.0036710918380026725   -0.0029045985456671594   -0.0007967532701710129
0.0017270103434988415   -0.0026040866310243806   -0.0007950931852815967
0.0063693884155669326   -0.007960013797460804   -0.0015133837620839887
0.0031535615400467413   -0.007771724878324746   -0.0013341908097917144
0.003168033076053027   -0.007813992943276563   -0.0012493839472158426
0.0017270103434988415   -0.0026040866310243806   -0.0007950931852815967
0.0063693884155669326   -0.007960013797460804   -0.0015133837620839887
0.003168033076053027   -0.007813992943276563   -0.0012493839472158426
0.0036710918380026725   -0.0029045985456671594   -0.0007967532701710129
0.0017270103434988415   -0.0026040866310243806   -0.0007950931852815967
0.0031535615400467413   -0.007771724878324746   -0.0013341908097917144
0.0035614735515202924   -0.0028442107799777384   -0.0010094569616135023
0.001760494822253635   -0.002503134949199824   -0.0008995013175313747
0.0031535615400467413   -0.007771724878324746   -0.0013341908097917144
0.0063693884155669326   -0.007960013797460804   -0.0015133837620839887
0.0035614735515202924   -0.0028442107799777384   -0.0010094569616135023
0.0061891223698743655   -0.007815117335513936   -0.0017105169883005814
0.001760494822253635   -0.002503134949199824   -0.0008995013175313747
0.0033982554894504647   -0.002689748362477822   -0.0012345653532350401
0.0061891223698743655   -0.007815117335513936   -0.0017105169883005814
0.0035614735515202924   -0.0028442107799777384   -0.0010094569616135023
0.001760494822253635   -0.002503134949199824   -0.0008995013175313747
0.0061891223698743655   -0.007815117335513936   -0.0017105169883005814
0.003145329349704783   -0.007676073146512553   -0.00142587233558526
0.0031535615400467413   -0.007771724878324746   -0.0013341908097917144
0.001760494822253635   -0.002503134949199824   -0.0008995013175313747
0.0061891223698743655   -0.007815117335513936   -0.0017105169883005814
0.0031535615400467413   -0.007771724878324746   -0.0013341908097917144
0.0035614735515202924   -0.0028442107799777384   -0.0010094569616135023
-0.008227678802220249   -0.008071275122060635   -0.0019886077380295644
-0.011271661545114008   -0.015133295933137234   -0.0022652190213203302
-0.005251349594142668   -0.007808014360534384   -0.0016369906820555015
-0.008474015793541814   -0.008257344971833667   -0.0017245219196038767
-0.011271661545114008   -0.015133295933137234   -0.0022652190213203302
-0.007247089176389561   -0.01493216664247903   -0.0019801423978732385
-0.005251349594142668   -0.007808014360534384   -0.0016369906820555015
-0.007262808952711535   -0.015047216041729186   -0.0018539909316319686
-0.008474015793541814   -0.008257344971833667   -0.0017245219196038767
-0.0052574256535430925   -0.007941350457978918   -0.0014743482817093686
-0.007262808952711535   -0.015047216041729186   -0.0018539909316319686
-0.005251349594142668   -0.007808014360534384   -0.0016369906820555015
-0.008474015793541814   -0.008257344971833667   -0.0017245219196038767
-0.007262808952711535   -0.015047216041729186   -0.0018539909316319686
-0.011471861141001929   -0.015290540277549362   -0.0020683480735589357
-0.011271661545114008   -0.015133295933137234   -0.0022652190213203302
-0.008474015793541814   -0.008257344971833667   -0.0017245219196038767
-0.007262808952711535   -0.015047216041729186   -0.0018539909316319686
-0.011271661545114008   -0.015133295933137234   -0.0022652190213203302
-0.005251349594142668   -0.007808014360534384   -0.0016369906820555015
-0.008474015793541814   -0.008257344971833667   -0.0017245219196038767
-0.011471861141001929   -0.015290540277549362   -0.0020683480735589357
-0.0052574256535430925   -0.007941350457978918   -0.0014743482817093686
-0.008645114803276068   -0.008362440883529852   -0.0014659484860302
-0.011471861141001929   -0.015290540277549362   -0.0020683480735589357
-0.007262808952711535   -0.015047216041729186   -0.0018539909316319686
-0.0052574256535430925   -0.007941350457978918   -0.0014743482817093686
-0.0072813409552913615   -0.015127299238570861   -0.001736975496821314
-0.008645114803276068   -0.008362440883529852   -0.0014659484860302
-0.0052779939290792215   -0.008022645338643964   -0.0013180640609983998
-0.0072813409552913615   -0.015127299238570861   -0.001736975496821314
-0.0052574256535430925   -0.007941350457978918   -0.0014743482817093686
-0.008645114803276068   -0.008362440883529852   -0.0014659484860302
-0.0072813409552913615   -0.015127299238570861   -0.001736975496821314
-0.011597991424086544   -0.015389164965132289   -0.0018848686242315907
-0.011471861141001929   -0.015290540277549362   -0.0020683480735589357
-0.008645114803276068   -0.008362440883529852   -0.0014659484860302
-0.0072813409552913615   -0.015127299238570861   -0.001736975496821314
-0.011471861141001929   -0.015290540277549362   -0.0020683480735589357
-0.0052574256535430925   -0.007941350457978918   -0.0014743482817093686
-0.008645114803276068   -0.008362440883529852   -0.0014659484860302
-0.011597991424086544   -0.015389164965132289   -0.0018848686242315907
-0.0052779939290792215   -0.008022645338643964   -0.0013180640609983998
-0.008847341154503939   -0.008423585243134787   -0.0012307135372035458
-0.011597991424086544   -0.015389164965132289   -0.0018848686242315907
-0.0072813409552913615   -0.015127299238570861   -0.001736975496821314
-0.0052779939290792215   -0.008022645338643964   -0.0013180640609983998
-0.007267511915053036   -0.015180015624993713   -0.0016271492635224487
-0.008847341154503939   -0.008423585243134787   -0.0012307135372035458
-0.005262126620083885   -0.008064852130672692   -0.0011717851589343202
-0.007267511915053036   -0.015180015624993713   -0.0016271492635224487
-0.0052779939290792215   -0.008022645338643964   -0.0013180640609983998
-0.008847341154503939   -0.008423585243134787   -0.0012307135372035458
-0.007267511915053036   -0.015180015624993713   -0.0016271492635224487
-0.011741501985631217   -0.015460141058666792   -0.0017160331738096917
-0.011597991424086544   -0.015389164965132289   -0.0018848686242315907
-0.008847341154503939   -0.008423585243134787   -0.0012307135372035458
-0.007267511915053036   -0.015180015624993713   -0.0016271492635224487
-0.011597991424086544   -0.015389164965132289   -0.0018848686242315907
-0.0052779939290792215   -0.008022645338643964   -0.0013180640609983998
-0.005251349594142668   -0.007808014360534384   -0.0016369906820555015
-0.007247089176389561   -0.01493216664247903   -0.0019801423978732385
-0.002436833082374904   -0.0076855143230152405   -0.0013969790743283686
-0.0052574256535430925   -0.007941350457978918   -0.0014743482817093686
-0.007247089176389561   -0.01493216664247903   -0.0019801423978732385
-0.003452735070947898   -0.014831866542153257   -0.0017820935155375805
-0.002436833082374904   -0.0076855143230152405   -0.0013969790743283686
-0.0034439214963981842   -0.014905415235220631   -0.0017107796148162042
-0.0052574256535430925   -0.007941350457978918   -0.0014743482817093686
-0.0024156817615468133   -0.007770358822221836   -0.0013136213231767474
-0.0034439214963981842   -0.014905415235220631   -0.0017107796148162042
-0.002436833082374904   -0.0076855143230152405   -0.0013969790743283686
-0.0052574256535430925   -0.007941350457978918   -0.0014743482817093686
-0.0034439214963981842   -0.014905415235220631   -0.0017107796148162042
-0.007262808952711535   -0.015047216041729186   -0.0018539909316319686
-0.007247089176389561   -0.01493216664247903   -0.0019801423978732385
-0.0052574256535430925   -0.007941350457978918   -0.0014743482817093686
-0.0034439214963981842   -0.014905415235220631   -0.0017107796148162042
-0.007247089176389561   -0.01493216664247903   -0.0019801423978732385
-0.002436833082374904   -0.0076855143230152405   -0.0013969790743283686
-0.0052574256535430925   -0.007941350457978918   -0.0014743482817093686
-0.007262808952711535   -0.015047216041729186   -0.0018539909316319686
-0.0024156817615468133   -0.007770358822221836   -0.0013136213231767474
-0.0052779939290792215   -0.008022645338643964   -0.0013180640609983998
-0.007262808952711535   -0.015047216041729186   -0.0018539909316319686
-0.0034439214963981842   -0.014905415235220631   -0.0017107796148162042
-0.0024156817615468133   -0.007770358822221836   -0.0013136213231767474
-0.0034331639899157318   -0.014948624883581153   -0.0016481641661956548
-0.0052779939290792215   -0.008022645338643964   -0.0013180640609983998
-0.002396923864902222   -0.0078115132281992355   -0.001238061675465568
-0.0034331639899157318   -0.014948624883581153   -0.0016481641661956548
-0.0024156817615468133   -0.007770358822221836   -0.0013136213231767474
-0.0052779939290792215   -0.008022645338643964   -0.0013180640609983998
-0.0034331639899157318   -0.014948624883581153   -0.0016481641661956548
-0.0072813409552913615   -0.015127299238570861   -0.001736975496821314
-0.007262808952711535   -0.015047216041729186   -0.0018539909316319686
-0.0052779939290792215   -0.008022645338643964   -0.0013180640609983998
-0.0034331639899157318   -0.014948624883581153   -0.0016481641661956548
-0.007262808952711535   -0.015047216041729186   -0.0018539909316319686
-0.0024156817615468133   -0.007770358822221836   -0.0013136213231767474
-0.0052779939290792215   -0.008022645338643964   -0.0013180640609983998
-0.0072813409552913615   -0.015127299238570861   -0.001736975496821314
-0.002396923864902222   -0.0078115132281992355   -0.001238061675465568
-0.005262126620083885   -0.008064852130672692   -0.0011717851589343202
-0.0072813409552913615   -0.015127299238570861   -0.001736975496821314
-0.0034331639899157318   -0.014948624883581153   -0.0016481641661956548
-0.002396923864902222   -0.0078115132281992355   -0.001238061675465568
-0.003415584121250967   -0.014962113171164138   -0.0015942217988607452
-0.005262126620083885   -0.008064852130672692   -0.0011717851589343202
-0.002368991162468717   -0.007810528507063822   -0.0011722849617190308
-0.003415584121250967   -0.014962113171164138   -0.0015942217988607452
-0.002396923864902222   -0.0078115132281992355   -0.001238061675465568
-0.005262126620083885   -0.008064852130672692   -0.0011717851589343202
-0.003415584121250967   -0.014962113171164138   -0.0015942217988607452
-0.007267511915053036   -0.015180015624993713   -0.0016271492635224487
-0.0072813409552913615   -0.015127299238570861   -0.001736975496821314
-0.005262126620083885   -0.008064852130672692   -0.0011717851589343202
-0.003415584121250967   -0.014962113171164138   -0.0015942217988607452
-0.0072813409552913615   -0.015127299238570861   -0.001736975496821314
-0.002396923864902222   -0.0078115132281992355   -0.001238061675465568
-0.002436833082374904   -0.0076855143230152405   -0.0013969790743283686
-0.003452735070947898   -0.014831866542153257   -0.0017820935155375805
0.00027713331407037   -0.0076891692921541915   -0.001245280853748617
-0.0024156817615468133   -0.007770358822221836   -0.0013136213231767474
-0.003452735070947898   -0.014831866542153257   -0.0017820935155375805
0.0002301089076170089   -0.014826524426642172   -0.001659350580184456
0.00027713331407037   -0.0076891692921541915   -0.001245280853748617
0.000246185344284627   -0.014859218331326769   -0.0016425816221001337
-0.0024156817615468133   -0.007770358822221836   -0.0013136213231767474
0.0003031090060293552   -0.007729334625276612   -0.0012397376804325485
0.000246185344284627   -0.014859218331326769   -0.0016425816221001337
0.00027713331407037   -0.0076891692921541915   -0.001245280853748617
-0.0024156817615468133   -0.007770358822221836   -0.0013136213231767474
0.000246185344284627   -0.014859218331326769   -0.0016425816221001337
-0.0034439214963981842   -0.014905415235220631   -0.0017107796148162042
-0.003452735070947898   -0.014831866542153257   -0.0017820935155375805
-0.0024156817615468133   -0.007770358822221836   -0.0013136213231767474
0.000246185344284627   -0.014859218331326769   -0.0016425816221001337
-0.003452735070947898   -0.014831866542153257   -0.0017820935155375805
0.00027713331407037   -0.0076891692921541915   -0.001245280853748617
-0.0024156817615468133   -0.007770358822221836   -0.0013136213231767474
-0.0034439214963981842   -0.014905415235220631   -0.0017107796148162042
0.0003031090060293552   -0.007729334625276612   -0.0012397376804325485
-0.002396923864902222   -0.0078115132281992355   -0.001238061675465568
-0.0034439214963981842   -0.014905415235220631   -0.0017107796148162042
0.000246185344284627   -0.014859218331326769   -0.0016425816221001337
0.0003031090060293552   -0.007729334625276612   -0.0012397376804325485
0.0002565511404583782   -0.014861694600510515   -0.0016342845166882108
-0.002396923864902222   -0.0078115132281992355   -0.001238061675465568
0.00032062746157309895   -0.007726833590226852   -0.0012430447422444699
0.0002565511404583782   -0.014861694600510515   -0.0016342845166882108
0.0003031090060293552   -0.007729334625276612   -0.0012397376804325485
-0.002396923864902222   -0.0078115132281992355   -0.001238061675465568
0.0002565511404583782   -0.014861694600510515   -0.0016342845166882108
-0.0034331639899157318   -0.014948624883581153   -0.0016481641661956548
-0.0034439214963981842   -0.014905415235220631   -0.0017107796148162042
-0.002396923864902222   -0.0078115132281992355   -0.001238061675465568
0.0002565511404583782   -0.014861694600510515   -0.0016342845166882108
-0.0034439214963981842   -0.014905415235220631   -0.0017107796148162042
0.0003031090060293552   -0.007729334625276612   -0.0012397376804325485
-0.002396923864902222   -0.0078115132281992355   -0.001238061675465568
-0.0034331639899157318   -0.014948624883581153   -0.0016481641661956548
0.00032062746157309895   -0.007726833590226852   -0.0012430447422444699
-0.002368991162468717   -0.007810528507063822   -0.0011722849617190308
-0.0034331639899157318   -0.014948624883581153   -0.0016481641661956548
0.0002565511404583782   -0.014861694600510515   -0.0016342845166882108
0.00032062746157309895   -0.007726833590226852   -0.0012430447422444699
0.00026409738627934865   -0.014833502966854623   -0.0016349734177776912
-0.002368991162468717   -0.007810528507063822   -0.0011722849617190308
0.0003394126212942373   -0.007680364833916731   -0.0012553418195786592
0.00026409738627934865   -0.014833502966854623   -0.0016349734177776912
0.00032062746157309895   -0.007726833590226852   -0.0012430447422444699
-0.002368991162468717   -0.007810528507063822   -0.0011722849617190308
0.00026409738627934865   -0.014833502966854623   -0.0016349734177776912
-0.003415584121250967   -0.014962113171164138   -0.0015942217988607452
-0.0034331639899157318   -0.014948624883581153   -0.0016481641661956548
-0.002368991162468717   -0.007810528507063822   -0.0011722849617190308
0.00026409738627934865   -0.014833502966854623   -0.0016349734177776912
-0.0034331639899157318   -0.014948624883581153   -0.0016481641661956548
0.00032062746157309895   -0.007726833590226852   -0.0012430447422444699
0.00027713331407037   -0.0076891692921541915   -0.001245280853748617
0.0002301089076170089   -0.014826524426642172   -0.001659350580184456
0.0031532490559524795   -0.007814428103407338   -0.0011745900376763276
0.0003031090060293552   -0.007729334625276612   -0.0012397376804325485
0.0002301089076170089   -0.014826524426642172   -0.001659350580184456
0.004070188490015432   -0.014910494182724445   -0.00160982185542478
0.0031532490559524795   -0.007814428103407338   -0.0011745900376763276
0.004084270062482613   -0.014905734386620269   -0.001648729096603494
0.0003031090060293552   -0.007729334625276612   -0.0012397376804325485
0.003168033076053027   -0.007813992943276563   -0.0012493839472158426
0.004084270062482613   -0.014905734386620269   -0.001648729096603494
0.0031532490559524795   -0.007814428103407338   -0.0011745900376763276
0.0003031090060293552   -0.007729334625276612   -0.0012397376804325485
0.004084270062482613   -0.014905734386620269   -0.001648729096603494
0.000246185344284627   -0.014859218331326769   -0.0016425816221001337
0.0002301089076170089   -0.014826524426642172   -0.001659350580184456
0.0003031090060293552   -0.007729334625276612   -0.0012397376804325485
0.004084270062482613   -0.014905734386620269   -0.001648729096603494
0.0002301089076170089   -0.014826524426642172   -0.001659350580184456
0.0031532490559524795   -0.007814428103407338   -0.0011745900376763276
0.0003031090060293552   -0.007729334625276612   -0.0012397376804325485
0.000246185344284627   -0.014859218331326769   -0.0016425816221001337
0.003168033076053027   -0.007813992943276563   -0.0012493839472158426
0.00032062746157309895   -0.007726833590226852   -0.0012430447422444699
0.000246185344284627   -0.014859218331326769   -0.0016425816221001337
0.004084270062482613   -0.014905734386620269   -0.001648729096603494
0.003168033076053027   -0.007813992943276563   -0.0012493839472158426
0.0040741355135501854   -0.014871412010866072   -0.001695485685918576
0.00032062746157309895   -0.007726833590226852   -0.0012430447422444699
0.0031535615400467413   -0.007771724878324746   -0.0013341908097917144
0.0040741355135501854   -0.014871412010866072   -0.001695485685918576
0.003168033076053027   -0.007813992943276563   -0.0012493839472158426
0.00032062746157309895   -0.007726833590226852   -0.0012430447422444699
0.0040741355135501854   -0.014871412010866072   -0.001695485685918576
0.0002565511404583782   -0.014861694600510515   -0.0016342845166882108
0.000246185344284627   -0.014859218331326769   -0.0016425816221001337
0.00032062746157309895   -0.007726833590226852   -0.0012430447422444699
0.0040741355135501854   -0.014871412010866072   -0.001695485685918576
0.000246185344284627   -0.014859218331326769   -0.0016425816221001337
0.003168033076053027   -0.007813992943276563   -0.0012493839472158426
0.00032062746157309895   -0.007726833590226852   -0.0012430447422444699
0.0002565511404583782   -0.014861694600510515   -0.0016342845166882108
0.0031535615400467413   -0.007771724878324746   -0.0013341908097917144
0.0003394126212942373   -0.007680364833916731   -0.0012553418195786592
0.0002565511404583782   -0.014861694600510515   -0.0016342845166882108
0.0040741355135501854   -0.014871412010866072   -0.001695485685918576
0.0031535615400467413   -0.007771724878324746   -0.0013341908097917144
0.004058837188247246   -0.014800199044122976   -0.001751022159103313
0.0003394126212942373   -0.007680364833916731   -0.0012553418195786592
0.003145329349704783   -0.007676073146512553   -0.00142587233558526
0.004058837188247246   -0.014800199044122976   -0.001751022159103313
0.0031535615400467413   -0.007771724878324746   -0.0013341908097917144
0.0003394126212942373   -0.007680364833916731   -0.0012553418195786592
0.004058837188247246   -0.014800199044122976   -0.001751022159103313
0.00026409738627934865   -0.014833502966854623   -0.0016349734177776912
0.0002565511404583782   -0.014861694600510515   -0.0016342845166882108
0.0003394126212942373   -0.007680364833916731   -0.0012553418195786592
0.004058837188247246   -0.014800199044122976   -0.001751022159103313
0.0002565511404583782   -0.014861694600510515   -0.0016342845166882108
0.0031535615400467413   -0.007771724878324746   -0.0013341908097917144
0.0031532490559524795   -0.007814428103407338   -0.0011745900376763276
0.004070188490015432   -0.014910494182724445   -0.00160982185542478
0.006624119129273021   -0.008047223290467503   -0.0011557366751843224
0.003168033076053027   -0.007813992943276563   -0.0012493839472158426
0.004070188490015432   -0.014910494182724445   -0.00160982185542478
0.008443573145057734   -0.015062753678850013   -0.00161099968821193
0.006624119129273021   -0.008047223290467503   -0.0011557366751843224
0.008370454229388233   -0.015036402496396236   -0.0017127261358389752
0.003168033076053027   -0.007813992943276563   -0.0012493839472158426
0.006489614831581041   -0.008025166274309162   -0.0013240273124251732
0.008370454229388233   -0.015036402496396236   -0.0017127261358389752
0.006624119129273021   -0.008047223290467503   -0.0011557366751843224
0.003168033076053027   -0.007813992943276563   -0.0012493839472158426
0.008370454229388233   -0.015036402496396236   -0.0017127261358389752
0.004084270062482613   -0.014905734386620269   -0.001648729096603494
0.004070188490015432   -0.014910494182724445   -0.00160982185542478
0.003168033076053027   -0.007813992943276563   -0.0012493839472158426
0.008370454229388233   -0.015036402496396236   -0.0017127261358389752
0.004070188490015432   -0.014910494182724445   -0.00160982185542478
0.006624119129273021   -0.008047223290467503   -0.0011557366751843224
0.003168033076053027   -0.007813992943276563   -0.0012493839472158426
0.004084270062482613   -0.014905734386620269   -0.001648729096603494
0.006489614831581041   -0.008025166274309162   -0.0013240273124251732
0.0031535615400467413   -0.007771724878324746   -0.0013341908097917144
0.004084270062482613   -0.014905734386620269   -0.001648729096603494
0.008370454229388233   -0.015036402496396236   -0.0017127261358389752
0.006489614831581041   -0.008025166274309162   -0.0013240273124251732
0.00829741930336959   -0.014983572377645396   -0.0018286071029772779
0.0031535615400467413   -0.007771724878324746   -0.0013341908097917144
0.0063693884155669326   -0.007960013797460804   -0.0015133837620839887
0.00829741930336959   -0.014983572377645396   -0.0018286071029772779
0.006489614831581041   -0.008025166274309162   -0.0013240273124251732
0.0031535615400467413   -0.007771724878324746   -0.0013341908097917144
0.00829741930336959   -0.014983572377645396   -0.0018286071029772779
0.0040741355135501854   -0.014871412010866072   -0.001695485685918576
0.004084270062482613   -0.014905734386620269   -0.001648729096603494
0.0031535615400467413   -0.007771724878324746   -0.0013341908097917144
0.00829741930336959   -0.014983572377645396   -0.0018286071029772779
0.004084270062482613   -0.014905734386620269   -0.001648729096603494
0.006489614831581041   -0.008025166274309162   -0.0013240273124251732
0.0031535615400467413   -0.007771724878324746   -0.0013341908097917144
0.0040741355135501854   -0.014871412010866072   -0.001695485685918576
0.0063693884155669326   -0.007960013797460804   -0.0015133837620839887
0.003145329349704783   -0.007676073146512553   -0.00142587233558526
0.0040741355135501854   -0.014871412010866072   -0.001695485685918576
0.00829741930336959   -0.014983572377645396   -0.0018286071029772779
0.0063693884155669326   -0.007960013797460804   -0.0015133837620839887
0.008167450668984265   -0.014872832225416027   -0.001958657729840469
0.003145329349704783   -0.007676073146512553   -0.00142587233558526
0.0061891223698743655   -0.007815117335513936   -0.0017105169883005814
0.008167450668984265   -0.014872832225416027   -0.001958657729840469
0.0063693884155669326   -0.007960013797460804   -0.0015133837620839887
0.003145329349704783   -0.007676073146512553   -0.00142587233558526
0.008167450668984265   -0.014872832225416027   -0.001958657729840469
0.004058837188247246   -0.014800199044122976   -0.001751022159103313
0.0040741355135501854   -0.014871412010866072   -0.001695485685918576
0.003145329349704783   -0.007676073146512553   -0.00142587233558526
0.008167450668984265   -0.014872832225416027   -0.001958657729840469
0.0040741355135501854   -0.014871412010866072   -0.001695485685918576
0.0063693884155669326   -0.007960013797460804   -0.0015133837620839887
-0.011271661545114008   -0.015133295933137234   -0.0022652190213203302
-0.013458585269917769   -0.023505062642116336   -0.0024160834223246894
-0.007247089176389561   -0.01493216664247903   -0.0019801423978732385
-0.011471861141001929   -0.015290540277549362   -0.0020683480735589357
-0.013458585269917769   -0.023505062642116336   -0.0024160834223246894
-0.008736376873219135   -0.023377147406989245   -0.00218375025839554
-0.007247089176389561   -0.01493216664247903   -0.0019801423978732385
-0.00874667127637857   -0.023476074090145696   -0.0020934817947222332
-0.011471861141001929   -0.015290540277549362   -0.0020683480735589357
-0.007262808952711535   -0.015047216041729186   -0.0018539909316319686
-0.00874667127637857   -0.023476074090145696   -0.0020934817947222332
-0.007247089176389561   -0.01493216664247903   -0.0019801423978732385
-0.011471861141001929   -0.015290540277549362   -0.0020683480735589357
-0.00874667127637857   -0.023476074090145696   -0.0020934817947222332
-0.013593322403198308   -0.023638908589088636   -0.0022854221290855305
-0.013458585269917769   -0.023505062642116336   -0.0024160834223246894
-0.011471861141001929   -0.015290540277549362   -0.0020683480735589357
-0.00874667127637857   -0.023476074090145696   -0.0020934817947222332
-0.013458585269917769   -0.023505062642116336   -0.0024160834223246894
-0.007247089176389561   -0.01493216664247903   -0.0019801423978732385
-0.011471861141001929   -0.015290540277549362   -0.0020683480735589357
-0.013593322403198308   -0.023638908589088636   -0.0022854221290855305
-0.007262808952711535   -0.015047216041729186   -0.0018539909316319686
-0.011597991424086544   -0.015389164965132289   -0.0018848686242315907
-0.013593322403198308   -0.023638908589088636   -0.0022854221290855305
-0.00874667127637857   -0.023476074090145696   -0.0020934817947222332
-0.007262808952711535   -0.015047216041729186   -0.0018539909316319686
-0.008753947115278287   -0.023554523443545493   -0.002012212462670381
-0.011597991424086544   -0.015389164965132289   -0.0018848686242315907
-0.0072813409552913615   -0.015127299238570861   -0.001736975496821314
-0.008753947115278287   -0.023554523443545493   -0.002012212462670381
-0.007262808952711535   -0.015047216041729186   -0.0018539909316319686
-0.011597991424086544   -0.015389164965132289   -0.0018848686242315907
-0.008753947115278287   -0.023554523443545493   -0.002012212462670381
-0.013670527285544683   -0.0237336329771166   -0.002167308144176656
-0.013593322403198308   -0.023638908589088636   -0.0022854221290855305
-0.011597991424086544   -0.015389164965132289   -0.0018848686242315907
-0.008753947115278287   -0.023554523443545493   -0.002012212462670381
-0.013593322403198308   -0.023638908589088636   -0.0022854221290855305
-0.007262808952711535   -0.015047216041729186   -0.0018539909316319686
-0.011597991424086544   -0.015389164965132289   -0.0018848686242315907
-0.013670527285544683   -0.0237336329771166   -0.002167308144176656
-0.0072813409552913615   -0.015127299238570861   -0.001736975496821314
-0.011741501985631217   -0.015460141058666792   -0.0017160331738096917
-0.013670527285544683   -0.0237336329771166   -0.002167308144176656
-0.008753947115278287   -0.023554523443545493   -0.002012212462670381
-0.0072813409552913615   -0.015127299238570861   -0.001736975496821314
-0.008735618434398625   -0.02361900356406475   -0.0019387446081320593
-0.011741501985631217   -0.015460141058666792   -0.0017160331738096917
-0.007267511915053036   -0.015180015624993713   -0.0016271492635224487
-0.008735618434398625   -0.02361900356406475   -0.0019387446081320593
-0.0072813409552913615   -0.015127299238570861   -0.001736975496821314
-0.011741501985631217   -0.015460141058666792   -0.0017160331738096917
-0.008735618434398625   -0.02361900356406475   -0.0019387446081320593
-0.01375003412327098   -0.02381858674091476   -0.0020632341982238355
-0.013670527285544683   -0.0237336329771166   -0.002167308144176656
-0.011741501985631217   -0.015460141058666792   -0.0017160331738096917
-0.008735618434398625   -0.02361900356406475   -0.0019387446081320593
-0.013670527285544683   -0.0237336329771166   -0.002167308144176656
-0.0072813409552913615   -0.015127299238570861   -0.001736975496821314
-0.007247089176389561   -0.01493216664247903   -0.0019801423978732385
-0.008736376873219135   -0.023377147406989245   -0.00218375025839554
-0.003452735070947898   -0.014831866542153257   -0.0017820935155375805
-0.007262808952711535   -0.015047216041729186   -0.0018539909316319686
-0.008736376873219135   -0.023377147406989245   -0.00218375025839554
-0.004309612190314882   -0.02331099271436853   -0.0020228804050315833
-0.003452735070947898   -0.014831866542153257   -0.0017820935155375805
-0.004301216962746143   -0.023373050535466348   -0.001963256389115466
-0.007262808952711535   -0.015047216041729186   -0.0018539909316319686
-0.0034439214963981842   -0.014905415235220631   -0.0017107796148162042
-0.004301216962746143   -0.023373050535466348   -0.001963256389115466
-0.003452735070947898   -0.014831866542153257   -0.0017820935155375805
-0.007262808952711535   -0.015047216041729186   -0.0018539909316319686
-0.004301216962746143   -0.023373050535466348   -0.001963256389115466
-0.00874667127637857   -0.023476074090145696   -0.0020934817947222332
-0.008736376873219135   -0.023377147406989245   -0.00218375025839554
-0.007262808952711535   -0.015047216041729186   -0.0018539909316319686
-0.004301216962746143   -0.023373050535466348   -0.001963256389115466
-0.008736376873219135   -0.023377147406989245   -0.00218375025839554
-0.003452735070947898   -0.014831866542153257   -0.0017820935155375805
-0.007262808952711535   -0.015047216041729186   -0.0018539909316319686
-0.00874667127637857   -0.023476074090145696   -0.0020934817947222332
-0.0034439214963981842   -0.014905415235220631   -0.0017107796148162042
-0.0072813409552913615   -0.015127299238570861   -0.001736975496821314
-0.00874667127637857   -0.023476074090145696   -0.0020934817947222332
-0.004301216962746143   -0.023373050535466348   -0.001963256389115466
-0.0034439214963981842   -0.014905415235220631   -0.0017107796148162042
-0.004289827854203624   -0.02341794645265724   -0.0019124951047578627
-0.0072813409552913615   -0.015127299238570861   -0.001736975496821314
-0.0034331639899157318   -0.014948624883581153   -0.0016481641661956548
-0.004289827854203624   -0.02341794645265724   -0.0019124951047578627
-0.0034439214963981842   -0.014905415235220631   -0.0017107796148162042
-0.0072813409552913615   -0.015127299238570861   -0.001736975496821314
-0.004289827854203624   -0.02341794645265724   -0.0019124951047578627
-0.008753947115278287   -0.023554523443545493   -0.002012212462670381
-0.00874667127637857   -0.023476074090145696   -0.0020934817947222332
-0.0072813409552913615   -0.015127299238570861   -0.001736975496821314
-0.004289827854203624   -0.02341794645265724   -0.0019124951047578627
-0.00874667127637857   -0.023476074090145696   -0.0020934817947222332
-0.0034439214963981842   -0.014905415235220631   -0.0017107796148162042
-0.0072813409552913615   -0.015127299238570861   -0.001736975496821314
-0.008753947115278287   -0.023554523443545493   -0.002012212462670381
-0.0034331639899157318   -0.014948624883581153   -0.0016481641661956548
-0.007267511915053036   -0.015180015624993713   -0.0016271492635224487
-0.008753947115278287   -0.023554523443545493   -0.002012212462670381
-0.004289827854203624   -0.02341794645265724   -0.0019124951047578627
-0.0034331639899157318   -0.014948624883581153   -0.0016481641661956548
-0.004272936660440626   -0.02344597500099832   -0.0018707442440906222
-0.007267511915053036   -0.015180015624993713   -0.0016271492635224487
-0.003415584121250967   -0.014962113171164138   -0.0015942217988607452
-0.004272936660440626   -0.02344597500099832   -0.0018707442440906222
-0.0034331639899157318   -0.014948624883581153   -0.0016481641661956548
-0.007267511915053036   -0.015180015624993713   -0.0016271492635224487
-0.004272936660440626   -0.02344597500099832   -0.0018707442440906222
-0.008735618434398625   -0.02361900356406475   -0.0019387446081320593
-0.008753947115278287   -0.023554523443545493   -0.002012212462670381
-0.007267511915053036   -0.015180015624993713   -0.0016271492635224487
-0.004272936660440626   -0.02344597500099832   -0.0018707442440906222
-0.008753947115278287   -0.023554523443545493   -0.002012212462670381
-0.0034331639899157318   -0.014948624883581153   -0.0016481641661956548
-0.003452735070947898   -0.014831866542153257   -0.0017820935155375805
-0.004309612190314882   -0.02331099271436853   -0.0020228804050315833
0.0002301089076170089   -0.014826524426642172   -0.001659350580184456
-0.0034439214963981842   -0.014905415235220631   -0.0017107796148162042
-0.004309612190314882   -0.02331099271436853   -0.0020228804050315833
-3.111057610516779e-06   -0.023299589413743785   -0.0019292435162451067
0.0002301089076170089   -0.014826524426642172   -0.001659350580184456
1.2519038613114427e-05   -0.023324572837340254   -0.0019005048046867629
-0.0034439214963981842   -0.014905415235220631   -0.0017107796148162042
0.000246185344284627   -0.014859218331326769   -0.0016425816221001337
1.2519038613114427e-05   -0.023324572837340254   -0.0019005048046867629
0.0002301089076170089   -0.014826524426642172   -0.001659350580184456
-0.0034439214963981842   -0.014905415235220631   -0.0017107796148162042
1.2519038613114427e-05   -0.023324572837340254   -0.0019005048046867629
-0.004301216962746143   -0.023373050535466348   -0.001963256389115466
-0.004309612190314882   -0.02331099271436853   -0.0020228804050315833
-0.0034439214963981842   -0.014905415235220631   -0.0017107796148162042
1.2519038613114427e-05   -0.023324572837340254   -0.0019005048046867629
-0.004309612190314882   -0.02331099271436853   -0.0020228804050315833
0.0002301089076170089   -0.014826524426642172   -0.001659350580184456
-0.0034439214963981842   -0.014905415235220631   -0.0017107796148162042
-0.004301216962746143   -0.023373050535466348   -0.001963256389115466
0.000246185344284627   -0.014859218331326769   -0.0016425816221001337
-0.0034331639899157318   -0.014948624883581153   -0.0016481641661956548
-0.004301216962746143   -0.023373050535466348   -0.001963256389115466
1.2519038613114427e-05   -0.023324572837340254   -0.0019005048046867629
0.000246185344284627   -0.014859218331326769   -0.0016425816221001337
2.3704264011368593e-05   -0.023332275748992243   -0.0018805172835795237
-0.0034331639899157318   -0.014948624883581153   -0.0016481641661956548
0.0002565511404583782   -0.014861694600510515   -0.0016342845166882108
2.3704264011368593e-05   -0.023332275748992243   -0.0018805172835795237
0.000246185344284627   -0.014859218331326769   -0.0016425816221001337
-0.0034331639899157318   -0.014948624883581153   -0.0016481641661956548
2.3704264011368593e-05   -0.023332275748992243   -0.0018805172835795237
-0.004289827854203624   -0.02341794645265724   -0.0019124951047578627
-0.004301216962746143   -0.023373050535466348   -0.001963256389115466
-0.0034331639899157318   -0.014948624883581153   -0.0016481641661956548
2.3704264011368593e-05   -0.023332275748992243   -0.0018805172835795237
-0.004301216962746143   -0.023373050535466348   -0.001963256389115466
0.000246185344284627   -0.014859218331326769   -0.0016425816221001337
-0.0034331639899157318   -0.014948624883581153   -0.0016481641661956548
-0.004289827854203624   -0.02341794645265724   -0.0019124951047578627
0.0002565511404583782   -0.014861694600510515   -0.0016342845166882108
-0.003415584121250967   -0.014962113171164138   -0.0015942217988607452
-0.004289827854203624   -0.02341794645265724   -0.0019124951047578627
2.3704264011368593e-05   -0.023332275748992243   -0.0018805172835795237
0.0002565511404583782   -0.014861694600510515   -0.0016342845166882108
3.0884051717458716e-05   -0.023322461012193773   -0.0018696675479391988
-0.003415584121250967   -0.014962113171164138   -0.0015942217988607452
0.00026409738627934865   -0.014833502966854623   -0.0016349734177776912
3.0884051717458716e-05   -0.023322461012193773   -0.0018696675479391988
0.0002565511404583782   -0.014861694600510515   -0.0016342845166882108
-0.003415584121250967   -0.014962113171164138   -0.0015942217988607452
3.0884051717458716e-05   -0.023322461012193773   -0.0018696675479391988
-0.004272936660440626   -0.02344597500099832   -0.0018707442440906222
-0.004289827854203624   -0.02341794645265724   -0.0019124951047578627
-0.003415584121250967   -0.014962113171164138   -0.0015942217988607452
3.0884051717458716e-05   -0.023322461012193773   -0.0018696675479391988
-0.004289827854203624   -0.02341794645265724   -0.0019124951047578627
0.0002565511404583782   -0.014861694600510515   -0.0016342845166882108
0.0002301089076170089   -0.014826524426642172   -0.001659350580184456
-3.111057610516779e-06   -0.023299589413743785   -0.0019292435162451067
0.004070188490015432   -0.014910494182724445   -0.00160982185542478
0.000246185344284627   -0.014859218331326769   -0.0016425816221001337
-3.111057610516779e-06   -0.023299589413743785   -0.0019292435162451067
0.004451494549357324   -0.02333825485512435   -0.0019024699937952062
0.004070188490015432   -0.014910494182724445   -0.00160982185542478
0.004470591719396199   -0.02332831241629785   -0.0019052658378572755
0.000246185344284627   -0.014859218331326769   -0.0016425816221001337
0.004084270062482613   -0.014905734386620269   -0.001648729096603494
0.004470591719396199   -0.02332831241629785   -0.0019052658378572755
0.004070188490015432   -0.014910494182724445   -0.00160982185542478
0.000246185344284627   -0.014859218331326769   -0.0016425816221001337
0.004470591719396199   -0.02332831241629785   -0.0019052658378572755
1.2519038613114427e-05   -0.023324572837340254   -0.0019005048046867629
-3.111057610516779e-06   -0.023299589413743785   -0.0019292435162451067
0.000246185344284627   -0.014859218331326769   -0.0016425816221001337
0.004470591719396199   -0.02332831241629785   -0.0019052658378572755
-3.111057610516779e-06   -0.023299589413743785   -0.0019292435162451067
0.004070188490015432   -0.014910494182724445   -0.00160982185542478
0.000246185344284627   -0.014859218331326769   -0.0016425816221001337
1.2519038613114427e-05   -0.023324572837340254   -0.0019005048046867629
0.004084270062482613   -0.014905734386620269   -0.001648729096603494
0.0002565511404583782   -0.014861694600510515   -0.0016342845166882108
1.2519038613114427e-05   -0.023324572837340254   -0.0019005048046867629
0.004470591719396199   -0.02332831241629785   -0.0019052658378572755
0.004084270062482613   -0.014905734386620269   -0.001648729096603494
0.004472292305345812   -0.023302420493676004   -0.0019163411885228395
0.0002565511404583782   -0.014861694600510515   -0.0016342845166882108
0.0040741355135501854   -0.014871412010866072   -0.001695485685918576
0.004472292305345812   -0.023302420493676004   -0.0019163411885228395
0.004084270062482613   -0.014905734386620269   -0.001648729096603494
0.0002565511404583782   -0.014861694600510515   -0.0016342845166882108
0.004472292305345812   -0.023302420493676004   -0.0019163411885228395
2.3704264011368593e-05   -0.023332275748992243   -0.0018805172835795237
1.2519038613114427e-05   -0.023324572837340254   -0.0019005048046867629
0.0002565511404583782   -0.014861694600510515   -0.0016342845166882108
0.004472292305345812   -0.023302420493676004   -0.0019163411885228395
1.2519038613114427e-05   -0.023324572837340254   -0.0019005048046867629
0.004084270062482613   -0.014905734386620269   -0.001648729096603494
0.0002565511404583782   -0.014861694600510515   -0.0016342845166882108
2.3704264011368593e-05   -0.023332275748992243   -0.0018805172835795237
0.0040741355135501854   -0.014871412010866072   -0.001695485685918576
0.00026409738627934865   -0.014833502966854623   -0.0016349734177776912
2.3704264011368593e-05   -0.023332275748992243   -0.0018805172835795237
0.004472292305345812   -0.023302420493676004   -0.0019163411885228395
0.0040741355135501854   -0.014871412010866072   -0.001695485685918576
0.004462789918417776   -0.023254107046257754   -0.0019360121312271244
0.00026409738627934865   -0.014833502966854623   -0.0016349734177776912
0.004058837188247246   -0.014800199044122976   -0.001751022159103313
0.004462789918417776   -0.023254107046257754   -0.0019360121312271244
0.0040741355135501854   -0.014871412010866072   -0.001695485685918576
0.00026409738627934865   -0.014833502966854623   -0.0016349734177776912
0.004462789918417776   -0.023254107046257754   -0.0019360121312271244
3.0884051717458716e-05   -0.023322461012193773   -0.0018696675479391988
2.3704264011368593e-05   -0.023332275748992243   -0.0018805172835795237
0.00026409738627934865   -0.014833502966854623   -0.0016349734177776912
0.004462789918417776   -0.023254107046257754   -0.0019360121312271244
2.3704264011368593e-05   -0.023332275748992243   -0.0018805172835795237
0.0040741355135501854   -0.014871412010866072   -0.001695485685918576
0.004070188490015432   -0.014910494182724445   -0.00160982185542478
0.004451494549357324   -0.02333825485512435   -0.0019024699937952062
0.008443573145057734   -0.015062753678850013   -0.00161099968821193
0.004084270062482613   -0.014905734386620269   -0.001648729096603494
0.004451494549357324   -0.02333825485512435   -0.0019024699937952062
0.009370452874163887   -0.023409273845290166   -0.0019279981752426153
0.008443573145057734   -0.015062753678850013   -0.00161099968821193
0.009362210621110794   -0.023375668290413126   -0.0019647944759422437
0.004084270062482613   -0.014905734386620269   -0.001648729096603494
0.008370454229388233   -0.015036402496396236   -0.0017127261358389752
0.009362210621110794   -0.023375668290413126   -0.0019647944759422437
0.008443573145057734   -0.015062753678850013   -0.00161099968821193
0.004084270062482613   -0.014905734386620269   -0.001648729096603494
0.009362210621110794   -0.023375668290413126   -0.0019647944759422437
0.004470591719396199   -0.02332831241629785   -0.0019052658378572755
0.004451494549357324   -0.02333825485512435   -0.0019024699937952062
0.004084270062482613   -0.014905734386620269   -0.001648729096603494
0.009362210621110794   -0.023375668290413126   -0.0019647944759422437
0.004451494549357324   -0.02333825485512435   -0.0019024699937952062
0.008443573145057734   -0.015062753678850013   -0.00161099968821193
0.004084270062482613   -0.014905734386620269   -0.001648729096603494
0.004470591719396199   -0.02332831241629785   -0.0019052658378572755
0.008370454229388233   -0.015036402496396236   -0.0017127261358389752
0.0040741355135501854   -0.014871412010866072   -0.001695485685918576
0.004470591719396199   -0.02332831241629785   -0.0019052658378572755
0.009362210621110794   -0.023375668290413126   -0.0019647944759422437
0.008370454229388233   -0.015036402496396236   -0.0017127261358389752
0.009339122545244154   -0.02333344641064682   -0.0020150253002150123
0.0040741355135501854   -0.014871412010866072   -0.001695485685918576
0.00829741930336959   -0.014983572377645396   -0.0018286071029772779
0.009339122545244154   -0.02333344641064682   -0.0020150253002150123
0.008370454229388233   -0.015036402496396236   -0.0017127261358389752
0.0040741355135501854   -0.014871412010866072   -0.001695485685918576
0.009339122545244154   -0.02333344641064682   -0.0020150253002150123
0.004472292305345812   -0.023302420493676004   -0.0019163411885228395
0.004470591719396199   -0.02332831241629785   -0.0019052658378572755
0.0040741355135501854   -0.014871412010866072   -0.001695485685918576
0.009339122545244154   -0.02333344641064682   -0.0020150253002150123
0.004470591719396199   -0.02332831241629785   -0.0019052658378572755
0.008370454229388233   -0.015036402496396236   -0.0017127261358389752
0.0040741355135501854   -0.014871412010866072   -0.001695485685918576
0.004472292305345812   -0.023302420493676004   -0.0019163411885228395
0.00829741930336959   -0.014983572377645396   -0.0018286071029772779
0.004058837188247246   -0.014800199044122976   -0.001751022159103313
0.004472292305345812   -0.023302420493676004   -0.0019163411885228395
0.009339122545244154   -0.02333344641064682   -0.0020150253002150123
0.00829741930336959   -0.014983572377645396   -0.0018286071029772779
0.009275545124410497   -0.02325304264813858   -0.0020785931991171053
0.004058837188247246   -0.014800199044122976   -0.001751022159103313
0.008167450668984265   -0.014872832225416027   -0.001958657729840469
0.009275545124410497   -0.02325304264813858   -0.0020785931991171053
0.00829741930336959   -0.014983572377645396   -0.0018286071029772779
0.004058837188247246   -0.014800199044122976   -0.001751022159103313
0.009275545124410497   -0.02325304264813858   -0.0020785931991171053
0.004462789918417776   -0.023254107046257754   -0.0019360121312271244
0.004472292305345812   -0.023302420493676004   -0.0019163411885228395
0.004058837188247246   -0.014800199044122976   -0.001751022159103313
0.009275545124410497   -0.02325304264813858   -0.0020785931991171053
0.004472292305345812   -0.023302420493676004   -0.0019163411885228395
0.00829741930336959   -0.014983572377645396   -0.0018286071029772779
-0.013458585269917769   -0.023505062642116336   -0.0024160834223246894
-0.014781849440580558   -0.032615891949357476   -0.002460645009952455
-0.008736376873219135   -0.023377147406989245   -0.00218375025839554
-0.013593322403198308   -0.023638908589088636   -0.0022854221290855305
-0.014781849440580558   -0.032615891949357476   -0.002460645009952455
-0.00971382838768235   -0.03256381325134514   -0.0022756709197783984
-0.008736376873219135   -0.023377147406989245   -0.00218375025839554
-0.009709767639789143   -0.032648157738654926   -0.002220324618083622
-0.013593322403198308   -0.023638908589088636   -0.0022854221290855305
-0.00874667127637857   -0.023476074090145696   -0.0020934817947222332
-0.009709767639789143   -0.032648157738654926   -0.002220324618083622
-0.008736376873219135   -0.023377147406989245   -0.00218375025839554
-0.013593322403198308   -0.023638908589088636   -0.0022854221290855305
-0.009709767639789143   -0.032648157738654926   -0.002220324618083622
-0.014844637202981502   -0.032729284697105496   -0.002393328090397445
-0.014781849440580558   -0.032615891949357476   -0.002460645009952455
-0.013593322403198308   -0.023638908589088636   -0.0022854221290855305
-0.009709767639789143   -0.032648157738654926   -0.002220324618083622
-0.014781849440580558   -0.032615891949357476   -0.002460645009952455
-0.008736376873219135   -0.023377147406989245   -0.00218375025839554
-0.013593322403198308   -0.023638908589088636   -0.0022854221290855305
-0.014844637202981502   -0.032729284697105496   -0.002393328090397445
-0.00874667127637857   -0.023476074090145696   -0.0020934817947222332
-0.013670527285544683   -0.0237336329771166   -0.002167308144176656
-0.014844637202981502   -0.032729284697105496   -0.002393328090397445
-0.009709767639789143   -0.032648157738654926   -0.002220324618083622
-0.00874667127637857   -0.023476074090145696   -0.0020934817947222332
-0.009696548801316396   -0.03272599373518707   -0.0021741692220362827
-0.013670527285544683   -0.0237336329771166   -0.002167308144176656
-0.008753947115278287   -0.023554523443545493   -0.002012212462670381
-0.009696548801316396   -0.03272599373518707   -0.0021741692220362827
-0.00874667127637857   -0.023476074090145696   -0.0020934817947222332
-0.013670527285544683   -0.0237336329771166   -0.002167308144176656
-0.009696548801316396   -0.03272599373518707   -0.0021741692220362827
-0.014864469736748912   -0.0328218047664909   -0.0023392390555832462
-0.014844637202981502   -0.032729284697105496   -0.002393328090397445
-0.013670527285544683   -0.0237336329771166   -0.002167308144176656
-0.009696548801316396   -0.03272599373518707   -0.0021741692220362827
-0.014844637202981502   -0.032729284697105496   -0.002393328090397445
-0.00874667127637857   -0.023476074090145696   -0.0020934817947222332
-0.013670527285544683   -0.0237336329771166   -0.002167308144176656
-0.014864469736748912   -0.0328218047664909   -0.0023392390555832462
-0.008753947115278287   -0.023554523443545493   -0.002012212462670381
-0.01375003412327098   -0.02381858674091476   -0.0020632341982238355
-0.014864469736748912   -0.0328218047664909   -0.0023392390555832462
-0.009696548801316396   -0.03272599373518707   -0.0021741692220362827
-0.008753947115278287   -0.023554523443545493   -0.002012212462670381
-0.0096642745275731   -0.03280325701250866   -0.0021365582965945924
-0.01375003412327098   -0.02381858674091476   -0.0020632341982238355
-0.008735618434398625   -0.02361900356406475   -0.0019387446081320593
-0.0096642745275731   -0.03280325701250866   -0.0021365582965945924
-0.008753947115278287   -0.023554523443545493   -0.002012212462670381
-0.01375003412327098   -0.02381858674091476   -0.0020632341982238355
-0.0096642745275731   -0.03280325701250866   -0.0021365582965945924
-0.014870925780608208   -0.03292233193822244   -0.0022995167527600714
-0.014864469736748912   -0.0328218047664909   -0.0023392390555832462
-0.01375003412327098   -0.02381858674091476   -0.0020632341982238355
-0.0096642745275731   -0.03280325701250866   -0.0021365582965945924
-0.014864469736748912   -0.0328218047664909   -0.0023392390555832462
-0.008753947115278287   -0.023554523443545493   -0.002012212462670381
-0.008736376873219135   -0.023377147406989245   -0.00218375025839554
-0.00971382838768235   -0.03256381325134514   -0.0022756709197783984
-0.004309612190314882   -0.02331099271436853   -0.0020228804050315833
-0.00874667127637857   -0.023476074090145696   -0.0020934817947222332
-0.00971382838768235   -0.03256381325134514   -0.0022756709197783984
-0.005006038431262545   -0.03253387388601785   -0.0021497494674840483
-0.004309612190314882   -0.02331099271436853   -0.0020228804050315833
-0.004988258780026986   -0.032584905964880354   -0.002101460334892267
-0.00874667127637857   -0.023476074090145696   -0.0020934817947222332
-0.004301216962746143   -0.023373050535466348   -0.001963256389115466
-0.004988258780026986   -0.032584905964880354   -0.002101460334892267
-0.004309612190314882   -0.02331099271436853   -0.0020228804050315833
-0.00874667127637857   -0.023476074090145696   -0.0020934817947222332
-0.004988258780026986   -0.032584905964880354   -0.002101460334892267
-0.009709767639789143   -0.032648157738654926   -0.002220324618083622
-0.00971382838768235   -0.03256381325134514   -0.0022756709197783984
-0.00874667127637857   -0.023476074090145696   -0.0020934817947222332
-0.004988258780026986   -0.032584905964880354   -0.002101460334892267
-0.00971382838768235   -0.03256381325134514   -0.0022756709197783984
-0.004309612190314882   -0.02331099271436853   -0.0020228804050315833
-0.00874667127637857   -0.023476074090145696   -0.0020934817947222332
-0.009709767639789143   -0.032648157738654926   -0.002220324618083622
-0.004301216962746143   -0.023373050535466348   -0.001963256389115466
-0.008753947115278287   -0.023554523443545493   -0.002012212462670381
-0.009709767639789143   -0.032648157738654926   -0.002220324618083622
-0.004988258780026986   -0.032584905964880354   -0.002101460334892267
-0.004301216962746143   -0.023373050535466348   -0.001963256389115466
-0.004966503407962054   -0.0326317604154261   -0.0020623684487367047
-0.008753947115278287   -0.023554523443545493   -0.002012212462670381
-0.004289827854203624   -0.02341794645265724   -0.0019124951047578627
-0.004966503407962054   -0.0326317604154261   -0.0020623684487367047
-0.004301216962746143   -0.023373050535466348   -0.001963256389115466
-0.008753947115278287   -0.023554523443545493   -0.002012212462670381
-0.004966503407962054   -0.0326317604154261   -0.0020623684487367047
-0.009696548801316396   -0.03272599373518707   -0.0021741692220362827
-0.009709767639789143   -0.032648157738654926   -0.002220324618083622
-0.008753947115278287   -0.023554523443545493   -0.002012212462670381
-0.004966503407962054   -0.0326317604154261   -0.0020623684487367047
-0.009709767639789143   -0.032648157738654926   -0.002220324618083622
-0.004301216962746143   -0.023373050535466348   -0.001963256389115466
-0.008753947115278287   -0.023554523443545493   -0.002012212462670381
-0.009696548801316396   -0.03272599373518707   -0.0021741692220362827
-0.004289827854203624   -0.02341794645265724   -0.0019124951047578627
-0.008735618434398625   -0.02361900356406475   -0.0019387446081320593
-0.009696548801316396   -0.03272599373518707   -0.0021741692220362827
-0.004966503407962054   -0.0326317604154261   -0.0020623684487367047
-0.004289827854203624   -0.02341794645265724   -0.0019124951047578627
-0.0049403990888142015   -0.03267459176303788   -0.0020326960823944134
-0.008735618434398625   -0.02361900356406475   -0.0019387446081320593
-0.004272936660440626   -0.02344597500099832   -0.0018707442440906222
-0.0049403990888142015   -0.03267459176303788   -0.0020326960823944134
-0.004289827854203624   -0.02341794645265724   -0.0019124951047578627
-0.008735618434398625   -0.02361900356406475   -0.0019387446081320593
-0.0049403990888142015   -0.03267459176303788   -0.0020326960823944134
-0.0096642745275731   -0.03280325701250866   -0.0021365582965945924
-0.009696548801316396   -0.03272599373518707   -0.0021741692220362827
-0.008735618434398625   -0.02361900356406475   -0.0019387446081320593
-0.0049403990888142015   -0.03267459176303788   -0.0020326960823944134
-0.009696548801316396   -0.03272599373518707   -0.0021741692220362827
-0.004289827854203624   -0.02341794645265724   -0.0019124951047578627
-0.004309612190314882   -0.02331099271436853   -0.0020228804050315833
-0.005006038431262545   -0.03253387388601785   -0.0021497494674840483
-3.111057610516779e-06   -0.023299589413743785   -0.0019292435162451067
-0.004301216962746143   -0.023373050535466348   -0.001963256389115466
-0.005006038431262545   -0.03253387388601785   -0.0021497494674840483
-0.0004256506249698742   -0.03251668842942078   -0.0020846789623921833
-3.111057610516779e-06   -0.023299589413743785   -0.0019292435162451067
-0.00040087829973905467   -0.03253378421027782   -0.0020439323092817504
-0.004301216962746143   -0.023373050535466348   -0.001963256389115466
1.2519038613114427e-05   -0.023324572837340254   -0.0019005048046867629
-0.00040087829973905467   -0.03253378421027782   -0.0020439323092817504
-3.111057610516779e-06   -0.023299589413743785   -0.0019292435162451067
-0.004301216962746143   -0.023373050535466348   -0.001963256389115466
-0.00040087829973905467   -0.03253378421027782   -0.0020439323092817504
-0.004988258780026986   -0.032584905964880354   -0.002101460334892267
-0.005006038431262545   -0.03253387388601785   -0.0021497494674840483
-0.004301216962746143   -0.023373050535466348   -0.001963256389115466
-0.00040087829973905467   -0.03253378421027782   -0.0020439323092817504
-0.005006038431262545   -0.03253387388601785   -0.0021497494674840483
-3.111057610516779e-06   -0.023299589413743785   -0.0019292435162451067
-0.004301216962746143   -0.023373050535466348   -0.001963256389115466
-0.004988258780026986   -0.032584905964880354   -0.002101460334892267
1.2519038613114427e-05   -0.023324572837340254   -0.0019005048046867629
-0.004289827854203624   -0.02341794645265724   -0.0019124951047578627
-0.004988258780026986   -0.032584905964880354   -0.002101460334892267
-0.00040087829973905467   -0.03253378421027782   -0.0020439323092817504
1.2519038613114427e-05   -0.023324572837340254   -0.0019005048046867629
-0.0003794006289982989   -0.032546405385530615   -0.002012304570060577
-0.004289827854203624   -0.02341794645265724   -0.0019124951047578627
2.3704264011368593e-05   -0.023332275748992243   -0.0018805172835795237
-0.0003794006289982989   -0.032546405385530615   -0.002012304570060577
1.2519038613114427e-05   -0.023324572837340254   -0.0019005048046867629
-0.004289827854203624   -0.02341794645265724   -0.0019124951047578627
-0.0003794006289982989   -0.032546405385530615   -0.002012304570060577
-0.004966503407962054   -0.0326317604154261   -0.0020623684487367047
-0.004988258780026986   -0.032584905964880354   -0.002101460334892267
-0.004289827854203624   -0.02341794645265724   -0.0019124951047578627
-0.0003794006289982989   -0.032546405385530615   -0.002012304570060577
-0.004988258780026986   -0.032584905964880354   -0.002101460334892267
1.2519038613114427e-05   -0.023324572837340254   -0.0019005048046867629
-0.004289827854203624   -0.02341794645265724   -0.0019124951047578627
-0.004966503407962054   -0.0326317604154261   -0.0020623684487367047
2.3704264011368593e-05   -0.023332275748992243   -0.0018805172835795237
-0.004272936660440626   -0.02344597500099832   -0.0018707442440906222
-0.004966503407962054   -0.0326317604154261   -0.0020623684487367047
-0.0003794006289982989   -0.032546405385530615   -0.002012304570060577
2.3704264011368593e-05   -0.023332275748992243   -0.0018805172835795237
-0.0003629758100200887   -0.03255448645162941   -0.00199012757072042
-0.004272936660440626   -0.02344597500099832   -0.0018707442440906222
3.0884051717458716e-05   -0.023322461012193773   -0.0018696675479391988
-0.0003629758100200887   -0.03255448645162941   -0.00199012757072042
2.3704264011368593e-05   -0.023332275748992243   -0.0018805172835795237
-0.004272936660440626   -0.02344597500099832   -0.0018707442440906222
-0.0003629758100200887   -0.03255448645162941   -0.00199012757072042
-0.0049403990888142015   -0.03267459176303788   -0.0020326960823944134
-0.004966503407962054   -0.0326317604154261   -0.0020623684487367047
-0.004272936660440626   -0.02344597500099832   -0.0018707442440906222
-0.0003629758100200887   -0.03255448645162941   -0.00199012757072042
-0.004966503407962054   -0.0326317604154261   -0.0020623684487367047
2.3704264011368593e-05   -0.023332275748992243   -0.0018805172835795237
-3.111057610516779e-06   -0.023299589413743785   -0.0019292435162451067
-0.0004256506249698742   -0.03251668842942078   -0.0020846789623921833
0.004451494549357324   -0.02333825485512435   -0.0019024699937952062
1.2519038613114427e-05   -0.023324572837340254   -0.0019005048046867629
-0.0004256506249698742   -0.03251668842942078   -0.0020846789623921833
0.004294489799892857   -0.03250929457441668   -0.002081040844053714
0.004451494549357324   -0.02333825485512435   -0.0019024699937952062
0.004327262992133158   -0.032493512091174785   -0.0020482138212575504
1.2519038613114427e-05   -0.023324572837340254   -0.0019005048046867629
0.004470591719396199   -0.02332831241629785   -0.0019052658378572755
0.004327262992133158   -0.032493512091174785   -0.0020482138212575504
0.004451494549357324   -0.02333825485512435   -0.0019024699937952062
1.2519038613114427e-05   -0.023324572837340254   -0.0019005048046867629
0.004327262992133158   -0.032493512091174785   -0.0020482138212575504
-0.00040087829973905467   -0.03253378421027782   -0.0020439323092817504
-0.0004256506249698742   -0.03251668842942078   -0.0020846789623921833
1.2519038613114427e-05   -0.023324572837340254   -0.0019005048046867629
0.004327262992133158   -0.032493512091174785   -0.0020482138212575504
-0.0004256506249698742   -0.03251668842942078   -0.0020846789623921833
0.004451494549357324   -0.02333825485512435   -0.0019024699937952062
1.2519038613114427e-05   -0.023324572837340254   -0.0019005048046867629
-0.00040087829973905467   -0.03253378421027782   -0.0020439323092817504
0.004470591719396199   -0.02332831241629785   -0.0019052658378572755
2.3704264011368593e-05   -0.023332275748992243   -0.0018805172835795237
-0.00040087829973905467   -0.03253378421027782   -0.0020439323092817504
0.004327262992133158   -0.032493512091174785   -0.0020482138212575504
0.004470591719396199   -0.02332831241629785   -0.0019052658378572755
0.004349295014859082   -0.03247515575652841   -0.0020242435745454574
2.3704264011368593e-05   -0.023332275748992243   -0.0018805172835795237
0.004472292305345812   -0.023302420493676004   -0.0019163411885228395
0.004349295014859082   -0.03247515575652841   -0.0020242435745454574
0.004470591719396199   -0.02332831241629785   -0.0019052658378572755
2.3704264011368593e-05   -0.023332275748992243   -0.0018805172835795237
0.004349295014859082   -0.03247515575652841   -0.0020242435745454574
-0.0003794006289982989   -0.032546405385530615   -0.002012304570060577
-0.00040087829973905467   -0.03253378421027782   -0.0020439323092817504
2.3704264011368593e-05   -0.023332275748992243   -0.0018805172835795237
0.004349295014859082   -0.03247515575652841   -0.0020242435745454574
-0.00040087829973905467   -0.03253378421027782   -0.0020439323092817504
0.004470591719396199   -0.02332831241629785   -0.0019052658378572755
2.3704264011368593e-05   -0.023332275748992243   -0.0018805172835795237
-0.0003794006289982989   -0.032546405385530615   -0.002012304570060577
0.004472292305345812   -0.023302420493676004   -0.0019163411885228395
3.0884051717458716e-05   -0.023322461012193773   -0.0018696675479391988
-0.0003794006289982989   -0.032546405385530615   -0.002012304570060577
0.004349295014859082   -0.03247515575652841   -0.0020242435745454574
0.004472292305345812   -0.023302420493676004   -0.0019163411885228395
0.004353983516742286   -0.032448216271277676   -0.002008949052192623
3.0884051717458716e-05   -0.023322461012193773   -0.0018696675479391988
0.004462789918417776   -0.023254107046257754   -0.0019360121312271244
0.004353983516742286   -0.032448216271277676   -0.002008949052192623
0.004472292305345812   -0.023302420493676004   -0.0019163411885228395
3.0884051717458716e-05   -0.023322461012193773   -0.0018696675479391988
0.004353983516742286   -0.032448216271277676   -0.002008949052192623
-0.0003629758100200887   -0.03255448645162941   -0.00199012757072042
-0.0003794006289982989   -0.032546405385530615   -0.002012304570060577
3.0884051717458716e-05   -0.023322461012193773   -0.0018696675479391988
0.004353983516742286   -0.032448216271277676   -0.002008949052192623
-0.0003794006289982989   -0.032546405385530615   -0.002012304570060577
0.004472292305345812   -0.023302420493676004   -0.0019163411885228395
0.004451494549357324   -0.02333825485512435   -0.0019024699937952062
0.004294489799892857   -0.03250929457441668   -0.002081040844053714
0.009370452874163887   -0.023409273845290166   -0.0019279981752426153
0.004470591719396199   -0.02332831241629785   -0.0019052658378572755
0.004294489799892857   -0.03250929457441668   -0.002081040844053714
0.009409518382170547   -0.03249898795258652   -0.0021327130337863557
0.009370452874163887   -0.023409273845290166   -0.0019279981752426153
0.009473609264260087   -0.0324572121987034   -0.002105725170635097
0.004470591719396199   -0.02332831241629785   -0.0019052658378572755
0.009362210621110794   -0.023375668290413126   -0.0019647944759422437
0.009473609264260087   -0.0324572121987034   -0.002105725170635097
0.009370452874163887   -0.023409273845290166   -0.0019279981752426153
0.004470591719396199   -0.02332831241629785   -0.0019052658378572755
0.009473609264260087   -0.0324572121987034   -0.002105725170635097
0.004327262992133158   -0.032493512091174785   -0.0020482138212575504
0.004294489799892857   -0.03250929457441668   -0.002081040844053714
0.004470591719396199   -0.02332831241629785   -0.0019052658378572755
0.009473609264260087   -0.0324572121987034   -0.002105725170635097
0.004294489799892857   -0.03250929457441668   -0.002081040844053714
0.009370452874163887   -0.023409273845290166   -0.0019279981752426153
0.004470591719396199   -0.02332831241629785   -0.0019052658378572755
0.004327262992133158   -0.032493512091174785   -0.0020482138212575504
0.009362210621110794   -0.023375668290413126   -0.0019647944759422437
0.004472292305345812   -0.023302420493676004   -0.0019163411885228395
0.004327262992133158   -0.032493512091174785   -0.0020482138212575504
0.009473609264260087   -0.0324572121987034   -0.002105725170635097
0.009362210621110794   -0.023375668290413126   -0.0019647944759422437
0.009507639154783752   -0.03242424059521784   -0.0020921972689127238
0.004472292305345812   -0.023302420493676004   -0.0019163411885228395
0.009339122545244154   -0.02333344641064682   -0.0020150253002150123
0.009507639154783752   -0.03242424059521784   -0.0020921972689127238
0.009362210621110794   -0.023375668290413126   -0.0019647944759422437
0.004472292305345812   -0.023302420493676004   -0.0019163411885228395
0.009507639154783752   -0.03242424059521784   -0.0020921972689127238
0.004349295014859082   -0.03247515575652841   -0.0020242435745454574
0.004327262992133158   -0.032493512091174785   -0.0020482138212575504
0.004472292305345812   -0.023302420493676004   -0.0019163411885228395
0.009507639154783752   -0.03242424059521784   -0.0020921972689127238
0.004327262992133158   -0.032493512091174785   -0.0020482138212575504
0.009362210621110794   -0.023375668290413126   -0.0019647944759422437
0.004472292305345812   -0.023302420493676004   -0.0019163411885228395
0.004349295014859082   -0.03247515575652841   -0.0020242435745454574
0.009339122545244154   -0.02333344641064682   -0.0020150253002150123
0.004462789918417776   -0.023254107046257754   -0.0019360121312271244
0.004349295014859082   -0.03247515575652841   -0.0020242435745454574
0.009507639154783752   -0.03242424059521784   -0.0020921972689127238
0.009339122545244154   -0.02333344641064682   -0.0020150253002150123
0.009516157132032636   -0.0323713981664741   -0.0020923587972970868
0.004462789918417776   -0.023254107046257754   -0.0019360121312271244
0.009275545124410497   -0.02325304264813858   -0.0020785931991171053
0.009516157132032636   -0.0323713981664741   -0.0020923587972970868
0.009339122545244154   -0.02333344641064682   -0.0020150253002150123
0.004462789918417776   -0.023254107046257754   -0.0019360121312271244
0.009516157132032636   -0.0323713981664741   -0.0020923587972970868
0.004353983516742286   -0.032448216271277676   -0.002008949052192623
0.004349295014859082   -0.03247515575652841   -0.0020242435745454574
0.004462789918417776   -0.023254107046257754   -0.0019360121312271244
0.009516157132032636   -0.0323713981664741   -0.0020923587972970868
0.004349295014859082   -0.03247515575652841   -0.0020242435745454574
0.009339122545244154   -0.02333344641064682   -0.0020150253002150123
-0.014781849440580558   -0.032615891949357476   -0.002460645009952455
-0.015242193015822345   -0.041888942796322944   -0.002419389423348401
-0.00971382838768235   -0.03256381325134514   -0.0022756709197783984
-0.014844637202981502   -0.032729284697105496   -0.002393328090397445
-0.015242193015822345   -0.041888942796322944   -0.002419389423348401
-0.010180990830857656   -0.04191322190995987   -0.0022826939906647964
-0.00971382838768235   -0.03256381325134514   -0.0022756709197783984
-0.010153567433699008   -0.041982704356529246   -0.0022617176054014086
-0.014844637202981502   -0.032729284697105496   -0.002393328090397445
-0.009709767639789143   -0.032648157738654926   -0.002220324618083622
-0.010153567433699008   -0.041982704356529246   -0.0022617176054014086
-0.00971382838768235   -0.03256381325134514   -0.0022756709197783984
-0.014844637202981502   -0.032729284697105496   -0.002393328090397445
-0.010153567433699008   -0.041982704356529246   -0.0022617176054014086
-0.015224449196112412   -0.04198191669948981   -0.002415111188969691
-0.015242193015822345   -0.041888942796322944   -0.002419389423348401
-0.014844637202981502   -0.032729284697105496   -0.002393328090397445
-0.010153567433699008   -0.041982704356529246   -0.0022617176054014086
-0.015242193015822345   -0.041888942796322944   -0.002419389423348401
-0.00971382838768235   -0.03256381325134514   -0.0022756709197783984
-0.014844637202981502   -0.032729284697105496   -0.002393328090397445
-0.015224449196112412   -0.04198191669948981   -0.002415111188969691
-0.009709767639789143   -0.032648157738654926   -0.002220324618083622
-0.014864469736748912   -0.0328218047664909   -0.0023392390555832462
-0.015224449196112412   -0.04198191669948981   -0.002415111188969691
-0.010153567433699008   -0.041982704356529246   -0.0022617176054014086
-0.009709767639789143   -0.032648157738654926   -0.002220324618083622
-0.010110870318296992   -0.04205972289268139   -0.0022502076163731324
-0.014864469736748912   -0.0328218047664909   -0.0023392390555832462
-0.009696548801316396   -0.03272599373518707   -0.0021741692220362827
-0.010110870318296992   -0.04205972289268139   -0.0022502076163731324
-0.009709767639789143   -0.032648157738654926   -0.002220324618083622
-0.014864469736748912   -0.0328218047664909   -0.0023392390555832462
-0.010110870318296992   -0.04205972289268139   -0.0022502076163731324
-0.015177707733944978   -0.04207223259820193   -0.0024249785598988915
-0.015224449196112412   -0.04198191669948981   -0.002415111188969691
-0.014864469736748912   -0.0328218047664909   -0.0023392390555832462
-0.010110870318296992   -0.04205972289268139   -0.0022502076163731324
-0.015224449196112412   -0.04198191669948981   -0.002415111188969691
-0.009709767639789143   -0.032648157738654926   -0.002220324618083622
-0.014864469736748912   -0.0328218047664909   -0.0023392390555832462
-0.015177707733944978   -0.04207223259820193   -0.0024249785598988915
-0.009696548801316396   -0.03272599373518707   -0.0021741692220362827
-0.014870925780608208   -0.03292233193822244   -0.0022995167527600714
-0.015177707733944978   -0.04207223259820193   -0.0024249785598988915
-0.010110870318296992   -0.04205972289268139   -0.0022502076163731324
-0.009696548801316396   -0.03272599373518707   -0.0021741692220362827
-0.010055621825929686   -0.04214958310419858   -0.002248007984122769
-0.014870925780608208   -0.03292233193822244   -0.0022995167527600714
-0.0096642745275731   -0.03280325701250866   -0.0021365582965945924
-0.010055621825929686   -0.04214958310419858   -0.002248007984122769
-0.009696548801316396   -0.03272599373518707   -0.0021741692220362827
-0.014870925780608208   -0.03292233193822244   -0.0022995167527600714
-0.010055621825929686   -0.04214958310419858   -0.002248007984122769
-0.015101966245693306   -0.04218861055855117   -0.002449709868845003
-0.015177707733944978   -0.04207223259820193   -0.0024249785598988915
-0.014870925780608208   -0.03292233193822244   -0.0022995167527600714
-0.010055621825929686   -0.04214958310419858   -0.002248007984122769
-0.015177707733944978   -0.04207223259820193   -0.0024249785598988915
-0.009696548801316396   -0.03272599373518707   -0.0021741692220362827
-0.00971382838768235   -0.03256381325134514   -0.0022756709197783984
-0.010180990830857656   -0.04191322190995987   -0.0022826939906647964
-0.005006038431262545   -0.03253387388601785   -0.0021497494674840483
-0.009709767639789143   -0.032648157738654926   -0.002220324618083622
-0.010180990830857656   -0.04191322190995987   -0.0022826939906647964
-0.00554479371358938   -0.04191845342530794   -0.002191846521177499
-0.005006038431262545   -0.03253387388601785   -0.0021497494674840483
-0.005508152152454305   -0.04195829004307269   -0.0021545556442326267
-0.009709767639789143   -0.032648157738654926   -0.002220324618083622
-0.004988258780026986   -0.032584905964880354   -0.002101460334892267
-0.005508152152454305   -0.04195829004307269   -0.0021545556442326267
-0.005006038431262545   -0.03253387388601785   -0.0021497494674840483
-0.009709767639789143   -0.032648157738654926   -0.002220324618083622
-0.005508152152454305   -0.04195829004307269   -0.0021545556442326267
-0.010153567433699008   -0.041982704356529246   -0.0022617176054014086
-0.010180990830857656   -0.04191322190995987   -0.0022826939906647964
-0.009709767639789143   -0.032648157738654926   -0.002220324618083622
-0.005508152152454305   -0.04195829004307269   -0.0021545556442326267
-0.010180990830857656   -0.04191322190995987   -0.0022826939906647964
-0.005006038431262545   -0.03253387388601785   -0.0021497494674840483
-0.009709767639789143   -0.032648157738654926   -0.002220324618083622
-0.010153567433699008   -0.041982704356529246   -0.0022617176054014086
-0.004988258780026986   -0.032584905964880354   -0.002101460334892267
-0.009696548801316396   -0.03272599373518707   -0.0021741692220362827
-0.010153567433699008   -0.041982704356529246   -0.0022617176054014086
-0.005508152152454305   -0.04195829004307269   -0.0021545556442326267
-0.004988258780026986   -0.032584905964880354   -0.002101460334892267
-0.005466778248357987   -0.04200676062303985   -0.0021267660007469485
-0.009696548801316396   -0.03272599373518707   -0.0021741692220362827
-0.004966503407962054   -0.0326317604154261   -0.0020623684487367047
-0.005466778248357987   -0.04200676062303985   -0.0021267660007469485
-0.004988258780026986   -0.032584905964880354   -0.002101460334892267
-0.009696548801316396   -0.03272599373518707   -0.0021741692220362827
-0.005466778248357987   -0.04200676062303985   -0.0021267660007469485
-0.010110870318296992   -0.04205972289268139   -0.0022502076163731324
-0.010153567433699008   -0.041982704356529246   -0.0022617176054014086
-0.009696548801316396   -0.03272599373518707   -0.0021741692220362827
-0.005466778248357987   -0.04200676062303985   -0.0021267660007469485
-0.010153567433699008   -0.041982704356529246   -0.0022617176054014086
-0.004988258780026986   -0.032584905964880354   -0.002101460334892267
-0.009696548801316396   -0.03272599373518707   -0.0021741692220362827
-0.010110870318296992   -0.04205972289268139   -0.0022502076163731324
-0.004966503407962054   -0.0326317604154261   -0.0020623684487367047
-0.0096642745275731   -0.03280325701250866   -0.0021365582965945924
-0.010110870318296992   -0.04205972289268139   -0.0022502076163731324
-0.005466778248357987   -0.04200676062303985   -0.0021267660007469485
-0.004966503407962054   -0.0326317604154261   -0.0020623684487367047
-0.0054222019377587055   -0.042064016351341015   -0.0021087870650875803
-0.0096642745275731   -0.03280325701250866   -0.0021365582965945924
-0.0049403990888142015   -0.03267459176303788   -0.0020326960823944134
-0.0054222019377587055   -0.042064016351341015   -0.0021087870650875803
-0.004966503407962054   -0.0326317604154261   -0.0020623684487367047
-0.0096642745275731   -0.03280325701250866   -0.0021365582965945924
-0.0054222019377587055   -0.042064016351341015   -0.0021087870650875803
-0.010055621825929686   -0.04214958310419858   -0.002248007984122769
-0.010110870318296992   -0.04205972289268139   -0.0022502076163731324
-0.0096642745275731   -0.03280325701250866   -0.0021365582965945924
-0.0054222019377587055   -0.042064016351341015   -0.0021087870650875803
-0.010110870318296992   -0.04205972289268139   -0.0022502076163731324
-0.004966503407962054   -0.0326317604154261   -0.0020623684487367047
-0.005006038431262545   -0.03253387388601785   -0.0021497494674840483
-0.00554479371358938   -0.04191845342530794   -0.002191846521177499
-0.0004256506249698742   -0.03251668842942078   -0.0020846789623921833
-0.004988258780026986   -0.032584905964880354   -0.002101460334892267
-0.00554479371358938   -0.04191845342530794   -0.002191846521177499
-0.0010397268631598623   -0.0418938298536873   -0.0021547812539745607
-0.0004256506249698742   -0.03251668842942078   -0.0020846789623921833
-0.000996421253318971   -0.041903017779218   -0.0021019883726904995
-0.004988258780026986   -0.032584905964880354   -0.002101460334892267
-0.00040087829973905467   -0.03253378421027782   -0.0020439323092817504
-0.000996421253318971   -0.041903017779218   -0.0021019883726904995
-0.0004256506249698742   -0.03251668842942078   -0.0020846789623921833
-0.004988258780026986   -0.032584905964880354   -0.002101460334892267
-0.000996421253318971   -0.041903017779218   -0.0021019883726904995
-0.005508152152454305   -0.04195829004307269   -0.0021545556442326267
-0.00554479371358938   -0.04191845342530794   -0.002191846521177499
-0.004988258780026986   -0.032584905964880354   -0.002101460334892267
-0.000996421253318971   -0.041903017779218   -0.0021019883726904995
-0.00554479371358938   -0.04191845342530794   -0.002191846521177499
-0.0004256506249698742   -0.03251668842942078   -0.0020846789623921833
-0.004988258780026986   -0.032584905964880354   -0.002101460334892267
-0.005508152152454305   -0.04195829004307269   -0.0021545556442326267
-0.00040087829973905467   -0.03253378421027782   -0.0020439323092817504
-0.004966503407962054   -0.0326317604154261   -0.0020623684487367047
-0.005508152152454305   -0.04195829004307269   -0.0021545556442326267
-0.000996421253318971   -0.041903017779218   -0.0021019883726904995
-0.00040087829973905467   -0.03253378421027782   -0.0020439323092817504
-0.0009554454150515091   -0.04192016706548986   -0.002058630683420505
-0.004966503407962054   -0.0326317604154261   -0.0020623684487367047
-0.0003794006289982989   -0.032546405385530615   -0.002012304570060577
-0.0009554454150515091   -0.04192016706548986   -0.002058630683420505
-0.00040087829973905467   -0.03253378421027782   -0.0020439323092817504
-0.004966503407962054   -0.0326317604154261   -0.0020623684487367047
-0.0009554454150515091   -0.04192016706548986   -0.002058630683420505
-0.005466778248357987   -0.04200676062303985   -0.0021267660007469485
-0.005508152152454305   -0.04195829004307269   -0.0021545556442326267
-0.004966503407962054   -0.0326317604154261   -0.0020623684487367047
-0.0009554454150515091   -0.04192016706548986   -0.002058630683420505
-0.005508152152454305   -0.04195829004307269   -0.0021545556442326267
-0.00040087829973905467   -0.03253378421027782   -0.0020439323092817504
-0.004966503407962054   -0.0326317604154261   -0.0020623684487367047
-0.005466778248357987   -0.04200676062303985   -0.0021267660007469485
-0.0003794006289982989   -0.032546405385530615   -0.002012304570060577
-0.0049403990888142015   -0.03267459176303788   -0.0020326960823944134
-0.005466778248357987   -0.04200676062303985   -0.0021267660007469485
-0.0009554454150515091   -0.04192016706548986   -0.002058630683420505
-0.0003794006289982989   -0.032546405385530615   -0.002012304570060577
-0.0009206325725662618   -0.041945667468734564   -0.002025037087451634
-0.0049403990888142015   -0.03267459176303788   -0.0020326960823944134
-0.0003629758100200887   -0.03255448645162941   -0.00199012757072042
-0.0009206325725662618   -0.041945667468734564   -0.002025037087451634
-0.0003794006289982989   -0.032546405385530615   -0.002012304570060577
-0.0049403990888142015   -0.03267459176303788   -0.0020326960823944134
-0.0009206325725662618   -0.041945667468734564   -0.002025037087451634
-0.0054222019377587055   -0.042064016351341015   -0.0021087870650875803
-0.005466778248357987   -0.04200676062303985   -0.0021267660007469485
-0.0049403990888142015   -0.03267459176303788   -0.0020326960823944134
-0.0009206325725662618   -0.041945667468734564   -0.002025037087451634
-0.005466778248357987   -0.04200676062303985   -0.0021267660007469485
-0.0003794006289982989   -0.032546405385530615   -0.002012304570060577
-0.0004256506249698742   -0.03251668842942078   -0.0020846789623921833
-0.0010397268631598623   -0.0418938298536873   -0.0021547812539745607
0.004294489799892857   -0.03250929457441668   -0.002081040844053714
-0.00040087829973905467   -0.03253378421027782   -0.0020439323092817504
-0.0010397268631598623   -0.0418938298536873   -0.0021547812539745607
0.0036008311116787926   -0.04183911651406764   -0.002173280195276206
0.004294489799892857   -0.03250929457441668   -0.002081040844053714
0.0036560397346850583   -0.041817548431500394   -0.002105255578427981
-0.00040087829973905467   -0.03253378421027782   -0.0020439323092817504
0.004327262992133158   -0.032493512091174785   -0.0020482138212575504
0.0036560397346850583   -0.041817548431500394   -0.002105255578427981
0.004294489799892857   -0.03250929457441668   -0.002081040844053714
-0.00040087829973905467   -0.03253378421027782   -0.0020439323092817504
0.0036560397346850583   -0.041817548431500394   -0.002105255578427981
-0.000996421253318971   -0.041903017779218   -0.0021019883726904995
-0.0010397268631598623   -0.0418938298536873   -0.0021547812539745607
-0.00040087829973905467   -0.03253378421027782   -0.0020439323092817504
0.0036560397346850583   -0.041817548431500394   -0.002105255578427981
-0.0010397268631598623   -0.0418938298536873   -0.0021547812539745607
0.004294489799892857   -0.03250929457441668   -0.002081040844053714
-0.00040087829973905467   -0.03253378421027782   -0.0020439323092817504
-0.000996421253318971   -0.041903017779218   -0.0021019883726904995
0.004327262992133158   -0.032493512091174785   -0.0020482138212575504
-0.0003794006289982989   -0.032546405385530615   -0.002012304570060577
-0.000996421253318971   -0.041903017779218   -0.0021019883726904995
0.0036560397346850583   -0.041817548431500394   -0.002105255578427981
0.004327262992133158   -0.032493512091174785   -0.0020482138212575504
0.0037070895689671553   -0.04180632943817531   -0.002046637171827121
-0.0003794006289982989   -0.032546405385530615   -0.002012304570060577
0.004349295014859082   -0.03247515575652841   -0.0020242435745454574
0.0037070895689671553   -0.04180632943817531   -0.002046637171827121
0.004327262992133158   -0.032493512091174785   -0.0020482138212575504
-0.0003794006289982989   -0.032546405385530615   -0.002012304570060577
0.0037070895689671553   -0.04180632943817531   -0.002046637171827121
-0.0009554454150515091   -0.04192016706548986   -0.002058630683420505
-0.000996421253318971   -0.041903017779218   -0.0021019883726904995
-0.0003794006289982989   -0.032546405385530615   -0.002012304570060577
0.0037070895689671553   -0.04180632943817531   -0.002046637171827121
-0.000996421253318971   -0.041903017779218   -0.0021019883726904995
0.004327262992133158   -0.032493512091174785   -0.0020482138212575504
-0.0003794006289982989   -0.032546405385530615   -0.002012304570060577
-0.0009554454150515091   -0.04192016706548986   -0.002058630683420505
0.004349295014859082   -0.03247515575652841   -0.0020242435745454574
-0.0003629758100200887   -0.03255448645162941   -0.00199012757072042
-0.0009554454150515091   -0.04192016706548986   -0.002058630683420505
0.0037070895689671553   -0.04180632943817531   -0.002046637171827121
0.004349295014859082   -0.03247515575652841   -0.0020242435745454574
0.003734568097421188   -0.04180004497447083   -0.001996810878436389
-0.0003629758100200887   -0.03255448645162941   -0.00199012757072042
0.004353983516742286   -0.032448216271277676   -0.002008949052192623
0.003734568097421188   -0.04180004497447083   -0.001996810878436389
0.004349295014859082   -0.03247515575652841   -0.0020242435745454574
-0.0003629758100200887   -0.03255448645162941   -0.00199012757072042
0.003734568097421188   -0.04180004497447083   -0.001996810878436389
-0.0009206325725662618   -0.041945667468734564   -0.002025037087451634
-0.0009554454150515091   -0.04192016706548986   -0.002058630683420505
-0.0003629758100200887   -0.03255448645162941   -0.00199012757072042
0.003734568097421188   -0.04180004497447083   -0.001996810878436389
-0.0009554454150515091   -0.04192016706548986   -0.002058630683420505
0.004349295014859082   -0.03247515575652841   -0.0020242435745454574
0.004294489799892857   -0.03250929457441668   -0.002081040844053714
0.0036008311116787926   -0.04183911651406764   -0.002173280195276206
0.009409518382170547   -0.03249898795258652   -0.0021327130337863557
0.004327262992133158   -0.032493512091174785   -0.0020482138212575504
0.0036008311116787926   -0.04183911651406764   -0.002173280195276206
0.008568971156373619   -0.04174714591579643   -0.0022502796176755743
0.009409518382170547   -0.03249898795258652   -0.0021327130337863557
0.008712903464257184   -0.04169768818670853   -0.002160948431172104
0.004327262992133158   -0.032493512091174785   -0.0020482138212575504
0.009473609264260087   -0.0324572121987034   -0.002105725170635097
0.008712903464257184   -0.04169768818670853   -0.002160948431172104
0.009409518382170547   -0.03249898795258652   -0.0021327130337863557
0.004327262992133158   -0.032493512091174785   -0.0020482138212575504
0.008712903464257184   -0.04169768818670853   -0.002160948431172104
0.0036560397346850583   -0.041817548431500394   -0.002105255578427981
0.0036008311116787926   -0.04183911651406764   -0.002173280195276206
0.004327262992133158   -0.032493512091174785   -0.0020482138212575504
0.008712903464257184   -0.04169768818670853   -0.002160948431172104
0.0036008311116787926   -0.04183911651406764   -0.002173280195276206
0.009409518382170547   -0.03249898795258652   -0.0021327130337863557
0.004327262992133158   -0.032493512091174785   -0.0020482138212575504
0.0036560397346850583   -0.041817548431500394   -0.002105255578427981
0.009473609264260087   -0.0324572121987034   -0.002105725170635097
0.004349295014859082   -0.03247515575652841   -0.0020242435745454574
0.0036560397346850583   -0.041817548431500394   -0.002105255578427981
0.008712903464257184   -0.04169768818670853   -0.002160948431172104
0.009473609264260087   -0.0324572121987034   -0.002105725170635097
0.008811873167841183   -0.04167369991629198   -0.002085015867653467
0.004349295014859082   -0.03247515575652841   -0.0020242435745454574
0.009507639154783752   -0.03242424059521784   -0.0020921972689127238
0.008811873167841183   -0.04167369991629198   -0.002085015867653467
0.009473609264260087   -0.0324572121987034   -0.002105725170635097
0.004349295014859082   -0.03247515575652841   -0.0020242435745454574
0.008811873167841183   -0.04167369991629198   -0.002085015867653467
0.0037070895689671553   -0.04180632943817531   -0.002046637171827121
0.0036560397346850583   -0.041817548431500394   -0.002105255578427981
0.004349295014859082   -0.03247515575652841   -0.0020242435745454574
0.008811873167841183   -0.04167369991629198   -0.002085015867653467
0.0036560397346850583   -0.041817548431500394   -0.002105255578427981
0.009473609264260087   -0.0324572121987034   -0.002105725170635097
0.004349295014859082   -0.03247515575652841   -0.0020242435745454574
0.0037070895689671553   -0.04180632943817531   -0.002046637171827121
0.009507639154783752   -0.03242424059521784   -0.0020921972689127238
0.004353983516742286   -0.032448216271277676   -0.002008949052192623
0.0037070895689671553   -0.04180632943817531   -0.002046637171827121
0.008811873167841183   -0.04167369991629198   -0.002085015867653467
0.009507639154783752   -0.03242424059521784   -0.0020921972689127238
0.008899842614698748   -0.04164764694480346   -0.0020230388731367634
0.004353983516742286   -0.032448216271277676   -0.002008949052192623
0.009516157132032636   -0.0323713981664741   -0.0020923587972970868
0.008899842614698748   -0.04164764694480346   -0.0020230388731367634
0.009507639154783752   -0.03242424059521784   -0.0020921972689127238
0.004353983516742286   -0.032448216271277676   -0.002008949052192623
0.008899842614698748   -0.04164764694480346   -0.0020230388731367634
0.003734568097421188   -0.04180004497447083   -0.001996810878436389
0.0037070895689671553   -0.04180632943817531   -0.002046637171827121
0.004353983516742286   -0.032448216271277676   -0.002008949052192623
0.008899842614698748   -0.04164764694480346   -0.0020230388731367634
0.0037070895689671553   -0.04180632943817531   -0.002046637171827121
0.009507639154783752   -0.03242424059521784   -0.0020921972689127238
-0.015242193015822345   -0.041888942796322944   -0.002419389423348401
-0.014833024297916901   -0.050742090502253   -0.0023134238044764856
-0.010180990830857656   -0.04191322190995987   -0.0022826939906647964
-0.015224449196112412   -0.04198191669948981   -0.002415111188969691
-0.014833024297916901   -0.050742090502253   -0.0023134238044764856
-0.010138892036851132   -0.050844053288641944   -0.00223114843452439
-0.010180990830857656   -0.04191322190995987   -0.0022826939906647964
-0.01007944784733681   -0.05089590549926155   -0.0022436128535003198
-0.015224449196112412   -0.04198191669948981   -0.002415111188969691
-0.010153567433699008   -0.041982704356529246   -0.0022617176054014086
-0.01007944784733681   -0.05089590549926155   -0.0022436128535003198
-0.010180990830857656   -0.04191322190995987   -0.0022826939906647964
-0.015224449196112412   -0.04198191669948981   -0.002415111188969691
-0.01007944784733681   -0.05089590549926155   -0.0022436128535003198
-0.0147257070379229   -0.05081210470055331   -0.002372281003720222
-0.014833024297916901   -0.050742090502253   -0.0023134238044764856
-0.015224449196112412   -0.04198191669948981   -0.002415111188969691
-0.01007944784733681   -0.05089590549926155   -0.0022436128535003198
-0.014833024297916901   -0.050742090502253   -0.0023134238044764856
-0.010180990830857656   -0.04191322190995987   -0.0022826939906647964
-0.015224449196112412   -0.04198191669948981   -0.002415111188969691
-0.0147257070379229   -0.05081210470055331   -0.002372281003720222
-0.010153567433699008   -0.041982704356529246   -0.0022617176054014086
-0.015177707733944978   -0.04207223259820193   -0.0024249785598988915
-0.0147257070379229   -0.05081210470055331   -0.002372281003720222
-0.01007944784733681   -0.05089590549926155   -0.0022436128535003198
-0.010153567433699008   -0.041982704356529246   -0.0022617176054014086
-0.009998996635828055   -0.050969767934740375   -0.002265777343698201
-0.015177707733944978   -0.04207223259820193   -0.0024249785598988915
-0.010110870318296992   -0.04205972289268139   -0.0022502076163731324
-0.009998996635828055   -0.050969767934740375   -0.002265777343698201
-0.010153567433699008   -0.041982704356529246   -0.0022617176054014086
-0.015177707733944978   -0.04207223259820193   -0.0024249785598988915
-0.009998996635828055   -0.050969767934740375   -0.002265777343698201
-0.014603275852511245   -0.05089808511530679   -0.002446392667364294
-0.0147257070379229   -0.05081210470055331   -0.002372281003720222
-0.015177707733944978   -0.04207223259820193   -0.0024249785598988915
-0.009998996635828055   -0.050969767934740375   -0.002265777343698201
-0.0147257070379229   -0.05081210470055331   -0.002372281003720222
-0.010153567433699008   -0.041982704356529246   -0.0022617176054014086
-0.015177707733944978   -0.04207223259820193   -0.0024249785598988915
-0.014603275852511245   -0.05089808511530679   -0.002446392667364294
-0.010110870318296992   -0.04205972289268139   -0.0022502076163731324
-0.015101966245693306   -0.04218861055855117   -0.002449709868845003
-0.014603275852511245   -0.05089808511530679   -0.002446392667364294
-0.009998996635828055   -0.050969767934740375   -0.002265777343698201
-0.010110870318296992   -0.04205972289268139   -0.0022502076163731324
-0.009912687009593909   -0.05107014830049238   -0.0022979258515695394
-0.015101966245693306   -0.04218861055855117   -0.002449709868845003
-0.010055621825929686   -0.04214958310419858   -0.002248007984122769
-0.009912687009593909   -0.05107014830049238   -0.0022979258515695394
-0.010110870318296992   -0.04205972289268139   -0.0022502076163731324
-0.015101966245693306   -0.04218861055855117   -0.002449709868845003
-0.009912687009593909   -0.05107014830049238   -0.0022979258515695394
-0.014436609982952226   -0.05102899029266038   -0.002536043598037911
-0.014603275852511245   -0.05089808511530679   -0.002446392667364294
-0.015101966245693306   -0.04218861055855117   -0.002449709868845003
-0.009912687009593909   -0.05107014830049238   -0.0022979258515695394
-0.014603275852511245   -0.05089808511530679   -0.002446392667364294
-0.010110870318296992   -0.04205972289268139   -0.0022502076163731324
-0.010180990830857656   -0.04191322190995987   -0.0022826939906647964
-0.010138892036851132   -0.050844053288641944   -0.00223114843452439
-0.00554479371358938   -0.04191845342530794   -0.002191846521177499
-0.010153567433699008   -0.041982704356529246   -0.0022617176054014086
-0.010138892036851132   -0.050844053288641944   -0.00223114843452439
-0.005930766619366808   -0.05088434474768407   -0.00217850180348953
-0.00554479371358938   -0.04191845342530794   -0.002191846521177499
-0.0058660508742574636   -0.05091128583532599   -0.0021513464347865515
-0.010153567433699008   -0.041982704356529246   -0.0022617176054014086
-0.005508152152454305   -0.04195829004307269   -0.0021545556442326267
-0.0058660508742574636   -0.05091128583532599   -0.0021513464347865515
-0.00554479371358938   -0.04191845342530794   -0.002191846521177499
-0.010153567433699008   -0.041982704356529246   -0.0022617176054014086
-0.0058660508742574636   -0.05091128583532599   -0.0021513464347865515
-0.01007944784733681   -0.05089590549926155   -0.0022436128535003198
-0.010138892036851132   -0.050844053288641944   -0.00223114843452439
-0.010153567433699008   -0.041982704356529246   -0.0022617176054014086
-0.0058660508742574636   -0.05091128583532599   -0.0021513464347865515
-0.010138892036851132   -0.050844053288641944   -0.00223114843452439
-0.00554479371358938   -0.04191845342530794   -0.002191846521177499
-0.010153567433699008   -0.041982704356529246   -0.0022617176054014086
-0.01007944784733681   -0.05089590549926155   -0.0022436128535003198
-0.005508152152454305   -0.04195829004307269   -0.0021545556442326267
-0.010110870318296992   -0.04205972289268139   -0.0022502076163731324
-0.01007944784733681   -0.05089590549926155   -0.0022436128535003198
-0.0058660508742574636   -0.05091128583532599   -0.0021513464347865515
-0.005508152152454305   -0.04195829004307269   -0.0021545556442326267
-0.005796442090996287   -0.05095938620714604   -0.0021337725507076946
-0.010110870318296992   -0.04205972289268139   -0.0022502076163731324
-0.005466778248357987   -0.04200676062303985   -0.0021267660007469485
-0.005796442090996287   -0.05095938620714604   -0.0021337725507076946
-0.005508152152454305   -0.04195829004307269   -0.0021545556442326267
-0.010110870318296992   -0.04205972289268139   -0.0022502076163731324
-0.005796442090996287   -0.05095938620714604   -0.0021337725507076946
-0.009998996635828055   -0.050969767934740375   -0.002265777343698201
-0.01007944784733681   -0.05089590549926155   -0.0022436128535003198
-0.010110870318296992   -0.04205972289268139   -0.0022502076163731324
-0.005796442090996287   -0.05095938620714604   -0.0021337725507076946
-0.01007944784733681   -0.05089590549926155   -0.0022436128535003198
-0.005508152152454305   -0.04195829004307269   -0.0021545556442326267
-0.010110870318296992   -0.04205972289268139   -0.0022502076163731324
-0.009998996635828055   -0.050969767934740375   -0.002265777343698201
-0.005466778248357987   -0.04200676062303985   -0.0021267660007469485
-0.010055621825929686   -0.04214958310419858   -0.002248007984122769
-0.009998996635828055   -0.050969767934740375   -0.002265777343698201
-0.005796442090996287   -0.05095938620714604   -0.0021337725507076946
-0.005466778248357987   -0.04200676062303985   -0.0021267660007469485
-0.005724892873372862   -0.05102925249605199   -0.0021262501402152813
-0.010055621825929686   -0.04214958310419858   -0.002248007984122769
-0.0054222019377587055   -0.042064016351341015   -0.0021087870650875803
-0.005724892873372862   -0.05102925249605199   -0.0021262501402152813
-0.005466778248357987   -0.04200676062303985   -0.0021267660007469485
-0.010055621825929686   -0.04214958310419858   -0.002248007984122769
-0.005724892873372862   -0.05102925249605199   -0.0021262501402152813
-0.009912687009593909   -0.05107014830049238   -0.0022979258515695394
-0.009998996635828055   -0.050969767934740375   -0.002265777343698201
-0.010055621825929686   -0.04214958310419858   -0.002248007984122769
-0.005724892873372862   -0.05102925249605199   -0.0021262501402152813
-0.009998996635828055   -0.050969767934740375   -0.002265777343698201
-0.005466778248357987   -0.04200676062303985   -0.0021267660007469485
-0.00554479371358938   -0.04191845342530794   -0.002191846521177499
-0.005930766619366808   -0.05088434474768407   -0.00217850180348953
-0.0010397268631598623   -0.0418938298536873   -0.0021547812539745607
-0.005508152152454305   -0.04195829004307269   -0.0021545556442326267
-0.005930766619366808   -0.05088434474768407   -0.00217850180348953
-0.0018500291350538127   -0.05085330733803893   -0.002169880373167105
-0.0010397268631598623   -0.0418938298536873   -0.0021547812539745607
-0.0017784529908935463   -0.050853885103215396   -0.0021044642113366
-0.005508152152454305   -0.04195829004307269   -0.0021545556442326267
-0.000996421253318971   -0.041903017779218   -0.0021019883726904995
-0.0017784529908935463   -0.050853885103215396   -0.0021044642113366
-0.0010397268631598623   -0.0418938298536873   -0.0021547812539745607
-0.005508152152454305   -0.04195829004307269   -0.0021545556442326267
-0.0017784529908935463   -0.050853885103215396   -0.0021044642113366
-0.0058660508742574636   -0.05091128583532599   -0.0021513464347865515
-0.005930766619366808   -0.05088434474768407   -0.00217850180348953
-0.005508152152454305   -0.04195829004307269   -0.0021545556442326267
-0.0017784529908935463   -0.050853885103215396   -0.0021044642113366
-0.005930766619366808   -0.05088434474768407   -0.00217850180348953
-0.0010397268631598623   -0.0418938298536873   -0.0021547812539745607
-0.005508152152454305   -0.04195829004307269   -0.0021545556442326267
-0.0058660508742574636   -0.05091128583532599   -0.0021513464347865515
-0.000996421253318971   -0.041903017779218   -0.0021019883726904995
-0.005466778248357987   -0.04200676062303985   -0.0021267660007469485
-0.0058660508742574636   -0.05091128583532599   -0.0021513464347865515
-0.0017784529908935463   -0.050853885103215396   -0.0021044642113366
-0.000996421253318971   -0.041903017779218   -0.0021019883726904995
-0.0017087479024109208   -0.05087407710680349   -0.002048654185590027
-0.005466778248357987   -0.04200676062303985   -0.0021267660007469485
-0.0009554454150515091   -0.04192016706548986   -0.002058630683420505
-0.0017087479024109208   -0.05087407710680349   -0.002048654185590027
-0.000996421253318971   -0.041903017779218   -0.0021019883726904995
-0.005466778248357987   -0.04200676062303985   -0.0021267660007469485
-0.0017087479024109208   -0.05087407710680349   -0.002048654185590027
-0.005796442090996287   -0.05095938620714604   -0.0021337725507076946
-0.0058660508742574636   -0.05091128583532599   -0.0021513464347865515
-0.005466778248357987   -0.04200676062303985   -0.0021267660007469485
-0.0017087479024109208   -0.05087407710680349   -0.002048654185590027
-0.0058660508742574636   -0.05091128583532599   -0.0021513464347865515
-0.000996421253318971   -0.041903017779218   -0.0021019883726904995
-0.005466778248357987   -0.04200676062303985   -0.0021267660007469485
-0.005796442090996287   -0.05095938620714604   -0.0021337725507076946
-0.0009554454150515091   -0.04192016706548986   -0.002058630683420505
-0.0054222019377587055   -0.042064016351341015   -0.0021087870650875803
-0.005796442090996287   -0.05095938620714604   -0.0021337725507076946
-0.0017087479024109208   -0.05087407710680349   -0.002048654185590027
-0.0009554454150515091   -0.04192016706548986   -0.002058630683420505
-0.0016465408639083946   -0.05091555229422842   -0.002002783816905364
-0.0054222019377587055   -0.042064016351341015   -0.0021087870650875803
-0.0009206325725662618   -0.041945667468734564   -0.002025037087451634
-0.0016465408639083946   -0.05091555229422842   -0.002002783816905364
-0.0009554454150515091   -0.04192016706548986   -0.002058630683420505
-0.0054222019377587055   -0.042064016351341015   -0.0021087870650875803
-0.0016465408639083946   -0.05091555229422842   -0.002002783816905364
-0.005724892873372862   -0.05102925249605199   -0.0021262501402152813
-0.005796442090996287   -0.05095938620714604   -0.0021337725507076946
-0.0054222019377587055   -0.042064016351341015   -0.0021087870650875803
-0.0016465408639083946   -0.05091555229422842   -0.002002783816905364
-0.005796442090996287   -0.05095938620714604   -0.0021337725507076946
-0.0009554454150515091   -0.04192016706548986   -0.002058630683420505
-0.0010397268631598623   -0.0418938298536873   -0.0021547812539745607
-0.0018500291350538127   -0.05085330733803893   -0.002169880373167105
0.0036008311116787926   -0.04183911651406764   -0.002173280195276206
-0.000996421253318971   -0.041903017779218   -0.0021019883726904995
-0.0018500291350538127   -0.05085330733803893   -0.002169880373167105
0.0023711494556520195   -0.05075302147127159   -0.0022087383464722225
0.0036008311116787926   -0.04183911651406764   -0.002173280195276206
0.002458667908442093   -0.05072545840271278   -0.0021054172356248795
-0.000996421253318971   -0.041903017779218   -0.0021019883726904995
0.0036560397346850583   -0.041817548431500394   -0.002105255578427981
0.002458667908442093   -0.05072545840271278   -0.0021054172356248795
0.0036008311116787926   -0.04183911651406764   -0.002173280195276206
-0.000996421253318971   -0.041903017779218   -0.0021019883726904995
0.002458667908442093   -0.05072545840271278   -0.0021054172356248795
-0.0017784529908935463   -0.050853885103215396   -0.0021044642113366
-0.0018500291350538127   -0.05085330733803893   -0.002169880373167105
-0.000996421253318971   -0.041903017779218   -0.0021019883726904995
0.002458667908442093   -0.05072545840271278   -0.0021054172356248795
-0.0018500291350538127   -0.05085330733803893   -0.002169880373167105
0.0036008311116787926   -0.04183911651406764   -0.002173280195276206
-0.000996421253318971   -0.041903017779218   -0.0021019883726904995
-0.0017784529908935463   -0.050853885103215396   -0.0021044642113366
0.0036560397346850583   -0.041817548431500394   -0.002105255578427981
-0.0009554454150515091   -0.04192016706548986   -0.002058630683420505
-0.0017784529908935463   -0.050853885103215396   -0.0021044642113366
0.002458667908442093   -0.05072545840271278   -0.0021054172356248795
0.0036560397346850583   -0.041817548431500394   -0.002105255578427981
0.002548424794129324   -0.050720306089663415   -0.0020123163232329284
-0.0009554454150515091   -0.04192016706548986   -0.002058630683420505
0.0037070895689671553   -0.04180632943817531   -0.002046637171827121
0.002548424794129324   -0.050720306089663415   -0.0020123163232329284
0.0036560397346850583   -0.041817548431500394   -0.002105255578427981
-0.0009554454150515091   -0.04192016706548986   -0.002058630683420505
0.002548424794129324   -0.050720306089663415   -0.0020123163232329284
-0.0017087479024109208   -0.05087407710680349   -0.002048654185590027
-0.0017784529908935463   -0.050853885103215396   -0.0021044642113366
-0.0009554454150515091   -0.04192016706548986   -0.002058630683420505
0.002548424794129324   -0.050720306089663415   -0.0020123163232329284
-0.0017784529908935463   -0.050853885103215396   -0.0021044642113366
0.0036560397346850583   -0.041817548431500394   -0.002105255578427981
-0.0009554454150515091   -0.04192016706548986   -0.002058630683420505
-0.0017087479024109208   -0.05087407710680349   -0.002048654185590027
0.0037070895689671553   -0.04180632943817531   -0.002046637171827121
-0.0009206325725662618   -0.041945667468734564   -0.002025037087451634
-0.0017087479024109208   -0.05087407710680349   -0.002048654185590027
0.002548424794129324   -0.050720306089663415   -0.0020123163232329284
0.0037070895689671553   -0.04180632943817531   -0.002046637171827121
0.0026081454603708505   -0.050733432945660996   -0.0019280874861604734
-0.0009206325725662618   -0.041945667468734564   -0.002025037087451634
0.003734568097421188   -0.04180004497447083   -0.001996810878436389
0.0026081454603708505   -0.050733432945660996   -0.0019280874861604734
0.0037070895689671553   -0.04180632943817531   -0.002046637171827121
-0.0009206325725662618   -0.041945667468734564   -0.002025037087451634
0.0026081454603708505   -0.050733432945660996   -0.0019280874861604734
-0.0016465408639083946   -0.05091555229422842   -0.002002783816905364
-0.0017087479024109208   -0.05087407710680349   -0.002048654185590027
-0.0009206325725662618   -0.041945667468734564   -0.002025037087451634
0.0026081454603708505   -0.050733432945660996   -0.0019280874861604734
-0.0017087479024109208   -0.05087407710680349   -0.002048654185590027
0.0037070895689671553   -0.04180632943817531   -0.002046637171827121
0.0036008311116787926   -0.04183911651406764   -0.002173280195276206
0.0023711494556520195   -0.05075302147127159   -0.0022087383464722225
0.008568971156373619   -0.04174714591579643   -0.0022502796176755743
0.0036560397346850583   -0.041817548431500394   -0.002105255578427981
0.0023711494556520195   -0.05075302147127159   -0.0022087383464722225
0.006861214656893226   -0.05058059407851931   -0.0023088798985208426
0.008568971156373619   -0.04174714591579643   -0.0022502796176755743
0.0070940785190091345   -0.050523808224101005   -0.0021585136861057715
0.0036560397346850583   -0.041817548431500394   -0.002105255578427981
0.008712903464257184   -0.04169768818670853   -0.002160948431172104
0.0070940785190091345   -0.050523808224101005   -0.0021585136861057715
0.008568971156373619   -0.04174714591579643   -0.0022502796176755743
0.0036560397346850583   -0.041817548431500394   -0.002105255578427981
0.0070940785190091345   -0.050523808224101005   -0.0021585136861057715
0.002458667908442093   -0.05072545840271278   -0.0021054172356248795
0.0023711494556520195   -0.05075302147127159   -0.0022087383464722225
0.0036560397346850583   -0.041817548431500394   -0.002105255578427981
0.0070940785190091345   -0.050523808224101005   -0.0021585136861057715
0.0023711494556520195   -0.05075302147127159   -0.0022087383464722225
0.008568971156373619   -0.04174714591579643   -0.0022502796176755743
0.0036560397346850583   -0.041817548431500394   -0.002105255578427981
0.002458667908442093   -0.05072545840271278   -0.0021054172356248795
0.008712903464257184   -0.04169768818670853   -0.002160948431172104
0.0037070895689671553   -0.04180632943817531   -0.002046637171827121
0.002458667908442093   -0.05072545840271278   -0.0021054172356248795
0.0070940785190091345   -0.050523808224101005   -0.0021585136861057715
0.008712903464257184   -0.04169768818670853   -0.002160948431172104
0.007266549997418722   -0.0505081828776158   -0.0020217414951064668
0.0037070895689671553   -0.04180632943817531   -0.002046637171827121
0.008811873167841183   -0.04167369991629198   -0.002085015867653467
0.007266549997418722   -0.0505081828776158   -0.0020217414951064668
0.008712903464257184   -0.04169768818670853   -0.002160948431172104
0.0037070895689671553   -0.04180632943817531   -0.002046637171827121
0.007266549997418722   -0.0505081828776158   -0.0020217414951064668
0.002548424794129324   -0.050720306089663415   -0.0020123163232329284
0.002458667908442093   -0.05072545840271278   -0.0021054172356248795
0.0037070895689671553   -0.04180632943817531   -0.002046637171827121
0.007266549997418722   -0.0505081828776158   -0.0020217414951064668
0.002458667908442093   -0.05072545840271278   -0.0021054172356248795
0.008712903464257184   -0.04169768818670853   -0.002160948431172104
0.0037070895689671553   -0.04180632943817531   -0.002046637171827121
0.002548424794129324   -0.050720306089663415   -0.0020123163232329284
0.008811873167841183   -0.04167369991629198   -0.002085015867653467
0.003734568097421188   -0.04180004497447083   -0.001996810878436389
0.002548424794129324   -0.050720306089663415   -0.0020123163232329284
0.007266549997418722   -0.0505081828776158   -0.0020217414951064668
0.008811873167841183   -0.04167369991629198   -0.002085015867653467
0.007441471546733651   -0.05050804708445937   -0.0018991846340549263
0.003734568097421188   -0.04180004497447083   -0.001996810878436389
0.008899842614698748   -0.04164764694480346   -0.0020230388731367634
0.007441471546733651   -0.05050804708445937   -0.0018991846340549263
0.008811873167841183   -0.04167369991629198   -0.002085015867653467
0.003734568097421188   -0.04180004497447083   -0.001996810878436389
0.007441471546733651   -0.05050804708445937   -0.0018991846340549263
0.0026081454603708505   -0.050733432945660996   -0.0019280874861604734
0.002548424794129324   -0.050720306089663415   -0.0020123163232329284
0.003734568097421188   -0.04180004497447083   -0.001996810878436389
0.007441471546733651   -0.05050804708445937   -0.0018991846340549263
0.002548424794129324   -0.050720306089663415   -0.0020123163232329284
0.008811873167841183   -0.04167369991629198   -0.002085015867653467
-0.014833024297916901   -0.050742090502253   -0.0023134238044764856
-0.013537210965961579   -0.05857448429967547   -0.002157547792447405
-0.010138892036851132   -0.050844053288641944   -0.00223114843452439
-0.0147257070379229   -0.05081210470055331   -0.002372281003720222
-0.013537210965961579   -0.05857448429967547   -0.002157547792447405
-0.009586803497908617   -0.05875833690747988   -0.002144319950877093
-0.010138892036851132   -0.050844053288641944   -0.00223114843452439
-0.009488310155939676   -0.058784922959076225   -0.00218780794650379
-0.0147257070379229   -0.05081210470055331   -0.002372281003720222
-0.01007944784733681   -0.05089590549926155   -0.0022436128535003198
-0.009488310155939676   -0.058784922959076225   -0.00218780794650379
-0.010138892036851132   -0.050844053288641944   -0.00223114843452439
-0.0147257070379229   -0.05081210470055331   -0.002372281003720222
-0.009488310155939676   -0.058784922959076225   -0.00218780794650379
-0.013331995295300176   -0.058613930669391   -0.0022793251710908455
-0.013537210965961579   -0.05857448429967547   -0.002157547792447405
-0.0147257070379229   -0.05081210470055331   -0.002372281003720222
-0.009488310155939676   -0.058784922959076225   -0.00218780794650379
-0.013537210965961579   -0.05857448429967547   -0.002157547792447405
-0.010138892036851132   -0.050844053288641944   -0.00223114843452439
-0.0147257070379229   -0.05081210470055331   -0.002372281003720222
-0.013331995295300176   -0.058613930669391   -0.0022793251710908455
-0.01007944784733681   -0.05089590549926155   -0.0022436128535003198
-0.014603275852511245   -0.05089808511530679   -0.002446392667364294
-0.013331995295300176   -0.058613930669391   -0.0022793251710908455
-0.009488310155939676   -0.058784922959076225   -0.00218780794650379
-0.01007944784733681   -0.05089590549926155   -0.0022436128535003198
-0.00936459710203145   -0.058848648256379144   -0.002241134430688668
-0.014603275852511245   -0.05089808511530679   -0.002446392667364294
-0.009998996635828055   -0.050969767934740375   -0.002265777343698201
-0.00936459710203145   -0.058848648256379144   -0.002241134430688668
-0.01007944784733681   -0.05089590549926155   -0.0022436128535003198
-0.014603275852511245   -0.05089808511530679   -0.002446392667364294
-0.00936459710203145   -0.058848648256379144   -0.002241134430688668
-0.013127339147633662   -0.05868871811507033   -0.00241712206203537
-0.013331995295300176   -0.058613930669391   -0.0022793251710908455
-0.014603275852511245   -0.05089808511530679   -0.002446392667364294
-0.00936459710203145   -0.058848648256379144   -0.002241134430688668
-0.013331995295300176   -0.058613930669391   -0.0022793251710908455
-0.01007944784733681   -0.05089590549926155   -0.0022436128535003198
-0.014603275852511245   -0.05089808511530679   -0.002446392667364294
-0.013127339147633662   -0.05868871811507033   -0.00241712206203537
-0.009998996635828055   -0.050969767934740375   -0.002265777343698201
-0.014436609982952226   -0.05102899029266038   -0.002536043598037911
-0.013127339147633662   -0.05868871811507033   -0.00241712206203537
-0.00936459710203145   -0.058848648256379144   -0.002241134430688668
-0.009998996635828055   -0.050969767934740375   -0.002265777343698201
-0.009242539009774937   -0.05895313296356615   -0.002304206913905274
-0.014436609982952226   -0.05102899029266038   -0.002536043598037911
-0.009912687009593909   -0.05107014830049238   -0.0022979258515695394
-0.009242539009774937   -0.05895313296356615   -0.002304206913905274
-0.009998996635828055   -0.050969767934740375   -0.002265777343698201
-0.014436609982952226   -0.05102899029266038   -0.002536043598037911
-0.009242539009774937   -0.05895313296356615   -0.002304206913905274
-0.012865198741119074   -0.058828174798735304   -0.0025706462625358284
-0.013127339147633662   -0.05868871811507033   -0.00241712206203537
-0.014436609982952226   -0.05102899029266038   -0.002536043598037911
-0.009242539009774937   -0.05895313296356615   -0.002304206913905274
-0.013127339147633662   -0.05868871811507033   -0.00241712206203537
-0.009998996635828055   -0.050969767934740375   -0.002265777343698201
-0.010138892036851132   -0.050844053288641944   -0.00223114843452439
-0.009586803497908617   -0.05875833690747988   -0.002144319950877093
-0.005930766619366808   -0.05088434474768407   -0.00217850180348953
-0.01007944784733681   -0.05089590549926155   -0.0022436128535003198
-0.009586803497908617   -0.05875833690747988   -0.002144319950877093
-0.006165773784790724   -0.058844385338150645   -0.002139093115463573
-0.005930766619366808   -0.05088434474768407   -0.00217850180348953
-0.006064734411702092   -0.05885309259817252   -0.002119614942592854
-0.01007944784733681   -0.05089590549926155   -0.0022436128535003198
-0.0058660508742574636   -0.05091128583532599   -0.0021513464347865515
-0.006064734411702092   -0.05885309259817252   -0.002119614942592854
-0.005930766619366808   -0.05088434474768407   -0.00217850180348953
-0.01007944784733681   -0.05089590549926155   -0.0022436128535003198
-0.006064734411702092   -0.05885309259817252   -0.002119614942592854
-0.009488310155939676   -0.058784922959076225   -0.00218780794650379
-0.009586803497908617   -0.05875833690747988   -0.002144319950877093
-0.01007944784733681   -0.05089590549926155   -0.0022436128535003198
-0.006064734411702092   -0.05885309259817252   -0.002119614942592854
-0.009586803497908617   -0.05875833690747988   -0.002144319950877093
-0.005930766619366808   -0.05088434474768407   -0.00217850180348953
-0.01007944784733681   -0.05089590549926155   -0.0022436128535003198
-0.009488310155939676   -0.058784922959076225   -0.00218780794650379
-0.0058660508742574636   -0.05091128583532599   -0.0021513464347865515
-0.009998996635828055   -0.050969767934740375   -0.002265777343698201
-0.009488310155939676   -0.058784922959076225   -0.00218780794650379
-0.006064734411702092   -0.05885309259817252   -0.002119614942592854
-0.0058660508742574636   -0.05091128583532599   -0.0021513464347865515
-0.005960444371345447   -0.058894965048833965   -0.0021096838934557887
-0.009998996635828055   -0.050969767934740375   -0.002265777343698201
-0.005796442090996287   -0.05095938620714604   -0.0021337725507076946
-0.005960444371345447   -0.058894965048833965   -0.0021096838934557887
-0.0058660508742574636   -0.05091128583532599   -0.0021513464347865515
-0.009998996635828055   -0.050969767934740375   -0.002265777343698201
-0.005960444371345447   -0.058894965048833965   -0.0021096838934557887
-0.00936459710203145   -0.058848648256379144   -0.002241134430688668
-0.009488310155939676   -0.058784922959076225   -0.00218780794650379
-0.009998996635828055   -0.050969767934740375   -0.002265777343698201
-0.005960444371345447   -0.058894965048833965   -0.0021096838934557887
-0.009488310155939676   -0.058784922959076225   -0.00218780794650379
-0.0058660508742574636   -0.05091128583532599   -0.0021513464347865515
-0.009998996635828055   -0.050969767934740375   -0.002265777343698201
-0.00936459710203145   -0.058848648256379144   -0.002241134430688668
-0.005796442090996287   -0.05095938620714604   -0.0021337725507076946
-0.009912687009593909   -0.05107014830049238   -0.0022979258515695394
-0.00936459710203145   -0.058848648256379144   -0.002241134430688668
-0.005960444371345447   -0.058894965048833965   -0.0021096838934557887
-0.005796442090996287   -0.05095938620714604   -0.0021337725507076946
-0.00585632207291485   -0.05897195033425797   -0.002109179733175716
-0.009912687009593909   -0.05107014830049238   -0.0022979258515695394
-0.005724892873372862   -0.05102925249605199   -0.0021262501402152813
-0.00585632207291485   -0.05897195033425797   -0.002109179733175716
-0.005796442090996287   -0.05095938620714604   -0.0021337725507076946
-0.009912687009593909   -0.05107014830049238   -0.0022979258515695394
-0.00585632207291485   -0.05897195033425797   -0.002109179733175716
-0.009242539009774937   -0.05895313296356615   -0.002304206913905274
-0.00936459710203145   -0.058848648256379144   -0.002241134430688668
-0.009912687009593909   -0.05107014830049238   -0.0022979258515695394
-0.00585632207291485   -0.05897195033425797   -0.002109179733175716
-0.00936459710203145   -0.058848648256379144   -0.002241134430688668
-0.005796442090996287   -0.05095938620714604   -0.0021337725507076946
-0.005930766619366808   -0.05088434474768407   -0.00217850180348953
-0.006165773784790724   -0.058844385338150645   -0.002139093115463573
-0.0018500291350538127   -0.05085330733803893   -0.002169880373167105
-0.0058660508742574636   -0.05091128583532599   -0.0021513464347865515
-0.006165773784790724   -0.058844385338150645   -0.002139093115463573
-0.002858267599090565   -0.058828622435207915   -0.0021636908817670025
-0.0018500291350538127   -0.05085330733803893   -0.002169880373167105
-0.0027475956558669396   -0.05881724477921899   -0.00208345435468706
-0.0058660508742574636   -0.05091128583532599   -0.0021513464347865515
-0.0017784529908935463   -0.050853885103215396   -0.0021044642113366
-0.0027475956558669396   -0.05881724477921899   -0.00208345435468706
-0.0018500291350538127   -0.05085330733803893   -0.002169880373167105
-0.0058660508742574636   -0.05091128583532599   -0.0021513464347865515
-0.0027475956558669396   -0.05881724477921899   -0.00208345435468706
-0.006064734411702092   -0.05885309259817252   -0.002119614942592854
-0.006165773784790724   -0.058844385338150645   -0.002139093115463573
-0.0058660508742574636   -0.05091128583532599   -0.0021513464347865515
-0.0027475956558669396   -0.05881724477921899   -0.00208345435468706
-0.006165773784790724   -0.058844385338150645   -0.002139093115463573
-0.0018500291350538127   -0.05085330733803893   -0.002169880373167105
-0.0058660508742574636   -0.05091128583532599   -0.0021513464347865515
-0.006064734411702092   -0.05885309259817252   -0.002119614942592854
-0.0017784529908935463   -0.050853885103215396   -0.0021044642113366
-0.005796442090996287   -0.05095938620714604   -0.0021337725507076946
-0.006064734411702092   -0.05885309259817252   -0.002119614942592854
-0.0027475956558669396   -0.05881724477921899   -0.00208345435468706
-0.0017784529908935463   -0.050853885103215396   -0.0021044642113366
-0.0026401796217519393   -0.058835864818973585   -0.002013394921465949
-0.005796442090996287   -0.05095938620714604   -0.0021337725507076946
-0.0017087479024109208   -0.05087407710680349   -0.002048654185590027
-0.0026401796217519393   -0.058835864818973585   -0.002013394921465949
-0.0017784529908935463   -0.050853885103215396   -0.0021044642113366
-0.005796442090996287   -0.05095938620714604   -0.0021337725507076946
-0.0026401796217519393   -0.058835864818973585   -0.002013394921465949
-0.005960444371345447   -0.058894965048833965   -0.0021096838934557887
-0.006064734411702092   -0.05885309259817252   -0.002119614942592854
-0.005796442090996287   -0.05095938620714604   -0.0021337725507076946
-0.0026401796217519393   -0.058835864818973585   -0.002013394921465949
-0.006064734411702092   -0.05885309259817252   -0.002119614942592854
-0.0017784529908935463   -0.050853885103215396   -0.0021044642113366
-0.005796442090996287   -0.05095938620714604   -0.0021337725507076946
-0.005960444371345447   -0.058894965048833965   -0.0021096838934557887
-0.0017087479024109208   -0.05087407710680349   -0.002048654185590027
-0.005724892873372862   -0.05102925249605199   -0.0021262501402152813
-0.005960444371345447   -0.058894965048833965   -0.0021096838934557887
-0.0026401796217519393   -0.058835864818973585   -0.002013394921465949
-0.0017087479024109208   -0.05087407710680349   -0.002048654185590027
-0.00254312604080726   -0.05888882070596784   -0.0019526323917384712
-0.005724892873372862   -0.05102925249605199   -0.0021262501402152813
-0.0016465408639083946   -0.05091555229422842   -0.002002783816905364
-0.00254312604080726   -0.05888882070596784   -0.0019526323917384712
-0.0017087479024109208   -0.05087407710680349   -0.002048654185590027
-0.005724892873372862   -0.05102925249605199   -0.0021262501402152813
-0.00254312604080726   -0.05888882070596784   -0.0019526323917384712
-0.00585632207291485   -0.05897195033425797   -0.002109179733175716
-0.005960444371345447   -0.058894965048833965   -0.0021096838934557887
-0.005724892873372862   -0.05102925249605199   -0.0021262501402152813
-0.00254312604080726   -0.05888882070596784   -0.0019526323917384712
-0.005960444371345447   -0.058894965048833965   -0.0021096838934557887
-0.0017087479024109208   -0.05087407710680349   -0.002048654185590027
-0.0018500291350538127   -0.05085330733803893   -0.002169880373167105
-0.002858267599090565   -0.058828622435207915   -0.0021636908817670025
0.0023711494556520195   -0.05075302147127159   -0.0022087383464722225
-0.0017784529908935463   -0.050853885103215396   -0.0021044642113366
-0.002858267599090565   -0.058828622435207915   -0.0021636908817670025
0.0006039027740970153   -0.05870740319692905   -0.00222349130091902
0.0023711494556520195   -0.05075302147127159   -0.0022087383464722225
0.0007385502791817886   -0.05867052785402161   -0.0020827008367532316
-0.0017784529908935463   -0.050853885103215396   -0.0021044642113366
0.002458667908442093   -0.05072545840271278   -0.0021054172356248795
0.0007385502791817886   -0.05867052785402161   -0.0020827008367532316
0.0023711494556520195   -0.05075302147127159   -0.0022087383464722225
-0.0017784529908935463   -0.050853885103215396   -0.0021044642113366
0.0007385502791817886   -0.05867052785402161   -0.0020827008367532316
-0.0027475956558669396   -0.05881724477921899   -0.00208345435468706
-0.002858267599090565   -0.058828622435207915   -0.0021636908817670025
-0.0017784529908935463   -0.050853885103215396   -0.0021044642113366
0.0007385502791817886   -0.05867052785402161   -0.0020827008367532316
-0.002858267599090565   -0.058828622435207915   -0.0021636908817670025
0.0023711494556520195   -0.05075302147127159   -0.0022087383464722225
-0.0017784529908935463   -0.050853885103215396   -0.0021044642113366
-0.0027475956558669396   -0.05881724477921899   -0.00208345435468706
0.002458667908442093   -0.05072545840271278   -0.0021054172356248795
-0.0017087479024109208   -0.05087407710680349   -0.002048654185590027
-0.0027475956558669396   -0.05881724477921899   -0.00208345435468706
0.0007385502791817886   -0.05867052785402161   -0.0020827008367532316
0.002458667908442093   -0.05072545840271278   -0.0021054172356248795
0.0008804717432539216   -0.058667190516291885   -0.0019548091449012603
-0.0017087479024109208   -0.05087407710680349   -0.002048654185590027
0.002548424794129324   -0.050720306089663415   -0.0020123163232329284
0.0008804717432539216   -0.058667190516291885   -0.0019548091449012603
0.002458667908442093   -0.05072545840271278   -0.0021054172356248795
-0.0017087479024109208   -0.05087407710680349   -0.002048654185590027
0.0008804717432539216   -0.058667190516291885   -0.0019548091449012603
-0.0026401796217519393   -0.058835864818973585   -0.002013394921465949
-0.0027475956558669396   -0.05881724477921899   -0.00208345435468706
-0.0017087479024109208   -0.05087407710680349   -0.002048654185590027
0.0008804717432539216   -0.058667190516291885   -0.0019548091449012603
-0.0027475956558669396   -0.05881724477921899   -0.00208345435468706
0.002458667908442093   -0.05072545840271278   -0.0021054172356248795
-0.0017087479024109208   -0.05087407710680349   -0.002048654185590027
-0.0026401796217519393   -0.058835864818973585   -0.002013394921465949
0.002548424794129324   -0.050720306089663415   -0.0020123163232329284
-0.0016465408639083946   -0.05091555229422842   -0.002002783816905364
-0.0026401796217519393   -0.058835864818973585   -0.002013394921465949
0.0008804717432539216   -0.058667190516291885   -0.0019548091449012603
0.002548424794129324   -0.050720306089663415   -0.0020123163232329284
0.0009842676823552984   -0.058695861642236065   -0.0018357980280332992
-0.0016465408639083946   -0.05091555229422842   -0.002002783816905364
0.0026081454603708505   -0.050733432945660996   -0.0019280874861604734
0.0009842676823552984   -0.058695861642236065   -0.0018357980280332992
0.002548424794129324   -0.050720306089663415   -0.0020123163232329284
-0.0016465408639083946   -0.05091555229422842   -0.002002783816905364
0.0009842676823552984   -0.058695861642236065   -0.0018357980280332992
-0.00254312604080726   -0.05888882070596784   -0.0019526323917384712
-0.0026401796217519393   -0.058835864818973585   -0.002013394921465949
-0.0016465408639083946   -0.05091555229422842   -0.002002783816905364
0.0009842676823552984   -0.058695861642236065   -0.0018357980280332992
-0.0026401796217519393   -0.058835864818973585   -0.002013394921465949
0.002548424794129324   -0.050720306089663415   -0.0020123163232329284
0.0023711494556520195   -0.05075302147127159   -0.0022087383464722225
0.0006039027740970153   -0.05870740319692905   -0.00222349130091902
0.006861214656893226   -0.05058059407851931   -0.0023088798985208426
0.002458667908442093   -0.05072545840271278   -0.0021054172356248795
0.0006039027740970153   -0.05870740319692905   -0.00222349130091902
0.004294353991751155   -0.058469243822116414   -0.002351235254257213
0.006861214656893226   -0.05058059407851931   -0.0023088798985208426
0.004635566641399868   -0.058398489074791025   -0.002135749131378648
0.002458667908442093   -0.05072545840271278   -0.0021054172356248795
0.0070940785190091345   -0.050523808224101005   -0.0021585136861057715
0.004635566641399868   -0.058398489074791025   -0.002135749131378648
0.006861214656893226   -0.05058059407851931   -0.0023088798985208426
0.002458667908442093   -0.05072545840271278   -0.0021054172356248795
0.004635566641399868   -0.058398489074791025   -0.002135749131378648
0.0007385502791817886   -0.05867052785402161   -0.0020827008367532316
0.0006039027740970153   -0.05870740319692905   -0.00222349130091902
0.002458667908442093   -0.05072545840271278   -0.0021054172356248795
0.004635566641399868   -0.058398489074791025   -0.002135749131378648
0.0006039027740970153   -0.05870740319692905   -0.00222349130091902
0.006861214656893226   -0.05058059407851931   -0.0023088798985208426
0.002458667908442093   -0.05072545840271278   -0.0021054172356248795
0.0007385502791817886   -0.05867052785402161   -0.0020827008367532316
0.0070940785190091345   -0.050523808224101005   -0.0021585136861057715
0.002548424794129324   -0.050720306089663415   -0.0020123163232329284
0.0007385502791817886   -0.05867052785402161   -0.0020827008367532316
0.004635566641399868   -0.058398489074791025   -0.002135749131378648
0.0070940785190091345   -0.050523808224101005   -0.0021585136861057715
0.004897195401976518   -0.058386236732747156   -0.0019362594414575262
0.002548424794129324   -0.050720306089663415   -0.0020123163232329284
0.007266549997418722   -0.0505081828776158   -0.0020217414951064668
0.004897195401976518   -0.058386236732747156   -0.0019362594414575262
0.0070940785190091345   -0.050523808224101005   -0.0021585136861057715
0.002548424794129324   -0.050720306089663415   -0.0020123163232329284
0.004897195401976518   -0.058386236732747156   -0.0019362594414575262
0.0008804717432539216   -0.058667190516291885   -0.0019548091449012603
0.0007385502791817886   -0.05867052785402161   -0.0020827008367532316
0.002548424794129324   -0.050720306089663415   -0.0020123163232329284
0.004897195401976518   -0.058386236732747156   -0.0019362594414575262
0.0007385502791817886   -0.05867052785402161   -0.0020827008367532316
0.0070940785190091345   -0.050523808224101005   -0.0021585136861057715
0.002548424794129324   -0.050720306089663415   -0.0020123163232329284
0.0008804717432539216   -0.058667190516291885   -0.0019548091449012603
0.007266549997418722   -0.0505081828776158   -0.0020217414951064668
0.0026081454603708505   -0.050733432945660996   -0.0019280874861604734
0.0008804717432539216   -0.058667190516291885   -0.0019548091449012603
0.004897195401976518   -0.058386236732747156   -0.0019362594414575262
0.007266549997418722   -0.0505081828776158   -0.0020217414951064668
0.005168328196071107   -0.05840724798099072   -0.0017543947263307927
0.0026081454603708505   -0.050733432945660996   -0.0019280874861604734
0.007441471546733651   -0.05050804708445937   -0.0018991846340549263
0.005168328196071107   -0.05840724798099072   -0.0017543947263307927
0.007266549997418722   -0.0505081828776158   -0.0020217414951064668
0.0026081454603708505   -0.050733432945660996   -0.0019280874861604734
0.005168328196071107   -0.05840724798099072   -0.0017543947263307927
0.0009842676823552984   -0.058695861642236065   -0.0018357980280332992
0.0008804717432539216   -0.058667190516291885   -0.0019548091449012603
0.0026081454603708505   -0.050733432945660996   -0.0019280874861604734
0.005168328196071107   -0.05840724798099072   -0.0017543947263307927
0.0008804717432539216   -0.058667190516291885   -0.0019548091449012603
0.007266549997418722   -0.0505081828776158   -0.0020217414951064668
-0.013537210965961579   -0.05857448429967547   -0.002157547792447405
-0.01133936629753036   -0.06472189741339392   -0.0019576604889917784
-0.009586803497908617   -0.05875833690747988   -0.002144319950877093
-0.013331995295300176   -0.058613930669391   -0.0022793251710908455
-0.01133936629753036   -0.06472189741339392   -0.0019576604889917784
-0.00852782207338661   -0.06499405126594657   -0.002039271284740151
-0.009586803497908617   -0.05875833690747988   -0.002144319950877093
-0.008386057594237209   -0.06498006494761158   -0.002106192890008312
-0.013331995295300176   -0.058613930669391   -0.0022793251710908455
-0.009488310155939676   -0.058784922959076225   -0.00218780794650379
-0.008386057594237209   -0.06498006494761158   -0.002106192890008312
-0.009586803497908617   -0.05875833690747988   -0.002144319950877093
-0.013331995295300176   -0.058613930669391   -0.0022793251710908455
-0.008386057594237209   -0.06498006494761158   -0.002106192890008312
-0.011033618697736976   -0.06471425770002134   -0.0021380913097292665
-0.01133936629753036   -0.06472189741339392   -0.0019576604889917784
-0.013331995295300176   -0.058613930669391   -0.0022793251710908455
-0.008386057594237209   -0.06498006494761158   -0.002106192890008312
-0.01133936629753036   -0.06472189741339392   -0.0019576604889917784
-0.009586803497908617   -0.05875833690747988   -0.002144319950877093
-0.013331995295300176   -0.058613930669391   -0.0022793251710908455
-0.011033618697736976   -0.06471425770002134   -0.0021380913097292665
-0.009488310155939676   -0.058784922959076225   -0.00218780794650379
-0.013127339147633662   -0.05868871811507033   -0.00241712206203537
-0.011033618697736976   -0.06471425770002134   -0.0021380913097292665
-0.008386057594237209   -0.06498006494761158   -0.002106192890008312
-0.009488310155939676   -0.058784922959076225   -0.00218780794650379
-0.008219297092992489   -0.06501929306136413   -0.0021831619343302485
-0.013127339147633662   -0.05868871811507033   -0.00241712206203537
-0.00936459710203145   -0.058848648256379144   -0.002241134430688668
-0.008219297092992489   -0.06501929306136413   -0.0021831619343302485
-0.009488310155939676   -0.058784922959076225   -0.00218780794650379
-0.013127339147633662   -0.05868871811507033   -0.00241712206203537
-0.008219297092992489   -0.06501929306136413   -0.0021831619343302485
-0.010751808053964758   -0.06476271696800963   -0.0023326742299170262
-0.011033618697736976   -0.06471425770002134   -0.0021380913097292665
-0.013127339147633662   -0.05868871811507033   -0.00241712206203537
-0.008219297092992489   -0.06501929306136413   -0.0021831619343302485
-0.011033618697736976   -0.06471425770002134   -0.0021380913097292665
-0.009488310155939676   -0.058784922959076225   -0.00218780794650379
-0.013127339147633662   -0.05868871811507033   -0.00241712206203537
-0.010751808053964758   -0.06476271696800963   -0.0023326742299170262
-0.00936459710203145   -0.058848648256379144   -0.002241134430688668
-0.012865198741119074   -0.058828174798735304   -0.0025706462625358284
-0.010751808053964758   -0.06476271696800963   -0.0023326742299170262
-0.008219297092992489   -0.06501929306136413   -0.0021831619343302485
-0.00936459710203145   -0.058848648256379144   -0.002241134430688668
-0.00806801389068149   -0.06511263292879106   -0.0022695362643322023
-0.012865198741119074   -0.058828174798735304   -0.0025706462625358284
-0.009242539009774937   -0.05895313296356615   -0.002304206913905274
-0.00806801389068149   -0.06511263292879106   -0.0022695362643322023
-0.00936459710203145   -0.058848648256379144   -0.002241134430688668
-0.012865198741119074   -0.058828174798735304   -0.0025706462625358284
-0.00806801389068149   -0.06511263292879106   -0.0022695362643322023
-0.010408077570451417   -0.06489205150736406   -0.0025405782102576823
-0.010751808053964758   -0.06476271696800963   -0.0023326742299170262
-0.012865198741119074   -0.058828174798735304   -0.0025706462625358284
-0.00806801389068149   -0.06511263292879106   -0.0022695362643322023
-0.010751808053964758   -0.06476271696800963   -0.0023326742299170262
-0.00936459710203145   -0.058848648256379144   -0.002241134430688668
-0.009586803497908617   -0.05875833690747988   -0.002144319950877093
-0.00852782207338661   -0.06499405126594657   -0.002039271284740151
-0.006165773784790724   -0.058844385338150645   -0.002139093115463573
-0.009488310155939676   -0.058784922959076225   -0.00218780794650379
-0.00852782207338661   -0.06499405126594657   -0.002039271284740151
-0.0062301881756573856   -0.06517030744071481   -0.002103144704526231
-0.006165773784790724   -0.058844385338150645   -0.002139093115463573
-0.0060847382342639495   -0.06514786763359567   -0.0020826774796143936
-0.009488310155939676   -0.058784922959076225   -0.00218780794650379
-0.006064734411702092   -0.05885309259817252   -0.002119614942592854
-0.0060847382342639495   -0.06514786763359567   -0.0020826774796143936
-0.006165773784790724   -0.058844385338150645   -0.002139093115463573
-0.009488310155939676   -0.058784922959076225   -0.00218780794650379
-0.0060847382342639495   -0.06514786763359567   -0.0020826774796143936
-0.008386057594237209   -0.06498006494761158   -0.002106192890008312
-0.00852782207338661   -0.06499405126594657   -0.002039271284740151
-0.009488310155939676   -0.058784922959076225   -0.00218780794650379
-0.0060847382342639495   -0.06514786763359567   -0.0020826774796143936
-0.00852782207338661   -0.06499405126594657   -0.002039271284740151
-0.006165773784790724   -0.058844385338150645   -0.002139093115463573
-0.009488310155939676   -0.058784922959076225   -0.00218780794650379
-0.008386057594237209   -0.06498006494761158   -0.002106192890008312
-0.006064734411702092   -0.05885309259817252   -0.002119614942592854
-0.00936459710203145   -0.058848648256379144   -0.002241134430688668
-0.008386057594237209   -0.06498006494761158   -0.002106192890008312
-0.0060847382342639495   -0.06514786763359567   -0.0020826774796143936
-0.006064734411702092   -0.05885309259817252   -0.002119614942592854
-0.0059413210320114415   -0.06517136848650909   -0.0020719706075047646
-0.00936459710203145   -0.058848648256379144   -0.002241134430688668
-0.005960444371345447   -0.058894965048833965   -0.0021096838934557887
-0.0059413210320114415   -0.06517136848650909   -0.0020719706075047646
-0.006064734411702092   -0.05885309259817252   -0.002119614942592854
-0.00936459710203145   -0.058848648256379144   -0.002241134430688668
-0.0059413210320114415   -0.06517136848650909   -0.0020719706075047646
-0.008219297092992489   -0.06501929306136413   -0.0021831619343302485
-0.008386057594237209   -0.06498006494761158   -0.002106192890008312
-0.00936459710203145   -0.058848648256379144   -0.002241134430688668
-0.0059413210320114415   -0.06517136848650909   -0.0020719706075047646
-0.008386057594237209   -0.06498006494761158   -0.002106192890008312
-0.006064734411702092   -0.05885309259817252   -0.002119614942592854
-0.00936459710203145   -0.058848648256379144   -0.002241134430688668
-0.008219297092992489   -0.06501929306136413   -0.0021831619343302485
-0.005960444371345447   -0.058894965048833965   -0.0021096838934557887
-0.009242539009774937   -0.05895313296356615   -0.002304206913905274
-0.008219297092992489   -0.06501929306136413   -0.0021831619343302485
-0.0059413210320114415   -0.06517136848650909   -0.0020719706075047646
-0.005960444371345447   -0.058894965048833965   -0.0021096838934557887
-0.005809346106689947   -0.06524233114447701   -0.002073066438112958
-0.009242539009774937   -0.05895313296356615   -0.002304206913905274
-0.00585632207291485   -0.05897195033425797   -0.002109179733175716
-0.005809346106689947   -0.06524233114447701   -0.002073066438112958
-0.005960444371345447   -0.058894965048833965   -0.0021096838934557887
-0.009242539009774937   -0.05895313296356615   -0.002304206913905274
-0.005809346106689947   -0.06524233114447701   -0.002073066438112958
-0.00806801389068149   -0.06511263292879106   -0.0022695362643322023
-0.008219297092992489   -0.06501929306136413   -0.0021831619343302485
-0.009242539009774937   -0.05895313296356615   -0.002304206913905274
-0.005809346106689947   -0.06524233114447701   -0.002073066438112958
-0.008219297092992489   -0.06501929306136413   -0.0021831619343302485
-0.005960444371345447   -0.058894965048833965   -0.0021096838934557887
-0.006165773784790724   -0.058844385338150645   -0.002139093115463573
-0.0062301881756573856   -0.06517030744071481   -0.002103144704526231
-0.002858267599090565   -0.058828622435207915   -0.0021636908817670025
-0.006064734411702092   -0.05885309259817252   -0.002119614942592854
-0.0062301881756573856   -0.06517030744071481   -0.002103144704526231
-0.0040294835603770845   -0.06526268988992578   -0.0021786722296783887
-0.002858267599090565   -0.058828622435207915   -0.0021636908817670025
-0.003865524738633849   -0.06523028496149882   -0.0020757831904414784
-0.006064734411702092   -0.05885309259817252   -0.002119614942592854
-0.0027475956558669396   -0.05881724477921899   -0.00208345435468706
-0.003865524738633849   -0.06523028496149882   -0.0020757831904414784
-0.002858267599090565   -0.058828622435207915   -0.0021636908817670025
-0.006064734411702092   -0.05885309259817252   -0.002119614942592854
-0.003865524738633849   -0.06523028496149882   -0.0020757831904414784
-0.0060847382342639495   -0.06514786763359567   -0.0020826774796143936
-0.0062301881756573856   -0.06517030744071481   -0.002103144704526231
-0.006064734411702092   -0.05885309259817252   -0.002119614942592854
-0.003865524738633849   -0.06523028496149882   -0.0020757831904414784
-0.0062301881756573856   -0.06517030744071481   -0.002103144704526231
-0.002858267599090565   -0.058828622435207915   -0.0021636908817670025
-0.006064734411702092   -0.05885309259817252   -0.002119614942592854
-0.0060847382342639495   -0.06514786763359567   -0.0020826774796143936
-0.0027475956558669396   -0.05881724477921899   -0.00208345435468706
-0.005960444371345447   -0.058894965048833965   -0.0021096838934557887
-0.0060847382342639495   -0.06514786763359567   -0.0020826774796143936
-0.003865524738633849   -0.06523028496149882   -0.0020757831904414784
-0.0027475956558669396   -0.05881724477921899   -0.00208345435468706
-0.003709221023813393   -0.06523828871417608   -0.0019815267304229517
-0.005960444371345447   -0.058894965048833965   -0.0021096838934557887
-0.0026401796217519393   -0.058835864818973585   -0.002013394921465949
-0.003709221023813393   -0.06523828871417608   -0.0019815267304229517
-0.0027475956558669396   -0.05881724477921899   -0.00208345435468706
-0.005960444371345447   -0.058894965048833965   -0.0021096838934557887
-0.003709221023813393   -0.06523828871417608   -0.0019815267304229517
-0.0059413210320114415   -0.06517136848650909   -0.0020719706075047646
-0.0060847382342639495   -0.06514786763359567   -0.0020826774796143936
-0.005960444371345447   -0.058894965048833965   -0.0021096838934557887
-0.003709221023813393   -0.06523828871417608   -0.0019815267304229517
-0.0060847382342639495   -0.06514786763359567   -0.0020826774796143936
-0.0027475956558669396   -0.05881724477921899   -0.00208345435468706
-0.005960444371345447   -0.058894965048833965   -0.0021096838934557887
-0.0059413210320114415   -0.06517136848650909   -0.0020719706075047646
-0.0026401796217519393   -0.058835864818973585   -0.002013394921465949
-0.00585632207291485   -0.05897195033425797   -0.002109179733175716
-0.0059413210320114415   -0.06517136848650909   -0.0020719706075047646
-0.003709221023813393   -0.06523828871417608   -0.0019815267304229517
-0.0026401796217519393   -0.058835864818973585   -0.002013394921465949
-0.0035792069772888823   -0.06529455332255123   -0.0019012850753647656
-0.00585632207291485   -0.05897195033425797   -0.002109179733175716
-0.00254312604080726   -0.05888882070596784   -0.0019526323917384712
-0.0035792069772888823   -0.06529455332255123   -0.0019012850753647656
-0.0026401796217519393   -0.058835864818973585   -0.002013394921465949
-0.00585632207291485   -0.05897195033425797   -0.002109179733175716
-0.0035792069772888823   -0.06529455332255123   -0.0019012850753647656
-0.005809346106689947   -0.06524233114447701   -0.002073066438112958
-0.0059413210320114415   -0.06517136848650909   -0.0020719706075047646
-0.00585632207291485   -0.05897195033425797   -0.002109179733175716
-0.0035792069772888823   -0.06529455332255123   -0.0019012850753647656
-0.0059413210320114415   -0.06517136848650909   -0.0020719706075047646
-0.0026401796217519393   -0.058835864818973585   -0.002013394921465949
-0.002858267599090565   -0.058828622435207915   -0.0021636908817670025
-0.0040294835603770845   -0.06526268988992578   -0.0021786722296783887
0.0006039027740970153   -0.05870740319692905   -0.00222349130091902
-0.0027475956558669396   -0.05881724477921899   -0.00208345435468706
-0.0040294835603770845   -0.06526268988992578   -0.0021786722296783887
-0.0016895842502626993   -0.0652388787602204   -0.002267679972453594
0.0006039027740970153   -0.05870740319692905   -0.00222349130091902
-0.0014790738689830134   -0.06518806937566285   -0.0020859282865253455
-0.0027475956558669396   -0.05881724477921899   -0.00208345435468706
0.0007385502791817886   -0.05867052785402161   -0.0020827008367532316
-0.0014790738689830134   -0.06518806937566285   -0.0020859282865253455
0.0006039027740970153   -0.05870740319692905   -0.00222349130091902
-0.0027475956558669396   -0.05881724477921899   -0.00208345435468706
-0.0014790738689830134   -0.06518806937566285   -0.0020859282865253455
-0.003865524738633849   -0.06523028496149882   -0.0020757831904414784
-0.0040294835603770845   -0.06526268988992578   -0.0021786722296783887
-0.0027475956558669396   -0.05881724477921899   -0.00208345435468706
-0.0014790738689830134   -0.06518806937566285   -0.0020859282865253455
-0.0040294835603770845   -0.06526268988992578   -0.0021786722296783887
0.0006039027740970153   -0.05870740319692905   -0.00222349130091902
-0.0027475956558669396   -0.05881724477921899   -0.00208345435468706
-0.003865524738633849   -0.06523028496149882   -0.0020757831904414784
0.0007385502791817886   -0.05867052785402161   -0.0020827008367532316
-0.0026401796217519393   -0.058835864818973585   -0.002013394921465949
-0.003865524738633849   -0.06523028496149882   -0.0020757831904414784
-0.0014790738689830134   -0.06518806937566285   -0.0020859282865253455
0.0007385502791817886   -0.05867052785402161   -0.0020827008367532316
-0.0012638035538103558   -0.0651791329413547   -0.0019134084847027498
-0.0026401796217519393   -0.058835864818973585   -0.002013394921465949
0.0008804717432539216   -0.058667190516291885   -0.0019548091449012603
-0.0012638035538103558   -0.0651791329413547   -0.0019134084847027498
0.0007385502791817886   -0.05867052785402161   -0.0020827008367532316
-0.0026401796217519393   -0.058835864818973585   -0.002013394921465949
-0.0012638035538103558   -0.0651791329413547   -0.0019134084847027498
-0.003709221023813393   -0.06523828871417608   -0.0019815267304229517
-0.003865524738633849   -0.06523028496149882   -0.0020757831904414784
-0.0026401796217519393   -0.058835864818973585   -0.002013394921465949
-0.0012638035538103558   -0.0651791329413547   -0.0019134084847027498
-0.003865524738633849   -0.06523028496149882   -0.0020757831904414784
0.0007385502791817886   -0.05867052785402161   -0.0020827008367532316
-0.0026401796217519393   -0.058835864818973585   -0.002013394921465949
-0.003709221023813393   -0.06523828871417608   -0.0019815267304229517
0.0008804717432539216   -0.058667190516291885   -0.0019548091449012603
-0.00254312604080726   -0.05888882070596784   -0.0019526323917384712
-0.003709221023813393   -0.06523828871417608   -0.0019815267304229517
-0.0012638035538103558   -0.0651791329413547   -0.0019134084847027498
0.0008804717432539216   -0.058667190516291885   -0.0019548091449012603
-0.0011043857688928138   -0.0652210728144324   -0.0017566993584662925
-0.00254312604080726   -0.05888882070596784   -0.0019526323917384712
0.0009842676823552984   -0.058695861642236065   -0.0018357980280332992
-0.0011043857688928138   -0.0652210728144324   -0.0017566993584662925
0.0008804717432539216   -0.058667190516291885   -0.0019548091449012603
-0.00254312604080726   -0.05888882070596784   -0.0019526323917384712
-0.0011043857688928138   -0.0652210728144324   -0.0017566993584662925
-0.0035792069772888823   -0.06529455332255123   -0.0019012850753647656
-0.003709221023813393   -0.06523828871417608   -0.0019815267304229517
-0.00254312604080726   -0.05888882070596784   -0.0019526323917384712
-0.0011043857688928138   -0.0652210728144324   -0.0017566993584662925
-0.003709221023813393   -0.06523828871417608   -0.0019815267304229517
0.0008804717432539216   -0.058667190516291885   -0.0019548091449012603
0.0006039027740970153   -0.05870740319692905   -0.00222349130091902
-0.0016895842502626993   -0.0652388787602204   -0.002267679972453594
0.004294353991751155   -0.058469243822116414   -0.002351235254257213
0.0007385502791817886   -0.05867052785402161   -0.0020827008367532316
-0.0016895842502626993   -0.0652388787602204   -0.002267679972453594
0.0008282227477013931   -0.06501396693218194   -0.0024499427631062658
0.004294353991751155   -0.058469243822116414   -0.002351235254257213
0.0013191958562298657   -0.06490344622720877   -0.0021526593196156325
0.0007385502791817886   -0.05867052785402161   -0.0020827008367532316
0.004635566641399868   -0.058398489074791025   -0.002135749131378648
0.0013191958562298657   -0.06490344622720877   -0.0021526593196156325
0.004294353991751155   -0.058469243822116414   -0.002351235254257213
0.0007385502791817886   -0.05867052785402161   -0.0020827008367532316
0.0013191958562298657   -0.06490344622720877   -0.0021526593196156325
-0.0014790738689830134   -0.06518806937566285   -0.0020859282865253455
-0.0016895842502626993   -0.0652388787602204   -0.002267679972453594
0.0007385502791817886   -0.05867052785402161   -0.0020827008367532316
0.0013191958562298657   -0.06490344622720877   -0.0021526593196156325
-0.0016895842502626993   -0.0652388787602204   -0.002267679972453594
0.004294353991751155   -0.058469243822116414   -0.002351235254257213
0.0007385502791817886   -0.05867052785402161   -0.0020827008367532316
-0.0014790738689830134   -0.06518806937566285   -0.0020859282865253455
0.004635566641399868   -0.058398489074791025   -0.002135749131378648
0.0008804717432539216   -0.058667190516291885   -0.0019548091449012603
-0.0014790738689830134   -0.06518806937566285   -0.0020859282865253455
0.0013191958562298657   -0.06490344622720877   -0.0021526593196156325
0.004635566641399868   -0.058398489074791025   -0.002135749131378648
0.0017050195152535934   -0.06488108578864946   -0.0018734992949120824
0.0008804717432539216   -0.058667190516291885   -0.0019548091449012603
0.004897195401976518   -0.058386236732747156   -0.0019362594414575262
0.0017050195152535934   -0.06488108578864946   -0.0018734992949120824
0.004635566641399868   -0.058398489074791025   -0.002135749131378648
0.0008804717432539216   -0.058667190516291885   -0.0019548091449012603
0.0017050195152535934   -0.06488108578864946   -0.0018734992949120824
-0.0012638035538103558   -0.0651791329413547   -0.0019134084847027498
-0.0014790738689830134   -0.06518806937566285   -0.0020859282865253455
0.0008804717432539216   -0.058667190516291885   -0.0019548091449012603
0.0017050195152535934   -0.06488108578864946   -0.0018734992949120824
-0.0014790738689830134   -0.06518806937566285   -0.0020859282865253455
0.004635566641399868   -0.058398489074791025   -0.002135749131378648
0.0008804717432539216   -0.058667190516291885   -0.0019548091449012603
-0.0012638035538103558   -0.0651791329413547   -0.0019134084847027498
0.004897195401976518   -0.058386236732747156   -0.0019362594414575262
0.0009842676823552984   -0.058695861642236065   -0.0018357980280332992
-0.0012638035538103558   -0.0651791329413547   -0.0019134084847027498
0.0017050195152535934   -0.06488108578864946   -0.0018734992949120824
0.004897195401976518   -0.058386236732747156   -0.0019362594414575262
0.0021060587722923738   -0.06490000055474097   -0.0016185135277736106
0.0009842676823552984   -0.058695861642236065   -0.0018357980280332992
0.005168328196071107   -0.05840724798099072   -0.0017543947263307927
0.0021060587722923738   -0.06490000055474097   -0.0016185135277736106
0.004897195401976518   -0.058386236732747156   -0.0019362594414575262
0.0009842676823552984   -0.058695861642236065   -0.0018357980280332992
0.0021060587722923738   -0.06490000055474097   -0.0016185135277736106
-0.0011043857688928138   -0.0652210728144324   -0.0017566993584662925
-0.0012638035538103558   -0.0651791329413547   -0.0019134084847027498
0.0009842676823552984   -0.058695861642236065   -0.0018357980280332992
0.0021060587722923738   -0.06490000055474097   -0.0016185135277736106
-0.0012638035538103558   -0.0651791329413547   -0.0019134084847027498
0.004897195401976518   -0.058386236732747156   -0.0019362594414575262
-0.01133936629753036   -0.06472189741339392   -0.0019576604889917784
-0.008318778828645255   -0.0683766558859461   -0.0017228558298382041
-0.00852782207338661   -0.06499405126594657   -0.002039271284740151
-0.011033618697736976   -0.06471425770002134   -0.0021380913097292665
-0.008318778828645255   -0.0683766558859461   -0.0017228558298382041
-0.007009693892598133   -0.06872077798044252   -0.0019295469152546183
-0.00852782207338661   -0.06499405126594657   -0.002039271284740151
-0.006830903333792437   -0.06865285498517043   -0.0020007799412875833
-0.011033618697736976   -0.06471425770002134   -0.0021380913097292665
-0.008386057594237209   -0.06498006494761158   -0.002106192890008312
-0.006830903333792437   -0.06865285498517043   -0.0020007799412875833
-0.00852782207338661   -0.06499405126594657   -0.002039271284740151
-0.011033618697736976   -0.06471425770002134   -0.0021380913097292665
-0.006830903333792437   -0.06865285498517043   -0.0020007799412875833
-0.007937847702268378   -0.06830012389971761   -0.001939305506566019
-0.008318778828645255   -0.0683766558859461   -0.0017228558298382041
-0.011033618697736976   -0.06471425770002134   -0.0021380913097292665
-0.006830903333792437   -0.06865285498517043   -0.0020007799412875833
-0.008318778828645255   -0.0683766558859461   -0.0017228558298382041
-0.00852782207338661   -0.06499405126594657   -0.002039271284740151
-0.011033618697736976   -0.06471425770002134   -0.0021380913097292665
-0.007937847702268378   -0.06830012389971761   -0.001939305506566019
-0.008386057594237209   -0.06498006494761158   -0.002106192890008312
-0.010751808053964758   -0.06476271696800963   -0.0023326742299170262
-0.007937847702268378   -0.06830012389971761   -0.001939305506566019
-0.006830903333792437   -0.06865285498517043   -0.0020007799412875833
-0.008386057594237209   -0.06498006494761158   -0.002106192890008312
-0.006632848219283686   -0.06865631095544329   -0.002072736626891488
-0.010751808053964758   -0.06476271696800963   -0.0023326742299170262
-0.008219297092992489   -0.06501929306136413   -0.0021831619343302485
-0.006632848219283686   -0.06865631095544329   -0.002072736626891488
-0.008386057594237209   -0.06498006494761158   -0.002106192890008312
-0.010751808053964758   -0.06476271696800963   -0.0023326742299170262
-0.006632848219283686   -0.06865631095544329   -0.002072736626891488
-0.007609188672599078   -0.06830678316752964   -0.0021549303207919895
-0.007937847702268378   -0.06830012389971761   -0.001939305506566019
-0.010751808053964758   -0.06476271696800963   -0.0023326742299170262
-0.006632848219283686   -0.06865631095544329   -0.002072736626891488
-0.007937847702268378   -0.06830012389971761   -0.001939305506566019
-0.008386057594237209   -0.06498006494761158   -0.002106192890008312
-0.010751808053964758   -0.06476271696800963   -0.0023326742299170262
-0.007609188672599078   -0.06830678316752964   -0.0021549303207919895
-0.008219297092992489   -0.06501929306136413   -0.0021831619343302485
-0.010408077570451417   -0.06489205150736406   -0.0025405782102576823
-0.007609188672599078   -0.06830678316752964   -0.0021549303207919895
-0.006632848219283686   -0.06865631095544329   -0.002072736626891488
-0.008219297092992489   -0.06501929306136413   -0.0021831619343302485
-0.006448879086751877   -0.06873148203120595   -0.002145718018675374
-0.010408077570451417   -0.06489205150736406   -0.0025405782102576823
-0.00806801389068149   -0.06511263292879106   -0.0022695362643322023
-0.006448879086751877   -0.06873148203120595   -0.002145718018675374
-0.008219297092992489   -0.06501929306136413   -0.0021831619343302485
-0.010408077570451417   -0.06489205150736406   -0.0025405782102576823
-0.006448879086751877   -0.06873148203120595   -0.002145718018675374
-0.00721932785829724   -0.06840142133465224   -0.0023751968335802764
-0.007609188672599078   -0.06830678316752964   -0.0021549303207919895
-0.010408077570451417   -0.06489205150736406   -0.0025405782102576823
-0.006448879086751877   -0.06873148203120595   -0.002145718018675374
-0.007609188672599078   -0.06830678316752964   -0.0021549303207919895
-0.008219297092992489   -0.06501929306136413   -0.0021831619343302485
-0.00852782207338661   -0.06499405126594657   -0.002039271284740151
-0.007009693892598133   -0.06872077798044252   -0.0019295469152546183
-0.0062301881756573856   -0.06517030744071481   -0.002103144704526231
-0.008386057594237209   -0.06498006494761158   -0.002106192890008312
-0.007009693892598133   -0.06872077798044252   -0.0019295469152546183
-0.006050585549105919   -0.069065761931405   -0.0021121944155504395
-0.0062301881756573856   -0.06517030744071481   -0.002103144704526231
-0.005861988093764236   -0.06899605036610257   -0.0020623965420707617
-0.008386057594237209   -0.06498006494761158   -0.002106192890008312
-0.0060847382342639495   -0.06514786763359567   -0.0020826774796143936
-0.005861988093764236   -0.06899605036610257   -0.0020623965420707617
-0.0062301881756573856   -0.06517030744071481   -0.002103144704526231
-0.008386057594237209   -0.06498006494761158   -0.002106192890008312
-0.005861988093764236   -0.06899605036610257   -0.0020623965420707617
-0.006830903333792437   -0.06865285498517043   -0.0020007799412875833
-0.007009693892598133   -0.06872077798044252   -0.0019295469152546183
-0.008386057594237209   -0.06498006494761158   -0.002106192890008312
-0.005861988093764236   -0.06899605036610257   -0.0020623965420707617
-0.007009693892598133   -0.06872077798044252   -0.0019295469152546183
-0.0062301881756573856   -0.06517030744071481   -0.002103144704526231
-0.008386057594237209   -0.06498006494761158   -0.002106192890008312
-0.006830903333792437   -0.06865285498517043   -0.0020007799412875833
-0.0060847382342639495   -0.06514786763359567   -0.0020826774796143936
-0.008219297092992489   -0.06501929306136413   -0.0021831619343302485
-0.006830903333792437   -0.06865285498517043   -0.0020007799412875833
-0.005861988093764236   -0.06899605036610257   -0.0020623965420707617
-0.0060847382342639495   -0.06514786763359567   -0.0020826774796143936
-0.005679623930818137   -0.06899487426185891   -0.0020119821645965675
-0.008219297092992489   -0.06501929306136413   -0.0021831619343302485
-0.0059413210320114415   -0.06517136848650909   -0.0020719706075047646
-0.005679623930818137   -0.06899487426185891   -0.0020119821645965675
-0.0060847382342639495   -0.06514786763359567   -0.0020826774796143936
-0.008219297092992489   -0.06501929306136413   -0.0021831619343302485
-0.005679623930818137   -0.06899487426185891   -0.0020119821645965675
-0.006632848219283686   -0.06865631095544329   -0.002072736626891488
-0.006830903333792437   -0.06865285498517043   -0.0020007799412875833
-0.008219297092992489   -0.06501929306136413   -0.0021831619343302485
-0.005679623930818137   -0.06899487426185891   -0.0020119821645965675
-0.006830903333792437   -0.06865285498517043   -0.0020007799412875833
-0.0060847382342639495   -0.06514786763359567   -0.0020826774796143936
-0.008219297092992489   -0.06501929306136413   -0.0021831619343302485
-0.006632848219283686   -0.06865631095544329   -0.002072736626891488
-0.0059413210320114415   -0.06517136848650909   -0.0020719706075047646
-0.00806801389068149   -0.06511263292879106   -0.0022695362643322023
-0.006632848219283686   -0.06865631095544329   -0.002072736626891488
-0.005679623930818137   -0.06899487426185891   -0.0020119821645965675
-0.0059413210320114415   -0.06517136848650909   -0.0020719706075047646
-0.005489516383797533   -0.06906080759497728   -0.001963565547062592
-0.00806801389068149   -0.06511263292879106   -0.0022695362643322023
-0.005809346106689947   -0.06524233114447701   -0.002073066438112958
-0.005489516383797533   -0.06906080759497728   -0.001963565547062592
-0.0059413210320114415   -0.06517136848650909   -0.0020719706075047646
-0.00806801389068149   -0.06511263292879106   -0.0022695362643322023
-0.005489516383797533   -0.06906080759497728   -0.001963565547062592
-0.006448879086751877   -0.06873148203120595   -0.002145718018675374
-0.006632848219283686   -0.06865631095544329   -0.002072736626891488
-0.00806801389068149   -0.06511263292879106   -0.0022695362643322023
-0.005489516383797533   -0.06906080759497728   -0.001963565547062592
-0.006632848219283686   -0.06865631095544329   -0.002072736626891488
-0.0059413210320114415   -0.06517136848650909   -0.0020719706075047646
-0.0062301881756573856   -0.06517030744071481   -0.002103144704526231
-0.006050585549105919   -0.069065761931405   -0.0021121944155504395
-0.0040294835603770845   -0.06526268988992578   -0.0021786722296783887
-0.0060847382342639495   -0.06514786763359567   -0.0020826774796143936
-0.006050585549105919   -0.069065761931405   -0.0021121944155504395
-0.005174544465779479   -0.069481673964826   -0.0023133849529861205
-0.0040294835603770845   -0.06526268988992578   -0.0021786722296783887
-0.0049433693880625885   -0.06942113360210882   -0.0021357752970057736
-0.0060847382342639495   -0.06514786763359567   -0.0020826774796143936
-0.003865524738633849   -0.06523028496149882   -0.0020757831904414784
-0.0049433693880625885   -0.06942113360210882   -0.0021357752970057736
-0.0040294835603770845   -0.06526268988992578   -0.0021786722296783887
-0.0060847382342639495   -0.06514786763359567   -0.0020826774796143936
-0.0049433693880625885   -0.06942113360210882   -0.0021357752970057736
-0.005861988093764236   -0.06899605036610257   -0.0020623965420707617
-0.006050585549105919   -0.069065761931405   -0.0021121944155504395
-0.0060847382342639495   -0.06514786763359567   -0.0020826774796143936
-0.0049433693880625885   -0.06942113360210882   -0.0021357752970057736
-0.006050585549105919   -0.069065761931405   -0.0021121944155504395
-0.0040294835603770845   -0.06526268988992578   -0.0021786722296783887
-0.0060847382342639495   -0.06514786763359567   -0.0020826774796143936
-0.005861988093764236   -0.06899605036610257   -0.0020623965420707617
-0.003865524738633849   -0.06523028496149882   -0.0020757831904414784
-0.0059413210320114415   -0.06517136848650909   -0.0020719706075047646
-0.005861988093764236   -0.06899605036610257   -0.0020623965420707617
-0.0049433693880625885   -0.06942113360210882   -0.0021357752970057736
-0.003865524738633849   -0.06523028496149882   -0.0020757831904414784
-0.0047291373251763915   -0.06941793652659828   -0.0019587491829217256
-0.0059413210320114415   -0.06517136848650909   -0.0020719706075047646
-0.003709221023813393   -0.06523828871417608   -0.0019815267304229517
-0.0047291373251763915   -0.06941793652659828   -0.0019587491829217256
-0.003865524738633849   -0.06523028496149882   -0.0020757831904414784
-0.0059413210320114415   -0.06517136848650909   -0.0020719706075047646
-0.0047291373251763915   -0.06941793652659828   -0.0019587491829217256
-0.005679623930818137   -0.06899487426185891   -0.0020119821645965675
-0.005861988093764236   -0.06899605036610257   -0.0020623965420707617
-0.0059413210320114415   -0.06517136848650909   -0.0020719706075047646
-0.0047291373251763915   -0.06941793652659828   -0.0019587491829217256
-0.005861988093764236   -0.06899605036610257   -0.0020623965420707617
-0.003865524738633849   -0.06523028496149882   -0.0020757831904414784
-0.0059413210320114415   -0.06517136848650909   -0.0020719706075047646
-0.005679623930818137   -0.06899487426185891   -0.0020119821645965675
-0.003709221023813393   -0.06523828871417608   -0.0019815267304229517
-0.005809346106689947   -0.06524233114447701   -0.002073066438112958
-0.005679623930818137   -0.06899487426185891   -0.0020119821645965675
-0.0047291373251763915   -0.06941793652659828   -0.0019587491829217256
-0.003709221023813393   -0.06523828871417608   -0.0019815267304229517
-0.004499171490221019   -0.06946899716183728   -0.00178135687235746
-0.005809346106689947   -0.06524233114447701   -0.002073066438112958
-0.0035792069772888823   -0.06529455332255123   -0.0019012850753647656
-0.004499171490221019   -0.06946899716183728   -0.00178135687235746
-0.003709221023813393   -0.06523828871417608   -0.0019815267304229517
-0.005809346106689947   -0.06524233114447701   -0.002073066438112958
-0.004499171490221019   -0.06946899716183728   -0.00178135687235746
-0.005489516383797533   -0.06906080759497728   -0.001963565547062592
-0.005679623930818137   -0.06899487426185891   -0.0020119821645965675
-0.005809346106689947   -0.06524233114447701   -0.002073066438112958
-0.004499171490221019   -0.06946899716183728   -0.00178135687235746
-0.005679623930818137   -0.06899487426185891   -0.0020119821645965675
-0.003709221023813393   -0.06523828871417608   -0.0019815267304229517
-0.0040294835603770845   -0.06526268988992578   -0.0021786722296783887
-0.005174544465779479   -0.069481673964826   -0.0023133849529861205
-0.0016895842502626993   -0.0652388787602204   -0.002267679972453594
-0.003865524738633849   -0.06523028496149882   -0.0020757831904414784
-0.005174544465779479   -0.069481673964826   -0.0023133849529861205
-0.004312365230469804   -0.07   -0.002468157506656522
-0.0016895842502626993   -0.0652388787602204   -0.002267679972453594
-0.004021547570074396   -0.07   -0.0021982345771500026
-0.003865524738633849   -0.06523028496149882   -0.0020757831904414784
-0.0014790738689830134   -0.06518806937566285   -0.0020859282865253455
-0.004021547570074396   -0.07   -0.0021982345771500026
-0.0016895842502626993   -0.0652388787602204   -0.002267679972453594
-0.003865524738633849   -0.06523028496149882   -0.0020757831904414784
-0.004021547570074396   -0.07   -0.0021982345771500026
-0.0049433693880625885   -0.06942113360210882   -0.0021357752970057736
-0.005174544465779479   -0.069481673964826   -0.0023133849529861205
-0.003865524738633849   -0.06523028496149882   -0.0020757831904414784
-0.004021547570074396   -0.07   -0.0021982345771500026
-0.005174544465779479   -0.069481673964826   -0.0023133849529861205
-0.0016895842502626993   -0.0652388787602204   -0.002267679972453594
-0.003865524738633849   -0.06523028496149882   -0.0020757831904414784
-0.0049433693880625885   -0.06942113360210882   -0.0021357752970057736
-0.0014790738689830134   -0.06518806937566285   -0.0020859282865253455
-0.003709221023813393   -0.06523828871417608   -0.0019815267304229517
-0.0049433693880625885   -0.06942113360210882   -0.0021357752970057736
-0.004021547570074396   -0.07   -0.0021982345771500026
-0.0014790738689830134   -0.06518806937566285   -0.0020859282865253455
-0.003729299198511559   -0.07   -0.001925112228029177
-0.003709221023813393   -0.06523828871417608   -0.0019815267304229517
-0.0012638035538103558   -0.0651791329413547   -0.0019134084847027498
-0.003729299198511559   -0.07   -0.001925112228029177
-0.0014790738689830134   -0.06518806937566285   -0.0020859282865253455
-0.003709221023813393   -0.06523828871417608   -0.0019815267304229517
-0.003729299198511559   -0.07   -0.001925112228029177
-0.0047291373251763915   -0.06941793652659828   -0.0019587491829217256
-0.0049433693880625885   -0.06942113360210882   -0.0021357752970057736
-0.003709221023813393   -0.06523828871417608   -0.0019815267304229517
-0.003729299198511559   -0.07   -0.001925112228029177
-0.0049433693880625885   -0.06942113360210882   -0.0021357752970057736
-0.0014790738689830134   -0.06518806937566285   -0.0020859282865253455
-0.003709221023813393   -0.06523828871417608   -0.0019815267304229517
-0.0047291373251763915   -0.06941793652659828   -0.0019587491829217256
-0.0012638035538103558   -0.0651791329413547   -0.0019134084847027498
-0.0035792069772888823   -0.06529455332255123   -0.0019012850753647656
-0.0047291373251763915   -0.06941793652659828   -0.0019587491829217256
-0.003729299198511559   -0.07   -0.001925112228029177
-0.0012638035538103558   -0.0651791329413547   -0.0019134084847027498
-0.0034436802325624044   -0.07   -0.0016556048338129577
-0.0035792069772888823   -0.06529455332255123   -0.0019012850753647656
-0.0011043857688928138   -0.0652210728144324   -0.0017566993584662925
-0.0034436802325624044   -0.07   -0.0016556048338129577
-0.0012638035538103558   -0.0651791329413547   -0.0019134084847027498
-0.0035792069772888823   -0.06529455332255123   -0.0019012850753647656
-0.0034436802325624044   -0.07   -0.0016556048338129577
-0.004499171490221019   -0.06946899716183728   -0.00178135687235746
-0.0047291373251763915   -0.06941793652659828   -0.0019587491829217256
-0.0035792069772888823   -0.06529455332255123   -0.0019012850753647656
-0.0034436802325624044   -0.07   -0.0016556048338129577
-0.0047291373251763915   -0.06941793652659828   -0.0019587491829217256
-0.0012638035538103558   -0.0651791329413547   -0.0019134084847027498
-0.0016895842502626993   -0.0652388787602204   -0.002267679972453594
-0.004312365230469804   -0.07   -0.002468157506656522
0.0008282227477013931   -0.06501396693218194   -0.0024499427631062658
-0.0014790738689830134   -0.06518806937566285   -0.0020859282865253455
-0.004312365230469804   -0.07   -0.002468157506656522
-0.0036864266087221647   -0.07   -0.002655600910582599
0.0008282227477013931   -0.06501396693218194   -0.0024499427631062658
-0.0030779839522187746   -0.07   -0.002265018047552943
-0.0014790738689830134   -0.06518806937566285   -0.0020859282865253455
0.0013191958562298657   -0.06490344622720877   -0.0021526593196156325
-0.0030779839522187746   -0.07   -0.002265018047552943
0.0008282227477013931   -0.06501396693218194   -0.0024499427631062658
-0.0014790738689830134   -0.06518806937566285   -0.0020859282865253455
-0.0030779839522187746   -0.07   -0.002265018047552943
-0.004021547570074396   -0.07   -0.0021982345771500026
-0.004312365230469804   -0.07   -0.002468157506656522
-0.0014790738689830134   -0.06518806937566285   -0.0020859282865253455
-0.0030779839522187746   -0.07   -0.002265018047552943
-0.004312365230469804   -0.07   -0.002468157506656522
0.0008282227477013931   -0.06501396693218194   -0.0024499427631062658
-0.0014790738689830134   -0.06518806937566285   -0.0020859282865253455
-0.004021547570074396   -0.07   -0.0021982345771500026
0.0013191958562298657   -0.06490344622720877   -0.0021526593196156325
-0.0012638035538103558   -0.0651791329413547   -0.0019134084847027498
-0.004021547570074396   -0.07   -0.0021982345771500026
-0.0030779839522187746   -0.07   -0.002265018047552943
0.0013191958562298657   -0.06490344622720877   -0.0021526593196156325
-0.0025927638078704174   -0.07   -0.0018913815804241412
-0.0012638035538103558   -0.0651791329413547   -0.0019134084847027498
0.0017050195152535934   -0.06488108578864946   -0.0018734992949120824
-0.0025927638078704174   -0.07   -0.0018913815804241412
0.0013191958562298657   -0.06490344622720877   -0.0021526593196156325
-0.0012638035538103558   -0.0651791329413547   -0.0019134084847027498
-0.0025927638078704174   -0.07   -0.0018913815804241412
-0.003729299198511559   -0.07   -0.001925112228029177
-0.004021547570074396   -0.07   -0.0021982345771500026
-0.0012638035538103558   -0.0651791329413547   -0.0019134084847027498
-0.0025927638078704174   -0.07   -0.0018913815804241412
-0.004021547570074396   -0.07   -0.0021982345771500026
0.0013191958562298657   -0.06490344622720877   -0.0021526593196156325
-0.0012638035538103558   -0.0651791329413547   -0.0019134084847027498
-0.003729299198511559   -0.07   -0.001925112228029177
0.0017050195152535934   -0.06488108578864946   -0.0018734992949120824
-0.0011043857688928138   -0.0652210728144324   -0.0017566993584662925
-0.003729299198511559   -0.07   -0.001925112228029177
-0.0025927638078704174   -0.07   -0.0018913815804241412
0.0017050195152535934   -0.06488108578864946   -0.0018734992949120824
-0.0019933847445561515   -0.07   -0.001503500806526936
-0.0011043857688928138   -0.0652210728144324   -0.0017566993584662925
0.0021060587722923738   -0.06490000055474097   -0.0016185135277736106
-0.0019933847445561515   -0.07   -0.001503500806526936
0.0017050195152535934   -0.06488108578864946   -0.0018734992949120824
-0.0011043857688928138   -0.0652210728144324   -0.0017566993584662925
-0.0019933847445561515   -0.07   -0.001503500806526936
-0.0034436802325624044   -0.07   -0.0016556048338129577
-0.003729299198511559   -0.07   -0.001925112228029177
-0.0011043857688928138   -0.0652210728144324   -0.0017566993584662925
-0.0019933847445561515   -0.07   -0.001503500806526936
-0.003729299198511559   -0.07   -0.001925112228029177
0.0017050195152535934   -0.06488108578864946   -0.0018734992949120824
-0.008318778828645255   -0.0683766558859461   -0.0017228558298382041
-0.004977001911276317   -0.06856422469994825   -0.0014746835628408515
-0.007009693892598133   -0.06872077798044252   -0.0019295469152546183
-0.007937847702268378   -0.06830012389971761   -0.001939305506566019
-0.004977001911276317   -0.06856422469994825   -0.0014746835628408515
-0.005276193786132552   -0.06882955195223793   -0.0017408251928344302
-0.007009693892598133   -0.06872077798044252   -0.0019295469152546183
-0.005140946988627234   -0.06873677831960978   -0.0018379661054244358
-0.007937847702268378   -0.06830012389971761   -0.001939305506566019
-0.006830903333792437   -0.06865285498517043   -0.0020007799412875833
-0.005140946988627234   -0.06873677831960978   -0.0018379661054244358
-0.007009693892598133   -0.06872077798044252   -0.0019295469152546183
-0.007937847702268378   -0.06830012389971761   -0.001939305506566019
-0.005140946988627234   -0.06873677831960978   -0.0018379661054244358
-0.004631719509295621   -0.06844508954802171   -0.0017021109390676892
-0.004977001911276317   -0.06856422469994825   -0.0014746835628408515
-0.007937847702268378   -0.06830012389971761   -0.001939305506566019
-0.005140946988627234   -0.06873677831960978   -0.0018379661054244358
-0.004977001911276317   -0.06856422469994825   -0.0014746835628408515
-0.007009693892598133   -0.06872077798044252   -0.0019295469152546183
-0.007937847702268378   -0.06830012389971761   -0.001939305506566019
-0.004631719509295621   -0.06844508954802171   -0.0017021109390676892
-0.006830903333792437   -0.06865285498517043   -0.0020007799412875833
-0.007609188672599078   -0.06830678316752964   -0.0021549303207919895
-0.004631719509295621   -0.06844508954802171   -0.0017021109390676892
-0.005140946988627234   -0.06873677831960978   -0.0018379661054244358
-0.006830903333792437   -0.06865285498517043   -0.0020007799412875833
-0.004982288969423522   -0.06870262998257962   -0.0019276032097948774
-0.007609188672599078   -0.06830678316752964   -0.0021549303207919895
-0.006632848219283686   -0.06865631095544329   -0.002072736626891488
-0.004982288969423522   -0.06870262998257962   -0.0019276032097948774
-0.006830903333792437   -0.06865285498517043   -0.0020007799412875833
-0.007609188672599078   -0.06830678316752964   -0.0021549303207919895
-0.004982288969423522   -0.06870262998257962   -0.0019276032097948774
-0.004344313694164699   -0.06840852772024199   -0.0019202273949589324
-0.004631719509295621   -0.06844508954802171   -0.0017021109390676892
-0.007609188672599078   -0.06830678316752964   -0.0021549303207919895
-0.004982288969423522   -0.06870262998257962   -0.0019276032097948774
-0.004631719509295621   -0.06844508954802171   -0.0017021109390676892
-0.006830903333792437   -0.06865285498517043   -0.0020007799412875833
-0.007609188672599078   -0.06830678316752964   -0.0021549303207919895
-0.004344313694164699   -0.06840852772024199   -0.0019202273949589324
-0.006632848219283686   -0.06865631095544329   -0.002072736626891488
-0.00721932785829724   -0.06840142133465224   -0.0023751968335802764
-0.004344313694164699   -0.06840852772024199   -0.0019202273949589324
-0.004982288969423522   -0.06870262998257962   -0.0019276032097948774
-0.006632848219283686   -0.06865631095544329   -0.002072736626891488
-0.004846388788532456   -0.06872760504852052   -0.002009269174443435
-0.00721932785829724   -0.06840142133465224   -0.0023751968335802764
-0.006448879086751877   -0.06873148203120595   -0.002145718018675374
-0.004846388788532456   -0.06872760504852052   -0.002009269174443435
-0.006632848219283686   -0.06865631095544329   -0.002072736626891488
-0.00721932785829724   -0.06840142133465224   -0.0023751968335802764
-0.004846388788532456   -0.06872760504852052   -0.002009269174443435
-0.004019091628485967   -0.06843968100490948   -0.002128066862470432
-0.004344313694164699   -0.06840852772024199   -0.0019202273949589324
-0.00721932785829724   -0.06840142133465224   -0.0023751968335802764
-0.004846388788532456   -0.06872760504852052   -0.002009269174443435
-0.004344313694164699   -0.06840852772024199   -0.0019202273949589324
-0.006632848219283686   -0.06865631095544329   -0.002072736626891488
-0.007009693892598133   -0.06872077798044252   -0.0019295469152546183
-0.005276193786132552   -0.06882955195223793   -0.0017408251928344302
-0.006050585549105919   -0.069065761931405   -0.0021121944155504395
-0.006830903333792437   -0.06865285498517043   -0.0020007799412875833
-0.005276193786132552   -0.06882955195223793   -0.0017408251928344302
-0.005682273548332598   -0.06899343278681981   -0.0019535956655729885
-0.006050585549105919   -0.069065761931405   -0.0021121944155504395
-0.005562588515775574   -0.06891058457188465   -0.001956117714024556
-0.006830903333792437   -0.06865285498517043   -0.0020007799412875833
-0.005861988093764236   -0.06899605036610257   -0.0020623965420707617
-0.005562588515775574   -0.06891058457188465   -0.001956117714024556
-0.006050585549105919   -0.069065761931405   -0.0021121944155504395
-0.006830903333792437   -0.06865285498517043   -0.0020007799412875833
-0.005562588515775574   -0.06891058457188465   -0.001956117714024556
-0.005140946988627234   -0.06873677831960978   -0.0018379661054244358
-0.005276193786132552   -0.06882955195223793   -0.0017408251928344302
-0.006830903333792437   -0.06865285498517043   -0.0020007799412875833
-0.005562588515775574   -0.06891058457188465   -0.001956117714024556
-0.005276193786132552   -0.06882955195223793   -0.0017408251928344302
-0.006050585549105919   -0.069065761931405   -0.0021121944155504395
-0.006830903333792437   -0.06865285498517043   -0.0020007799412875833
-0.005140946988627234   -0.06873677831960978   -0.0018379661054244358
-0.005861988093764236   -0.06899605036610257   -0.0020623965420707617
-0.006632848219283686   -0.06865631095544329   -0.002072736626891488
-0.005140946988627234   -0.06873677831960978   -0.0018379661054244358
-0.005562588515775574   -0.06891058457188465   -0.001956117714024556
-0.005861988093764236   -0.06899605036610257   -0.0020623965420707617
-0.005429376925438573   -0.06888083298644983   -0.0019489114538235118
-0.006632848219283686   -0.06865631095544329   -0.002072736626891488
-0.005679623930818137   -0.06899487426185891   -0.0020119821645965675
-0.005429376925438573   -0.06888083298644983   -0.0019489114538235118
-0.005861988093764236   -0.06899605036610257   -0.0020623965420707617
-0.006632848219283686   -0.06865631095544329   -0.002072736626891488
-0.005429376925438573   -0.06888083298644983   -0.0019489114538235118
-0.004982288969423522   -0.06870262998257962   -0.0019276032097948774
-0.005140946988627234   -0.06873677831960978   -0.0018379661054244358
-0.006632848219283686   -0.06865631095544329   -0.002072736626891488
-0.005429376925438573   -0.06888083298644983   -0.0019489114538235118
-0.005140946988627234   -0.06873677831960978   -0.0018379661054244358
-0.005861988093764236   -0.06899605036610257   -0.0020623965420707617
-0.006632848219283686   -0.06865631095544329   -0.002072736626891488
-0.004982288969423522   -0.06870262998257962   -0.0019276032097948774
-0.005679623930818137   -0.06899487426185891   -0.0020119821645965675
-0.006448879086751877   -0.06873148203120595   -0.002145718018675374
-0.004982288969423522   -0.06870262998257962   -0.0019276032097948774
-0.005429376925438573   -0.06888083298644983   -0.0019489114538235118
-0.005679623930818137   -0.06899487426185891   -0.0020119821645965675
-0.0052939426068887895   -0.06890175999300267   -0.0019340711401518685
-0.006448879086751877   -0.06873148203120595   -0.002145718018675374
-0.005489516383797533   -0.06906080759497728   -0.001963565547062592
-0.0052939426068887895   -0.06890175999300267   -0.0019340711401518685
-0.005679623930818137   -0.06899487426185891   -0.0020119821645965675
-0.006448879086751877   -0.06873148203120595   -0.002145718018675374
-0.0052939426068887895   -0.06890175999300267   -0.0019340711401518685
-0.004846388788532456   -0.06872760504852052   -0.002009269174443435
-0.004982288969423522   -0.06870262998257962   -0.0019276032097948774
-0.006448879086751877   -0.06873148203120595   -0.002145718018675374
-0.0052939426068887895   -0.06890175999300267   -0.0019340711401518685
-0.004982288969423522   -0.06870262998257962   -0.0019276032097948774
-0.005679623930818137   -0.06899487426185891   -0.0020119821645965675
-0.006050585549105919   -0.069065761931405   -0.0021121944155504395
-0.005682273548332598   -0.06899343278681981   -0.0019535956655729885
-0.005174544465779479   -0.069481673964826   -0.0023133849529861205
-0.005861988093764236   -0.06899605036610257   -0.0020623965420707617
-0.005682273548332598   -0.06899343278681981   -0.0019535956655729885
-0.006117734652566283   -0.0690620717650201   -0.0021630358178765245
-0.005174544465779479   -0.069481673964826   -0.0023133849529861205
-0.005993753093642795   -0.06898305490519924   -0.0020745736978501706
-0.005861988093764236   -0.06899605036610257   -0.0020623965420707617
-0.0049433693880625885   -0.06942113360210882   -0.0021357752970057736
-0.005993753093642795   -0.06898305490519924   -0.0020745736978501706
-0.005174544465779479   -0.069481673964826   -0.0023133849529861205
-0.005861988093764236   -0.06899605036610257   -0.0020623965420707617
-0.005993753093642795   -0.06898305490519924   -0.0020745736978501706
-0.005562588515775574   -0.06891058457188465   -0.001956117714024556
-0.005682273548332598   -0.06899343278681981   -0.0019535956655729885
-0.005861988093764236   -0.06899605036610257   -0.0020623965420707617
-0.005993753093642795   -0.06898305490519924   -0.0020745736978501706
-0.005682273548332598   -0.06899343278681981   -0.0019535956655729885
-0.005174544465779479   -0.069481673964826   -0.0023133849529861205
-0.005861988093764236   -0.06899605036610257   -0.0020623965420707617
-0.005562588515775574   -0.06891058457188465   -0.001956117714024556
-0.0049433693880625885   -0.06942113360210882   -0.0021357752970057736
-0.005679623930818137   -0.06899487426185891   -0.0020119821645965675
-0.005562588515775574   -0.06891058457188465   -0.001956117714024556
-0.005993753093642795   -0.06898305490519924   -0.0020745736978501706
-0.0049433693880625885   -0.06942113360210882   -0.0021357752970057736
-0.005845055803923366   -0.06895800054185544   -0.0019742629172400175
-0.005679623930818137   -0.06899487426185891   -0.0020119821645965675
-0.0047291373251763915   -0.06941793652659828   -0.0019587491829217256
-0.005845055803923366   -0.06895800054185544   -0.0019742629172400175
-0.0049433693880625885   -0.06942113360210882   -0.0021357752970057736
-0.005679623930818137   -0.06899487426185891   -0.0020119821645965675
-0.005845055803923366   -0.06895800054185544   -0.0019742629172400175
-0.005429376925438573   -0.06888083298644983   -0.0019489114538235118
-0.005562588515775574   -0.06891058457188465   -0.001956117714024556
-0.005679623930818137   -0.06899487426185891   -0.0020119821645965675
-0.005845055803923366   -0.06895800054185544   -0.0019742629172400175
-0.005562588515775574   -0.06891058457188465   -0.001956117714024556
-0.0049433693880625885   -0.06942113360210882   -0.0021357752970057736
-0.005679623930818137   -0.06899487426185891   -0.0020119821645965675
-0.005429376925438573   -0.06888083298644983   -0.0019489114538235118
-0.0047291373251763915   -0.06941793652659828   -0.0019587491829217256
-0.005489516383797533   -0.06906080759497728   -0.001963565547062592
-0.005429376925438573   -0.06888083298644983   -0.0019489114538235118
-0.005845055803923366   -0.06895800054185544   -0.0019742629172400175
-0.0047291373251763915   -0.06941793652659828   -0.0019587491829217256
-0.005692147333101258   -0.068978448545266   -0.001867428748889043
-0.005489516383797533   -0.06906080759497728   -0.001963565547062592
-0.004499171490221019   -0.06946899716183728   -0.00178135687235746
-0.005692147333101258   -0.068978448545266   -0.001867428748889043
-0.0047291373251763915   -0.06941793652659828   -0.0019587491829217256
-0.005489516383797533   -0.06906080759497728   -0.001963565547062592
-0.005692147333101258   -0.068978448545266   -0.001867428748889043
-0.0052939426068887895   -0.06890175999300267   -0.0019340711401518685
-0.005429376925438573   -0.06888083298644983   -0.0019489114538235118
-0.005489516383797533   -0.06906080759497728   -0.001963565547062592
-0.005692147333101258   -0.068978448545266   -0.001867428748889043
-0.005429376925438573   -0.06888083298644983   -0.0019489114538235118
-0.0047291373251763915   -0.06941793652659828   -0.0019587491829217256
-0.005174544465779479   -0.069481673964826   -0.0023133849529861205
-0.006117734652566283   -0.0690620717650201   -0.0021630358178765245
-0.004312365230469804   -0.07   -0.002468157506656522
-0.0049433693880625885   -0.06942113360210882   -0.0021357752970057736
-0.006117734652566283   -0.0690620717650201   -0.0021630358178765245
-0.006748490418720217   -0.06898747837862008   -0.0023620887238581688
-0.004312365230469804   -0.07   -0.002468157506656522
-0.006586550962346379   -0.06891284418936604   -0.002186987443744251
-0.0049433693880625885   -0.06942113360210882   -0.0021357752970057736
-0.004021547570074396   -0.07   -0.0021982345771500026
-0.006586550962346379   -0.06891284418936604   -0.002186987443744251
-0.004312365230469804   -0.07   -0.002468157506656522
-0.0049433693880625885   -0.06942113360210882   -0.0021357752970057736
-0.006586550962346379   -0.06891284418936604   -0.002186987443744251
-0.005993753093642795   -0.06898305490519924   -0.0020745736978501706
-0.006117734652566283   -0.0690620717650201   -0.0021630358178765245
-0.0049433693880625885   -0.06942113360210882   -0.0021357752970057736
-0.006586550962346379   -0.06891284418936604   -0.002186987443744251
-0.006117734652566283   -0.0690620717650201   -0.0021630358178765245
-0.004312365230469804   -0.07   -0.002468157506656522
-0.0049433693880625885   -0.06942113360210882   -0.0021357752970057736
-0.005993753093642795   -0.06898305490519924   -0.0020745736978501706
-0.004021547570074396   -0.07   -0.0021982345771500026
-0.0047291373251763915   -0.06941793652659828   -0.0019587491829217256
-0.005993753093642795   -0.06898305490519924   -0.0020745736978501706
-0.006586550962346379   -0.06891284418936604   -0.002186987443744251
-0.004021547570074396   -0.07   -0.0021982345771500026
-0.006372842262451362   -0.0688959178267551   -0.001998686516818038
-0.0047291373251763915   -0.06941793652659828   -0.0019587491829217256
-0.003729299198511559   -0.07   -0.001925112228029177
-0.006372842262451362   -0.0688959178267551   -0.001998686516818038
-0.004021547570074396   -0.07   -0.0021982345771500026
-0.0047291373251763915   -0.06941793652659828   -0.0019587491829217256
-0.006372842262451362   -0.0688959178267551   -0.001998686516818038
-0.005845055803923366   -0.06895800054185544   -0.0019742629172400175
-0.005993753093642795   -0.06898305490519924   -0.0020745736978501706
-0.0047291373251763915   -0.06941793652659828   -0.0019587491829217256
-0.006372842262451362   -0.0688959178267551   -0.001998686516818038
-0.005993753093642795   -0.06898305490519924   -0.0020745736978501706
-0.004021547570074396   -0.07   -0.0021982345771500026
-0.0047291373251763915   -0.06941793652659828   -0.0019587491829217256
-0.005845055803923366   -0.06895800054185544   -0.0019742629172400175
-0.003729299198511559   -0.07   -0.001925112228029177
-0.004499171490221019   -0.06946899716183728   -0.00178135687235746
-0.005845055803923366   -0.06895800054185544   -0.0019742629172400175
-0.006372842262451362   -0.0688959178267551   -0.001998686516818038
-0.003729299198511559   -0.07   -0.001925112228029177
-0.0061718612581216   -0.06892557491811857   -0.0018031270886965712
-0.004499171490221019   -0.06946899716183728   -0.00178135687235746
-0.0034436802325624044   -0.07   -0.0016556048338129577
-0.0061718612581216   -0.06892557491811857   -0.0018031270886965712
-0.003729299198511559   -0.07   -0.001925112228029177
-0.004499171490221019   -0.06946899716183728   -0.00178135687235746
-0.0061718612581216   -0.06892557491811857   -0.0018031270886965712
-0.005692147333101258   -0.068978448545266   -0.001867428748889043
-0.005845055803923366   -0.06895800054185544   -0.0019742629172400175
-0.004499171490221019   -0.06946899716183728   -0.00178135687235746
-0.0061718612581216   -0.06892557491811857   -0.0018031270886965712
-0.005845055803923366   -0.06895800054185544   -0.0019742629172400175
-0.003729299198511559   -0.07   -0.001925112228029177
-0.004312365230469804   -0.07   -0.002468157506656522
-0.006748490418720217   -0.06898747837862008   -0.0023620887238581688
-0.0036864266087221647   -0.07   -0.002655600910582599
-0.004021547570074396   -0.07   -0.0021982345771500026
-0.006748490418720217   -0.06898747837862008   -0.0023620887238581688
-0.007975442156832529   -0.0686499471178666   -0.002573275225329302
-0.0036864266087221647   -0.07   -0.002655600910582599
-0.007544613165073181   -0.06858698309711109   -0.0022860054575879907
-0.004021547570074396   -0.07   -0.0021982345771500026
-0.0030779839522187746   -0.07   -0.002265018047552943
-0.007544613165073181   -0.06858698309711109   -0.0022860054575879907
-0.0036864266087221647   -0.07   -0.002655600910582599
-0.004021547570074396   -0.07   -0.0021982345771500026
-0.007544613165073181   -0.06858698309711109   -0.0022860054575879907
-0.006586550962346379   -0.06891284418936604   -0.002186987443744251
-0.006748490418720217   -0.06898747837862008   -0.0023620887238581688
-0.004021547570074396   -0.07   -0.0021982345771500026
-0.007544613165073181   -0.06858698309711109   -0.0022860054575879907
-0.006748490418720217   -0.06898747837862008   -0.0023620887238581688
-0.0036864266087221647   -0.07   -0.002655600910582599
-0.004021547570074396   -0.07   -0.0021982345771500026
-0.006586550962346379   -0.06891284418936604   -0.002186987443744251
-0.0030779839522187746   -0.07   -0.002265018047552943
-0.003729299198511559   -0.07   -0.001925112228029177
-0.006586550962346379   -0.06891284418936604   -0.002186987443744251
-0.007544613165073181   -0.06858698309711109   -0.0022860054575879907
-0.0030779839522187746   -0.07   -0.002265018047552943
-0.007148829840183362   -0.06857838020451618   -0.0019794066684450436
-0.003729299198511559   -0.07   -0.001925112228029177
-0.0025927638078704174   -0.07   -0.0018913815804241412
-0.007148829840183362   -0.06857838020451618   -0.0019794066684450436
-0.0030779839522187746   -0.07   -0.002265018047552943
-0.003729299198511559   -0.07   -0.001925112228029177
-0.007148829840183362   -0.06857838020451618   -0.0019794066684450436
-0.006372842262451362   -0.0688959178267551   -0.001998686516818038
-0.006586550962346379   -0.06891284418936604   -0.002186987443744251
-0.003729299198511559   -0.07   -0.001925112228029177
-0.007148829840183362   -0.06857838020451618   -0.0019794066684450436
-0.006586550962346379   -0.06891284418936604   -0.002186987443744251
-0.0030779839522187746   -0.07   -0.002265018047552943
-0.003729299198511559   -0.07   -0.001925112228029177
-0.006372842262451362   -0.0688959178267551   -0.001998686516818038
-0.0025927638078704174   -0.07   -0.0018913815804241412
-0.0034436802325624044   -0.07   -0.0016556048338129577
-0.006372842262451362   -0.0688959178267551   -0.001998686516818038
-0.007148829840183362   -0.06857838020451618   -0.0019794066684450436
-0.0025927638078704174   -0.07   -0.0018913815804241412
-0.006648986387336762   -0.06866099796614739   -0.0016587759816512411
-0.0034436802325624044   -0.07   -0.0016556048338129577
-0.0019933847445561515   -0.07   -0.001503500806526936
-0.006648986387336762   -0.06866099796614739   -0.0016587759816512411
-0.0025927638078704174   -0.07   -0.0018913815804241412
-0.0034436802325624044   -0.07   -0.0016556048338129577
-0.006648986387336762   -0.06866099796614739   -0.0016587759816512411
-0.0061718612581216   -0.06892557491811857   -0.0018031270886965712
-0.006372842262451362   -0.0688959178267551   -0.001998686516818038
-0.0034436802325624044   -0.07   -0.0016556048338129577
-0.006648986387336762   -0.06866099796614739   -0.0016587759816512411
-0.006372842262451362   -0.0688959178267551   -0.001998686516818038
-0.0025927638078704174   -0.07   -0.0018913815804241412
-0.004977001911276317   -0.06856422469994825   -0.0014746835628408515
-0.002036613106489549   -0.06597900098270405   -0.0012740564975053314
-0.005276193786132552   -0.06882955195223793   -0.0017408251928344302
-0.004631719509295621   -0.06844508954802171   -0.0017021109390676892
-0.002036613106489549   -0.06597900098270405   -0.0012740564975053314
-0.0037892989310544427   -0.066179237903715   -0.0015567673659429143
-0.005276193786132552   -0.06882955195223793   -0.0017408251928344302
-0.0036932258058192525   -0.0660669726211007   -0.0016433970619960374
-0.004631719509295621   -0.06844508954802171   -0.0017021109390676892
-0.005140946988627234   -0.06873677831960978   -0.0018379661054244358
-0.0036932258058192525   -0.0660669726211007   -0.0016433970619960374
-0.005276193786132552   -0.06882955195223793   -0.0017408251928344302
-0.004631719509295621   -0.06844508954802171   -0.0017021109390676892
-0.0036932258058192525   -0.0660669726211007   -0.0016433970619960374
-0.0017612412870898814   -0.0658400610538464   -0.001470670628200229
-0.002036613106489549   -0.06597900098270405   -0.0012740564975053314
-0.004631719509295621   -0.06844508954802171   -0.0017021109390676892
-0.0036932258058192525   -0.0660669726211007   -0.0016433970619960374
-0.002036613106489549   -0.06597900098270405   -0.0012740564975053314
-0.005276193786132552   -0.06882955195223793   -0.0017408251928344302
-0.004631719509295621   -0.06844508954802171   -0.0017021109390676892
-0.0017612412870898814   -0.0658400610538464   -0.001470670628200229
-0.005140946988627234   -0.06873677831960978   -0.0018379661054244358
-0.004344313694164699   -0.06840852772024199   -0.0019202273949589324
-0.0017612412870898814   -0.0658400610538464   -0.001470670628200229
-0.0036932258058192525   -0.0660669726211007   -0.0016433970619960374
-0.005140946988627234   -0.06873677831960978   -0.0018379661054244358
-0.003585044167222709   -0.0660048580235144   -0.0017222284965433246
-0.004344313694164699   -0.06840852772024199   -0.0019202273949589324
-0.004982288969423522   -0.06870262998257962   -0.0019276032097948774
-0.003585044167222709   -0.0660048580235144   -0.0017222284965433246
-0.005140946988627234   -0.06873677831960978   -0.0018379661054244358
-0.004344313694164699   -0.06840852772024199   -0.0019202273949589324
-0.003585044167222709   -0.0660048580235144   -0.0017222284965433246
-0.0015445540666770366   -0.06577398945296507   -0.0016557263688517707
-0.0017612412870898814   -0.0658400610538464   -0.001470670628200229
-0.004344313694164699   -0.06840852772024199   -0.0019202273949589324
-0.003585044167222709   -0.0660048580235144   -0.0017222284965433246
-0.0017612412870898814   -0.0658400610538464   -0.001470670628200229
-0.005140946988627234   -0.06873677831960978   -0.0018379661054244358
-0.004344313694164699   -0.06840852772024199   -0.0019202273949589324
-0.0015445540666770366   -0.06577398945296507   -0.0016557263688517707
-0.004982288969423522   -0.06870262998257962   -0.0019276032097948774
-0.004019091628485967   -0.06843968100490948   -0.002128066862470432
-0.0015445540666770366   -0.06577398945296507   -0.0016557263688517707
-0.003585044167222709   -0.0660048580235144   -0.0017222284965433246
-0.004982288969423522   -0.06870262998257962   -0.0019276032097948774
-0.0035021076087853598   -0.06599115775446661   -0.0017935115353602624
-0.004019091628485967   -0.06843968100490948   -0.002128066862470432
-0.004846388788532456   -0.06872760504852052   -0.002009269174443435
-0.0035021076087853598   -0.06599115775446661   -0.0017935115353602624
-0.004982288969423522   -0.06870262998257962   -0.0019276032097948774
-0.004019091628485967   -0.06843968100490948   -0.002128066862470432
-0.0035021076087853598   -0.06599115775446661   -0.0017935115353602624
-0.0013078606558310584   -0.06576178466771039   -0.0018287360407250447
-0.0015445540666770366   -0.06577398945296507   -0.0016557263688517707
-0.004019091628485967   -0.06843968100490948   -0.002128066862470432
-0.0035021076087853598   -0.06599115775446661   -0.0017935115353602624
-0.0015445540666770366   -0.06577398945296507   -0.0016557263688517707
-0.004982288969423522   -0.06870262998257962   -0.0019276032097948774
-0.005276193786132552   -0.06882955195223793   -0.0017408251928344302
-0.0037892989310544427   -0.066179237903715   -0.0015567673659429143
-0.005682273548332598   -0.06899343278681981   -0.0019535956655729885
-0.005140946988627234   -0.06873677831960978   -0.0018379661054244358
-0.0037892989310544427   -0.066179237903715   -0.0015567673659429143
-0.005519821151543012   -0.06624984586002132   -0.0017873279211456099
-0.005682273548332598   -0.06899343278681981   -0.0019535956655729885
-0.005439057303419941   -0.0661519067671121   -0.0017920786020385528
-0.005140946988627234   -0.06873677831960978   -0.0018379661054244358
-0.005562588515775574   -0.06891058457188465   -0.001956117714024556
-0.005439057303419941   -0.0661519067671121   -0.0017920786020385528
-0.005682273548332598   -0.06899343278681981   -0.0019535956655729885
-0.005140946988627234   -0.06873677831960978   -0.0018379661054244358
-0.005439057303419941   -0.0661519067671121   -0.0017920786020385528
-0.0036932258058192525   -0.0660669726211007   -0.0016433970619960374
-0.0037892989310544427   -0.066179237903715   -0.0015567673659429143
-0.005140946988627234   -0.06873677831960978   -0.0018379661054244358
-0.005439057303419941   -0.0661519067671121   -0.0017920786020385528
-0.0037892989310544427   -0.066179237903715   -0.0015567673659429143
-0.005682273548332598   -0.06899343278681981   -0.0019535956655729885
-0.005140946988627234   -0.06873677831960978   -0.0018379661054244358
-0.0036932258058192525   -0.0660669726211007   -0.0016433970619960374
-0.005562588515775574   -0.06891058457188465   -0.001956117714024556
-0.004982288969423522   -0.06870262998257962   -0.0019276032097948774
-0.0036932258058192525   -0.0660669726211007   -0.0016433970619960374
-0.005439057303419941   -0.0661519067671121   -0.0017920786020385528
-0.005562588515775574   -0.06891058457188465   -0.001956117714024556
-0.005355522695432585   -0.06609917530734409   -0.0017896068725080034
-0.004982288969423522   -0.06870262998257962   -0.0019276032097948774
-0.005429376925438573   -0.06888083298644983   -0.0019489114538235118
-0.005355522695432585   -0.06609917530734409   -0.0017896068725080034
-0.005562588515775574   -0.06891058457188465   -0.001956117714024556
-0.004982288969423522   -0.06870262998257962   -0.0019276032097948774
-0.005355522695432585   -0.06609917530734409   -0.0017896068725080034
-0.003585044167222709   -0.0660048580235144   -0.0017222284965433246
-0.0036932258058192525   -0.0660669726211007   -0.0016433970619960374
-0.004982288969423522   -0.06870262998257962   -0.0019276032097948774
-0.005355522695432585   -0.06609917530734409   -0.0017896068725080034
-0.0036932258058192525   -0.0660669726211007   -0.0016433970619960374
-0.005562588515775574   -0.06891058457188465   -0.001956117714024556
-0.004982288969423522   -0.06870262998257962   -0.0019276032097948774
-0.003585044167222709   -0.0660048580235144   -0.0017222284965433246
-0.005429376925438573   -0.06888083298644983   -0.0019489114538235118
-0.004846388788532456   -0.06872760504852052   -0.002009269174443435
-0.003585044167222709   -0.0660048580235144   -0.0017222284965433246
-0.005355522695432585   -0.06609917530734409   -0.0017896068725080034
-0.005429376925438573   -0.06888083298644983   -0.0019489114538235118
-0.0052749650775028994   -0.06608947866411805   -0.0017798464478050475
-0.004846388788532456   -0.06872760504852052   -0.002009269174443435
-0.0052939426068887895   -0.06890175999300267   -0.0019340711401518685
-0.0052749650775028994   -0.06608947866411805   -0.0017798464478050475
-0.005429376925438573   -0.06888083298644983   -0.0019489114538235118
-0.004846388788532456   -0.06872760504852052   -0.002009269174443435
-0.0052749650775028994   -0.06608947866411805   -0.0017798464478050475
-0.0035021076087853598   -0.06599115775446661   -0.0017935115353602624
-0.003585044167222709   -0.0660048580235144   -0.0017222284965433246
-0.004846388788532456   -0.06872760504852052   -0.002009269174443435
-0.0052749650775028994   -0.06608947866411805   -0.0017798464478050475
-0.003585044167222709   -0.0660048580235144   -0.0017222284965433246
-0.005429376925438573   -0.06888083298644983   -0.0019489114538235118
-0.005682273548332598   -0.06899343278681981   -0.0019535956655729885
-0.005519821151543012   -0.06624984586002132   -0.0017873279211456099
-0.006117734652566283   -0.0690620717650201   -0.0021630358178765245
-0.005562588515775574   -0.06891058457188465   -0.001956117714024556
-0.005519821151543012   -0.06624984586002132   -0.0017873279211456099
-0.007238431900608707   -0.06618699603037365   -0.0020031188264428065
-0.006117734652566283   -0.0690620717650201   -0.0021630358178765245
-0.007158306249050354   -0.06610000589706723   -0.0019293556245362782
-0.005562588515775574   -0.06891058457188465   -0.001956117714024556
-0.005993753093642795   -0.06898305490519924   -0.0020745736978501706
-0.007158306249050354   -0.06610000589706723   -0.0019293556245362782
-0.006117734652566283   -0.0690620717650201   -0.0021630358178765245
-0.005562588515775574   -0.06891058457188465   -0.001956117714024556
-0.007158306249050354   -0.06610000589706723   -0.0019293556245362782
-0.005439057303419941   -0.0661519067671121   -0.0017920786020385528
-0.005519821151543012   -0.06624984586002132   -0.0017873279211456099
-0.005562588515775574   -0.06891058457188465   -0.001956117714024556
-0.007158306249050354   -0.06610000589706723   -0.0019293556245362782
-0.005519821151543012   -0.06624984586002132   -0.0017873279211456099
-0.006117734652566283   -0.0690620717650201   -0.0021630358178765245
-0.005562588515775574   -0.06891058457188465   -0.001956117714024556
-0.005439057303419941   -0.0661519067671121   -0.0017920786020385528
-0.005993753093642795   -0.06898305490519924   -0.0020745736978501706
-0.005429376925438573   -0.06888083298644983   -0.0019489114538235118
-0.005439057303419941   -0.0661519067671121   -0.0017920786020385528
-0.007158306249050354   -0.06610000589706723   -0.0019293556245362782
-0.005993753093642795   -0.06898305490519924   -0.0020745736978501706
-0.007068387643590914   -0.0660574665345138   -0.0018484776067450661
-0.005429376925438573   -0.06888083298644983   -0.0019489114538235118
-0.005845055803923366   -0.06895800054185544   -0.0019742629172400175
-0.007068387643590914   -0.0660574665345138   -0.0018484776067450661
-0.005993753093642795   -0.06898305490519924   -0.0020745736978501706
-0.005429376925438573   -0.06888083298644983   -0.0019489114538235118
-0.007068387643590914   -0.0660574665345138   -0.0018484776067450661
-0.005355522695432585   -0.06609917530734409   -0.0017896068725080034
-0.005439057303419941   -0.0661519067671121   -0.0017920786020385528
-0.005429376925438573   -0.06888083298644983   -0.0019489114538235118
-0.007068387643590914   -0.0660574665345138   -0.0018484776067450661
-0.005439057303419941   -0.0661519067671121   -0.0017920786020385528
-0.005993753093642795   -0.06898305490519924   -0.0020745736978501706
-0.005429376925438573   -0.06888083298644983   -0.0019489114538235118
-0.005355522695432585   -0.06609917530734409   -0.0017896068725080034
-0.005845055803923366   -0.06895800054185544   -0.0019742629172400175
-0.0052939426068887895   -0.06890175999300267   -0.0019340711401518685
-0.005355522695432585   -0.06609917530734409   -0.0017896068725080034
-0.007068387643590914   -0.0660574665345138   -0.0018484776067450661
-0.005845055803923366   -0.06895800054185544   -0.0019742629172400175
-0.006978103195494353   -0.06605510720629182   -0.0017596180506108765
-0.0052939426068887895   -0.06890175999300267   -0.0019340711401518685
-0.005692147333101258   -0.068978448545266   -0.001867428748889043
-0.006978103195494353   -0.06605510720629182   -0.0017596180506108765
-0.005845055803923366   -0.06895800054185544   -0.0019742629172400175
-0.0052939426068887895   -0.06890175999300267   -0.0019340711401518685
-0.006978103195494353   -0.06605510720629182   -0.0017596180506108765
-0.0052749650775028994   -0.06608947866411805   -0.0017798464478050475
-0.005355522695432585   -0.06609917530734409   -0.0017896068725080034
-0.0052939426068887895   -0.06890175999300267   -0.0019340711401518685
-0.006978103195494353   -0.06605510720629182   -0.0017596180506108765
-0.005355522695432585   -0.06609917530734409   -0.0017896068725080034
-0.005845055803923366   -0.06895800054185544   -0.0019742629172400175
-0.006117734652566283   -0.0690620717650201   -0.0021630358178765245
-0.007238431900608707   -0.06618699603037365   -0.0020031188264428065
-0.006748490418720217   -0.06898747837862008   -0.0023620887238581688
-0.005993753093642795   -0.06898305490519924   -0.0020745736978501706
-0.007238431900608707   -0.06618699603037365   -0.0020031188264428065
-0.009126447224242515   -0.06598237894007987   -0.002201355792279261
-0.006748490418720217   -0.06898747837862008   -0.0023620887238581688
-0.009028344646270357   -0.06590635637073293   -0.0020508205890098466
-0.005993753093642795   -0.06898305490519924   -0.0020745736978501706
-0.006586550962346379   -0.06891284418936604   -0.002186987443744251
-0.009028344646270357   -0.06590635637073293   -0.0020508205890098466
-0.006748490418720217   -0.06898747837862008   -0.0023620887238581688
-0.005993753093642795   -0.06898305490519924   -0.0020745736978501706
-0.009028344646270357   -0.06590635637073293   -0.0020508205890098466
-0.007158306249050354   -0.06610000589706723   -0.0019293556245362782
-0.007238431900608707   -0.06618699603037365   -0.0020031188264428065
-0.005993753093642795   -0.06898305490519924   -0.0020745736978501706
-0.009028344646270357   -0.06590635637073293   -0.0020508205890098466
-0.007238431900608707   -0.06618699603037365   -0.0020031188264428065
-0.006748490418720217   -0.06898747837862008   -0.0023620887238581688
-0.005993753093642795   -0.06898305490519924   -0.0020745736978501706
-0.007158306249050354   -0.06610000589706723   -0.0019293556245362782
-0.006586550962346379   -0.06891284418936604   -0.002186987443744251
-0.005845055803923366   -0.06895800054185544   -0.0019742629172400175
-0.007158306249050354   -0.06610000589706723   -0.0019293556245362782
-0.009028344646270357   -0.06590635637073293   -0.0020508205890098466
-0.006586550962346379   -0.06891284418936604   -0.002186987443744251
-0.008892880799638483   -0.0658739685365379   -0.0018936945955760113
-0.005845055803923366   -0.06895800054185544   -0.0019742629172400175
-0.006372842262451362   -0.0688959178267551   -0.001998686516818038
-0.008892880799638483   -0.0658739685365379   -0.0018936945955760113
-0.006586550962346379   -0.06891284418936604   -0.002186987443744251
-0.005845055803923366   -0.06895800054185544   -0.0019742629172400175
-0.008892880799638483   -0.0658739685365379   -0.0018936945955760113
-0.007068387643590914   -0.0660574665345138   -0.0018484776067450661
-0.007158306249050354   -0.06610000589706723   -0.0019293556245362782
-0.005845055803923366   -0.06895800054185544   -0.0019742629172400175
-0.008892880799638483   -0.0658739685365379   -0.0018936945955760113
-0.007158306249050354   -0.06610000589706723   -0.0019293556245362782
-0.006586550962346379   -0.06891284418936604   -0.002186987443744251
-0.005845055803923366   -0.06895800054185544   -0.0019742629172400175
-0.007068387643590914   -0.0660574665345138   -0.0018484776067450661
-0.006372842262451362   -0.0688959178267551   -0.001998686516818038
-0.005692147333101258   -0.068978448545266   -0.001867428748889043
-0.007068387643590914   -0.0660574665345138   -0.0018484776067450661
-0.008892880799638483   -0.0658739685365379   -0.0018936945955760113
-0.006372842262451362   -0.0688959178267551   -0.001998686516818038
-0.00877467537222875   -0.06588526533933514   -0.0017256045150538628
-0.005692147333101258   -0.068978448545266   -0.001867428748889043
-0.0061718612581216   -0.06892557491811857   -0.0018031270886965712
-0.00877467537222875   -0.06588526533933514   -0.0017256045150538628
-0.006372842262451362   -0.0688959178267551   -0.001998686516818038
-0.005692147333101258   -0.068978448545266   -0.001867428748889043
-0.00877467537222875   -0.06588526533933514   -0.0017256045150538628
-0.006978103195494353   -0.06605510720629182   -0.0017596180506108765
-0.007068387643590914   -0.0660574665345138   -0.0018484776067450661
-0.005692147333101258   -0.068978448545266   -0.001867428748889043
-0.00877467537222875   -0.06588526533933514   -0.0017256045150538628
-0.007068387643590914   -0.0660574665345138   -0.0018484776067450661
-0.006372842262451362   -0.0688959178267551   -0.001998686516818038
-0.006748490418720217   -0.06898747837862008   -0.0023620887238581688
-0.009126447224242515   -0.06598237894007987   -0.002201355792279261
-0.007975442156832529   -0.0686499471178666   -0.002573275225329302
-0.006586550962346379   -0.06891284418936604   -0.002186987443744251
-0.009126447224242515   -0.06598237894007987   -0.002201355792279261
-0.011557727670109798   -0.06564960483627541   -0.0023916919785134413
-0.007975442156832529   -0.0686499471178666   -0.002573275225329302
-0.011241513997547789   -0.065567157203632   -0.002154015561723796
-0.006586550962346379   -0.06891284418936604   -0.002186987443744251
-0.007544613165073181   -0.06858698309711109   -0.0022860054575879907
-0.011241513997547789   -0.065567157203632   -0.002154015561723796
-0.007975442156832529   -0.0686499471178666   -0.002573275225329302
-0.006586550962346379   -0.06891284418936604   -0.002186987443744251
-0.011241513997547789   -0.065567157203632   -0.002154015561723796
-0.009028344646270357   -0.06590635637073293   -0.0020508205890098466
-0.009126447224242515   -0.06598237894007987   -0.002201355792279261
-0.006586550962346379   -0.06891284418936604   -0.002186987443744251
-0.011241513997547789   -0.065567157203632   -0.002154015561723796
-0.009126447224242515   -0.06598237894007987   -0.002201355792279261
-0.007975442156832529   -0.0686499471178666   -0.002573275225329302
-0.006586550962346379   -0.06891284418936604   -0.002186987443744251
-0.009028344646270357   -0.06590635637073293   -0.0020508205890098466
-0.007544613165073181   -0.06858698309711109   -0.0022860054575879907
-0.006372842262451362   -0.0688959178267551   -0.001998686516818038
-0.009028344646270357   -0.06590635637073293   -0.0020508205890098466
-0.011241513997547789   -0.065567157203632   -0.002154015561723796
-0.007544613165073181   -0.06858698309711109   -0.0022860054575879907
-0.010958126706237843   -0.06553719946926331   -0.0019025137745621596
-0.006372842262451362   -0.0688959178267551   -0.001998686516818038
-0.007148829840183362   -0.06857838020451618   -0.0019794066684450436
-0.010958126706237843   -0.06553719946926331   -0.0019025137745621596
-0.007544613165073181   -0.06858698309711109   -0.0022860054575879907
-0.006372842262451362   -0.0688959178267551   -0.001998686516818038
-0.010958126706237843   -0.06553719946926331   -0.0019025137745621596
-0.008892880799638483   -0.0658739685365379   -0.0018936945955760113
-0.009028344646270357   -0.06590635637073293   -0.0020508205890098466
-0.006372842262451362   -0.0688959178267551   -0.001998686516818038
-0.010958126706237843   -0.06553719946926331   -0.0019025137745621596
-0.009028344646270357   -0.06590635637073293   -0.0020508205890098466
-0.007544613165073181   -0.06858698309711109   -0.0022860054575879907
-0.006372842262451362   -0.0688959178267551   -0.001998686516818038
-0.008892880799638483   -0.0658739685365379   -0.0018936945955760113
-0.007148829840183362   -0.06857838020451618   -0.0019794066684450436
-0.0061718612581216   -0.06892557491811857   -0.0018031270886965712
-0.008892880799638483   -0.0658739685365379   -0.0018936945955760113
-0.010958126706237843   -0.06553719946926331   -0.0019025137745621596
-0.007148829840183362   -0.06857838020451618   -0.0019794066684450436
-0.01059084942199029   -0.06557520511580817   -0.0016395743295329935
-0.0061718612581216   -0.06892557491811857   -0.0018031270886965712
-0.006648986387336762   -0.06866099796614739   -0.0016587759816512411
-0.01059084942199029   -0.06557520511580817   -0.0016395743295329935
-0.007148829840183362   -0.06857838020451618   -0.0019794066684450436
-0.0061718612581216   -0.06892557491811857   -0.0018031270886965712
-0.01059084942199029   -0.06557520511580817   -0.0016395743295329935
-0.00877467537222875   -0.06588526533933514   -0.0017256045150538628
-0.008892880799638483   -0.0658739685365379   -0.0018936945955760113
-0.0061718612581216   -0.06892557491811857   -0.0018031270886965712
-0.01059084942199029   -0.06557520511580817   -0.0016395743295329935
-0.008892880799638483   -0.0658739685365379   -0.0018936945955760113
-0.007148829840183362   -0.06857838020451618   -0.0019794066684450436
-0.002036613106489549   -0.06597900098270405   -0.0012740564975053314
0.0003493304609106275   -0.06121773731155564   -0.001053763860024078
-0.0037892989310544427   -0.066179237903715   -0.0015567673659429143
-0.0017612412870898814   -0.0658400610538464   -0.001470670628200229
0.0003493304609106275   -0.06121773731155564   -0.001053763860024078
-0.0026082214427867855   -0.06136464223337119   -0.0013313358137472138
-0.0037892989310544427   -0.066179237903715   -0.0015567673659429143
-0.0025572766198502807   -0.061246984093545336   -0.0014000846501282735
-0.0017612412870898814   -0.0658400610538464   -0.001470670628200229
-0.0036932258058192525   -0.0660669726211007   -0.0016433970619960374
-0.0025572766198502807   -0.061246984093545336   -0.0014000846501282735
-0.0037892989310544427   -0.066179237903715   -0.0015567673659429143
-0.0017612412870898814   -0.0658400610538464   -0.001470670628200229
-0.0025572766198502807   -0.061246984093545336   -0.0014000846501282735
0.000541715156474172   -0.061076563228242946   -0.0012103800215059963
0.0003493304609106275   -0.06121773731155564   -0.001053763860024078
-0.0017612412870898814   -0.0658400610538464   -0.001470670628200229
-0.0025572766198502807   -0.061246984093545336   -0.0014000846501282735
0.0003493304609106275   -0.06121773731155564   -0.001053763860024078
-0.0037892989310544427   -0.066179237903715   -0.0015567673659429143
-0.0017612412870898814   -0.0658400610538464   -0.001470670628200229
0.000541715156474172   -0.061076563228242946   -0.0012103800215059963
-0.0036932258058192525   -0.0660669726211007   -0.0016433970619960374
-0.0015445540666770366   -0.06577398945296507   -0.0016557263688517707
0.000541715156474172   -0.061076563228242946   -0.0012103800215059963
-0.0025572766198502807   -0.061246984093545336   -0.0014000846501282735
-0.0036932258058192525   -0.0660669726211007   -0.0016433970619960374
-0.0024992463461876377   -0.061170235414244496   -0.0014608376977805373
-0.0015445540666770366   -0.06577398945296507   -0.0016557263688517707
-0.003585044167222709   -0.0660048580235144   -0.0017222284965433246
-0.0024992463461876377   -0.061170235414244496   -0.0014608376977805373
-0.0036932258058192525   -0.0660669726211007   -0.0016433970619960374
-0.0015445540666770366   -0.06577398945296507   -0.0016557263688517707
-0.0024992463461876377   -0.061170235414244496   -0.0014608376977805373
0.0006832440493708919   -0.06099509542437162   -0.0013558046282917985
0.000541715156474172   -0.061076563228242946   -0.0012103800215059963
-0.0015445540666770366   -0.06577398945296507   -0.0016557263688517707
-0.0024992463461876377   -0.061170235414244496   -0.0014608376977805373
0.000541715156474172   -0.061076563228242946   -0.0012103800215059963
-0.0036932258058192525   -0.0660669726211007   -0.0016433970619960374
-0.0015445540666770366   -0.06577398945296507   -0.0016557263688517707
0.0006832440493708919   -0.06099509542437162   -0.0013558046282917985
-0.003585044167222709   -0.0660048580235144   -0.0017222284965433246
-0.0013078606558310584   -0.06576178466771039   -0.0018287360407250447
0.0006832440493708919   -0.06099509542437162   -0.0013558046282917985
-0.0024992463461876377   -0.061170235414244496   -0.0014608376977805373
-0.003585044167222709   -0.0660048580235144   -0.0017222284965433246
-0.00246455024091454   -0.06113212175481861   -0.0015143845306505542
-0.0013078606558310584   -0.06576178466771039   -0.0018287360407250447
-0.0035021076087853598   -0.06599115775446661   -0.0017935115353602624
-0.00246455024091454   -0.06113212175481861   -0.0015143845306505542
-0.003585044167222709   -0.0660048580235144   -0.0017222284965433246
-0.0013078606558310584   -0.06576178466771039   -0.0018287360407250447
-0.00246455024091454   -0.06113212175481861   -0.0015143845306505542
0.0008348041517231053   -0.06095510033740211   -0.0014899837602635152
0.0006832440493708919   -0.06099509542437162   -0.0013558046282917985
-0.0013078606558310584   -0.06576178466771039   -0.0018287360407250447
-0.00246455024091454   -0.06113212175481861   -0.0015143845306505542
0.0006832440493708919   -0.06099509542437162   -0.0013558046282917985
-0.003585044167222709   -0.0660048580235144   -0.0017222284965433246
-0.0037892989310544427   -0.066179237903715   -0.0015567673659429143
-0.0026082214427867855   -0.06136464223337119   -0.0013313358137472138
-0.005519821151543012   -0.06624984586002132   -0.0017873279211456099
-0.0036932258058192525   -0.0660669726211007   -0.0016433970619960374
-0.0026082214427867855   -0.06136464223337119   -0.0013313358137472138
-0.005469701840984391   -0.061392750895660035   -0.001559997311659872
-0.005519821151543012   -0.06624984586002132   -0.0017873279211456099
-0.005432265356047631   -0.06129176108610156   -0.001561751356624571
-0.0036932258058192525   -0.0660669726211007   -0.0016433970619960374
-0.005439057303419941   -0.0661519067671121   -0.0017920786020385528
-0.005432265356047631   -0.06129176108610156   -0.001561751356624571
-0.005519821151543012   -0.06624984586002132   -0.0017873279211456099
-0.0036932258058192525   -0.0660669726211007   -0.0016433970619960374
-0.005432265356047631   -0.06129176108610156   -0.001561751356624571
-0.0025572766198502807   -0.061246984093545336   -0.0014000846501282735
-0.0026082214427867855   -0.06136464223337119   -0.0013313358137472138
-0.0036932258058192525   -0.0660669726211007   -0.0016433970619960374
-0.005432265356047631   -0.06129176108610156   -0.001561751356624571
-0.0026082214427867855   -0.06136464223337119   -0.0013313358137472138
-0.005519821151543012   -0.06624984586002132   -0.0017873279211456099
-0.0036932258058192525   -0.0660669726211007   -0.0016433970619960374
-0.0025572766198502807   -0.061246984093545336   -0.0014000846501282735
-0.005439057303419941   -0.0661519067671121   -0.0017920786020385528
-0.003585044167222709   -0.0660048580235144   -0.0017222284965433246
-0.0025572766198502807   -0.061246984093545336   -0.0014000846501282735
-0.005432265356047631   -0.06129176108610156   -0.001561751356624571
-0.005439057303419941   -0.0661519067671121   -0.0017920786020385528
-0.005393767192972501   -0.06122738609205637   -0.0015558440989842392
-0.003585044167222709   -0.0660048580235144   -0.0017222284965433246
-0.005355522695432585   -0.06609917530734409   -0.0017896068725080034
-0.005393767192972501   -0.06122738609205637   -0.0015558440989842392
-0.005439057303419941   -0.0661519067671121   -0.0017920786020385528
-0.003585044167222709   -0.0660048580235144   -0.0017222284965433246
-0.005393767192972501   -0.06122738609205637   -0.0015558440989842392
-0.0024992463461876377   -0.061170235414244496   -0.0014608376977805373
-0.0025572766198502807   -0.061246984093545336   -0.0014000846501282735
-0.003585044167222709   -0.0660048580235144   -0.0017222284965433246
-0.005393767192972501   -0.06122738609205637   -0.0015558440989842392
-0.0025572766198502807   -0.061246984093545336   -0.0014000846501282735
-0.005439057303419941   -0.0661519067671121   -0.0017920786020385528
-0.003585044167222709   -0.0660048580235144   -0.0017222284965433246
-0.0024992463461876377   -0.061170235414244496   -0.0014608376977805373
-0.005355522695432585   -0.06609917530734409   -0.0017896068725080034
-0.0035021076087853598   -0.06599115775446661   -0.0017935115353602624
-0.0024992463461876377   -0.061170235414244496   -0.0014608376977805373
-0.005393767192972501   -0.06122738609205637   -0.0015558440989842392
-0.005355522695432585   -0.06609917530734409   -0.0017896068725080034
-0.00536009582322654   -0.06119902339776142   -0.0015427865266586507
-0.0035021076087853598   -0.06599115775446661   -0.0017935115353602624
-0.0052749650775028994   -0.06608947866411805   -0.0017798464478050475
-0.00536009582322654   -0.06119902339776142   -0.0015427865266586507
-0.005355522695432585   -0.06609917530734409   -0.0017896068725080034
-0.0035021076087853598   -0.06599115775446661   -0.0017935115353602624
-0.00536009582322654   -0.06119902339776142   -0.0015427865266586507
-0.00246455024091454   -0.06113212175481861   -0.0015143845306505542
-0.0024992463461876377   -0.061170235414244496   -0.0014608376977805373
-0.0035021076087853598   -0.06599115775446661   -0.0017935115353602624
-0.00536009582322654   -0.06119902339776142   -0.0015427865266586507
-0.0024992463461876377   -0.061170235414244496   -0.0014608376977805373
-0.005355522695432585   -0.06609917530734409   -0.0017896068725080034
-0.005519821151543012   -0.06624984586002132   -0.0017873279211456099
-0.005469701840984391   -0.061392750895660035   -0.001559997311659872
-0.007238431900608707   -0.06618699603037365   -0.0020031188264428065
-0.005439057303419941   -0.0661519067671121   -0.0017920786020385528
-0.005469701840984391   -0.061392750895660035   -0.001559997311659872
-0.008286275785982991   -0.06130159040187197   -0.0017663979689360682
-0.007238431900608707   -0.06618699603037365   -0.0020031188264428065
-0.008251423755404658   -0.06121446103885287   -0.0017027719579878716
-0.005439057303419941   -0.0661519067671121   -0.0017920786020385528
-0.007158306249050354   -0.06610000589706723   -0.0019293556245362782
-0.008251423755404658   -0.06121446103885287   -0.0017027719579878716
-0.007238431900608707   -0.06618699603037365   -0.0020031188264428065
-0.005439057303419941   -0.0661519067671121   -0.0017920786020385528
-0.008251423755404658   -0.06121446103885287   -0.0017027719579878716
-0.005432265356047631   -0.06129176108610156   -0.001561751356624571
-0.005469701840984391   -0.061392750895660035   -0.001559997311659872
-0.005439057303419941   -0.0661519067671121   -0.0017920786020385528
-0.008251423755404658   -0.06121446103885287   -0.0017027719579878716
-0.005469701840984391   -0.061392750895660035   -0.001559997311659872
-0.007238431900608707   -0.06618699603037365   -0.0020031188264428065
-0.005439057303419941   -0.0661519067671121   -0.0017920786020385528
-0.005432265356047631   -0.06129176108610156   -0.001561751356624571
-0.007158306249050354   -0.06610000589706723   -0.0019293556245362782
-0.005355522695432585   -0.06609917530734409   -0.0017896068725080034
-0.005432265356047631   -0.06129176108610156   -0.001561751356624571
-0.008251423755404658   -0.06121446103885287   -0.0017027719579878716
-0.007158306249050354   -0.06610000589706723   -0.0019293556245362782
-0.00820930854607071   -0.06116354408891144   -0.001631651351203935
-0.005355522695432585   -0.06609917530734409   -0.0017896068725080034
-0.007068387643590914   -0.0660574665345138   -0.0018484776067450661
-0.00820930854607071   -0.06116354408891144   -0.001631651351203935
-0.007158306249050354   -0.06610000589706723   -0.0019293556245362782
-0.005355522695432585   -0.06609917530734409   -0.0017896068725080034
-0.00820930854607071   -0.06116354408891144   -0.001631651351203935
-0.005393767192972501   -0.06122738609205637   -0.0015558440989842392
-0.005432265356047631   -0.06129176108610156   -0.001561751356624571
-0.005355522695432585   -0.06609917530734409   -0.0017896068725080034
-0.00820930854607071   -0.06116354408891144   -0.001631651351203935
-0.005432265356047631   -0.06129176108610156   -0.001561751356624571
-0.007158306249050354   -0.06610000589706723   -0.0019293556245362782
-0.005355522695432585   -0.06609917530734409   -0.0017896068725080034
-0.005393767192972501   -0.06122738609205637   -0.0015558440989842392
-0.007068387643590914   -0.0660574665345138   -0.0018484776067450661
-0.0052749650775028994   -0.06608947866411805   -0.0017798464478050475
-0.005393767192972501   -0.06122738609205637   -0.0015558440989842392
-0.00820930854607071   -0.06116354408891144   -0.001631651351203935
-0.007068387643590914   -0.0660574665345138   -0.0018484776067450661
-0.008168350693612719   -0.06114716005218638   -0.001553266825524395
-0.0052749650775028994   -0.06608947866411805   -0.0017798464478050475
-0.006978103195494353   -0.06605510720629182   -0.0017596180506108765
-0.008168350693612719   -0.06114716005218638   -0.001553266825524395
-0.007068387643590914   -0.0660574665345138   -0.0018484776067450661
-0.0052749650775028994   -0.06608947866411805   -0.0017798464478050475
-0.008168350693612719   -0.06114716005218638   -0.001553266825524395
-0.00536009582322654   -0.06119902339776142   -0.0015427865266586507
-0.005393767192972501   -0.06122738609205637   -0.0015558440989842392
-0.0052749650775028994   -0.06608947866411805   -0.0017798464478050475
-0.008168350693612719   -0.06114716005218638   -0.001553266825524395
-0.005393767192972501   -0.06122738609205637   -0.0015558440989842392
-0.007068387643590914   -0.0660574665345138   -0.0018484776067450661
-0.007238431900608707   -0.06618699603037365   -0.0020031188264428065
-0.008286275785982991   -0.06130159040187197   -0.0017663979689360682
-0.009126447224242515   -0.06598237894007987   -0.002201355792279261
-0.007158306249050354   -0.06610000589706723   -0.0019293556245362782
-0.008286275785982991   -0.06130159040187197   -0.0017663979689360682
-0.011237837775879764   -0.06109438120868281   -0.0019497584249048155
-0.009126447224242515   -0.06598237894007987   -0.002201355792279261
-0.01119229271583301   -0.06102047911828707   -0.0018206671270694032
-0.007158306249050354   -0.06610000589706723   -0.0019293556245362782
-0.009028344646270357   -0.06590635637073293   -0.0020508205890098466
-0.01119229271583301   -0.06102047911828707   -0.0018206671270694032
-0.009126447224242515   -0.06598237894007987   -0.002201355792279261
-0.007158306249050354   -0.06610000589706723   -0.0019293556245362782
-0.01119229271583301   -0.06102047911828707   -0.0018206671270694032
-0.008251423755404658   -0.06121446103885287   -0.0017027719579878716
-0.008286275785982991   -0.06130159040187197   -0.0017663979689360682
-0.007158306249050354   -0.06610000589706723   -0.0019293556245362782
-0.01119229271583301   -0.06102047911828707   -0.0018206671270694032
-0.008286275785982991   -0.06130159040187197   -0.0017663979689360682
-0.009126447224242515   -0.06598237894007987   -0.002201355792279261
-0.007158306249050354   -0.06610000589706723   -0.0019293556245362782
-0.008251423755404658   -0.06121446103885287   -0.0017027719579878716
-0.009028344646270357   -0.06590635637073293   -0.0020508205890098466
-0.007068387643590914   -0.0660574665345138   -0.0018484776067450661
-0.008251423755404658   -0.06121446103885287   -0.0017027719579878716
-0.01119229271583301   -0.06102047911828707   -0.0018206671270694032
-0.009028344646270357   -0.06590635637073293   -0.0020508205890098466
-0.011115071165671996   -0.06098176345573738   -0.0016852337354858833
-0.007068387643590914   -0.0660574665345138   -0.0018484776067450661
-0.008892880799638483   -0.0658739685365379   -0.0018936945955760113
-0.011115071165671996   -0.06098176345573738   -0.0016852337354858833
-0.009028344646270357   -0.06590635637073293   -0.0020508205890098466
-0.007068387643590914   -0.0660574665345138   -0.0018484776067450661
-0.011115071165671996   -0.06098176345573738   -0.0016852337354858833
-0.00820930854607071   -0.06116354408891144   -0.001631651351203935
-0.008251423755404658   -0.06121446103885287   -0.0017027719579878716
-0.007068387643590914   -0.0660574665345138   -0.0018484776067450661
-0.011115071165671996   -0.06098176345573738   -0.0016852337354858833
-0.008251423755404658   -0.06121446103885287   -0.0017027719579878716
-0.009028344646270357   -0.06590635637073293   -0.0020508205890098466
-0.007068387643590914   -0.0660574665345138   -0.0018484776067450661
-0.00820930854607071   -0.06116354408891144   -0.001631651351203935
-0.008892880799638483   -0.0658739685365379   -0.0018936945955760113
-0.006978103195494353   -0.06605510720629182   -0.0017596180506108765
-0.00820930854607071   -0.06116354408891144   -0.001631651351203935
-0.011115071165671996   -0.06098176345573738   -0.0016852337354858833
-0.008892880799638483   -0.0658739685365379   -0.0018936945955760113
-0.01105236837700996   -0.06098028658774758   -0.0015414790129972163
-0.006978103195494353   -0.06605510720629182   -0.0017596180506108765
-0.00877467537222875   -0.06588526533933514   -0.0017256045150538628
-0.01105236837700996   -0.06098028658774758   -0.0015414790129972163
-0.008892880799638483   -0.0658739685365379   -0.0018936945955760113
-0.006978103195494353   -0.06605510720629182   -0.0017596180506108765
-0.01105236837700996   -0.06098028658774758   -0.0015414790129972163
-0.008168350693612719   -0.06114716005218638   -0.001553266825524395
-0.00820930854607071   -0.06116354408891144   -0.001631651351203935
-0.006978103195494353   -0.06605510720629182   -0.0017596180506108765
-0.01105236837700996   -0.06098028658774758   -0.0015414790129972163
-0.00820930854607071   -0.06116354408891144   -0.001631651351203935
-0.008892880799638483   -0.0658739685365379   -0.0018936945955760113
-0.009126447224242515   -0.06598237894007987   -0.002201355792279261
-0.011237837775879764   -0.06109438120868281   -0.0019497584249048155
-0.011557727670109798   -0.06564960483627541   -0.0023916919785134413
-0.009028344646270357   -0.06590635637073293   -0.0020508205890098466
-0.011237837775879764   -0.06109438120868281   -0.0019497584249048155
-0.014679990883284852   -0.060795970451426574   -0.002120762074074761
-0.011557727670109798   -0.06564960483627541   -0.0023916919785134413
-0.01444654677390072   -0.06071887818073172   -0.001918691976377387
-0.009028344646270357   -0.06590635637073293   -0.0020508205890098466
-0.011241513997547789   -0.065567157203632   -0.002154015561723796
-0.01444654677390072   -0.06071887818073172   -0.001918691976377387
-0.011557727670109798   -0.06564960483627541   -0.0023916919785134413
-0.009028344646270357   -0.06590635637073293   -0.0020508205890098466
-0.01444654677390072   -0.06071887818073172   -0.001918691976377387
-0.01119229271583301   -0.06102047911828707   -0.0018206671270694032
-0.011237837775879764   -0.06109438120868281   -0.0019497584249048155
-0.009028344646270357   -0.06590635637073293   -0.0020508205890098466
-0.01444654677390072   -0.06071887818073172   -0.001918691976377387
-0.011237837775879764   -0.06109438120868281   -0.0019497584249048155
-0.011557727670109798   -0.06564960483627541   -0.0023916919785134413
-0.009028344646270357   -0.06590635637073293   -0.0020508205890098466
-0.01119229271583301   -0.06102047911828707   -0.0018206671270694032
-0.011241513997547789   -0.065567157203632   -0.002154015561723796
-0.008892880799638483   -0.0658739685365379   -0.0018936945955760113
-0.01119229271583301   -0.06102047911828707   -0.0018206671270694032
-0.01444654677390072   -0.06071887818073172   -0.001918691976377387
-0.011241513997547789   -0.065567157203632   -0.002154015561723796
-0.014243967709705723   -0.06068347497627947   -0.0017061626735399129
-0.008892880799638483   -0.0658739685365379   -0.0018936945955760113
-0.010958126706237843   -0.06553719946926331   -0.0019025137745621596
-0.014243967709705723   -0.06068347497627947   -0.0017061626735399129
-0.011241513997547789   -0.065567157203632   -0.002154015561723796
-0.008892880799638483   -0.0658739685365379   -0.0018936945955760113
-0.014243967709705723   -0.06068347497627947   -0.0017061626735399129
-0.011115071165671996   -0.06098176345573738   -0.0016852337354858833
-0.01119229271583301   -0.06102047911828707   -0.0018206671270694032
-0.008892880799638483   -0.0658739685365379   -0.0018936945955760113
-0.014243967709705723   -0.06068347497627947   -0.0017061626735399129
-0.01119229271583301   -0.06102047911828707   -0.0018206671270694032
-0.011241513997547789   -0.065567157203632   -0.002154015561723796
-0.008892880799638483   -0.0658739685365379   -0.0018936945955760113
-0.011115071165671996   -0.06098176345573738   -0.0016852337354858833
-0.010958126706237843   -0.06553719946926331   -0.0019025137745621596
-0.00877467537222875   -0.06588526533933514   -0.0017256045150538628
-0.011115071165671996   -0.06098176345573738   -0.0016852337354858833
-0.014243967709705723   -0.06068347497627947   -0.0017061626735399129
-0.010958126706237843   -0.06553719946926331   -0.0019025137745621596
-0.013971052637443778   -0.0607049806829596   -0.0014845280043972692
-0.00877467537222875   -0.06588526533933514   -0.0017256045150538628
-0.01059084942199029   -0.06557520511580817   -0.0016395743295329935
-0.013971052637443778   -0.0607049806829596   -0.0014845280043972692
-0.010958126706237843   -0.06553719946926331   -0.0019025137745621596
-0.00877467537222875   -0.06588526533933514   -0.0017256045150538628
-0.013971052637443778   -0.0607049806829596   -0.0014845280043972692
-0.01105236837700996   -0.06098028658774758   -0.0015414790129972163
-0.011115071165671996   -0.06098176345573738   -0.0016852337354858833
-0.00877467537222875   -0.06588526533933514   -0.0017256045150538628
-0.013971052637443778   -0.0607049806829596   -0.0014845280043972692
-0.011115071165671996   -0.06098176345573738   -0.0016852337354858833
-0.010958126706237843   -0.06553719946926331   -0.0019025137745621596
0.0003493304609106275   -0.06121773731155564   -0.001053763860024078
0.0021616484360548016   -0.05475137461480711   -0.0008029657472571625
-0.0026082214427867855   -0.06136464223337119   -0.0013313358137472138
0.000541715156474172   -0.061076563228242946   -0.0012103800215059963
0.0021616484360548016   -0.05475137461480711   -0.0008029657472571625
-0.001755119507667406   -0.0548485378340495   -0.001067917218807744
-0.0026082214427867855   -0.06136464223337119   -0.0013313358137472138
-0.0017444888509845536   -0.05473150884203336   -0.0011156045567697395
0.000541715156474172   -0.061076563228242946   -0.0012103800215059963
-0.0025572766198502807   -0.061246984093545336   -0.0014000846501282735
-0.0017444888509845536   -0.05473150884203336   -0.0011156045567697395
-0.0026082214427867855   -0.06136464223337119   -0.0013313358137472138
0.000541715156474172   -0.061076563228242946   -0.0012103800215059963
-0.0017444888509845536   -0.05473150884203336   -0.0011156045567697395
0.002276027036131541   -0.05461360616912029   -0.0009188624041938401
0.0021616484360548016   -0.05475137461480711   -0.0008029657472571625
0.000541715156474172   -0.061076563228242946   -0.0012103800215059963
-0.0017444888509845536   -0.05473150884203336   -0.0011156045567697395
0.0021616484360548016   -0.05475137461480711   -0.0008029657472571625
-0.0026082214427867855   -0.06136464223337119   -0.0013313358137472138
0.000541715156474172   -0.061076563228242946   -0.0012103800215059963
0.002276027036131541   -0.05461360616912029   -0.0009188624041938401
-0.0025572766198502807   -0.061246984093545336   -0.0014000846501282735
0.0006832440493708919   -0.06099509542437162   -0.0013558046282917985
0.002276027036131541   -0.05461360616912029   -0.0009188624041938401
-0.0017444888509845536   -0.05473150884203336   -0.0011156045567697395
-0.0025572766198502807   -0.061246984093545336   -0.0014000846501282735
-0.0017309615282888686   -0.05464676418470128   -0.0011559820811931321
0.0006832440493708919   -0.06099509542437162   -0.0013558046282917985
-0.0024992463461876377   -0.061170235414244496   -0.0014608376977805373
-0.0017309615282888686   -0.05464676418470128   -0.0011559820811931321
-0.0025572766198502807   -0.061246984093545336   -0.0014000846501282735
0.0006832440493708919   -0.06099509542437162   -0.0013558046282917985
-0.0017309615282888686   -0.05464676418470128   -0.0011559820811931321
0.0023491842960487687   -0.05452332498176657   -0.001024428522113088
0.002276027036131541   -0.05461360616912029   -0.0009188624041938401
0.0006832440493708919   -0.06099509542437162   -0.0013558046282917985
-0.0017309615282888686   -0.05464676418470128   -0.0011559820811931321
0.002276027036131541   -0.05461360616912029   -0.0009188624041938401
-0.0025572766198502807   -0.061246984093545336   -0.0014000846501282735
0.0006832440493708919   -0.06099509542437162   -0.0013558046282917985
0.0023491842960487687   -0.05452332498176657   -0.001024428522113088
-0.0024992463461876377   -0.061170235414244496   -0.0014608376977805373
0.0008348041517231053   -0.06095510033740211   -0.0014899837602635152
0.0023491842960487687   -0.05452332498176657   -0.001024428522113088
-0.0017309615282888686   -0.05464676418470128   -0.0011559820811931321
-0.0024992463461876377   -0.061170235414244496   -0.0014608376977805373
-0.001737361256229935   -0.0545915867629977   -0.001189582889435088
0.0008348041517231053   -0.06095510033740211   -0.0014899837602635152
-0.00246455024091454   -0.06113212175481861   -0.0015143845306505542
-0.001737361256229935   -0.0545915867629977   -0.001189582889435088
-0.0024992463461876377   -0.061170235414244496   -0.0014608376977805373
0.0008348041517231053   -0.06095510033740211   -0.0014899837602635152
-0.001737361256229935   -0.0545915867629977   -0.001189582889435088
0.002424342088456799   -0.05446299187909632   -0.0011198813077746635
0.0023491842960487687   -0.05452332498176657   -0.001024428522113088
0.0008348041517231053   -0.06095510033740211   -0.0014899837602635152
-0.001737361256229935   -0.0545915867629977   -0.001189582889435088
0.0023491842960487687   -0.05452332498176657   -0.001024428522113088
-0.0024992463461876377   -0.061170235414244496   -0.0014608376977805373
-0.0026082214427867855   -0.06136464223337119   -0.0013313358137472138
-0.001755119507667406   -0.0548485378340495   -0.001067917218807744
-0.005469701840984391   -0.061392750895660035   -0.001559997311659872
-0.0025572766198502807   -0.061246984093545336   -0.0014000846501282735
-0.001755119507667406   -0.0548485378340495   -0.001067917218807744
-0.005524463439774713   -0.0548490758721399   -0.0012863732513821336
-0.005469701840984391   -0.061392750895660035   -0.001559997311659872
-0.0055249312086761   -0.05475007972506285   -0.0012818705875254951
-0.0025572766198502807   -0.061246984093545336   -0.0014000846501282735
-0.005432265356047631   -0.06129176108610156   -0.001561751356624571
-0.0055249312086761   -0.05475007972506285   -0.0012818705875254951
-0.005469701840984391   -0.061392750895660035   -0.001559997311659872
-0.0025572766198502807   -0.061246984093545336   -0.0014000846501282735
-0.0055249312086761   -0.05475007972506285   -0.0012818705875254951
-0.0017444888509845536   -0.05473150884203336   -0.0011156045567697395
-0.001755119507667406   -0.0548485378340495   -0.001067917218807744
-0.0025572766198502807   -0.061246984093545336   -0.0014000846501282735
-0.0055249312086761   -0.05475007972506285   -0.0012818705875254951
-0.001755119507667406   -0.0548485378340495   -0.001067917218807744
-0.005469701840984391   -0.061392750895660035   -0.001559997311659872
-0.0025572766198502807   -0.061246984093545336   -0.0014000846501282735
-0.0017444888509845536   -0.05473150884203336   -0.0011156045567697395
-0.005432265356047631   -0.06129176108610156   -0.001561751356624571
-0.0024992463461876377   -0.061170235414244496   -0.0014608376977805373
-0.0017444888509845536   -0.05473150884203336   -0.0011156045567697395
-0.0055249312086761   -0.05475007972506285   -0.0012818705875254951
-0.005432265356047631   -0.06129176108610156   -0.001561751356624571
-0.005525145107907528   -0.054679543252569685   -0.0012700859891962993
-0.0024992463461876377   -0.061170235414244496   -0.0014608376977805373
-0.005393767192972501   -0.06122738609205637   -0.0015558440989842392
-0.005525145107907528   -0.054679543252569685   -0.0012700859891962993
-0.005432265356047631   -0.06129176108610156   -0.001561751356624571
-0.0024992463461876377   -0.061170235414244496   -0.0014608376977805373
-0.005525145107907528   -0.054679543252569685   -0.0012700859891962993
-0.0017309615282888686   -0.05464676418470128   -0.0011559820811931321
-0.0017444888509845536   -0.05473150884203336   -0.0011156045567697395
-0.0024992463461876377   -0.061170235414244496   -0.0014608376977805373
-0.005525145107907528   -0.054679543252569685   -0.0012700859891962993
-0.0017444888509845536   -0.05473150884203336   -0.0011156045567697395
-0.005432265356047631   -0.06129176108610156   -0.001561751356624571
-0.0024992463461876377   -0.061170235414244496   -0.0014608376977805373
-0.0017309615282888686   -0.05464676418470128   -0.0011559820811931321
-0.005393767192972501   -0.06122738609205637   -0.0015558440989842392
-0.00246455024091454   -0.06113212175481861   -0.0015143845306505542
-0.0017309615282888686   -0.05464676418470128   -0.0011559820811931321
-0.005525145107907528   -0.054679543252569685   -0.0012700859891962993
-0.005393767192972501   -0.06122738609205637   -0.0015558440989842392
-0.005530396647339839   -0.0546375169979181   -0.0012513979821769212
-0.00246455024091454   -0.06113212175481861   -0.0015143845306505542
-0.00536009582322654   -0.06119902339776142   -0.0015427865266586507
-0.005530396647339839   -0.0546375169979181   -0.0012513979821769212
-0.005393767192972501   -0.06122738609205637   -0.0015558440989842392
-0.00246455024091454   -0.06113212175481861   -0.0015143845306505542
-0.005530396647339839   -0.0546375169979181   -0.0012513979821769212
-0.001737361256229935   -0.0545915867629977   -0.001189582889435088
-0.0017309615282888686   -0.05464676418470128   -0.0011559820811931321
-0.00246455024091454   -0.06113212175481861   -0.0015143845306505542
-0.005530396647339839   -0.0546375169979181   -0.0012513979821769212
-0.0017309615282888686   -0.05464676418470128   -0.0011559820811931321
-0.005393767192972501   -0.06122738609205637   -0.0015558440989842392
-0.005469701840984391   -0.061392750895660035   -0.001559997311659872
-0.005524463439774713   -0.0548490758721399   -0.0012863732513821336
-0.008286275785982991   -0.06130159040187197   -0.0017663979689360682
-0.005432265356047631   -0.06129176108610156   -0.001561751356624571
-0.005524463439774713   -0.0548490758721399   -0.0012863732513821336
-0.009229852256374878   -0.054755230516643716   -0.001477716661814339
-0.008286275785982991   -0.06130159040187197   -0.0017663979689360682
-0.009233111925573948   -0.054672072651459465   -0.0014216544613020118
-0.005432265356047631   -0.06129176108610156   -0.001561751356624571
-0.008251423755404658   -0.06121446103885287   -0.0017027719579878716
-0.009233111925573948   -0.054672072651459465   -0.0014216544613020118
-0.008286275785982991   -0.06130159040187197   -0.0017663979689360682
-0.005432265356047631   -0.06129176108610156   -0.001561751356624571
-0.009233111925573948   -0.054672072651459465   -0.0014216544613020118
-0.0055249312086761   -0.05475007972506285   -0.0012818705875254951
-0.005524463439774713   -0.0548490758721399   -0.0012863732513821336
-0.005432265356047631   -0.06129176108610156   -0.001561751356624571
-0.009233111925573948   -0.054672072651459465   -0.0014216544613020118
-0.005524463439774713   -0.0548490758721399   -0.0012863732513821336
-0.008286275785982991   -0.06130159040187197   -0.0017663979689360682
-0.005432265356047631   -0.06129176108610156   -0.001561751356624571
-0.0055249312086761   -0.05475007972506285   -0.0012818705875254951
-0.008251423755404658   -0.06121446103885287   -0.0017027719579878716
-0.005393767192972501   -0.06122738609205637   -0.0015558440989842392
-0.0055249312086761   -0.05475007972506285   -0.0012818705875254951
-0.009233111925573948   -0.054672072651459465   -0.0014216544613020118
-0.008251423755404658   -0.06121446103885287   -0.0017027719579878716
-0.009230058289104476   -0.05461712276700509   -0.0013584520581436936
-0.005393767192972501   -0.06122738609205637   -0.0015558440989842392
-0.00820930854607071   -0.06116354408891144   -0.001631651351203935
-0.009230058289104476   -0.05461712276700509   -0.0013584520581436936
-0.008251423755404658   -0.06121446103885287   -0.0017027719579878716
-0.005393767192972501   -0.06122738609205637   -0.0015558440989842392
-0.009230058289104476   -0.05461712276700509   -0.0013584520581436936
-0.005525145107907528   -0.054679543252569685   -0.0012700859891962993
-0.0055249312086761   -0.05475007972506285   -0.0012818705875254951
-0.005393767192972501   -0.06122738609205637   -0.0015558440989842392
-0.009230058289104476   -0.05461712276700509   -0.0013584520581436936
-0.0055249312086761   -0.05475007972506285   -0.0012818705875254951
-0.008251423755404658   -0.06121446103885287   -0.0017027719579878716
-0.005393767192972501   -0.06122738609205637   -0.0015558440989842392
-0.005525145107907528   -0.054679543252569685   -0.0012700859891962993
-0.00820930854607071   -0.06116354408891144   -0.001631651351203935
-0.00536009582322654   -0.06119902339776142   -0.0015427865266586507
-0.005525145107907528   -0.054679543252569685   -0.0012700859891962993
-0.009230058289104476   -0.05461712276700509   -0.0013584520581436936
-0.00820930854607071   -0.06116354408891144   -0.001631651351203935
-0.0092281447733532   -0.054589886352331876   -0.001288317461155796
-0.00536009582322654   -0.06119902339776142   -0.0015427865266586507
-0.008168350693612719   -0.06114716005218638   -0.001553266825524395
-0.0092281447733532   -0.054589886352331876   -0.001288317461155796
-0.00820930854607071   -0.06116354408891144   -0.001631651351203935
-0.00536009582322654   -0.06119902339776142   -0.0015427865266586507
-0.0092281447733532   -0.054589886352331876   -0.001288317461155796
-0.005530396647339839   -0.0546375169979181   -0.0012513979821769212
-0.005525145107907528   -0.054679543252569685   -0.0012700859891962993
-0.00536009582322654   -0.06119902339776142   -0.0015427865266586507
-0.0092281447733532   -0.054589886352331876   -0.001288317461155796
-0.005525145107907528   -0.054679543252569685   -0.0012700859891962993
-0.00820930854607071   -0.06116354408891144   -0.001631651351203935
-0.008286275785982991   -0.06130159040187197   -0.0017663979689360682
-0.009229852256374878   -0.054755230516643716   -0.001477716661814339
-0.011237837775879764   -0.06109438120868281   -0.0019497584249048155
-0.008251423755404658   -0.06121446103885287   -0.0017027719579878716
-0.009229852256374878   -0.054755230516643716   -0.001477716661814339
-0.013050693377202258   -0.05457054737495359   -0.001642315315796289
-0.011237837775879764   -0.06109438120868281   -0.0019497584249048155
-0.013046160159506848   -0.05450255205537646   -0.001534081919982372
-0.008251423755404658   -0.06121446103885287   -0.0017027719579878716
-0.01119229271583301   -0.06102047911828707   -0.0018206671270694032
-0.013046160159506848   -0.05450255205537646   -0.001534081919982372
-0.011237837775879764   -0.06109438120868281   -0.0019497584249048155
-0.008251423755404658   -0.06121446103885287   -0.0017027719579878716
-0.013046160159506848   -0.05450255205537646   -0.001534081919982372
-0.009233111925573948   -0.054672072651459465   -0.0014216544613020118
-0.009229852256374878   -0.054755230516643716   -0.001477716661814339
-0.008251423755404658   -0.06121446103885287   -0.0017027719579878716
-0.013046160159506848   -0.05450255205537646   -0.001534081919982372
-0.009229852256374878   -0.054755230516643716   -0.001477716661814339
-0.011237837775879764   -0.06109438120868281   -0.0019497584249048155
-0.008251423755404658   -0.06121446103885287   -0.0017027719579878716
-0.009233111925573948   -0.054672072651459465   -0.0014216544613020118
-0.01119229271583301   -0.06102047911828707   -0.0018206671270694032
-0.00820930854607071   -0.06116354408891144   -0.001631651351203935
-0.009233111925573948   -0.054672072651459465   -0.0014216544613020118
-0.013046160159506848   -0.05450255205537646   -0.001534081919982372
-0.01119229271583301   -0.06102047911828707   -0.0018206671270694032
-0.01301408194044197   -0.05446173514480722   -0.0014197849041679106
-0.00820930854607071   -0.06116354408891144   -0.001631651351203935
-0.011115071165671996   -0.06098176345573738   -0.0016852337354858833
-0.01301408194044197   -0.05446173514480722   -0.0014197849041679106
-0.01119229271583301   -0.06102047911828707   -0.0018206671270694032
-0.00820930854607071   -0.06116354408891144   -0.001631651351203935
-0.01301408194044197   -0.05446173514480722   -0.0014197849041679106
-0.009230058289104476   -0.05461712276700509   -0.0013584520581436936
-0.009233111925573948   -0.054672072651459465   -0.0014216544613020118
-0.00820930854607071   -0.06116354408891144   -0.001631651351203935
-0.01301408194044197   -0.05446173514480722   -0.0014197849041679106
-0.009233111925573948   -0.054672072651459465   -0.0014216544613020118
-0.01119229271583301   -0.06102047911828707   -0.0018206671270694032
-0.00820930854607071   -0.06116354408891144   -0.001631651351203935
-0.009230058289104476   -0.05461712276700509   -0.0013584520581436936
-0.011115071165671996   -0.06098176345573738   -0.0016852337354858833
-0.008168350693612719   -0.06114716005218638   -0.001553266825524395
-0.009230058289104476   -0.05461712276700509   -0.0013584520581436936
-0.01301408194044197   -0.05446173514480722   -0.0014197849041679106
-0.011115071165671996   -0.06098176345573738   -0.0016852337354858833
-0.012992651108698345   -0.05445096149895083   -0.0012979982319944224
-0.008168350693612719   -0.06114716005218638   -0.001553266825524395
-0.01105236837700996   -0.06098028658774758   -0.0015414790129972163
-0.012992651108698345   -0.05445096149895083   -0.0012979982319944224
-0.011115071165671996   -0.06098176345573738   -0.0016852337354858833
-0.008168350693612719   -0.06114716005218638   -0.001553266825524395
-0.012992651108698345   -0.05445096149895083   -0.0012979982319944224
-0.0092281447733532   -0.054589886352331876   -0.001288317461155796
-0.009230058289104476   -0.05461712276700509   -0.0013584520581436936
-0.008168350693612719   -0.06114716005218638   -0.001553266825524395
-0.012992651108698345   -0.05445096149895083   -0.0012979982319944224
-0.009230058289104476   -0.05461712276700509   -0.0013584520581436936
-0.011115071165671996   -0.06098176345573738   -0.0016852337354858833
-0.011237837775879764   -0.06109438120868281   -0.0019497584249048155
-0.013050693377202258   -0.05457054737495359   -0.001642315315796289
-0.014679990883284852   -0.060795970451426574   -0.002120762074074761
-0.01119229271583301   -0.06102047911828707   -0.0018206671270694032
-0.013050693377202258   -0.05457054737495359   -0.001642315315796289
-0.01731853011736048   -0.054315957620399216   -0.0017907599385886686
-0.014679990883284852   -0.060795970451426574   -0.002120762074074761
-0.017158801749845833   -0.054249215989148995   -0.0016251728125285204
-0.01119229271583301   -0.06102047911828707   -0.0018206671270694032
-0.01444654677390072   -0.06071887818073172   -0.001918691976377387
-0.017158801749845833   -0.054249215989148995   -0.0016251728125285204
-0.014679990883284852   -0.060795970451426574   -0.002120762074074761
-0.01119229271583301   -0.06102047911828707   -0.0018206671270694032
-0.017158801749845833   -0.054249215989148995   -0.0016251728125285204
-0.013046160159506848   -0.05450255205537646   -0.001534081919982372
-0.013050693377202258   -0.05457054737495359   -0.001642315315796289
-0.01119229271583301   -0.06102047911828707   -0.0018206671270694032
-0.017158801749845833   -0.054249215989148995   -0.0016251728125285204
-0.013050693377202258   -0.05457054737495359   -0.001642315315796289
-0.014679990883284852   -0.060795970451426574   -0.002120762074074761
-0.01119229271583301   -0.06102047911828707   -0.0018206671270694032
-0.013046160159506848   -0.05450255205537646   -0.001534081919982372
-0.01444654677390072   -0.06071887818073172   -0.001918691976377387
-0.011115071165671996   -0.06098176345573738   -0.0016852337354858833
-0.013046160159506848   -0.05450255205537646   -0.001534081919982372
-0.017158801749845833   -0.054249215989148995   -0.0016251728125285204
-0.01444654677390072   -0.06071887818073172   -0.001918691976377387
-0.01702221499616517   -0.054213555171272944   -0.0014493923837164125
-0.011115071165671996   -0.06098176345573738   -0.0016852337354858833
-0.014243967709705723   -0.06068347497627947   -0.0017061626735399129
-0.01702221499616517   -0.054213555171272944   -0.0014493923837164125
-0.01444654677390072   -0.06071887818073172   -0.001918691976377387
-0.011115071165671996   -0.06098176345573738   -0.0016852337354858833
-0.01702221499616517   -0.054213555171272944   -0.0014493923837164125
-0.01301408194044197   -0.05446173514480722   -0.0014197849041679106
-0.013046160159506848   -0.05450255205537646   -0.001534081919982372
-0.011115071165671996   -0.06098176345573738   -0.0016852337354858833
-0.01702221499616517   -0.054213555171272944   -0.0014493923837164125
-0.013046160159506848   -0.05450255205537646   -0.001534081919982372
-0.01444654677390072   -0.06071887818073172   -0.001918691976377387
-0.011115071165671996   -0.06098176345573738   -0.0016852337354858833
-0.01301408194044197   -0.05446173514480722   -0.0014197849041679106
-0.014243967709705723   -0.06068347497627947   -0.0017061626735399129
-0.01105236837700996   -0.06098028658774758   -0.0015414790129972163
-0.01301408194044197   -0.05446173514480722   -0.0014197849041679106
-0.01702221499616517   -0.054213555171272944   -0.0014493923837164125
-0.014243967709705723   -0.06068347497627947   -0.0017061626735399129
-0.016825119530152272   -0.054225541383643786   -0.0012648165899971488
-0.01105236837700996   -0.06098028658774758   -0.0015414790129972163
-0.013971052637443778   -0.0607049806829596   -0.0014845280043972692
-0.016825119530152272   -0.054225541383643786   -0.0012648165899971488
-0.014243967709705723   -0.06068347497627947   -0.0017061626735399129
-0.01105236837700996   -0.06098028658774758   -0.0015414790129972163
-0.016825119530152272   -0.054225541383643786   -0.0012648165899971488
-0.012992651108698345   -0.05445096149895083   -0.0012979982319944224
-0.01301408194044197   -0.05446173514480722   -0.0014197849041679106
-0.01105236837700996   -0.06098028658774758   -0.0015414790129972163
-0.016825119530152272   -0.054225541383643786   -0.0012648165899971488
-0.01301408194044197   -0.05446173514480722   -0.0014197849041679106
-0.014243967709705723   -0.06068347497627947   -0.0017061626735399129
0.0021616484360548016   -0.05475137461480711   -0.0008029657472571625
0.003411259017563144   -0.04697144062009435   -0.000534926095359072
-0.001755119507667406   -0.0548485378340495   -0.001067917218807744
0.002276027036131541   -0.05461360616912029   -0.0009188624041938401
0.003411259017563144   -0.04697144062009435   -0.000534926095359072
-0.0012365460483275028   -0.04701928703597089   -0.0007841941682939518
-0.001755119507667406   -0.0548485378340495   -0.001067917218807744
-0.0012583513619464348   -0.046905113548110076   -0.0008099264122735065
0.002276027036131541   -0.05461360616912029   -0.0009188624041938401
-0.0017444888509845536   -0.05473150884203336   -0.0011156045567697395
-0.0012583513619464348   -0.046905113548110076   -0.0008099264122735065
-0.001755119507667406   -0.0548485378340495   -0.001067917218807744
0.002276027036131541   -0.05461360616912029   -0.0009188624041938401
-0.0012583513619464348   -0.046905113548110076   -0.0008099264122735065
0.0034565791383653756   -0.04683870866642814   -0.0006109155412113547
0.003411259017563144   -0.04697144062009435   -0.000534926095359072
0.002276027036131541   -0.05461360616912029   -0.0009188624041938401
-0.0012583513619464348   -0.046905113548110076   -0.0008099264122735065
0.003411259017563144   -0.04697144062009435   -0.000534926095359072
-0.001755119507667406   -0.0548485378340495   -0.001067917218807744
0.002276027036131541   -0.05461360616912029   -0.0009188624041938401
0.0034565791383653756   -0.04683870866642814   -0.0006109155412113547
-0.0017444888509845536   -0.05473150884203336   -0.0011156045567697395
0.0023491842960487687   -0.05452332498176657   -0.001024428522113088
0.0034565791383653756   -0.04683870866642814   -0.0006109155412113547
-0.0012583513619464348   -0.046905113548110076   -0.0008099264122735065
-0.0017444888509845536   -0.05473150884203336   -0.0011156045567697395
-0.0012812609995999568   -0.04681487576940507   -0.0008291303430652397
0.0023491842960487687   -0.05452332498176657   -0.001024428522113088
-0.0017309615282888686   -0.05464676418470128   -0.0011559820811931321
-0.0012812609995999568   -0.04681487576940507   -0.0008291303430652397
-0.0017444888509845536   -0.05473150884203336   -0.0011156045567697395
0.0023491842960487687   -0.05452332498176657   -0.001024428522113088
-0.0012812609995999568   -0.04681487576940507   -0.0008291303430652397
0.003470447607152271   -0.04674208597704416   -0.0006772730928474861
0.0034565791383653756   -0.04683870866642814   -0.0006109155412113547
0.0023491842960487687   -0.05452332498176657   -0.001024428522113088
-0.0012812609995999568   -0.04681487576940507   -0.0008291303430652397
0.0034565791383653756   -0.04683870866642814   -0.0006109155412113547
-0.0017444888509845536   -0.05473150884203336   -0.0011156045567697395
0.0023491842960487687   -0.05452332498176657   -0.001024428522113088
0.003470447607152271   -0.04674208597704416   -0.0006772730928474861
-0.0017309615282888686   -0.05464676418470128   -0.0011559820811931321
0.002424342088456799   -0.05446299187909632   -0.0011198813077746635
0.003470447607152271   -0.04674208597704416   -0.0006772730928474861
-0.0012812609995999568   -0.04681487576940507   -0.0008291303430652397
-0.0017309615282888686   -0.05464676418470128   -0.0011559820811931321
-0.0013203254979227547   -0.04674573359195744   -0.0008420265490909141
0.002424342088456799   -0.05446299187909632   -0.0011198813077746635
-0.001737361256229935   -0.0545915867629977   -0.001189582889435088
-0.0013203254979227547   -0.04674573359195744   -0.0008420265490909141
-0.0017309615282888686   -0.05464676418470128   -0.0011559820811931321
0.002424342088456799   -0.05446299187909632   -0.0011198813077746635
-0.0013203254979227547   -0.04674573359195744   -0.0008420265490909141
0.003478347821399754   -0.04666451573109051   -0.0007344549112382798
0.003470447607152271   -0.04674208597704416   -0.0006772730928474861
0.002424342088456799   -0.05446299187909632   -0.0011198813077746635
-0.0013203254979227547   -0.04674573359195744   -0.0008420265490909141
0.003470447607152271   -0.04674208597704416   -0.0006772730928474861
-0.0017309615282888686   -0.05464676418470128   -0.0011559820811931321
-0.001755119507667406   -0.0548485378340495   -0.001067917218807744
-0.0012365460483275028   -0.04701928703597089   -0.0007841941682939518
-0.005524463439774713   -0.0548490758721399   -0.0012863732513821336
-0.0017444888509845536   -0.05473150884203336   -0.0011156045567697395
-0.0012365460483275028   -0.04701928703597089   -0.0007841941682939518
-0.005691824806752883   -0.0469947774850991   -0.0009893909979886925
-0.005524463439774713   -0.0548490758721399   -0.0012863732513821336
-0.005722099610381566   -0.04689938508890158   -0.0009773812721432596
-0.0017444888509845536   -0.05473150884203336   -0.0011156045567697395
-0.0055249312086761   -0.05475007972506285   -0.0012818705875254951
-0.005722099610381566   -0.04689938508890158   -0.0009773812721432596
-0.005524463439774713   -0.0548490758721399   -0.0012863732513821336
-0.0017444888509845536   -0.05473150884203336   -0.0011156045567697395
-0.005722099610381566   -0.04689938508890158   -0.0009773812721432596
-0.0012583513619464348   -0.046905113548110076   -0.0008099264122735065
-0.0012365460483275028   -0.04701928703597089   -0.0007841941682939518
-0.0017444888509845536   -0.05473150884203336   -0.0011156045567697395
-0.005722099610381566   -0.04689938508890158   -0.0009773812721432596
-0.0012365460483275028   -0.04701928703597089   -0.0007841941682939518
-0.005524463439774713   -0.0548490758721399   -0.0012863732513821336
-0.0017444888509845536   -0.05473150884203336   -0.0011156045567697395
-0.0012583513619464348   -0.046905113548110076   -0.0008099264122735065
-0.0055249312086761   -0.05475007972506285   -0.0012818705875254951
-0.0017309615282888686   -0.05464676418470128   -0.0011559820811931321
-0.0012583513619464348   -0.046905113548110076   -0.0008099264122735065
-0.005722099610381566   -0.04689938508890158   -0.0009773812721432596
-0.0055249312086761   -0.05475007972506285   -0.0012818705875254951
-0.0057527904817429665   -0.04682450991543265   -0.0009586502603007057
-0.0017309615282888686   -0.05464676418470128   -0.0011559820811931321
-0.005525145107907528   -0.054679543252569685   -0.0012700859891962993
-0.0057527904817429665   -0.04682450991543265   -0.0009586502603007057
-0.0055249312086761   -0.05475007972506285   -0.0012818705875254951
-0.0017309615282888686   -0.05464676418470128   -0.0011559820811931321
-0.0057527904817429665   -0.04682450991543265   -0.0009586502603007057
-0.0012812609995999568   -0.04681487576940507   -0.0008291303430652397
-0.0012583513619464348   -0.046905113548110076   -0.0008099264122735065
-0.0017309615282888686   -0.05464676418470128   -0.0011559820811931321
-0.0057527904817429665   -0.04682450991543265   -0.0009586502603007057
-0.0012583513619464348   -0.046905113548110076   -0.0008099264122735065
-0.0055249312086761   -0.05475007972506285   -0.0012818705875254951
-0.0017309615282888686   -0.05464676418470128   -0.0011559820811931321
-0.0012812609995999568   -0.04681487576940507   -0.0008291303430652397
-0.005525145107907528   -0.054679543252569685   -0.0012700859891962993
-0.001737361256229935   -0.0545915867629977   -0.001189582889435088
-0.0012812609995999568   -0.04681487576940507   -0.0008291303430652397
-0.0057527904817429665   -0.04682450991543265   -0.0009586502603007057
-0.005525145107907528   -0.054679543252569685   -0.0012700859891962993
-0.0057882640366262355   -0.04677050010217597   -0.0009335226937253495
-0.001737361256229935   -0.0545915867629977   -0.001189582889435088
-0.005530396647339839   -0.0546375169979181   -0.0012513979821769212
-0.0057882640366262355   -0.04677050010217597   -0.0009335226937253495
-0.005525145107907528   -0.054679543252569685   -0.0012700859891962993
-0.001737361256229935   -0.0545915867629977   -0.001189582889435088
-0.0057882640366262355   -0.04677050010217597   -0.0009335226937253495
-0.0013203254979227547   -0.04674573359195744   -0.0008420265490909141
-0.0012812609995999568   -0.04681487576940507   -0.0008291303430652397
-0.001737361256229935   -0.0545915867629977   -0.001189582889435088
-0.0057882640366262355   -0.04677050010217597   -0.0009335226937253495
-0.0012812609995999568   -0.04681487576940507   -0.0008291303430652397
-0.005525145107907528   -0.054679543252569685   -0.0012700859891962993
-0.005524463439774713   -0.0548490758721399   -0.0012863732513821336
-0.005691824806752883   -0.0469947774850991   -0.0009893909979886925
-0.009229852256374878   -0.054755230516643716   -0.001477716661814339
-0.0055249312086761   -0.05475007972506285   -0.0012818705875254951
-0.005691824806752883   -0.0469947774850991   -0.0009893909979886925
-0.010071826269792158   -0.04690240734154969   -0.001164937154080952
-0.009229852256374878   -0.054755230516643716   -0.001477716661814339
-0.01010449613336071   -0.04682407528691289   -0.00111536933872532
-0.0055249312086761   -0.05475007972506285   -0.0012818705875254951
-0.009233111925573948   -0.054672072651459465   -0.0014216544613020118
-0.01010449613336071   -0.04682407528691289   -0.00111536933872532
-0.009229852256374878   -0.054755230516643716   -0.001477716661814339
-0.0055249312086761   -0.05475007972506285   -0.0012818705875254951
-0.01010449613336071   -0.04682407528691289   -0.00111536933872532
-0.005722099610381566   -0.04689938508890158   -0.0009773812721432596
-0.005691824806752883   -0.0469947774850991   -0.0009893909979886925
-0.0055249312086761   -0.05475007972506285   -0.0012818705875254951
-0.01010449613336071   -0.04682407528691289   -0.00111536933872532
-0.005691824806752883   -0.0469947774850991   -0.0009893909979886925
-0.009229852256374878   -0.054755230516643716   -0.001477716661814339
-0.0055249312086761   -0.05475007972506285   -0.0012818705875254951
-0.005722099610381566   -0.04689938508890158   -0.0009773812721432596
-0.009233111925573948   -0.054672072651459465   -0.0014216544613020118
-0.005525145107907528   -0.054679543252569685   -0.0012700859891962993
-0.005722099610381566   -0.04689938508890158   -0.0009773812721432596
-0.01010449613336071   -0.04682407528691289   -0.00111536933872532
-0.009233111925573948   -0.054672072651459465   -0.0014216544613020118
-0.01013155885150972   -0.04676606456874091   -0.0010591994297678333
-0.005525145107907528   -0.054679543252569685   -0.0012700859891962993
-0.009230058289104476   -0.05461712276700509   -0.0013584520581436936
-0.01013155885150972   -0.04676606456874091   -0.0010591994297678333
-0.009233111925573948   -0.054672072651459465   -0.0014216544613020118
-0.005525145107907528   -0.054679543252569685   -0.0012700859891962993
-0.01013155885150972   -0.04676606456874091   -0.0010591994297678333
-0.0057527904817429665   -0.04682450991543265   -0.0009586502603007057
-0.005722099610381566   -0.04689938508890158   -0.0009773812721432596
-0.005525145107907528   -0.054679543252569685   -0.0012700859891962993
-0.01013155885150972   -0.04676606456874091   -0.0010591994297678333
-0.005722099610381566   -0.04689938508890158   -0.0009773812721432596
-0.009233111925573948   -0.054672072651459465   -0.0014216544613020118
-0.005525145107907528   -0.054679543252569685   -0.0012700859891962993
-0.0057527904817429665   -0.04682450991543265   -0.0009586502603007057
-0.009230058289104476   -0.05461712276700509   -0.0013584520581436936
-0.005530396647339839   -0.0546375169979181   -0.0012513979821769212
-0.0057527904817429665   -0.04682450991543265   -0.0009586502603007057
-0.01013155885150972   -0.04676606456874091   -0.0010591994297678333
-0.009230058289104476   -0.05461712276700509   -0.0013584520581436936
-0.01015940991879497   -0.04672828984962582   -0.0009966215897276836
-0.005530396647339839   -0.0546375169979181   -0.0012513979821769212
-0.0092281447733532   -0.054589886352331876   -0.001288317461155796
-0.01015940991879497   -0.04672828984962582   -0.0009966215897276836
-0.009230058289104476   -0.05461712276700509   -0.0013584520581436936
-0.005530396647339839   -0.0546375169979181   -0.0012513979821769212
-0.01015940991879497   -0.04672828984962582   -0.0009966215897276836
-0.0057882640366262355   -0.04677050010217597   -0.0009335226937253495
-0.0057527904817429665   -0.04682450991543265   -0.0009586502603007057
-0.005530396647339839   -0.0546375169979181   -0.0012513979821769212
-0.01015940991879497   -0.04672828984962582   -0.0009966215897276836
-0.0057527904817429665   -0.04682450991543265   -0.0009586502603007057
-0.009230058289104476   -0.05461712276700509   -0.0013584520581436936
-0.009229852256374878   -0.054755230516643716   -0.001477716661814339
-0.010071826269792158   -0.04690240734154969   -0.001164937154080952
-0.013050693377202258   -0.05457054737495359   -0.001642315315796289
-0.009233111925573948   -0.054672072651459465   -0.0014216544613020118
-0.010071826269792158   -0.04690240734154969   -0.001164937154080952
-0.014556002534494477   -0.04674401541049296   -0.001311507230287213
-0.013050693377202258   -0.05457054737495359   -0.001642315315796289
-0.014583020388991438   -0.04668234565704466   -0.0012238693912673675
-0.009233111925573948   -0.054672072651459465   -0.0014216544613020118
-0.013046160159506848   -0.05450255205537646   -0.001534081919982372
-0.014583020388991438   -0.04668234565704466   -0.0012238693912673675
-0.013050693377202258   -0.05457054737495359   -0.001642315315796289
-0.009233111925573948   -0.054672072651459465   -0.0014216544613020118
-0.014583020388991438   -0.04668234565704466   -0.0012238693912673675
-0.01010449613336071   -0.04682407528691289   -0.00111536933872532
-0.010071826269792158   -0.04690240734154969   -0.001164937154080952
-0.009233111925573948   -0.054672072651459465   -0.0014216544613020118
-0.014583020388991438   -0.04668234565704466   -0.0012238693912673675
-0.010071826269792158   -0.04690240734154969   -0.001164937154080952
-0.013050693377202258   -0.05457054737495359   -0.001642315315796289
-0.009233111925573948   -0.054672072651459465   -0.0014216544613020118
-0.01010449613336071   -0.04682407528691289   -0.00111536933872532
-0.013046160159506848   -0.05450255205537646   -0.001534081919982372
-0.009230058289104476   -0.05461712276700509   -0.0013584520581436936
-0.01010449613336071   -0.04682407528691289   -0.00111536933872532
-0.014583020388991438   -0.04668234565704466   -0.0012238693912673675
-0.013046160159506848   -0.05450255205537646   -0.001534081919982372
-0.014586447578115355   -0.04663975636977574   -0.0011305429167241682
-0.009230058289104476   -0.05461712276700509   -0.0013584520581436936
-0.01301408194044197   -0.05446173514480722   -0.0014197849041679106
-0.014586447578115355   -0.04663975636977574   -0.0011305429167241682
-0.013046160159506848   -0.05450255205537646   -0.001534081919982372
-0.009230058289104476   -0.05461712276700509   -0.0013584520581436936
-0.014586447578115355   -0.04663975636977574   -0.0011305429167241682
-0.01013155885150972   -0.04676606456874091   -0.0010591994297678333
-0.01010449613336071   -0.04682407528691289   -0.00111536933872532
-0.009230058289104476   -0.05461712276700509   -0.0013584520581436936
-0.014586447578115355   -0.04663975636977574   -0.0011305429167241682
-0.01010449613336071   -0.04682407528691289   -0.00111536933872532
-0.013046160159506848   -0.05450255205537646   -0.001534081919982372
-0.009230058289104476   -0.05461712276700509   -0.0013584520581436936
-0.01013155885150972   -0.04676606456874091   -0.0010591994297678333
-0.01301408194044197   -0.05446173514480722   -0.0014197849041679106
-0.0092281447733532   -0.054589886352331876   -0.001288317461155796
-0.01013155885150972   -0.04676606456874091   -0.0010591994297678333
-0.014586447578115355   -0.04663975636977574   -0.0011305429167241682
-0.01301408194044197   -0.05446173514480722   -0.0014197849041679106
-0.014596579432284333   -0.04661922461084829   -0.0010303226903084113
-0.0092281447733532   -0.054589886352331876   -0.001288317461155796
-0.012992651108698345   -0.05445096149895083   -0.0012979982319944224
-0.014596579432284333   -0.04661922461084829   -0.0010303226903084113
-0.01301408194044197   -0.05446173514480722   -0.0014197849041679106
-0.0092281447733532   -0.054589886352331876   -0.001288317461155796
-0.014596579432284333   -0.04661922461084829   -0.0010303226903084113
-0.01015940991879497   -0.04672828984962582   -0.0009966215897276836
-0.01013155885150972   -0.04676606456874091   -0.0010591994297678333
-0.0092281447733532   -0.054589886352331876   -0.001288317461155796
-0.014596579432284333   -0.04661922461084829   -0.0010303226903084113
-0.01013155885150972   -0.04676606456874091   -0.0010591994297678333
-0.01301408194044197   -0.05446173514480722   -0.0014197849041679106
-0.013050693377202258   -0.05457054737495359   -0.001642315315796289
-0.014556002534494477   -0.04674401541049296   -0.001311507230287213
-0.01731853011736048   -0.054315957620399216   -0.0017907599385886686
-0.013046160159506848   -0.05450255205537646   -0.001534081919982372
-0.014556002534494477   -0.04674401541049296   -0.001311507230287213
-0.01944597899967909   -0.046536197751605494   -0.0014367158561418125
-0.01731853011736048   -0.054315957620399216   -0.0017907599385886686
-0.01935223098650966   -0.046479864222500916   -0.0013088078301090142
-0.013046160159506848   -0.05450255205537646   -0.001534081919982372
-0.017158801749845833   -0.054249215989148995   -0.0016251728125285204
-0.01935223098650966   -0.046479864222500916   -0.0013088078301090142
-0.01731853011736048   -0.054315957620399216   -0.0017907599385886686
-0.013046160159506848   -0.05450255205537646   -0.001534081919982372
-0.01935223098650966   -0.046479864222500916   -0.0013088078301090142
-0.014583020388991438   -0.04668234565704466   -0.0012238693912673675
-0.014556002534494477   -0.04674401541049296   -0.001311507230287213
-0.013046160159506848   -0.05450255205537646   -0.001534081919982372
-0.01935223098650966   -0.046479864222500916   -0.0013088078301090142
-0.014556002534494477   -0.04674401541049296   -0.001311507230287213
-0.01731853011736048   -0.054315957620399216   -0.0017907599385886686
-0.013046160159506848   -0.05450255205537646   -0.001534081919982372
-0.014583020388991438   -0.04668234565704466   -0.0012238693912673675
-0.017158801749845833   -0.054249215989148995   -0.0016251728125285204
-0.01301408194044197   -0.05446173514480722   -0.0014197849041679106
-0.014583020388991438   -0.04668234565704466   -0.0012238693912673675
-0.01935223098650966   -0.046479864222500916   -0.0013088078301090142
-0.017158801749845833   -0.054249215989148995   -0.0016251728125285204
-0.019273203343188904   -0.04644381342609281   -0.0011709668513552882
-0.01301408194044197   -0.05446173514480722   -0.0014197849041679106
-0.01702221499616517   -0.054213555171272944   -0.0014493923837164125
-0.019273203343188904   -0.04644381342609281   -0.0011709668513552882
-0.017158801749845833   -0.054249215989148995   -0.0016251728125285204
-0.01301408194044197   -0.05446173514480722   -0.0014197849041679106
-0.019273203343188904   -0.04644381342609281   -0.0011709668513552882
-0.014586447578115355   -0.04663975636977574   -0.0011305429167241682
-0.014583020388991438   -0.04668234565704466   -0.0012238693912673675
-0.01301408194044197   -0.05446173514480722   -0.0014197849041679106
-0.019273203343188904   -0.04644381342609281   -0.0011709668513552882
-0.014583020388991438   -0.04668234565704466   -0.0012238693912673675
-0.017158801749845833   -0.054249215989148995   -0.0016251728125285204
-0.01301408194044197   -0.05446173514480722   -0.0014197849041679106
-0.014586447578115355   -0.04663975636977574   -0.0011305429167241682
-0.01702221499616517   -0.054213555171272944   -0.0014493923837164125
-0.012992651108698345   -0.05445096149895083   -0.0012979982319944224
-0.014586447578115355   -0.04663975636977574   -0.0011305429167241682
-0.019273203343188904   -0.04644381342609281   -0.0011709668513552882
-0.01702221499616517   -0.054213555171272944   -0.0014493923837164125
-0.019142869704798622   -0.04644523560609698   -0.00102443144608733
-0.012992651108698345   -0.05445096149895083   -0.0012979982319944224
-0.016825119530152272   -0.054225541383643786   -0.0012648165899971488
-0.019142869704798622   -0.04644523560609698   -0.00102443144608733
-0.01702221499616517   -0.054213555171272944   -0.0014493923837164125
-0.012992651108698345   -0.05445096149895083   -0.0012979982319944224
-0.019142869704798622   -0.04644523560609698   -0.00102443144608733
-0.014596579432284333   -0.04661922461084829   -0.0010303226903084113
-0.014586447578115355   -0.04663975636977574   -0.0011305429167241682
-0.012992651108698345   -0.05445096149895083   -0.0012979982319944224
-0.019142869704798622   -0.04644523560609698   -0.00102443144608733
-0.014586447578115355   -0.04663975636977574   -0.0011305429167241682
-0.01702221499616517   -0.054213555171272944   -0.0014493923837164125
0.003411259017563144   -0.04697144062009435   -0.000534926095359072
0.004106167710169477   -0.03823947587176111   -0.0002725661384459699
-0.0012365460483275028   -0.04701928703597089   -0.0007841941682939518
0.0034565791383653756   -0.04683870866642814   -0.0006109155412113547
0.004106167710169477   -0.03823947587176111   -0.0002725661384459699
-0.001054474473819583   -0.038238489453120784   -0.000503692841607174
-0.0012365460483275028   -0.04701928703597089   -0.0007841941682939518
-0.0011005562699632648   -0.038128063662864906   -0.0005071802757133048
0.0034565791383653756   -0.04683870866642814   -0.0006109155412113547
-0.0012583513619464348   -0.046905113548110076   -0.0008099264122735065
-0.0011005562699632648   -0.038128063662864906   -0.0005071802757133048
-0.0012365460483275028   -0.04701928703597089   -0.0007841941682939518
0.0034565791383653756   -0.04683870866642814   -0.0006109155412113547
-0.0011005562699632648   -0.038128063662864906   -0.0005071802757133048
0.004091470415158629   -0.03811241494397839   -0.00030907617706216683
0.004106167710169477   -0.03823947587176111   -0.0002725661384459699
0.0034565791383653756   -0.04683870866642814   -0.0006109155412113547
-0.0011005562699632648   -0.038128063662864906   -0.0005071802757133048
0.004106167710169477   -0.03823947587176111   -0.0002725661384459699
-0.0012365460483275028   -0.04701928703597089   -0.0007841941682939518
0.0034565791383653756   -0.04683870866642814   -0.0006109155412113547
0.004091470415158629   -0.03811241494397839   -0.00030907617706216683
-0.0012583513619464348   -0.046905113548110076   -0.0008099264122735065
0.003470447607152271   -0.04674208597704416   -0.0006772730928474861
0.004091470415158629   -0.03811241494397839   -0.00030907617706216683
-0.0011005562699632648   -0.038128063662864906   -0.0005071802757133048
-0.0012583513619464348   -0.046905113548110076   -0.0008099264122735065
-0.0011517628814985046   -0.03803307715468523   -0.000504876333371439
0.003470447607152271   -0.04674208597704416   -0.0006772730928474861
-0.0012812609995999568   -0.04681487576940507   -0.0008291303430652397
-0.0011517628814985046   -0.03803307715468523   -0.000504876333371439
-0.0012583513619464348   -0.046905113548110076   -0.0008099264122735065
0.003470447607152271   -0.04674208597704416   -0.0006772730928474861
-0.0011517628814985046   -0.03803307715468523   -0.000504876333371439
0.00405451750979324   -0.03801026117488625   -0.00033630364393011315
0.004091470415158629   -0.03811241494397839   -0.00030907617706216683
0.003470447607152271   -0.04674208597704416   -0.0006772730928474861
-0.0011517628814985046   -0.03803307715468523   -0.000504876333371439
0.004091470415158629   -0.03811241494397839   -0.00030907617706216683
-0.0012583513619464348   -0.046905113548110076   -0.0008099264122735065
0.003470447607152271   -0.04674208597704416   -0.0006772730928474861
0.00405451750979324   -0.03801026117488625   -0.00033630364393011315
-0.0012812609995999568   -0.04681487576940507   -0.0008291303430652397
0.003478347821399754   -0.04666451573109051   -0.0007344549112382798
0.00405451750979324   -0.03801026117488625   -0.00033630364393011315
-0.0011517628814985046   -0.03803307715468523   -0.000504876333371439
-0.0012812609995999568   -0.04681487576940507   -0.0008291303430652397
-0.0012153467226410028   -0.03795106459052446   -0.0004965526993350958
0.003478347821399754   -0.04666451573109051   -0.0007344549112382798
-0.0013203254979227547   -0.04674573359195744   -0.0008420265490909141
-0.0012153467226410028   -0.03795106459052446   -0.0004965526993350958
-0.0012812609995999568   -0.04681487576940507   -0.0008291303430652397
0.003478347821399754   -0.04666451573109051   -0.0007344549112382798
-0.0012153467226410028   -0.03795106459052446   -0.0004965526993350958
0.004002898332261306   -0.03791631968501195   -0.000354896816502021
0.00405451750979324   -0.03801026117488625   -0.00033630364393011315
0.003478347821399754   -0.04666451573109051   -0.0007344549112382798
-0.0012153467226410028   -0.03795106459052446   -0.0004965526993350958
0.00405451750979324   -0.03801026117488625   -0.00033630364393011315
-0.0012812609995999568   -0.04681487576940507   -0.0008291303430652397
-0.0012365460483275028   -0.04701928703597089   -0.0007841941682939518
-0.001054474473819583   -0.038238489453120784   -0.000503692841607174
-0.005691824806752883   -0.0469947774850991   -0.0009893909979886925
-0.0012583513619464348   -0.046905113548110076   -0.0008099264122735065
-0.001054474473819583   -0.038238489453120784   -0.000503692841607174
-0.0059769089170371905   -0.03819185788326229   -0.0006943696392473798
-0.005691824806752883   -0.0469947774850991   -0.0009893909979886925
-0.006028512416609741   -0.03810022305220875   -0.0006742226025504882
-0.0012583513619464348   -0.046905113548110076   -0.0008099264122735065
-0.005722099610381566   -0.04689938508890158   -0.0009773812721432596
-0.006028512416609741   -0.03810022305220875   -0.0006742226025504882
-0.005691824806752883   -0.0469947774850991   -0.0009893909979886925
-0.0012583513619464348   -0.046905113548110076   -0.0008099264122735065
-0.006028512416609741   -0.03810022305220875   -0.0006742226025504882
-0.0011005562699632648   -0.038128063662864906   -0.0005071802757133048
-0.001054474473819583   -0.038238489453120784   -0.000503692841607174
-0.0012583513619464348   -0.046905113548110076   -0.0008099264122735065
-0.006028512416609741   -0.03810022305220875   -0.0006742226025504882
-0.001054474473819583   -0.038238489453120784   -0.000503692841607174
-0.005691824806752883   -0.0469947774850991   -0.0009893909979886925
-0.0012583513619464348   -0.046905113548110076   -0.0008099264122735065
-0.0011005562699632648   -0.038128063662864906   -0.0005071802757133048
-0.005722099610381566   -0.04689938508890158   -0.0009773812721432596
-0.0012812609995999568   -0.04681487576940507   -0.0008291303430652397
-0.0011005562699632648   -0.038128063662864906   -0.0005071802757133048
-0.006028512416609741   -0.03810022305220875   -0.0006742226025504882
-0.005722099610381566   -0.04689938508890158   -0.0009773812721432596
-0.006081155811798308   -0.038021156688340677   -0.0006480423739270564
-0.0012812609995999568   -0.04681487576940507   -0.0008291303430652397
-0.0057527904817429665   -0.04682450991543265   -0.0009586502603007057
-0.006081155811798308   -0.038021156688340677   -0.0006480423739270564
-0.005722099610381566   -0.04689938508890158   -0.0009773812721432596
-0.0012812609995999568   -0.04681487576940507   -0.0008291303430652397
-0.006081155811798308   -0.038021156688340677   -0.0006480423739270564
-0.0011517628814985046   -0.03803307715468523   -0.000504876333371439
-0.0011005562699632648   -0.038128063662864906   -0.0005071802757133048
-0.0012812609995999568   -0.04681487576940507   -0.0008291303430652397
-0.006081155811798308   -0.038021156688340677   -0.0006480423739270564
-0.0011005562699632648   -0.038128063662864906   -0.0005071802757133048
-0.005722099610381566   -0.04689938508890158   -0.0009773812721432596
-0.0012812609995999568   -0.04681487576940507   -0.0008291303430652397
-0.0011517628814985046   -0.03803307715468523   -0.000504876333371439
-0.0057527904817429665   -0.04682450991543265   -0.0009586502603007057
-0.0013203254979227547   -0.04674573359195744   -0.0008420265490909141
-0.0011517628814985046   -0.03803307715468523   -0.000504876333371439
-0.006081155811798308   -0.038021156688340677   -0.0006480423739270564
-0.0057527904817429665   -0.04682450991543265   -0.0009586502603007057
-0.006138255523713678   -0.03795540695729513   -0.0006161124870867988
-0.0013203254979227547   -0.04674573359195744   -0.0008420265490909141
-0.0057882640366262355   -0.04677050010217597   -0.0009335226937253495
-0.006138255523713678   -0.03795540695729513   -0.0006161124870867988
-0.0057527904817429665   -0.04682450991543265   -0.0009586502603007057
-0.0013203254979227547   -0.04674573359195744   -0.0008420265490909141
-0.006138255523713678   -0.03795540695729513   -0.0006161124870867988
-0.0012153467226410028   -0.03795106459052446   -0.0004965526993350958
-0.0011517628814985046   -0.03803307715468523   -0.000504876333371439
-0.0013203254979227547   -0.04674573359195744   -0.0008420265490909141
-0.006138255523713678   -0.03795540695729513   -0.0006161124870867988
-0.0011517628814985046   -0.03803307715468523   -0.000504876333371439
-0.0057527904817429665   -0.04682450991543265   -0.0009586502603007057
-0.005691824806752883   -0.0469947774850991   -0.0009893909979886925
-0.0059769089170371905   -0.03819185788326229   -0.0006943696392473798
-0.010071826269792158   -0.04690240734154969   -0.001164937154080952
-0.005722099610381566   -0.04689938508890158   -0.0009773812721432596
-0.0059769089170371905   -0.03819185788326229   -0.0006943696392473798
-0.010816117090744913   -0.038104766677281424   -0.000855190331614653
-0.010071826269792158   -0.04690240734154969   -0.001164937154080952
-0.010869253684914242   -0.03803045052226915   -0.0008114534284056954
-0.005722099610381566   -0.04689938508890158   -0.0009773812721432596
-0.01010449613336071   -0.04682407528691289   -0.00111536933872532
-0.010869253684914242   -0.03803045052226915   -0.0008114534284056954
-0.010071826269792158   -0.04690240734154969   -0.001164937154080952
-0.005722099610381566   -0.04689938508890158   -0.0009773812721432596
-0.010869253684914242   -0.03803045052226915   -0.0008114534284056954
-0.006028512416609741   -0.03810022305220875   -0.0006742226025504882
-0.0059769089170371905   -0.03819185788326229   -0.0006943696392473798
-0.005722099610381566   -0.04689938508890158   -0.0009773812721432596
-0.010869253684914242   -0.03803045052226915   -0.0008114534284056954
-0.0059769089170371905   -0.03819185788326229   -0.0006943696392473798
-0.010071826269792158   -0.04690240734154969   -0.001164937154080952
-0.005722099610381566   -0.04689938508890158   -0.0009773812721432596
-0.006028512416609741   -0.03810022305220875   -0.0006742226025504882
-0.01010449613336071   -0.04682407528691289   -0.00111536933872532
-0.0057527904817429665   -0.04682450991543265   -0.0009586502603007057
-0.006028512416609741   -0.03810022305220875   -0.0006742226025504882
-0.010869253684914242   -0.03803045052226915   -0.0008114534284056954
-0.01010449613336071   -0.04682407528691289   -0.00111536933872532
-0.010917453388209247   -0.03796861400235656   -0.0007618241480501462
-0.0057527904817429665   -0.04682450991543265   -0.0009586502603007057
-0.01013155885150972   -0.04676606456874091   -0.0010591994297678333
-0.010917453388209247   -0.03796861400235656   -0.0007618241480501462
-0.01010449613336071   -0.04682407528691289   -0.00111536933872532
-0.0057527904817429665   -0.04682450991543265   -0.0009586502603007057
-0.010917453388209247   -0.03796861400235656   -0.0007618241480501462
-0.006081155811798308   -0.038021156688340677   -0.0006480423739270564
-0.006028512416609741   -0.03810022305220875   -0.0006742226025504882
-0.0057527904817429665   -0.04682450991543265   -0.0009586502603007057
-0.010917453388209247   -0.03796861400235656   -0.0007618241480501462
-0.006028512416609741   -0.03810022305220875   -0.0006742226025504882
-0.01010449613336071   -0.04682407528691289   -0.00111536933872532
-0.0057527904817429665   -0.04682450991543265   -0.0009586502603007057
-0.006081155811798308   -0.038021156688340677   -0.0006480423739270564
-0.01013155885150972   -0.04676606456874091   -0.0010591994297678333
-0.0057882640366262355   -0.04677050010217597   -0.0009335226937253495
-0.006081155811798308   -0.038021156688340677   -0.0006480423739270564
-0.010917453388209247   -0.03796861400235656   -0.0007618241480501462
-0.01013155885150972   -0.04676606456874091   -0.0010591994297678333
-0.010966110777120041   -0.037919361014706755   -0.0007065269241495397
-0.0057882640366262355   -0.04677050010217597   -0.0009335226937253495
-0.01015940991879497   -0.04672828984962582   -0.0009966215897276836
-0.010966110777120041   -0.037919361014706755   -0.0007065269241495397
-0.01013155885150972   -0.04676606456874091   -0.0010591994297678333
-0.0057882640366262355   -0.04677050010217597   -0.0009335226937253495
-0.010966110777120041   -0.037919361014706755   -0.0007065269241495397
-0.006138255523713678   -0.03795540695729513   -0.0006161124870867988
-0.006081155811798308   -0.038021156688340677   -0.0006480423739270564
-0.0057882640366262355   -0.04677050010217597   -0.0009335226937253495
-0.010966110777120041   -0.037919361014706755   -0.0007065269241495397
-0.006081155811798308   -0.038021156688340677   -0.0006480423739270564
-0.01013155885150972   -0.04676606456874091   -0.0010591994297678333
-0.010071826269792158   -0.04690240734154969   -0.001164937154080952
-0.010816117090744913   -0.038104766677281424   -0.000855190331614653
-0.014556002534494477   -0.04674401541049296   -0.001311507230287213
-0.01010449613336071   -0.04682407528691289   -0.00111536933872532
-0.010816117090744913   -0.038104766677281424   -0.000855190331614653
-0.015751190764540752   -0.037975364860233334   -0.000986520943595135
-0.014556002534494477   -0.04674401541049296   -0.001311507230287213
-0.01580051901798022   -0.037918512181618104   -0.000919013473051873
-0.01010449613336071   -0.04682407528691289   -0.00111536933872532
-0.014583020388991438   -0.04668234565704466   -0.0012238693912673675
-0.01580051901798022   -0.037918512181618104   -0.000919013473051873
-0.014556002534494477   -0.04674401541049296   -0.001311507230287213
-0.01010449613336071   -0.04682407528691289   -0.00111536933872532
-0.01580051901798022   -0.037918512181618104   -0.000919013473051873
-0.010869253684914242   -0.03803045052226915   -0.0008114534284056954
-0.010816117090744913   -0.038104766677281424   -0.000855190331614653
-0.01010449613336071   -0.04682407528691289   -0.00111536933872532
-0.01580051901798022   -0.037918512181618104   -0.000919013473051873
-0.010816117090744913   -0.038104766677281424   -0.000855190331614653
-0.014556002534494477   -0.04674401541049296   -0.001311507230287213
-0.01010449613336071   -0.04682407528691289   -0.00111536933872532
-0.010869253684914242   -0.03803045052226915   -0.0008114534284056954
-0.014583020388991438   -0.04668234565704466   -0.0012238693912673675
-0.01013155885150972   -0.04676606456874091   -0.0010591994297678333
-0.010869253684914242   -0.03803045052226915   -0.0008114534284056954
-0.01580051901798022   -0.037918512181618104   -0.000919013473051873
-0.014583020388991438   -0.04668234565704466   -0.0012238693912673675
-0.01583036555149164   -0.03787255543140222   -0.000846408198776224
-0.01013155885150972   -0.04676606456874091   -0.0010591994297678333
-0.014586447578115355   -0.04663975636977574   -0.0011305429167241682
-0.01583036555149164   -0.03787255543140222   -0.000846408198776224
-0.014583020388991438   -0.04668234565704466   -0.0012238693912673675
-0.01013155885150972   -0.04676606456874091   -0.0010591994297678333
-0.01583036555149164   -0.03787255543140222   -0.000846408198776224
-0.010917453388209247   -0.03796861400235656   -0.0007618241480501462
-0.010869253684914242   -0.03803045052226915   -0.0008114534284056954
-0.01013155885150972   -0.04676606456874091   -0.0010591994297678333
-0.01583036555149164   -0.03787255543140222   -0.000846408198776224
-0.010869253684914242   -0.03803045052226915   -0.0008114534284056954
-0.014583020388991438   -0.04668234565704466   -0.0012238693912673675
-0.01013155885150972   -0.04676606456874091   -0.0010591994297678333
-0.010917453388209247   -0.03796861400235656   -0.0007618241480501462
-0.014586447578115355   -0.04663975636977574   -0.0011305429167241682
-0.01015940991879497   -0.04672828984962582   -0.0009966215897276836
-0.010917453388209247   -0.03796861400235656   -0.0007618241480501462
-0.01583036555149164   -0.03787255543140222   -0.000846408198776224
-0.014586447578115355   -0.04663975636977574   -0.0011305429167241682
-0.01586316538481233   -0.03784027522569343   -0.0007676513435395998
-0.01015940991879497   -0.04672828984962582   -0.0009966215897276836
-0.014596579432284333   -0.04661922461084829   -0.0010303226903084113
-0.01586316538481233   -0.03784027522569343   -0.0007676513435395998
-0.014586447578115355   -0.04663975636977574   -0.0011305429167241682
-0.01015940991879497   -0.04672828984962582   -0.0009966215897276836
-0.01586316538481233   -0.03784027522569343   -0.0007676513435395998
-0.010966110777120041   -0.037919361014706755   -0.0007065269241495397
-0.010917453388209247   -0.03796861400235656   -0.0007618241480501462
-0.01015940991879497   -0.04672828984962582   -0.0009966215897276836
-0.01586316538481233   -0.03784027522569343   -0.0007676513435395998
-0.010917453388209247   -0.03796861400235656   -0.0007618241480501462
-0.014586447578115355   -0.04663975636977574   -0.0011305429167241682
-0.014556002534494477   -0.04674401541049296   -0.001311507230287213
-0.015751190764540752   -0.037975364860233334   -0.000986520943595135
-0.01944597899967909   -0.046536197751605494   -0.0014367158561418125
-0.014583020388991438   -0.04668234565704466   -0.0012238693912673675
-0.015751190764540752   -0.037975364860233334   -0.000986520943595135
-0.02104793965252463   -0.037816119731428954   -0.0010909066568252042
-0.01944597899967909   -0.046536197751605494   -0.0014367158561418125
-0.021011391889722217   -0.03776821538032302   -0.0010009396729582837
-0.014583020388991438   -0.04668234565704466   -0.0012238693912673675
-0.01935223098650966   -0.046479864222500916   -0.0013088078301090142
-0.021011391889722217   -0.03776821538032302   -0.0010009396729582837
-0.01944597899967909   -0.046536197751605494   -0.0014367158561418125
-0.014583020388991438   -0.04668234565704466   -0.0012238693912673675
-0.021011391889722217   -0.03776821538032302   -0.0010009396729582837
-0.01580051901798022   -0.037918512181618104   -0.000919013473051873
-0.015751190764540752   -0.037975364860233334   -0.000986520943595135
-0.014583020388991438   -0.04668234565704466   -0.0012238693912673675
-0.021011391889722217   -0.03776821538032302   -0.0010009396729582837
-0.015751190764540752   -0.037975364860233334   -0.000986520943595135
-0.01944597899967909   -0.046536197751605494   -0.0014367158561418125
-0.014583020388991438   -0.04668234565704466   -0.0012238693912673675
-0.01580051901798022   -0.037918512181618104   -0.000919013473051873
-0.01935223098650966   -0.046479864222500916   -0.0013088078301090142
-0.014586447578115355   -0.04663975636977574   -0.0011305429167241682
-0.01580051901798022   -0.037918512181618104   -0.000919013473051873
-0.021011391889722217   -0.03776821538032302   -0.0010009396729582837
-0.01935223098650966   -0.046479864222500916   -0.0013088078301090142
-0.020981606762159825   -0.037729740049927726   -0.00090161840538236
-0.014586447578115355   -0.04663975636977574   -0.0011305429167241682
-0.019273203343188904   -0.04644381342609281   -0.0011709668513552882
-0.020981606762159825   -0.037729740049927726   -0.00090161840538236
-0.01935223098650966   -0.046479864222500916   -0.0013088078301090142
-0.014586447578115355   -0.04663975636977574   -0.0011305429167241682
-0.020981606762159825   -0.037729740049927726   -0.00090161840538236
-0.01583036555149164   -0.03787255543140222   -0.000846408198776224
-0.01580051901798022   -0.037918512181618104   -0.000919013473051873
-0.014586447578115355   -0.04663975636977574   -0.0011305429167241682
-0.020981606762159825   -0.037729740049927726   -0.00090161840538236
-0.01580051901798022   -0.037918512181618104   -0.000919013473051873
-0.01935223098650966   -0.046479864222500916   -0.0013088078301090142
-0.014586447578115355   -0.04663975636977574   -0.0011305429167241682
-0.01583036555149164   -0.03787255543140222   -0.000846408198776224
-0.019273203343188904   -0.04644381342609281   -0.0011709668513552882
-0.014596579432284333   -0.04661922461084829   -0.0010303226903084113
-0.01583036555149164   -0.03787255543140222   -0.000846408198776224
-0.020981606762159825   -0.037729740049927726   -0.00090161840538236
-0.019273203343188904   -0.04644381342609281   -0.0011709668513552882
-0.020910201760857443   -0.0377178165069177   -0.0007940096277950183
-0.014596579432284333   -0.04661922461084829   -0.0010303226903084113
-0.019142869704798622   -0.04644523560609698   -0.00102443144608733
-0.020910201760857443   -0.0377178165069177   -0.0007940096277950183
-0.019273203343188904   -0.04644381342609281   -0.0011709668513552882
-0.014596579432284333   -0.04661922461084829   -0.0010303226903084113
-0.020910201760857443   -0.0377178165069177   -0.0007940096277950183
-0.01586316538481233   -0.03784027522569343   -0.0007676513435395998
-0.01583036555149164   -0.03787255543140222   -0.000846408198776224
-0.014596579432284333   -0.04661922461084829   -0.0010303226903084113
-0.020910201760857443   -0.0377178165069177   -0.0007940096277950183
-0.01583036555149164   -0.03787255543140222   -0.000846408198776224
-0.019273203343188904   -0.04644381342609281   -0.0011709668513552882
0.004106167710169477   -0.03823947587176111   -0.0002725661384459699
0.004246360137989649   -0.028902512754740855   -4.281205985827738e-05
-0.001054474473819583   -0.038238489453120784   -0.000503692841607174
0.004091470415158629   -0.03811241494397839   -0.00030907617706216683
0.004246360137989649   -0.028902512754740855   -4.281205985827738e-05
-0.001208018704366367   -0.02885462814217681   -0.0002505624052405433
-0.001054474473819583   -0.038238489453120784   -0.000503692841607174
-0.0012713080386897266   -0.028748962006248168   -0.00023180000812161652
0.004091470415158629   -0.03811241494397839   -0.00030907617706216683
-0.0011005562699632648   -0.038128063662864906   -0.0005071802757133048
-0.0012713080386897266   -0.028748962006248168   -0.00023180000812161652
-0.001054474473819583   -0.038238489453120784   -0.000503692841607174
0.004091470415158629   -0.03811241494397839   -0.00030907617706216683
-0.0012713080386897266   -0.028748962006248168   -0.00023180000812161652
0.004179305163975521   -0.02878132756323222   -3.913955334948157e-05
0.004246360137989649   -0.028902512754740855   -4.281205985827738e-05
0.004091470415158629   -0.03811241494397839   -0.00030907617706216683
-0.0012713080386897266   -0.028748962006248168   -0.00023180000812161652
0.004246360137989649   -0.028902512754740855   -4.281205985827738e-05
-0.001054474473819583   -0.038238489453120784   -0.000503692841607174
0.004091470415158629   -0.03811241494397839   -0.00030907617706216683
0.004179305163975521   -0.02878132756323222   -3.913955334948157e-05
-0.0011005562699632648   -0.038128063662864906   -0.0005071802757133048
0.00405451750979324   -0.03801026117488625   -0.00033630364393011315
0.004179305163975521   -0.02878132756323222   -3.913955334948157e-05
-0.0012713080386897266   -0.028748962006248168   -0.00023180000812161652
-0.0011005562699632648   -0.038128063662864906   -0.0005071802757133048
-0.001343773839189824   -0.028649273200351613   -0.00020778418171290568
0.00405451750979324   -0.03801026117488625   -0.00033630364393011315
-0.0011517628814985046   -0.03803307715468523   -0.000504876333371439
-0.001343773839189824   -0.028649273200351613   -0.00020778418171290568
-0.0011005562699632648   -0.038128063662864906   -0.0005071802757133048
0.00405451750979324   -0.03801026117488625   -0.00033630364393011315
-0.001343773839189824   -0.028649273200351613   -0.00020778418171290568
0.0040969129453232184   -0.028673103123943243   -2.4734230034734256e-05
0.004179305163975521   -0.02878132756323222   -3.913955334948157e-05
0.00405451750979324   -0.03801026117488625   -0.00033630364393011315
-0.001343773839189824   -0.028649273200351613   -0.00020778418171290568
0.004179305163975521   -0.02878132756323222   -3.913955334948157e-05
-0.0011005562699632648   -0.038128063662864906   -0.0005071802757133048
0.00405451750979324   -0.03801026117488625   -0.00033630364393011315
0.0040969129453232184   -0.028673103123943243   -2.4734230034734256e-05
-0.0011517628814985046   -0.03803307715468523   -0.000504876333371439
0.004002898332261306   -0.03791631968501195   -0.000354896816502021
0.0040969129453232184   -0.028673103123943243   -2.4734230034734256e-05
-0.001343773839189824   -0.028649273200351613   -0.00020778418171290568
-0.0011517628814985046   -0.03803307715468523   -0.000504876333371439
-0.0014251292870903355   -0.0285541952703686   -0.00017719829520955623
0.004002898332261306   -0.03791631968501195   -0.000354896816502021
-0.0012153467226410028   -0.03795106459052446   -0.0004965526993350958
-0.0014251292870903355   -0.0285541952703686   -0.00017719829520955623
-0.0011517628814985046   -0.03803307715468523   -0.000504876333371439
0.004002898332261306   -0.03791631968501195   -0.000354896816502021
-0.0014251292870903355   -0.0285541952703686   -0.00017719829520955623
0.003988282267590002   -0.028559928288531565   -8.133372281773228e-08
0.0040969129453232184   -0.028673103123943243   -2.4734230034734256e-05
0.004002898332261306   -0.03791631968501195   -0.000354896816502021
-0.0014251292870903355   -0.0285541952703686   -0.00017719829520955623
0.0040969129453232184   -0.028673103123943243   -2.4734230034734256e-05
-0.0011517628814985046   -0.03803307715468523   -0.000504876333371439
-0.001054474473819583   -0.038238489453120784   -0.000503692841607174
-0.001208018704366367   -0.02885462814217681   -0.0002505624052405433
-0.0059769089170371905   -0.03819185788326229   -0.0006943696392473798
-0.0011005562699632648   -0.038128063662864906   -0.0005071802757133048
-0.001208018704366367   -0.02885462814217681   -0.0002505624052405433
-0.006376291252361268   -0.028798730230576424   -0.0004262974136163412
-0.0059769089170371905   -0.03819185788326229   -0.0006943696392473798
-0.0064408768661176705   -0.02871039110287993   -0.0003974925674246949
-0.0011005562699632648   -0.038128063662864906   -0.0005071802757133048
-0.006028512416609741   -0.03810022305220875   -0.0006742226025504882
-0.0064408768661176705   -0.02871039110287993   -0.0003974925674246949
-0.0059769089170371905   -0.03819185788326229   -0.0006943696392473798
-0.0011005562699632648   -0.038128063662864906   -0.0005071802757133048
-0.0064408768661176705   -0.02871039110287993   -0.0003974925674246949
-0.0012713080386897266   -0.028748962006248168   -0.00023180000812161652
-0.001208018704366367   -0.02885462814217681   -0.0002505624052405433
-0.0011005562699632648   -0.038128063662864906   -0.0005071802757133048
-0.0064408768661176705   -0.02871039110287993   -0.0003974925674246949
-0.001208018704366367   -0.02885462814217681   -0.0002505624052405433
-0.0059769089170371905   -0.03819185788326229   -0.0006943696392473798
-0.0011005562699632648   -0.038128063662864906   -0.0005071802757133048
-0.0012713080386897266   -0.028748962006248168   -0.00023180000812161652
-0.006028512416609741   -0.03810022305220875   -0.0006742226025504882
-0.0011517628814985046   -0.03803307715468523   -0.000504876333371439
-0.0012713080386897266   -0.028748962006248168   -0.00023180000812161652
-0.0064408768661176705   -0.02871039110287993   -0.0003974925674246949
-0.006028512416609741   -0.03810022305220875   -0.0006742226025504882
-0.006506911288635464   -0.02862669076509728   -0.00036368039664749964
-0.0011517628814985046   -0.03803307715468523   -0.000504876333371439
-0.006081155811798308   -0.038021156688340677   -0.0006480423739270564
-0.006506911288635464   -0.02862669076509728   -0.00036368039664749964
-0.006028512416609741   -0.03810022305220875   -0.0006742226025504882
-0.0011517628814985046   -0.03803307715468523   -0.000504876333371439
-0.006506911288635464   -0.02862669076509728   -0.00036368039664749964
-0.001343773839189824   -0.028649273200351613   -0.00020778418171290568
-0.0012713080386897266   -0.028748962006248168   -0.00023180000812161652
-0.0011517628814985046   -0.03803307715468523   -0.000504876333371439
-0.006506911288635464   -0.02862669076509728   -0.00036368039664749964
-0.0012713080386897266   -0.028748962006248168   -0.00023180000812161652
-0.006028512416609741   -0.03810022305220875   -0.0006742226025504882
-0.0011517628814985046   -0.03803307715468523   -0.000504876333371439
-0.001343773839189824   -0.028649273200351613   -0.00020778418171290568
-0.006081155811798308   -0.038021156688340677   -0.0006480423739270564
-0.0012153467226410028   -0.03795106459052446   -0.0004965526993350958
-0.001343773839189824   -0.028649273200351613   -0.00020778418171290568
-0.006506911288635464   -0.02862669076509728   -0.00036368039664749964
-0.006081155811798308   -0.038021156688340677   -0.0006480423739270564
-0.00657714873956298   -0.028548928131925288   -0.0003248074941715682
-0.0012153467226410028   -0.03795106459052446   -0.0004965526993350958
-0.006138255523713678   -0.03795540695729513   -0.0006161124870867988
-0.00657714873956298   -0.028548928131925288   -0.0003248074941715682
-0.006081155811798308   -0.038021156688340677   -0.0006480423739270564
-0.0012153467226410028   -0.03795106459052446   -0.0004965526993350958
-0.00657714873956298   -0.028548928131925288   -0.0003248074941715682
-0.0014251292870903355   -0.0285541952703686   -0.00017719829520955623
-0.001343773839189824   -0.028649273200351613   -0.00020778418171290568
-0.0012153467226410028   -0.03795106459052446   -0.0004965526993350958
-0.00657714873956298   -0.028548928131925288   -0.0003248074941715682
-0.001343773839189824   -0.028649273200351613   -0.00020778418171290568
-0.006081155811798308   -0.038021156688340677   -0.0006480423739270564
-0.0059769089170371905   -0.03819185788326229   -0.0006943696392473798
-0.006376291252361268   -0.028798730230576424   -0.0004262974136163412
-0.010816117090744913   -0.038104766677281424   -0.000855190331614653
-0.006028512416609741   -0.03810022305220875   -0.0006742226025504882
-0.006376291252361268   -0.028798730230576424   -0.0004262974136163412
-0.011460439461735993   -0.028731658104964777   -0.0005754902405761095
-0.010816117090744913   -0.038104766677281424   -0.000855190331614653
-0.011524566697636672   -0.028659371143159935   -0.0005366535402533658
-0.006028512416609741   -0.03810022305220875   -0.0006742226025504882
-0.010869253684914242   -0.03803045052226915   -0.0008114534284056954
-0.011524566697636672   -0.028659371143159935   -0.0005366535402533658
-0.010816117090744913   -0.038104766677281424   -0.000855190331614653
-0.006028512416609741   -0.03810022305220875   -0.0006742226025504882
-0.011524566697636672   -0.028659371143159935   -0.0005366535402533658
-0.0064408768661176705   -0.02871039110287993   -0.0003974925674246949
-0.006376291252361268   -0.028798730230576424   -0.0004262974136163412
-0.006028512416609741   -0.03810022305220875   -0.0006742226025504882
-0.011524566697636672   -0.028659371143159935   -0.0005366535402533658
-0.006376291252361268   -0.028798730230576424   -0.0004262974136163412
-0.010816117090744913   -0.038104766677281424   -0.000855190331614653
-0.006028512416609741   -0.03810022305220875   -0.0006742226025504882
-0.0064408768661176705   -0.02871039110287993   -0.0003974925674246949
-0.010869253684914242   -0.03803045052226915   -0.0008114534284056954
-0.006081155811798308   -0.038021156688340677   -0.0006480423739270564
-0.0064408768661176705   -0.02871039110287993   -0.0003974925674246949
-0.011524566697636672   -0.028659371143159935   -0.0005366535402533658
-0.010869253684914242   -0.03803045052226915   -0.0008114534284056954
-0.011584542340435582   -0.028591984889754042   -0.0004929806793205614
-0.006081155811798308   -0.038021156688340677   -0.0006480423739270564
-0.010917453388209247   -0.03796861400235656   -0.0007618241480501462
-0.011584542340435582   -0.028591984889754042   -0.0004929806793205614
-0.010869253684914242   -0.03803045052226915   -0.0008114534284056954
-0.006081155811798308   -0.038021156688340677   -0.0006480423739270564
-0.011584542340435582   -0.028591984889754042   -0.0004929806793205614
-0.006506911288635464   -0.02862669076509728   -0.00036368039664749964
-0.0064408768661176705   -0.02871039110287993   -0.0003974925674246949
-0.006081155811798308   -0.038021156688340677   -0.0006480423739270564
-0.011584542340435582   -0.028591984889754042   -0.0004929806793205614
-0.0064408768661176705   -0.02871039110287993   -0.0003974925674246949
-0.010869253684914242   -0.03803045052226915   -0.0008114534284056954
-0.006081155811798308   -0.038021156688340677   -0.0006480423739270564
-0.006506911288635464   -0.02862669076509728   -0.00036368039664749964
-0.010917453388209247   -0.03796861400235656   -0.0007618241480501462
-0.006138255523713678   -0.03795540695729513   -0.0006161124870867988
-0.006506911288635464   -0.02862669076509728   -0.00036368039664749964
-0.011584542340435582   -0.028591984889754042   -0.0004929806793205614
-0.010917453388209247   -0.03796861400235656   -0.0007618241480501462
-0.011644732599058091   -0.028529685642232332   -0.0004447109877328786
-0.006138255523713678   -0.03795540695729513   -0.0006161124870867988
-0.010966110777120041   -0.037919361014706755   -0.0007065269241495397
-0.011644732599058091   -0.028529685642232332   -0.0004447109877328786
-0.010917453388209247   -0.03796861400235656   -0.0007618241480501462
-0.006138255523713678   -0.03795540695729513   -0.0006161124870867988
-0.011644732599058091   -0.028529685642232332   -0.0004447109877328786
-0.00657714873956298   -0.028548928131925288   -0.0003248074941715682
-0.006506911288635464   -0.02862669076509728   -0.00036368039664749964
-0.006138255523713678   -0.03795540695729513   -0.0006161124870867988
-0.011644732599058091   -0.028529685642232332   -0.0004447109877328786
-0.006506911288635464   -0.02862669076509728   -0.00036368039664749964
-0.010917453388209247   -0.03796861400235656   -0.0007618241480501462
-0.010816117090744913   -0.038104766677281424   -0.000855190331614653
-0.011460439461735993   -0.028731658104964777   -0.0005754902405761095
-0.015751190764540752   -0.037975364860233334   -0.000986520943595135
-0.010869253684914242   -0.03803045052226915   -0.0008114534284056954
-0.011460439461735993   -0.028731658104964777   -0.0005754902405761095
-0.016636447133103204   -0.028640957510073298   -0.0006968651245691533
-0.015751190764540752   -0.037975364860233334   -0.000986520943595135
-0.016697852773414772   -0.028585558205391774   -0.0006481160306742356
-0.010869253684914242   -0.03803045052226915   -0.0008114534284056954
-0.01580051901798022   -0.037918512181618104   -0.000919013473051873
-0.016697852773414772   -0.028585558205391774   -0.0006481160306742356
-0.015751190764540752   -0.037975364860233334   -0.000986520943595135
-0.010869253684914242   -0.03803045052226915   -0.0008114534284056954
-0.016697852773414772   -0.028585558205391774   -0.0006481160306742356
-0.011524566697636672   -0.028659371143159935   -0.0005366535402533658
-0.011460439461735993   -0.028731658104964777   -0.0005754902405761095
-0.010869253684914242   -0.03803045052226915   -0.0008114534284056954
-0.016697852773414772   -0.028585558205391774   -0.0006481160306742356
-0.011460439461735993   -0.028731658104964777   -0.0005754902405761095
-0.015751190764540752   -0.037975364860233334   -0.000986520943595135
-0.010869253684914242   -0.03803045052226915   -0.0008114534284056954
-0.011524566697636672   -0.028659371143159935   -0.0005366535402533658
-0.01580051901798022   -0.037918512181618104   -0.000919013473051873
-0.010917453388209247   -0.03796861400235656   -0.0007618241480501462
-0.011524566697636672   -0.028659371143159935   -0.0005366535402533658
-0.016697852773414772   -0.028585558205391774   -0.0006481160306742356
-0.01580051901798022   -0.037918512181618104   -0.000919013473051873
-0.016744382572403096   -0.028533197763880996   -0.0005953279043837881
-0.010917453388209247   -0.03796861400235656   -0.0007618241480501462
-0.01583036555149164   -0.03787255543140222   -0.000846408198776224
-0.016744382572403096   -0.028533197763880996   -0.0005953279043837881
-0.01580051901798022   -0.037918512181618104   -0.000919013473051873
-0.010917453388209247   -0.03796861400235656   -0.0007618241480501462
-0.016744382572403096   -0.028533197763880996   -0.0005953279043837881
-0.011584542340435582   -0.028591984889754042   -0.0004929806793205614
-0.011524566697636672   -0.028659371143159935   -0.0005366535402533658
-0.010917453388209247   -0.03796861400235656   -0.0007618241480501462
-0.016744382572403096   -0.028533197763880996   -0.0005953279043837881
-0.011524566697636672   -0.028659371143159935   -0.0005366535402533658
-0.01580051901798022   -0.037918512181618104   -0.000919013473051873
-0.010917453388209247   -0.03796861400235656   -0.0007618241480501462
-0.011584542340435582   -0.028591984889754042   -0.0004929806793205614
-0.01583036555149164   -0.03787255543140222   -0.000846408198776224
-0.010966110777120041   -0.037919361014706755   -0.0007065269241495397
-0.011584542340435582   -0.028591984889754042   -0.0004929806793205614
-0.016744382572403096   -0.028533197763880996   -0.0005953279043837881
-0.01583036555149164   -0.03787255543140222   -0.000846408198776224
-0.01679055525535085   -0.028486207501970725   -0.0005374478314874251
-0.010966110777120041   -0.037919361014706755   -0.0007065269241495397
-0.01586316538481233   -0.03784027522569343   -0.0007676513435395998
-0.01679055525535085   -0.028486207501970725   -0.0005374478314874251
-0.01583036555149164   -0.03787255543140222   -0.000846408198776224
-0.010966110777120041   -0.037919361014706755   -0.0007065269241495397
-0.01679055525535085   -0.028486207501970725   -0.0005374478314874251
-0.011644732599058091   -0.028529685642232332   -0.0004447109877328786
-0.011584542340435582   -0.028591984889754042   -0.0004929806793205614
-0.010966110777120041   -0.037919361014706755   -0.0007065269241495397
-0.01679055525535085   -0.028486207501970725   -0.0005374478314874251
-0.011584542340435582   -0.028591984889754042   -0.0004929806793205614
-0.01583036555149164   -0.03787255543140222   -0.000846408198776224
-0.015751190764540752   -0.037975364860233334   -0.000986520943595135
-0.016636447133103204   -0.028640957510073298   -0.0006968651245691533
-0.02104793965252463   -0.037816119731428954   -0.0010909066568252042
-0.01580051901798022   -0.037918512181618104   -0.000919013473051873
-0.016636447133103204   -0.028640957510073298   -0.0006968651245691533
-0.022122514801328545   -0.028533752993276394   -0.0007868474559183736
-0.02104793965252463   -0.037816119731428954   -0.0010909066568252042
-0.02213177307336687   -0.028489590547603458   -0.0007329493305193085
-0.01580051901798022   -0.037918512181618104   -0.000919013473051873
-0.021011391889722217   -0.03776821538032302   -0.0010009396729582837
-0.02213177307336687   -0.028489590547603458   -0.0007329493305193085
-0.02104793965252463   -0.037816119731428954   -0.0010909066568252042
-0.01580051901798022   -0.037918512181618104   -0.000919013473051873
-0.02213177307336687   -0.028489590547603458   -0.0007329493305193085
-0.016697852773414772   -0.028585558205391774   -0.0006481160306742356
-0.016636447133103204   -0.028640957510073298   -0.0006968651245691533
-0.01580051901798022   -0.037918512181618104   -0.000919013473051873
-0.02213177307336687   -0.028489590547603458   -0.0007329493305193085
-0.016636447133103204   -0.028640957510073298   -0.0006968651245691533
-0.02104793965252463   -0.037816119731428954   -0.0010909066568252042
-0.01580051901798022   -0.037918512181618104   -0.000919013473051873
-0.016697852773414772   -0.028585558205391774   -0.0006481160306742356
-0.021011391889722217   -0.03776821538032302   -0.0010009396729582837
-0.01583036555149164   -0.03787255543140222   -0.000846408198776224
-0.016697852773414772   -0.028585558205391774   -0.0006481160306742356
-0.02213177307336687   -0.028489590547603458   -0.0007329493305193085
-0.021011391889722217   -0.03776821538032302   -0.0010009396729582837
-0.022141309018468874   -0.02844494824685275   -0.0006709199493228756
-0.01583036555149164   -0.03787255543140222   -0.000846408198776224
-0.020981606762159825   -0.037729740049927726   -0.00090161840538236
-0.022141309018468874   -0.02844494824685275   -0.0006709199493228756
-0.021011391889722217   -0.03776821538032302   -0.0010009396729582837
-0.01583036555149164   -0.03787255543140222   -0.000846408198776224
-0.022141309018468874   -0.02844494824685275   -0.0006709199493228756
-0.016744382572403096   -0.028533197763880996   -0.0005953279043837881
-0.016697852773414772   -0.028585558205391774   -0.0006481160306742356
-0.01583036555149164   -0.03787255543140222   -0.000846408198776224
-0.022141309018468874   -0.02844494824685275   -0.0006709199493228756
-0.016697852773414772   -0.028585558205391774   -0.0006481160306742356
-0.021011391889722217   -0.03776821538032302   -0.0010009396729582837
-0.01583036555149164   -0.03787255543140222   -0.000846408198776224
-0.016744382572403096   -0.028533197763880996   -0.0005953279043837881
-0.020981606762159825   -0.037729740049927726   -0.00090161840538236
-0.01586316538481233   -0.03784027522569343   -0.0007676513435395998
-0.016744382572403096   -0.028533197763880996   -0.0005953279043837881
-0.022141309018468874   -0.02844494824685275   -0.0006709199493228756
-0.020981606762159825   -0.037729740049927726   -0.00090161840538236
-0.02211996109362391   -0.028415685894038707   -0.0006017233764538774
-0.01586316538481233   -0.03784027522569343   -0.0007676513435395998
-0.020910201760857443   -0.0377178165069177   -0.0007940096277950183
-0.02211996109362391   -0.028415685894038707   -0.0006017233764538774
-0.020981606762159825   -0.037729740049927726   -0.00090161840538236
-0.01586316538481233   -0.03784027522569343   -0.0007676513435395998
-0.02211996109362391   -0.028415685894038707   -0.0006017233764538774
-0.01679055525535085   -0.028486207501970725   -0.0005374478314874251
-0.016744382572403096   -0.028533197763880996   -0.0005953279043837881
-0.01586316538481233   -0.03784027522569343   -0.0007676513435395998
-0.02211996109362391   -0.028415685894038707   -0.0006017233764538774
-0.016744382572403096   -0.028533197763880996   -0.0005953279043837881
-0.020981606762159825   -0.037729740049927726   -0.00090161840538236
0.004246360137989649   -0.028902512754740855   -4.281205985827738e-05
0.0038076173854726136   -0.01928653948836195   0.0001157822323976427
-0.001208018704366367   -0.02885462814217681   -0.0002505624052405433
0.004179305163975521   -0.02878132756323222   -3.913955334948157e-05
0.0038076173854726136   -0.01928653948836195   0.0001157822323976427
-0.0016883317761822046   -0.019196040534996787   -4.9187671289613e-05
-0.001208018704366367   -0.02885462814217681   -0.0002505624052405433
-0.0017639994616348222   -0.019100412963269118   -9.934497694300489e-06
0.004179305163975521   -0.02878132756323222   -3.913955334948157e-05
-0.0012713080386897266   -0.028748962006248168   -0.00023180000812161652
-0.0017639994616348222   -0.019100412963269118   -9.934497694300489e-06
-0.001208018704366367   -0.02885462814217681   -0.0002505624052405433
0.004179305163975521   -0.02878132756323222   -3.913955334948157e-05
-0.0017639994616348222   -0.019100412963269118   -9.934497694300489e-06
0.0036885195691490507   -0.01917110576194439   0.0001645677501798548
0.0038076173854726136   -0.01928653948836195   0.0001157822323976427
0.004179305163975521   -0.02878132756323222   -3.913955334948157e-05
-0.0017639994616348222   -0.019100412963269118   -9.934497694300489e-06
0.0038076173854726136   -0.01928653948836195   0.0001157822323976427
-0.001208018704366367   -0.02885462814217681   -0.0002505624052405433
0.004179305163975521   -0.02878132756323222   -3.913955334948157e-05
0.0036885195691490507   -0.01917110576194439   0.0001645677501798548
-0.0012713080386897266   -0.028748962006248168   -0.00023180000812161652
0.0040969129453232184   -0.028673103123943243   -2.4734230034734256e-05
0.0036885195691490507   -0.01917110576194439   0.0001645677501798548
-0.0017639994616348222   -0.019100412963269118   -9.934497694300489e-06
-0.0012713080386897266   -0.028748962006248168   -0.00023180000812161652
-0.0018525301498117754   -0.018999503986967498   3.6312477409032954e-05
0.0040969129453232184   -0.028673103123943243   -2.4734230034734256e-05
-0.001343773839189824   -0.028649273200351613   -0.00020778418171290568
-0.0018525301498117754   -0.018999503986967498   3.6312477409032954e-05
-0.0012713080386897266   -0.028748962006248168   -0.00023180000812161652
0.0040969129453232184   -0.028673103123943243   -2.4734230034734256e-05
-0.0018525301498117754   -0.018999503986967498   3.6312477409032954e-05
0.003555504952916452   -0.01905650925290513   0.0002347040797392928
0.0036885195691490507   -0.01917110576194439   0.0001645677501798548
0.0040969129453232184   -0.028673103123943243   -2.4734230034734256e-05
-0.0018525301498117754   -0.018999503986967498   3.6312477409032954e-05
0.0036885195691490507   -0.01917110576194439   0.0001645677501798548
-0.0012713080386897266   -0.028748962006248168   -0.00023180000812161652
0.0040969129453232184   -0.028673103123943243   -2.4734230034734256e-05
0.003555504952916452   -0.01905650925290513   0.0002347040797392928
-0.001343773839189824   -0.028649273200351613   -0.00020778418171290568
0.003988282267590002   -0.028559928288531565   -8.133372281773228e-08
0.003555504952916452   -0.01905650925290513   0.0002347040797392928
-0.0018525301498117754   -0.018999503986967498   3.6312477409032954e-05
-0.001343773839189824   -0.028649273200351613   -0.00020778418171290568
-0.0019441196150974513   -0.018892376095708957   8.946193106314314e-05
0.003988282267590002   -0.028559928288531565   -8.133372281773228e-08
-0.0014251292870903355   -0.0285541952703686   -0.00017719829520955623
-0.0019441196150974513   -0.018892376095708957   8.946193106314314e-05
-0.001343773839189824   -0.028649273200351613   -0.00020778418171290568
0.003988282267590002   -0.028559928288531565   -8.133372281773228e-08
-0.0019441196150974513   -0.018892376095708957   8.946193106314314e-05
0.0033929716157090764   -0.018915718071468347   0.0003118909851370498
0.003555504952916452   -0.01905650925290513   0.0002347040797392928
0.003988282267590002   -0.028559928288531565   -8.133372281773228e-08
-0.0019441196150974513   -0.018892376095708957   8.946193106314314e-05
0.003555504952916452   -0.01905650925290513   0.0002347040797392928
-0.001343773839189824   -0.028649273200351613   -0.00020778418171290568
-0.001208018704366367   -0.02885462814217681   -0.0002505624052405433
-0.0016883317761822046   -0.019196040534996787   -4.9187671289613e-05
-0.006376291252361268   -0.028798730230576424   -0.0004262974136163412
-0.0012713080386897266   -0.028748962006248168   -0.00023180000812161652
-0.0016883317761822046   -0.019196040534996787   -4.9187671289613e-05
-0.0068634656424100705   -0.019172612950456823   -0.00020814223759924337
-0.006376291252361268   -0.028798730230576424   -0.0004262974136163412
-0.006931891334386912   -0.019089193640280427   -0.00017158579734203973
-0.0012713080386897266   -0.028748962006248168   -0.00023180000812161652
-0.0064408768661176705   -0.02871039110287993   -0.0003974925674246949
-0.006931891334386912   -0.019089193640280427   -0.00017158579734203973
-0.006376291252361268   -0.028798730230576424   -0.0004262974136163412
-0.0012713080386897266   -0.028748962006248168   -0.00023180000812161652
-0.006931891334386912   -0.019089193640280427   -0.00017158579734203973
-0.0017639994616348222   -0.019100412963269118   -9.934497694300489e-06
-0.0016883317761822046   -0.019196040534996787   -4.9187671289613e-05
-0.0012713080386897266   -0.028748962006248168   -0.00023180000812161652
-0.006931891334386912   -0.019089193640280427   -0.00017158579734203973
-0.0016883317761822046   -0.019196040534996787   -4.9187671289613e-05
-0.006376291252361268   -0.028798730230576424   -0.0004262974136163412
-0.0012713080386897266   -0.028748962006248168   -0.00023180000812161652
-0.0017639994616348222   -0.019100412963269118   -9.934497694300489e-06
-0.0064408768661176705   -0.02871039110287993   -0.0003974925674246949
-0.001343773839189824   -0.028649273200351613   -0.00020778418171290568
-0.0017639994616348222   -0.019100412963269118   -9.934497694300489e-06
-0.006931891334386912   -0.019089193640280427   -0.00017158579734203973
-0.0064408768661176705   -0.02871039110287993   -0.0003974925674246949
-0.007002681099832685   -0.019002428706151528   -0.00013139616804024832
-0.001343773839189824   -0.028649273200351613   -0.00020778418171290568
-0.006506911288635464   -0.02862669076509728   -0.00036368039664749964
-0.007002681099832685   -0.019002428706151528   -0.00013139616804024832
-0.0064408768661176705   -0.02871039110287993   -0.0003974925674246949
-0.001343773839189824   -0.028649273200351613   -0.00020778418171290568
-0.007002681099832685   -0.019002428706151528   -0.00013139616804024832
-0.0018525301498117754   -0.018999503986967498   3.6312477409032954e-05
-0.0017639994616348222   -0.019100412963269118   -9.934497694300489e-06
-0.001343773839189824   -0.028649273200351613   -0.00020778418171290568
-0.007002681099832685   -0.019002428706151528   -0.00013139616804024832
-0.0017639994616348222   -0.019100412963269118   -9.934497694300489e-06
-0.0064408768661176705   -0.02871039110287993   -0.0003974925674246949
-0.001343773839189824   -0.028649273200351613   -0.00020778418171290568
-0.0018525301498117754   -0.018999503986967498   3.6312477409032954e-05
-0.006506911288635464   -0.02862669076509728   -0.00036368039664749964
-0.0014251292870903355   -0.0285541952703686   -0.00017719829520955623
-0.0018525301498117754   -0.018999503986967498   3.6312477409032954e-05
-0.007002681099832685   -0.019002428706151528   -0.00013139616804024832
-0.006506911288635464   -0.02862669076509728   -0.00036368039664749964
-0.007076385727209997   -0.018913879702860927   -8.684871153748845e-05
-0.0014251292870903355   -0.0285541952703686   -0.00017719829520955623
-0.00657714873956298   -0.028548928131925288   -0.0003248074941715682
-0.007076385727209997   -0.018913879702860927   -8.684871153748845e-05
-0.006506911288635464   -0.02862669076509728   -0.00036368039664749964
-0.0014251292870903355   -0.0285541952703686   -0.00017719829520955623
-0.007076385727209997   -0.018913879702860927   -8.684871153748845e-05
-0.0019441196150974513   -0.018892376095708957   8.946193106314314e-05
-0.0018525301498117754   -0.018999503986967498   3.6312477409032954e-05
-0.0014251292870903355   -0.0285541952703686   -0.00017719829520955623
-0.007076385727209997   -0.018913879702860927   -8.684871153748845e-05
-0.0018525301498117754   -0.018999503986967498   3.6312477409032954e-05
-0.006506911288635464   -0.02862669076509728   -0.00036368039664749964
-0.006376291252361268   -0.028798730230576424   -0.0004262974136163412
-0.0068634656424100705   -0.019172612950456823   -0.00020814223759924337
-0.011460439461735993   -0.028731658104964777   -0.0005754902405761095
-0.0064408768661176705   -0.02871039110287993   -0.0003974925674246949
-0.0068634656424100705   -0.019172612950456823   -0.00020814223759924337
-0.01198533697254696   -0.019166090786869424   -0.00035178471487474426
-0.011460439461735993   -0.028731658104964777   -0.0005754902405761095
-0.012050765436383367   -0.019092976248169292   -0.0003168813013653376
-0.0064408768661176705   -0.02871039110287993   -0.0003974925674246949
-0.011524566697636672   -0.028659371143159935   -0.0005366535402533658
-0.012050765436383367   -0.019092976248169292   -0.0003168813013653376
-0.011460439461735993   -0.028731658104964777   -0.0005754902405761095
-0.0064408768661176705   -0.02871039110287993   -0.0003974925674246949
-0.012050765436383367   -0.019092976248169292   -0.0003168813013653376
-0.006931891334386912   -0.019089193640280427   -0.00017158579734203973
-0.0068634656424100705   -0.019172612950456823   -0.00020814223759924337
-0.0064408768661176705   -0.02871039110287993   -0.0003974925674246949
-0.012050765436383367   -0.019092976248169292   -0.0003168813013653376
-0.0068634656424100705   -0.019172612950456823   -0.00020814223759924337
-0.011460439461735993   -0.028731658104964777   -0.0005754902405761095
-0.0064408768661176705   -0.02871039110287993   -0.0003974925674246949
-0.006931891334386912   -0.019089193640280427   -0.00017158579734203973
-0.011524566697636672   -0.028659371143159935   -0.0005366535402533658
-0.006506911288635464   -0.02862669076509728   -0.00036368039664749964
-0.006931891334386912   -0.019089193640280427   -0.00017158579734203973
-0.012050765436383367   -0.019092976248169292   -0.0003168813013653376
-0.011524566697636672   -0.028659371143159935   -0.0005366535402533658
-0.012113093784958012   -0.01901855038085519   -0.0002787998868121546
-0.006506911288635464   -0.02862669076509728   -0.00036368039664749964
-0.011584542340435582   -0.028591984889754042   -0.0004929806793205614
-0.012113093784958012   -0.01901855038085519   -0.0002787998868121546
-0.011524566697636672   -0.028659371143159935   -0.0005366535402533658
-0.006506911288635464   -0.02862669076509728   -0.00036368039664749964
-0.012113093784958012   -0.01901855038085519   -0.0002787998868121546
-0.007002681099832685   -0.019002428706151528   -0.00013139616804024832
-0.006931891334386912   -0.019089193640280427   -0.00017158579734203973
-0.006506911288635464   -0.02862669076509728   -0.00036368039664749964
-0.012113093784958012   -0.01901855038085519   -0.0002787998868121546
-0.006931891334386912   -0.019089193640280427   -0.00017158579734203973
-0.011524566697636672   -0.028659371143159935   -0.0005366535402533658
-0.006506911288635464   -0.02862669076509728   -0.00036368039664749964
-0.007002681099832685   -0.019002428706151528   -0.00013139616804024832
-0.011584542340435582   -0.028591984889754042   -0.0004929806793205614
-0.00657714873956298   -0.028548928131925288   -0.0003248074941715682
-0.007002681099832685   -0.019002428706151528   -0.00013139616804024832
-0.012113093784958012   -0.01901855038085519   -0.0002787998868121546
-0.011584542340435582   -0.028591984889754042   -0.0004929806793205614
-0.012174795860324595   -0.018942386937522575   -0.00023771965813912805
-0.00657714873956298   -0.028548928131925288   -0.0003248074941715682
-0.011644732599058091   -0.028529685642232332   -0.0004447109877328786
-0.012174795860324595   -0.018942386937522575   -0.00023771965813912805
-0.011584542340435582   -0.028591984889754042   -0.0004929806793205614
-0.00657714873956298   -0.028548928131925288   -0.0003248074941715682
-0.012174795860324595   -0.018942386937522575   -0.00023771965813912805
-0.007076385727209997   -0.018913879702860927   -8.684871153748845e-05
-0.007002681099832685   -0.019002428706151528   -0.00013139616804024832
-0.00657714873956298   -0.028548928131925288   -0.0003248074941715682
-0.012174795860324595   -0.018942386937522575   -0.00023771965813912805
-0.007002681099832685   -0.019002428706151528   -0.00013139616804024832
-0.011584542340435582   -0.028591984889754042   -0.0004929806793205614
-0.011460439461735993   -0.028731658104964777   -0.0005754902405761095
-0.01198533697254696   -0.019166090786869424   -0.00035178471487474426
-0.016636447133103204   -0.028640957510073298   -0.0006968651245691533
-0.011524566697636672   -0.028659371143159935   -0.0005366535402533658
-0.01198533697254696   -0.019166090786869424   -0.00035178471487474426
-0.0172157388156477   -0.01913629355880779   -0.0004723682797023842
-0.016636447133103204   -0.028640957510073298   -0.0006968651245691533
-0.017278112704345774   -0.019076757901960156   -0.0004392977444741715
-0.011524566697636672   -0.028659371143159935   -0.0005366535402533658
-0.016697852773414772   -0.028585558205391774   -0.0006481160306742356
-0.017278112704345774   -0.019076757901960156   -0.0004392977444741715
-0.016636447133103204   -0.028640957510073298   -0.0006968651245691533
-0.011524566697636672   -0.028659371143159935   -0.0005366535402533658
-0.017278112704345774   -0.019076757901960156   -0.0004392977444741715
-0.012050765436383367   -0.019092976248169292   -0.0003168813013653376
-0.01198533697254696   -0.019166090786869424   -0.00035178471487474426
-0.011524566697636672   -0.028659371143159935   -0.0005366535402533658
-0.017278112704345774   -0.019076757901960156   -0.0004392977444741715
-0.01198533697254696   -0.019166090786869424   -0.00035178471487474426
-0.016636447133103204   -0.028640957510073298   -0.0006968651245691533
-0.011524566697636672   -0.028659371143159935   -0.0005366535402533658
-0.012050765436383367   -0.019092976248169292   -0.0003168813013653376
-0.016697852773414772   -0.028585558205391774   -0.0006481160306742356
-0.011584542340435582   -0.028591984889754042   -0.0004929806793205614
-0.012050765436383367   -0.019092976248169292   -0.0003168813013653376
-0.017278112704345774   -0.019076757901960156   -0.0004392977444741715
-0.016697852773414772   -0.028585558205391774   -0.0006481160306742356
-0.01733094817452261   -0.01901396066248424   -0.000403967460911541
-0.011584542340435582   -0.028591984889754042   -0.0004929806793205614
-0.016744382572403096   -0.028533197763880996   -0.0005953279043837881
-0.01733094817452261   -0.01901396066248424   -0.000403967460911541
-0.016697852773414772   -0.028585558205391774   -0.0006481160306742356
-0.011584542340435582   -0.028591984889754042   -0.0004929806793205614
-0.01733094817452261   -0.01901396066248424   -0.000403967460911541
-0.012113093784958012   -0.01901855038085519   -0.0002787998868121546
-0.012050765436383367   -0.019092976248169292   -0.0003168813013653376
-0.011584542340435582   -0.028591984889754042   -0.0004929806793205614
-0.01733094817452261   -0.01901396066248424   -0.000403967460911541
-0.012050765436383367   -0.019092976248169292   -0.0003168813013653376
-0.016697852773414772   -0.028585558205391774   -0.0006481160306742356
-0.011584542340435582   -0.028591984889754042   -0.0004929806793205614
-0.012113093784958012   -0.01901855038085519   -0.0002787998868121546
-0.016744382572403096   -0.028533197763880996   -0.0005953279043837881
-0.011644732599058091   -0.028529685642232332   -0.0004447109877328786
-0.012113093784958012   -0.01901855038085519   -0.0002787998868121546
-0.01733094817452261   -0.01901396066248424   -0.000403967460911541
-0.016744382572403096   -0.028533197763880996   -0.0005953279043837881
-0.017380884652400955   -0.0189495204664624   -0.00036539602252679356
-0.011644732599058091   -0.028529685642232332   -0.0004447109877328786
-0.01679055525535085   -0.028486207501970725   -0.0005374478314874251
-0.017380884652400955   -0.0189495204664624   -0.00036539602252679356
-0.016744382572403096   -0.028533197763880996   -0.0005953279043837881
-0.011644732599058091   -0.028529685642232332   -0.0004447109877328786
-0.017380884652400955   -0.0189495204664624   -0.00036539602252679356
-0.012174795860324595   -0.018942386937522575   -0.00023771965813912805
-0.012113093784958012   -0.01901855038085519   -0.0002787998868121546
-0.011644732599058091   -0.028529685642232332   -0.0004447109877328786
-0.017380884652400955   -0.0189495204664624   -0.00036539602252679356
-0.012113093784958012   -0.01901855038085519   -0.0002787998868121546
-0.016744382572403096   -0.028533197763880996   -0.0005953279043837881
-0.016636447133103204   -0.028640957510073298   -0.0006968651245691533
-0.0172157388156477   -0.01913629355880779   -0.0004723682797023842
-0.022122514801328545   -0.028533752993276394   -0.0007868474559183736
-0.016697852773414772   -0.028585558205391774   -0.0006481160306742356
-0.0172157388156477   -0.01913629355880779   -0.0004723682797023842
-0.022694889059531525   -0.01908716370889906   -0.0005614648729123055
-0.022122514801328545   -0.028533752993276394   -0.0007868474559183736
-0.022733581267955657   -0.01903724015843667   -0.000536615597138554
-0.016697852773414772   -0.028585558205391774   -0.0006481160306742356
-0.02213177307336687   -0.028489590547603458   -0.0007329493305193085
-0.022733581267955657   -0.01903724015843667   -0.000536615597138554
-0.022122514801328545   -0.028533752993276394   -0.0007868474559183736
-0.016697852773414772   -0.028585558205391774   -0.0006481160306742356
-0.022733581267955657   -0.01903724015843667   -0.000536615597138554
-0.017278112704345774   -0.019076757901960156   -0.0004392977444741715
-0.0172157388156477   -0.01913629355880779   -0.0004723682797023842
-0.016697852773414772   -0.028585558205391774   -0.0006481160306742356
-0.022733581267955657   -0.01903724015843667   -0.000536615597138554
-0.0172157388156477   -0.01913629355880779   -0.0004723682797023842
-0.022122514801328545   -0.028533752993276394   -0.0007868474559183736
-0.016697852773414772   -0.028585558205391774   -0.0006481160306742356
-0.017278112704345774   -0.019076757901960156   -0.0004392977444741715
-0.02213177307336687   -0.028489590547603458   -0.0007329493305193085
-0.016744382572403096   -0.028533197763880996   -0.0005953279043837881
-0.017278112704345774   -0.019076757901960156   -0.0004392977444741715
-0.022733581267955657   -0.01903724015843667   -0.000536615597138554
-0.02213177307336687   -0.028489590547603458   -0.0007329493305193085
-0.022768960884131526   -0.018980727450545583   -0.0005062288079365575
-0.016744382572403096   -0.028533197763880996   -0.0005953279043837881
-0.022141309018468874   -0.02844494824685275   -0.0006709199493228756
-0.022768960884131526   -0.018980727450545583   -0.0005062288079365575
-0.02213177307336687   -0.028489590547603458   -0.0007329493305193085
-0.016744382572403096   -0.028533197763880996   -0.0005953279043837881
-0.022768960884131526   -0.018980727450545583   -0.0005062288079365575
-0.01733094817452261   -0.01901396066248424   -0.000403967460911541
-0.017278112704345774   -0.019076757901960156   -0.0004392977444741715
-0.016744382572403096   -0.028533197763880996   -0.0005953279043837881
-0.022768960884131526   -0.018980727450545583   -0.0005062288079365575
-0.017278112704345774   -0.019076757901960156   -0.0004392977444741715
-0.02213177307336687   -0.028489590547603458   -0.0007329493305193085
-0.016744382572403096   -0.028533197763880996   -0.0005953279043837881
-0.01733094817452261   -0.01901396066248424   -0.000403967460911541
-0.022141309018468874   -0.02844494824685275   -0.0006709199493228756
-0.01679055525535085   -0.028486207501970725   -0.0005374478314874251
-0.01733094817452261   -0.01901396066248424   -0.000403967460911541
-0.022768960884131526   -0.018980727450545583   -0.0005062288079365575
-0.022141309018468874   -0.02844494824685275   -0.0006709199493228756
-0.02278602488103751   -0.018928934092469825   -0.00047168543235643706
-0.01679055525535085   -0.028486207501970725   -0.0005374478314874251
-0.02211996109362391   -0.028415685894038707   -0.0006017233764538774
-0.02278602488103751   -0.018928934092469825   -0.00047168543235643706
-0.022141309018468874   -0.02844494824685275   -0.0006709199493228756
-0.01679055525535085   -0.028486207501970725   -0.0005374478314874251
-0.02278602488103751   -0.018928934092469825   -0.00047168543235643706
-0.017380884652400955   -0.0189495204664624   -0.00036539602252679356
-0.01733094817452261   -0.01901396066248424   -0.000403967460911541
-0.01679055525535085   -0.028486207501970725   -0.0005374478314874251
-0.02278602488103751   -0.018928934092469825   -0.00047168543235643706
-0.01733094817452261   -0.01901396066248424   -0.000403967460911541
-0.022141309018468874   -0.02844494824685275   -0.0006709199493228756
0.0038076173854726136   -0.01928653948836195   0.0001157822323976427
0.002668584527188325   -0.009687031084224086   0.00012449310675253554
-0.0016883317761822046   -0.019196040534996787   -4.9187671289613e-05
0.0036885195691490507   -0.01917110576194439   0.0001645677501798548
0.002668584527188325   -0.009687031084224086   0.00012449310675253554
-0.0024574064934049346   -0.009561725688124988   6.380631320428346e-05
-0.0016883317761822046   -0.019196040534996787   -4.9187671289613e-05
-0.002532711830254757   -0.00951359465553734   0.00011839982856383838
0.0036885195691490507   -0.01917110576194439   0.0001645677501798548
-0.0017639994616348222   -0.019100412963269118   -9.934497694300489e-06
-0.002532711830254757   -0.00951359465553734   0.00011839982856383838
-0.0016883317761822046   -0.019196040534996787   -4.9187671289613e-05
0.0036885195691490507   -0.01917110576194439   0.0001645677501798548
-0.002532711830254757   -0.00951359465553734   0.00011839982856383838
0.002433826401697212   -0.009564342925650003   0.0002595831188411019
0.002668584527188325   -0.009687031084224086   0.00012449310675253554
0.0036885195691490507   -0.01917110576194439   0.0001645677501798548
-0.002532711830254757   -0.00951359465553734   0.00011839982856383838
0.002668584527188325   -0.009687031084224086   0.00012449310675253554
-0.0016883317761822046   -0.019196040534996787   -4.9187671289613e-05
0.0036885195691490507   -0.01917110576194439   0.0001645677501798548
0.002433826401697212   -0.009564342925650003   0.0002595831188411019
-0.0017639994616348222   -0.019100412963269118   -9.934497694300489e-06
0.003555504952916452   -0.01905650925290513   0.0002347040797392928
0.002433826401697212   -0.009564342925650003   0.0002595831188411019
-0.002532711830254757   -0.00951359465553734   0.00011839982856383838
-0.0017639994616348222   -0.019100412963269118   -9.934497694300489e-06
-0.0026317420125472266   -0.009427673868797105   0.00018470921339846702
0.003555504952916452   -0.01905650925290513   0.0002347040797392928
-0.0018525301498117754   -0.018999503986967498   3.6312477409032954e-05
-0.0026317420125472266   -0.009427673868797105   0.00018470921339846702
-0.0017639994616348222   -0.019100412963269118   -9.934497694300489e-06
0.003555504952916452   -0.01905650925290513   0.0002347040797392928
-0.0026317420125472266   -0.009427673868797105   0.00018470921339846702
0.0022963839069298298   -0.00946408489975992   0.0003603625372581136
0.002433826401697212   -0.009564342925650003   0.0002595831188411019
0.003555504952916452   -0.01905650925290513   0.0002347040797392928
-0.0026317420125472266   -0.009427673868797105   0.00018470921339846702
0.002433826401697212   -0.009564342925650003   0.0002595831188411019
-0.0017639994616348222   -0.019100412963269118   -9.934497694300489e-06
0.003555504952916452   -0.01905650925290513   0.0002347040797392928
0.0022963839069298298   -0.00946408489975992   0.0003603625372581136
-0.0018525301498117754   -0.018999503986967498   3.6312477409032954e-05
0.0033929716157090764   -0.018915718071468347   0.0003118909851370498
0.0022963839069298298   -0.00946408489975992   0.0003603625372581136
-0.0026317420125472266   -0.009427673868797105   0.00018470921339846702
-0.0018525301498117754   -0.018999503986967498   3.6312477409032954e-05
-0.0027150266476863843   -0.00933532638120373   0.0002430769689317077
0.0033929716157090764   -0.018915718071468347   0.0003118909851370498
-0.0019441196150974513   -0.018892376095708957   8.946193106314314e-05
-0.0027150266476863843   -0.00933532638120373   0.0002430769689317077
-0.0018525301498117754   -0.018999503986967498   3.6312477409032954e-05
0.0033929716157090764   -0.018915718071468347   0.0003118909851370498
-0.0027150266476863843   -0.00933532638120373   0.0002430769689317077
0.002120202773925229   -0.009310763629158635   0.0004757745286886763
0.0022963839069298298   -0.00946408489975992   0.0003603625372581136
0.0033929716157090764   -0.018915718071468347   0.0003118909851370498
-0.0027150266476863843   -0.00933532638120373   0.0002430769689317077
0.0022963839069298298   -0.00946408489975992   0.0003603625372581136
-0.0018525301498117754   -0.018999503986967498   3.6312477409032954e-05
-0.0016883317761822046   -0.019196040534996787   -4.9187671289613e-05
-0.0024574064934049346   -0.009561725688124988   6.380631320428346e-05
-0.0068634656424100705   -0.019172612950456823   -0.00020814223759924337
-0.0017639994616348222   -0.019100412963269118   -9.934497694300489e-06
-0.0024574064934049346   -0.009561725688124988   6.380631320428346e-05
-0.007335408734622669   -0.009703267060587618   -6.252194427706956e-05
-0.0068634656424100705   -0.019172612950456823   -0.00020814223759924337
-0.007404801752986957   -0.00962952195339883   -2.3829330402463566e-05
-0.0017639994616348222   -0.019100412963269118   -9.934497694300489e-06
-0.006931891334386912   -0.019089193640280427   -0.00017158579734203973
-0.007404801752986957   -0.00962952195339883   -2.3829330402463566e-05
-0.0068634656424100705   -0.019172612950456823   -0.00020814223759924337
-0.0017639994616348222   -0.019100412963269118   -9.934497694300489e-06
-0.007404801752986957   -0.00962952195339883   -2.3829330402463566e-05
-0.002532711830254757   -0.00951359465553734   0.00011839982856383838
-0.0024574064934049346   -0.009561725688124988   6.380631320428346e-05
-0.0017639994616348222   -0.019100412963269118   -9.934497694300489e-06
-0.007404801752986957   -0.00962952195339883   -2.3829330402463566e-05
-0.0024574064934049346   -0.009561725688124988   6.380631320428346e-05
-0.0068634656424100705   -0.019172612950456823   -0.00020814223759924337
-0.0017639994616348222   -0.019100412963269118   -9.934497694300489e-06
-0.002532711830254757   -0.00951359465553734   0.00011839982856383838
-0.006931891334386912   -0.019089193640280427   -0.00017158579734203973
-0.0018525301498117754   -0.018999503986967498   3.6312477409032954e-05
-0.002532711830254757   -0.00951359465553734   0.00011839982856383838
-0.007404801752986957   -0.00962952195339883   -2.3829330402463566e-05
-0.006931891334386912   -0.019089193640280427   -0.00017158579734203973
-0.0074774660462440445   -0.009546220166444717   1.7134126924674007e-05
-0.0018525301498117754   -0.018999503986967498   3.6312477409032954e-05
-0.007002681099832685   -0.019002428706151528   -0.00013139616804024832
-0.0074774660462440445   -0.009546220166444717   1.7134126924674007e-05
-0.006931891334386912   -0.019089193640280427   -0.00017158579734203973
-0.0018525301498117754   -0.018999503986967498   3.6312477409032954e-05
-0.0074774660462440445   -0.009546220166444717   1.7134126924674007e-05
-0.0026317420125472266   -0.009427673868797105   0.00018470921339846702
-0.002532711830254757   -0.00951359465553734   0.00011839982856383838
-0.0018525301498117754   -0.018999503986967498   3.6312477409032954e-05
-0.0074774660462440445   -0.009546220166444717   1.7134126924674007e-05
-0.002532711830254757   -0.00951359465553734   0.00011839982856383838
-0.006931891334386912   -0.019089193640280427   -0.00017158579734203973
-0.0018525301498117754   -0.018999503986967498   3.6312477409032954e-05
-0.0026317420125472266   -0.009427673868797105   0.00018470921339846702
-0.007002681099832685   -0.019002428706151528   -0.00013139616804024832
-0.0019441196150974513   -0.018892376095708957   8.946193106314314e-05
-0.0026317420125472266   -0.009427673868797105   0.00018470921339846702
-0.0074774660462440445   -0.009546220166444717   1.7134126924674007e-05
-0.007002681099832685   -0.019002428706151528   -0.00013139616804024832
-0.0075465565207246095   -0.009454921018954072   6.231901598454271e-05
-0.0019441196150974513   -0.018892376095708957   8.946193106314314e-05
-0.007076385727209997   -0.018913879702860927   -8.684871153748845e-05
-0.0075465565207246095   -0.009454921018954072   6.231901598454271e-05
-0.007002681099832685   -0.019002428706151528   -0.00013139616804024832
-0.0019441196150974513   -0.018892376095708957   8.946193106314314e-05
-0.0075465565207246095   -0.009454921018954072   6.231901598454271e-05
-0.0027150266476863843   -0.00933532638120373   0.0002430769689317077
-0.0026317420125472266   -0.009427673868797105   0.00018470921339846702
-0.0019441196150974513   -0.018892376095708957   8.946193106314314e-05
-0.0075465565207246095   -0.009454921018954072   6.231901598454271e-05
-0.0026317420125472266   -0.009427673868797105   0.00018470921339846702
-0.007002681099832685   -0.019002428706151528   -0.00013139616804024832
-0.0068634656424100705   -0.019172612950456823   -0.00020814223759924337
-0.007335408734622669   -0.009703267060587618   -6.252194427706956e-05
-0.01198533697254696   -0.019166090786869424   -0.00035178471487474426
-0.006931891334386912   -0.019089193640280427   -0.00017158579734203973
-0.007335408734622669   -0.009703267060587618   -6.252194427706956e-05
-0.012332721171105617   -0.009813841784097804   -0.00020262596411478362
-0.01198533697254696   -0.019166090786869424   -0.00035178471487474426
-0.012395069309373527   -0.009738119374756864   -0.00017262662311406794
-0.006931891334386912   -0.019089193640280427   -0.00017158579734203973
-0.012050765436383367   -0.019092976248169292   -0.0003168813013653376
-0.012395069309373527   -0.009738119374756864   -0.00017262662311406794
-0.01198533697254696   -0.019166090786869424   -0.00035178471487474426
-0.006931891334386912   -0.019089193640280427   -0.00017158579734203973
-0.012395069309373527   -0.009738119374756864   -0.00017262662311406794
-0.007404801752986957   -0.00962952195339883   -2.3829330402463566e-05
-0.007335408734622669   -0.009703267060587618   -6.252194427706956e-05
-0.006931891334386912   -0.019089193640280427   -0.00017158579734203973
-0.012395069309373527   -0.009738119374756864   -0.00017262662311406794
-0.007335408734622669   -0.009703267060587618   -6.252194427706956e-05
-0.01198533697254696   -0.019166090786869424   -0.00035178471487474426
-0.006931891334386912   -0.019089193640280427   -0.00017158579734203973
-0.007404801752986957   -0.00962952195339883   -2.3829330402463566e-05
-0.012050765436383367   -0.019092976248169292   -0.0003168813013653376
-0.007002681099832685   -0.019002428706151528   -0.00013139616804024832
-0.007404801752986957   -0.00962952195339883   -2.3829330402463566e-05
-0.012395069309373527   -0.009738119374756864   -0.00017262662311406794
-0.012050765436383367   -0.019092976248169292   -0.0003168813013653376
-0.0124547633297426   -0.009658127691433867   -0.00014271497390013204
-0.007002681099832685   -0.019002428706151528   -0.00013139616804024832
-0.012113093784958012   -0.01901855038085519   -0.0002787998868121546
-0.0124547633297426   -0.009658127691433867   -0.00014271497390013204
-0.012050765436383367   -0.019092976248169292   -0.0003168813013653376
-0.007002681099832685   -0.019002428706151528   -0.00013139616804024832
-0.0124547633297426   -0.009658127691433867   -0.00014271497390013204
-0.0074774660462440445   -0.009546220166444717   1.7134126924674007e-05
-0.007404801752986957   -0.00962952195339883   -2.3829330402463566e-05
-0.007002681099832685   -0.019002428706151528   -0.00013139616804024832
-0.0124547633297426   -0.009658127691433867   -0.00014271497390013204
-0.007404801752986957   -0.00962952195339883   -2.3829330402463566e-05
-0.012050765436383367   -0.019092976248169292   -0.0003168813013653376
-0.007002681099832685   -0.019002428706151528   -0.00013139616804024832
-0.0074774660462440445   -0.009546220166444717   1.7134126924674007e-05
-0.012113093784958012   -0.01901855038085519   -0.0002787998868121546
-0.007076385727209997   -0.018913879702860927   -8.684871153748845e-05
-0.0074774660462440445   -0.009546220166444717   1.7134126924674007e-05
-0.0124547633297426   -0.009658127691433867   -0.00014271497390013204
-0.012113093784958012   -0.01901855038085519   -0.0002787998868121546
-0.012509799048136858   -0.009571508237437312   -0.00011013980045305808
-0.007076385727209997   -0.018913879702860927   -8.684871153748845e-05
-0.012174795860324595   -0.018942386937522575   -0.00023771965813912805
-0.012509799048136858   -0.009571508237437312   -0.00011013980045305808
-0.012113093784958012   -0.01901855038085519   -0.0002787998868121546
-0.007076385727209997   -0.018913879702860927   -8.684871153748845e-05
-0.012509799048136858   -0.009571508237437312   -0.00011013980045305808
-0.0075465565207246095   -0.009454921018954072   6.231901598454271e-05
-0.0074774660462440445   -0.009546220166444717   1.7134126924674007e-05
-0.007076385727209997   -0.018913879702860927   -8.684871153748845e-05
-0.012509799048136858   -0.009571508237437312   -0.00011013980045305808
-0.0074774660462440445   -0.009546220166444717   1.7134126924674007e-05
-0.012113093784958012   -0.01901855038085519   -0.0002787998868121546
-0.01198533697254696   -0.019166090786869424   -0.00035178471487474426
-0.012332721171105617   -0.009813841784097804   -0.00020262596411478362
-0.0172157388156477   -0.01913629355880779   -0.0004723682797023842
-0.012050765436383367   -0.019092976248169292   -0.0003168813013653376
-0.012332721171105617   -0.009813841784097804   -0.00020262596411478362
-0.017505577708341807   -0.009859225101976178   -0.00033194725372789343
-0.0172157388156477   -0.01913629355880779   -0.0004723682797023842
-0.017561753199928858   -0.009791234794706118   -0.00031006642840319606
-0.012050765436383367   -0.019092976248169292   -0.0003168813013653376
-0.017278112704345774   -0.019076757901960156   -0.0004392977444741715
-0.017561753199928858   -0.009791234794706118   -0.00031006642840319606
-0.0172157388156477   -0.01913629355880779   -0.0004723682797023842
-0.012050765436383367   -0.019092976248169292   -0.0003168813013653376
-0.017561753199928858   -0.009791234794706118   -0.00031006642840319606
-0.012395069309373527   -0.009738119374756864   -0.00017262662311406794
-0.012332721171105617   -0.009813841784097804   -0.00020262596411478362
-0.012050765436383367   -0.019092976248169292   -0.0003168813013653376
-0.017561753199928858   -0.009791234794706118   -0.00031006642840319606
-0.012332721171105617   -0.009813841784097804   -0.00020262596411478362
-0.0172157388156477   -0.01913629355880779   -0.0004723682797023842
-0.012050765436383367   -0.019092976248169292   -0.0003168813013653376
-0.012395069309373527   -0.009738119374756864   -0.00017262662311406794
-0.017278112704345774   -0.019076757901960156   -0.0004392977444741715
-0.012113093784958012   -0.01901855038085519   -0.0002787998868121546
-0.012395069309373527   -0.009738119374756864   -0.00017262662311406794
-0.017561753199928858   -0.009791234794706118   -0.00031006642840319606
-0.017278112704345774   -0.019076757901960156   -0.0004392977444741715
-0.017611812613495304   -0.009717162388882634   -0.00028880079330943363
-0.012113093784958012   -0.01901855038085519   -0.0002787998868121546
-0.01733094817452261   -0.01901396066248424   -0.000403967460911541
-0.017611812613495304   -0.009717162388882634   -0.00028880079330943363
-0.017278112704345774   -0.019076757901960156   -0.0004392977444741715
-0.012113093784958012   -0.01901855038085519   -0.0002787998868121546
-0.017611812613495304   -0.009717162388882634   -0.00028880079330943363
-0.0124547633297426   -0.009658127691433867   -0.00014271497390013204
-0.012395069309373527   -0.009738119374756864   -0.00017262662311406794
-0.012113093784958012   -0.01901855038085519   -0.0002787998868121546
-0.017611812613495304   -0.009717162388882634   -0.00028880079330943363
-0.012395069309373527   -0.009738119374756864   -0.00017262662311406794
-0.017278112704345774   -0.019076757901960156   -0.0004392977444741715
-0.012113093784958012   -0.01901855038085519   -0.0002787998868121546
-0.0124547633297426   -0.009658127691433867   -0.00014271497390013204
-0.01733094817452261   -0.01901396066248424   -0.000403967460911541
-0.012174795860324595   -0.018942386937522575   -0.00023771965813912805
-0.0124547633297426   -0.009658127691433867   -0.00014271497390013204
-0.017611812613495304   -0.009717162388882634   -0.00028880079330943363
-0.01733094817452261   -0.01901396066248424   -0.000403967460911541
-0.0176571463876526   -0.009638303622800866   -0.00026689368255561184
-0.012174795860324595   -0.018942386937522575   -0.00023771965813912805
-0.017380884652400955   -0.0189495204664624   -0.00036539602252679356
-0.0176571463876526   -0.009638303622800866   -0.00026689368255561184
-0.01733094817452261   -0.01901396066248424   -0.000403967460911541
-0.012174795860324595   -0.018942386937522575   -0.00023771965813912805
-0.0176571463876526   -0.009638303622800866   -0.00026689368255561184
-0.012509799048136858   -0.009571508237437312   -0.00011013980045305808
-0.0124547633297426   -0.009658127691433867   -0.00014271497390013204
-0.012174795860324595   -0.018942386937522575   -0.00023771965813912805
-0.0176571463876526   -0.009638303622800866   -0.00026689368255561184
-0.0124547633297426   -0.009658127691433867   -0.00014271497390013204
-0.01733094817452261   -0.01901396066248424   -0.000403967460911541
-0.0172157388156477   -0.01913629355880779   -0.0004723682797023842
-0.017505577708341807   -0.009859225101976178   -0.00033194725372789343
-0.022694889059531525   -0.01908716370889906   -0.0005614648729123055
-0.017278112704345774   -0.019076757901960156   -0.0004392977444741715
-0.017505577708341807   -0.009859225101976178   -0.00033194725372789343
-0.02286283751518609   -0.009864286950357855   -0.00043924295125003724
-0.022694889059531525   -0.01908716370889906   -0.0005614648729123055
-0.022911090277077745   -0.009798299227828001   -0.0004298267471234829
-0.017278112704345774   -0.019076757901960156   -0.0004392977444741715
-0.022733581267955657   -0.01903724015843667   -0.000536615597138554
-0.022911090277077745   -0.009798299227828001   -0.0004298267471234829
-0.022694889059531525   -0.01908716370889906   -0.0005614648729123055
-0.017278112704345774   -0.019076757901960156   -0.0004392977444741715
-0.022911090277077745   -0.009798299227828001   -0.0004298267471234829
-0.017561753199928858   -0.009791234794706118   -0.00031006642840319606
-0.017505577708341807   -0.009859225101976178   -0.00033194725372789343
-0.017278112704345774   -0.019076757901960156   -0.0004392977444741715
-0.022911090277077745   -0.009798299227828001   -0.0004298267471234829
-0.017505577708341807   -0.009859225101976178   -0.00033194725372789343
-0.022694889059531525   -0.01908716370889906   -0.0005614648729123055
-0.017278112704345774   -0.019076757901960156   -0.0004392977444741715
-0.017561753199928858   -0.009791234794706118   -0.00031006642840319606
-0.022733581267955657   -0.01903724015843667   -0.000536615597138554
-0.01733094817452261   -0.01901396066248424   -0.000403967460911541
-0.017561753199928858   -0.009791234794706118   -0.00031006642840319606
-0.022911090277077745   -0.009798299227828001   -0.0004298267471234829
-0.022733581267955657   -0.01903724015843667   -0.000536615597138554
-0.022954320542342324   -0.009726935483453655   -0.00041880985172599634
-0.01733094817452261   -0.01901396066248424   -0.000403967460911541
-0.022768960884131526   -0.018980727450545583   -0.0005062288079365575
-0.022954320542342324   -0.009726935483453655   -0.00041880985172599634
-0.022733581267955657   -0.01903724015843667   -0.000536615597138554
-0.01733094817452261   -0.01901396066248424   -0.000403967460911541
-0.022954320542342324   -0.009726935483453655   -0.00041880985172599634
-0.017611812613495304   -0.009717162388882634   -0.00028880079330943363
-0.017561753199928858   -0.009791234794706118   -0.00031006642840319606
-0.01733094817452261   -0.01901396066248424   -0.000403967460911541
-0.022954320542342324   -0.009726935483453655   -0.00041880985172599634
-0.017561753199928858   -0.009791234794706118   -0.00031006642840319606
-0.022733581267955657   -0.01903724015843667   -0.000536615597138554
-0.01733094817452261   -0.01901396066248424   -0.000403967460911541
-0.017611812613495304   -0.009717162388882634   -0.00028880079330943363
-0.022768960884131526   -0.018980727450545583   -0.0005062288079365575
-0.017380884652400955   -0.0189495204664624   -0.00036539602252679356
-0.017611812613495304   -0.009717162388882634   -0.00028880079330943363
-0.022954320542342324   -0.009726935483453655   -0.00041880985172599634
-0.022768960884131526   -0.018980727450545583   -0.0005062288079365575
-0.02299065674037311   -0.009651371486436798   -0.0004085494896461888
-0.017380884652400955   -0.0189495204664624   -0.00036539602252679356
-0.02278602488103751   -0.018928934092469825   -0.00047168543235643706
-0.02299065674037311   -0.009651371486436798   -0.0004085494896461888
-0.022768960884131526   -0.018980727450545583   -0.0005062288079365575
-0.017380884652400955   -0.0189495204664624   -0.00036539602252679356
-0.02299065674037311   -0.009651371486436798   -0.0004085494896461888
-0.0176571463876526   -0.009638303622800866   -0.00026689368255561184
-0.017611812613495304   -0.009717162388882634   -0.00028880079330943363
-0.017380884652400955   -0.0189495204664624   -0.00036539602252679356
-0.02299065674037311   -0.009651371486436798   -0.0004085494896461888
-0.017611812613495304   -0.009717162388882634   -0.00028880079330943363
-0.022768960884131526   -0.018980727450545583   -0.0005062288079365575
0.002668584527188325   -0.009687031084224086   0.00012449310675253554
0.0   0.0   0.0
-0.0024574064934049346   -0.009561725688124988   6.380631320428346e-05
0.002433826401697212   -0.009564342925650003   0.0002595831188411019
0.0   0.0   0.0
-0.003084744867363772   -0.000782514836108789   -2.5900246508427006e-05
-0.0024574064934049346   -0.009561725688124988   6.380631320428346e-05
-0.0032690587434314133   -0.0006082253915582403   8.039993742903864e-05
0.002433826401697212   -0.009564342925650003   0.0002595831188411019
-0.002532711830254757   -0.00951359465553734   0.00011839982856383838
-0.0032690587434314133   -0.0006082253915582403   8.039993742903864e-05
-0.0024574064934049346   -0.009561725688124988   6.380631320428346e-05
0.002433826401697212   -0.009564342925650003   0.0002595831188411019
-0.0032690587434314133   -0.0006082253915582403   8.039993742903864e-05
0.0   0.0   0.0
0.0   0.0   0.0
0.002433826401697212   -0.009564342925650003   0.0002595831188411019
-0.0032690587434314133   -0.0006082253915582403   8.039993742903864e-05
0.0   0.0   0.0
-0.0024574064934049346   -0.009561725688124988   6.380631320428346e-05
0.002433826401697212   -0.009564342925650003   0.0002595831188411019
0.0   0.0   0.0
-0.002532711830254757   -0.00951359465553734   0.00011839982856383838
0.0022963839069298298   -0.00946408489975992   0.0003603625372581136
0.0   0.0   0.0
-0.0032690587434314133   -0.0006082253915582403   8.039993742903864e-05
-0.002532711830254757   -0.00951359465553734   0.00011839982856383838
-0.0033847451099798358   -0.0005242452621918067   0.00014177564964579613
0.0022963839069298298   -0.00946408489975992   0.0003603625372581136
-0.0026317420125472266   -0.009427673868797105   0.00018470921339846702
-0.0033847451099798358   -0.0005242452621918067   0.00014177564964579613
-0.002532711830254757   -0.00951359465553734   0.00011839982856383838
0.0022963839069298298   -0.00946408489975992   0.0003603625372581136
-0.0033847451099798358   -0.0005242452621918067   0.00014177564964579613
0.0   0.0   0.0
0.0   0.0   0.0
0.0022963839069298298   -0.00946408489975992   0.0003603625372581136
-0.0033847451099798358   -0.0005242452621918067   0.00014177564964579613
0.0   0.0   0.0
-0.002532711830254757   -0.00951359465553734   0.00011839982856383838
0.0022963839069298298   -0.00946408489975992   0.0003603625372581136
0.0   0.0   0.0
-0.0026317420125472266   -0.009427673868797105   0.00018470921339846702
0.002120202773925229   -0.009310763629158635   0.0004757745286886763
0.0   0.0   0.0
-0.0033847451099798358   -0.0005242452621918067   0.00014177564964579613
-0.0026317420125472266   -0.009427673868797105   0.00018470921339846702
-0.0035398698724973874   -0.0004127188127294254   0.000212227335009185
0.002120202773925229   -0.009310763629158635   0.0004757745286886763
-0.0027150266476863843   -0.00933532638120373   0.0002430769689317077
-0.0035398698724973874   -0.0004127188127294254   0.000212227335009185
-0.0026317420125472266   -0.009427673868797105   0.00018470921339846702
0.002120202773925229   -0.009310763629158635   0.0004757745286886763
-0.0035398698724973874   -0.0004127188127294254   0.000212227335009185
0.0   0.0   0.0
0.0   0.0   0.0
0.002120202773925229   -0.009310763629158635   0.0004757745286886763
-0.0035398698724973874   -0.0004127188127294254   0.000212227335009185
0.0   0.0   0.0
-0.0026317420125472266   -0.009427673868797105   0.00018470921339846702
-0.0024574064934049346   -0.009561725688124988   6.380631320428346e-05
-0.003084744867363772   -0.000782514836108789   -2.5900246508427006e-05
-0.007335408734622669   -0.009703267060587618   -6.252194427706956e-05
-0.002532711830254757   -0.00951359465553734   0.00011839982856383838
-0.003084744867363772   -0.000782514836108789   -2.5900246508427006e-05
-0.007553931535572627   -0.0010251226628648746   -2.4316775106177256e-05
-0.007335408734622669   -0.009703267060587618   -6.252194427706956e-05
-0.007648921119350592   -0.0009298692152951305   2.936886049404213e-06
-0.002532711830254757   -0.00951359465553734   0.00011839982856383838
-0.007404801752986957   -0.00962952195339883   -2.3829330402463566e-05
-0.007648921119350592   -0.0009298692152951305   2.936886049404213e-06
-0.007335408734622669   -0.009703267060587618   -6.252194427706956e-05
-0.002532711830254757   -0.00951359465553734   0.00011839982856383838
-0.007648921119350592   -0.0009298692152951305   2.936886049404213e-06
-0.0032690587434314133   -0.0006082253915582403   8.039993742903864e-05
-0.003084744867363772   -0.000782514836108789   -2.5900246508427006e-05
-0.002532711830254757   -0.00951359465553734   0.00011839982856383838
-0.007648921119350592   -0.0009298692152951305   2.936886049404213e-06
-0.003084744867363772   -0.000782514836108789   -2.5900246508427006e-05
-0.007335408734622669   -0.009703267060587618   -6.252194427706956e-05
-0.002532711830254757   -0.00951359465553734   0.00011839982856383838
-0.0032690587434314133   -0.0006082253915582403   8.039993742903864e-05
-0.007404801752986957   -0.00962952195339883   -2.3829330402463566e-05
-0.0026317420125472266   -0.009427673868797105   0.00018470921339846702
-0.0032690587434314133   -0.0006082253915582403   8.039993742903864e-05
-0.007648921119350592   -0.0009298692152951305   2.936886049404213e-06
-0.007404801752986957   -0.00962952195339883   -2.3829330402463566e-05
-0.007743515830897495   -0.0008184187857009153   5.1752040015597635e-05
-0.0026317420125472266   -0.009427673868797105   0.00018470921339846702
-0.0074774660462440445   -0.009546220166444717   1.7134126924674007e-05
-0.007743515830897495   -0.0008184187857009153   5.1752040015597635e-05
-0.007404801752986957   -0.00962952195339883   -2.3829330402463566e-05
-0.0026317420125472266   -0.009427673868797105   0.00018470921339846702
-0.007743515830897495   -0.0008184187857009153   5.1752040015597635e-05
-0.0033847451099798358   -0.0005242452621918067   0.00014177564964579613
-0.0032690587434314133   -0.0006082253915582403   8.039993742903864e-05
-0.0026317420125472266   -0.009427673868797105   0.00018470921339846702
-0.007743515830897495   -0.0008184187857009153   5.1752040015597635e-05
-0.0032690587434314133   -0.0006082253915582403   8.039993742903864e-05
-0.007404801752986957   -0.00962952195339883   -2.3829330402463566e-05
-0.0026317420125472266   -0.009427673868797105   0.00018470921339846702
-0.0033847451099798358   -0.0005242452621918067   0.00014177564964579613
-0.0074774660462440445   -0.009546220166444717   1.7134126924674007e-05
-0.0027150266476863843   -0.00933532638120373   0.0002430769689317077
-0.0033847451099798358   -0.0005242452621918067   0.00014177564964579613
-0.007743515830897495   -0.0008184187857009153   5.1752040015597635e-05
-0.0074774660462440445   -0.009546220166444717   1.7134126924674007e-05
-0.007848281051123718   -0.0006895651857332384   9.849436794947077e-05
-0.0027150266476863843   -0.00933532638120373   0.0002430769689317077
-0.0075465565207246095   -0.009454921018954072   6.231901598454271e-05
-0.007848281051123718   -0.0006895651857332384   9.849436794947077e-05
-0.0074774660462440445   -0.009546220166444717   1.7134126924674007e-05
-0.0027150266476863843   -0.00933532638120373   0.0002430769689317077
-0.007848281051123718   -0.0006895651857332384   9.849436794947077e-05
-0.0035398698724973874   -0.0004127188127294254   0.000212227335009185
-0.0033847451099798358   -0.0005242452621918067   0.00014177564964579613
-0.0027150266476863843   -0.00933532638120373   0.0002430769689317077
-0.007848281051123718   -0.0006895651857332384   9.849436794947077e-05
-0.0033847451099798358   -0.0005242452621918067   0.00014177564964579613
-0.0074774660462440445   -0.009546220166444717   1.7134126924674007e-05
-0.007335408734622669   -0.009703267060587618   -6.252194427706956e-05
-0.007553931535572627   -0.0010251226628648746   -2.4316775106177256e-05
-0.012332721171105617   -0.009813841784097804   -0.00020262596411478362
-0.007404801752986957   -0.00962952195339883   -2.3829330402463566e-05
-0.007553931535572627   -0.0010251226628648746   -2.4316775106177256e-05
-0.012454643667776242   -0.0010929197349551353   -0.00011297827984333259
-0.012332721171105617   -0.009813841784097804   -0.00020262596411478362
-0.012512266561179033   -0.0010186072512773574   -0.00010545434098238328
-0.007404801752986957   -0.00962952195339883   -2.3829330402463566e-05
-0.012395069309373527   -0.009738119374756864   -0.00017262662311406794
-0.012512266561179033   -0.0010186072512773574   -0.00010545434098238328
-0.012332721171105617   -0.009813841784097804   -0.00020262596411478362
-0.007404801752986957   -0.00962952195339883   -2.3829330402463566e-05
-0.012512266561179033   -0.0010186072512773574   -0.00010545434098238328
-0.007648921119350592   -0.0009298692152951305   2.936886049404213e-06
-0.007553931535572627   -0.0010251226628648746   -2.4316775106177256e-05
-0.007404801752986957   -0.00962952195339883   -2.3829330402463566e-05
-0.012512266561179033   -0.0010186072512773574   -0.00010545434098238328
-0.007553931535572627   -0.0010251226628648746   -2.4316775106177256e-05
-0.012332721171105617   -0.009813841784097804   -0.00020262596411478362
-0.007404801752986957   -0.00962952195339883   -2.3829330402463566e-05
-0.007648921119350592   -0.0009298692152951305   2.936886049404213e-06
-0.012395069309373527   -0.009738119374756864   -0.00017262662311406794
-0.0074774660462440445   -0.009546220166444717   1.7134126924674007e-05
-0.007648921119350592   -0.0009298692152951305   2.936886049404213e-06
-0.012512266561179033   -0.0010186072512773574   -0.00010545434098238328
-0.012395069309373527   -0.009738119374756864   -0.00017262662311406794
-0.012572181341294642   -0.0009323740212603684   -9.223561834686521e-05
-0.0074774660462440445   -0.009546220166444717   1.7134126924674007e-05
-0.0124547633297426   -0.009658127691433867   -0.00014271497390013204
-0.012572181341294642   -0.0009323740212603684   -9.223561834686521e-05
-0.012395069309373527   -0.009738119374756864   -0.00017262662311406794
-0.0074774660462440445   -0.009546220166444717   1.7134126924674007e-05
-0.012572181341294642   -0.0009323740212603684   -9.223561834686521e-05
-0.007743515830897495   -0.0008184187857009153   5.1752040015597635e-05
-0.007648921119350592   -0.0009298692152951305   2.936886049404213e-06
-0.0074774660462440445   -0.009546220166444717   1.7134126924674007e-05
-0.012572181341294642   -0.0009323740212603684   -9.223561834686521e-05
-0.007648921119350592   -0.0009298692152951305   2.936886049404213e-06
-0.012395069309373527   -0.009738119374756864   -0.00017262662311406794
-0.0074774660462440445   -0.009546220166444717   1.7134126924674007e-05
-0.007743515830897495   -0.0008184187857009153   5.1752040015597635e-05
-0.0124547633297426   -0.009658127691433867   -0.00014271497390013204
-0.0075465565207246095   -0.009454921018954072   6.231901598454271e-05
-0.007743515830897495   -0.0008184187857009153   5.1752040015597635e-05
-0.012572181341294642   -0.0009323740212603684   -9.223561834686521e-05
-0.0124547633297426   -0.009658127691433867   -0.00014271497390013204
-0.012629044022886494   -0.0008274839626827336   -7.474565389436588e-05
-0.0075465565207246095   -0.009454921018954072   6.231901598454271e-05
-0.012509799048136858   -0.009571508237437312   -0.00011013980045305808
-0.012629044022886494   -0.0008274839626827336   -7.474565389436588e-05
-0.0124547633297426   -0.009658127691433867   -0.00014271497390013204
-0.0075465565207246095   -0.009454921018954072   6.231901598454271e-05
-0.012629044022886494   -0.0008274839626827336   -7.474565389436588e-05
-0.007848281051123718   -0.0006895651857332384   9.849436794947077e-05
-0.007743515830897495   -0.0008184187857009153   5.1752040015597635e-05
-0.0075465565207246095   -0.009454921018954072   6.231901598454271e-05
-0.012629044022886494   -0.0008274839626827336   -7.474565389436588e-05
-0.007743515830897495   -0.0008184187857009153   5.1752040015597635e-05
-0.0124547633297426   -0.009658127691433867   -0.00014271497390013204
-0.012332721171105617   -0.009813841784097804   -0.00020262596411478362
-0.012454643667776242   -0.0010929197349551353   -0.00011297827984333259
-0.017505577708341807   -0.009859225101976178   -0.00033194725372789343
-0.012395069309373527   -0.009738119374756864   -0.00017262662311406794
-0.012454643667776242   -0.0010929197349551353   -0.00011297827984333259
-0.01759615764776365   -0.001081272791280387   -0.00024040901265738642
-0.017505577708341807   -0.009859225101976178   -0.00033194725372789343
-0.01763507424903076   -0.0010144686976866152   -0.00023719157605082524
-0.012395069309373527   -0.009738119374756864   -0.00017262662311406794
-0.017561753199928858   -0.009791234794706118   -0.00031006642840319606
-0.01763507424903076   -0.0010144686976866152   -0.00023719157605082524
-0.017505577708341807   -0.009859225101976178   -0.00033194725372789343
-0.012395069309373527   -0.009738119374756864   -0.00017262662311406794
-0.01763507424903076   -0.0010144686976866152   -0.00023719157605082524
-0.012512266561179033   -0.0010186072512773574   -0.00010545434098238328
-0.012454643667776242   -0.0010929197349551353   -0.00011297827984333259
-0.012395069309373527   -0.009738119374756864   -0.00017262662311406794
-0.01763507424903076   -0.0010144686976866152   -0.00023719157605082524
-0.012454643667776242   -0.0010929197349551353   -0.00011297827984333259
-0.017505577708341807   -0.009859225101976178   -0.00033194725372789343
-0.012395069309373527   -0.009738119374756864   -0.00017262662311406794
-0.012512266561179033   -0.0010186072512773574   -0.00010545434098238328
-0.017561753199928858   -0.009791234794706118   -0.00031006642840319606
-0.0124547633297426   -0.009658127691433867   -0.00014271497390013204
-0.012512266561179033   -0.0010186072512773574   -0.00010545434098238328
-0.01763507424903076   -0.0010144686976866152   -0.00023719157605082524
-0.017561753199928858   -0.009791234794706118   -0.00031006642840319606
-0.01767567630374615   -0.0009401291197566558   -0.00023497472994583445
-0.0124547633297426   -0.009658127691433867   -0.00014271497390013204
-0.017611812613495304   -0.009717162388882634   -0.00028880079330943363
-0.01767567630374615   -0.0009401291197566558   -0.00023497472994583445
-0.017561753199928858   -0.009791234794706118   -0.00031006642840319606
-0.0124547633297426   -0.009658127691433867   -0.00014271497390013204
-0.01767567630374615   -0.0009401291197566558   -0.00023497472994583445
-0.012572181341294642   -0.0009323740212603684   -9.223561834686521e-05
-0.012512266561179033   -0.0010186072512773574   -0.00010545434098238328
-0.0124547633297426   -0.009658127691433867   -0.00014271497390013204
-0.01767567630374615   -0.0009401291197566558   -0.00023497472994583445
-0.012512266561179033   -0.0010186072512773574   -0.00010545434098238328
-0.017561753199928858   -0.009791234794706118   -0.00031006642840319606
-0.0124547633297426   -0.009658127691433867   -0.00014271497390013204
-0.012572181341294642   -0.0009323740212603684   -9.223561834686521e-05
-0.017611812613495304   -0.009717162388882634   -0.00028880079330943363
-0.012509799048136858   -0.009571508237437312   -0.00011013980045305808
-0.012572181341294642   -0.0009323740212603684   -9.223561834686521e-05
-0.01767567630374615   -0.0009401291197566558   -0.00023497472994583445
-0.017611812613495304   -0.009717162388882634   -0.00028880079330943363
-0.017706505501484417   -0.0008596557536496415   -0.0002339333170156317
-0.012509799048136858   -0.009571508237437312   -0.00011013980045305808
-0.0176571463876526   -0.009638303622800866   -0.00026689368255561184
-0.017706505501484417   -0.0008596557536496415   -0.0002339333170156317
-0.017611812613495304   -0.009717162388882634   -0.00028880079330943363
-0.012509799048136858   -0.009571508237437312   -0.00011013980045305808
-0.017706505501484417   -0.0008596557536496415   -0.0002339333170156317
-0.012629044022886494   -0.0008274839626827336   -7.474565389436588e-05
-0.012572181341294642   -0.0009323740212603684   -9.223561834686521e-05
-0.012509799048136858   -0.009571508237437312   -0.00011013980045305808
-0.017706505501484417   -0.0008596557536496415   -0.0002339333170156317
-0.012572181341294642   -0.0009323740212603684   -9.223561834686521e-05
-0.017611812613495304   -0.009717162388882634   -0.00028880079330943363
-0.017505577708341807   -0.009859225101976178   -0.00033194725372789343
-0.01759615764776365   -0.001081272791280387   -0.00024040901265738642
-0.02286283751518609   -0.009864286950357855   -0.00043924295125003724
-0.017561753199928858   -0.009791234794706118   -0.00031006642840319606
-0.01759615764776365   -0.001081272791280387   -0.00024040901265738642
-0.022879729074178696   -0.001073501137688178   -0.00036585028363133866
-0.02286283751518609   -0.009864286950357855   -0.00043924295125003724
-0.022911035597149434   -0.0010010275462312259   -0.0003657973383365547
-0.017561753199928858   -0.009791234794706118   -0.00031006642840319606
-0.022911090277077745   -0.009798299227828001   -0.0004298267471234829
-0.022911035597149434   -0.0010010275462312259   -0.0003657973383365547
-0.02286283751518609   -0.009864286950357855   -0.00043924295125003724
-0.017561753199928858   -0.009791234794706118   -0.00031006642840319606
-0.022911035597149434   -0.0010010275462312259   -0.0003657973383365547
-0.01763507424903076   -0.0010144686976866152   -0.00023719157605082524
-0.01759615764776365   -0.001081272791280387   -0.00024040901265738642
-0.017561753199928858   -0.009791234794706118   -0.00031006642840319606
-0.022911035597149434   -0.0010010275462312259   -0.0003657973383365547
-0.01759615764776365   -0.001081272791280387   -0.00024040901265738642
-0.02286283751518609   -0.009864286950357855   -0.00043924295125003724
-0.017561753199928858   -0.009791234794706118   -0.00031006642840319606
-0.01763507424903076   -0.0010144686976866152   -0.00023719157605082524
-0.022911090277077745   -0.009798299227828001   -0.0004298267471234829
-0.017611812613495304   -0.009717162388882634   -0.00028880079330943363
-0.01763507424903076   -0.0010144686976866152   -0.00023719157605082524
-0.022911035597149434   -0.0010010275462312259   -0.0003657973383365547
-0.022911090277077745   -0.009798299227828001   -0.0004298267471234829
-0.022945402948280173   -0.0009286367138959579   -0.00037139887467639213
-0.017611812613495304   -0.009717162388882634   -0.00028880079330943363
-0.022954320542342324   -0.009726935483453655   -0.00041880985172599634
-0.022945402948280173   -0.0009286367138959579   -0.00037139887467639213
-0.022911090277077745   -0.009798299227828001   -0.0004298267471234829
-0.017611812613495304   -0.009717162388882634   -0.00028880079330943363
-0.022945402948280173   -0.0009286367138959579   -0.00037139887467639213
-0.01767567630374615   -0.0009401291197566558   -0.00023497472994583445
-0.01763507424903076   -0.0010144686976866152   -0.00023719157605082524
-0.017611812613495304   -0.009717162388882634   -0.00028880079330943363
-0.022945402948280173   -0.0009286367138959579   -0.00037139887467639213
-0.01763507424903076   -0.0010144686976866152   -0.00023719157605082524
-0.022911090277077745   -0.009798299227828001   -0.0004298267471234829
-0.017611812613495304   -0.009717162388882634   -0.00028880079330943363
-0.01767567630374615   -0.0009401291197566558   -0.00023497472994583445
-0.022954320542342324   -0.009726935483453655   -0.00041880985172599634
-0.0176571463876526   -0.009638303622800866   -0.00026689368255561184
-0.01767567630374615   -0.0009401291197566558   -0.00023497472994583445
-0.022945402948280173   -0.0009286367138959579   -0.00037139887467639213
-0.022954320542342324   -0.009726935483453655   -0.00041880985172599634
-0.022970719512611922   -0.0008498313758038081   -0.00037735730436658634
-0.0176571463876526   -0.009638303622800866   -0.00026689368255561184
-0.02299065674037311   -0.009651371486436798   -0.0004085494896461888
-0.022970719512611922   -0.0008498313758038081   -0.00037735730436658634
-0.022954320542342324   -0.009726935483453655   -0.00041880985172599634
-0.0176571463876526   -0.009638303622800866   -0.00026689368255561184
-0.022970719512611922   -0.0008498313758038081   -0.00037735730436658634
-0.017706505501484417   -0.0008596557536496415   -0.0002339333170156317
-0.01767567630374615   -0.0009401291197566558   -0.00023497472994583445
-0.0176571463876526   -0.009638303622800866   -0.00026689368255561184
-0.022970719512611922   -0.0008498313758038081   -0.00037735730436658634
-0.01767567630374615   -0.0009401291197566558   -0.00023497472994583445
-0.022954320542342324   -0.009726935483453655   -0.00041880985172599634
              </DataArray>   
          </PointData>  
       </Piece>  
   </UnstructuredGrid> 
</VTKFile> 
